Mg2 F4                                  
   1.00000000000000     
     1.9694440000000000    5.2293240000000001    0.0000000000000000
    -1.9694440000000000    5.2293240000000001    0.0000000000000000
     0.0000000000000000    4.2434289999999999    5.2669020000000000
   Mg   F 
     2     4
Direct
     0.8954030000000017    0.8954030000000017    0.8491330000000019
     0.1045969999999983    0.1045969999999983    0.1508669999999981
     0.6487989999999968    0.6487989999999968    0.1040550000000025
     0.0000000000000000    0.0000000000000000    0.5000000000000000
     0.3512010000000032    0.3512010000000032    0.8959449999999975
     0.0000000000000000    0.0000000000000000    0.0000000000000000
 
  0.00000000E+00  0.00000000E+00  0.00000000E+00
  0.00000000E+00  0.00000000E+00  0.00000000E+00
  0.00000000E+00  0.00000000E+00  0.00000000E+00
  0.00000000E+00  0.00000000E+00  0.00000000E+00
  0.00000000E+00  0.00000000E+00  0.00000000E+00
  0.00000000E+00  0.00000000E+00  0.00000000E+00
