       N       E                     dE             d eps       ncg     rms          rms(c)
DAV:   1     0.438013003312E+03    0.43801E+03   -0.29154E+04 10056   0.196E+03
DAV:   2    -0.113907329762E+02   -0.44940E+03   -0.44477E+03 11336   0.485E+02
DAV:   3    -0.339940676029E+02   -0.22603E+02   -0.22591E+02  9328   0.124E+02
DAV:   4    -0.342469414734E+02   -0.25287E+00   -0.25280E+00 10632   0.141E+01
DAV:   5    -0.342497864936E+02   -0.28450E-02   -0.28449E-02  9504   0.145E+00    0.109E+01
DAV:   6    -0.308221233770E+02    0.34277E+01   -0.17561E+01  8720   0.262E+01    0.351E+00
DAV:   7    -0.307961156321E+02    0.26008E-01   -0.20600E-01  9744   0.367E+00    0.211E+00
DAV:   8    -0.308012774772E+02   -0.51618E-02   -0.83284E-02  9400   0.318E+00    0.233E-01
DAV:   9    -0.308050487329E+02   -0.37713E-02   -0.34509E-03 10160   0.486E-01    0.149E-01
DAV:  10    -0.308079046132E+02   -0.28559E-02   -0.37474E-03  8672   0.443E-01    0.102E-01
DAV:  11    -0.308077944978E+02    0.11012E-03   -0.74380E-04 10752   0.270E-01    0.335E-02
DAV:  12    -0.308078583490E+02   -0.63851E-04   -0.44782E-04  8792   0.181E-01    0.343E-02
DAV:  13    -0.308078364392E+02    0.21910E-04   -0.17978E-04  9320   0.124E-01    0.994E-03
DAV:  14    -0.308078333932E+02    0.30460E-05   -0.16257E-05  8328   0.393E-02    0.190E-03
DAV:  15    -0.308078334334E+02   -0.40167E-07   -0.21611E-06  9184   0.102E-02
   1 F= -.30807833E+02 E0= -.30807833E+02  d E =-.665326E-14
