   2   2   0   0
  0.2267983E+03  0.8717921E-09  0.8717921E-09  0.6353843E-09  0.5000000E-15
  1.000000000000000E-004
  CAR 
 unknown system                          
      3.36451542    -32.10460675  301     -3.89507856      1.00000000
    -32.105  0.0000E+00  0.0000E+00
    -31.986  0.0000E+00  0.0000E+00
    -31.868  0.0000E+00  0.0000E+00
    -31.750  0.0000E+00  0.0000E+00
    -31.632  0.0000E+00  0.0000E+00
    -31.513  0.0000E+00  0.0000E+00
    -31.395  0.0000E+00  0.0000E+00
    -31.277  0.0000E+00  0.0000E+00
    -31.159  0.0000E+00  0.0000E+00
    -31.041  0.0000E+00  0.0000E+00
    -30.922  0.0000E+00  0.0000E+00
    -30.804  0.0000E+00  0.0000E+00
    -30.686  0.3695E-06  0.4369E-07
    -30.568  0.2797E+00  0.3307E-01
    -30.449  0.1473E+02  0.1775E+01
    -30.331  0.1905E+01  0.2000E+01
    -30.213  0.4391E-04  0.2000E+01
    -30.095  0.2301E-13  0.2000E+01
    -29.976  0.0000E+00  0.2000E+01
    -29.858  0.0000E+00  0.2000E+01
    -29.740  0.0000E+00  0.2000E+01
    -29.622  0.0000E+00  0.2000E+01
    -29.504  0.0000E+00  0.2000E+01
    -29.385  0.0000E+00  0.2000E+01
    -29.267  0.0000E+00  0.2000E+01
    -29.149  0.0000E+00  0.2000E+01
    -29.031  0.0000E+00  0.2000E+01
    -28.912  0.0000E+00  0.2000E+01
    -28.794  0.0000E+00  0.2000E+01
    -28.676  0.0000E+00  0.2000E+01
    -28.558  0.0000E+00  0.2000E+01
    -28.439  0.0000E+00  0.2000E+01
    -28.321  0.0000E+00  0.2000E+01
    -28.203  0.0000E+00  0.2000E+01
    -28.085  0.0000E+00  0.2000E+01
    -27.967  0.0000E+00  0.2000E+01
    -27.848  0.0000E+00  0.2000E+01
    -27.730  0.0000E+00  0.2000E+01
    -27.612  0.0000E+00  0.2000E+01
    -27.494  0.0000E+00  0.2000E+01
    -27.375  0.0000E+00  0.2000E+01
    -27.257  0.0000E+00  0.2000E+01
    -27.139  0.0000E+00  0.2000E+01
    -27.021  0.0000E+00  0.2000E+01
    -26.902  0.0000E+00  0.2000E+01
    -26.784  0.0000E+00  0.2000E+01
    -26.666  0.0000E+00  0.2000E+01
    -26.548  0.0000E+00  0.2000E+01
    -26.430  0.0000E+00  0.2000E+01
    -26.311  0.0000E+00  0.2000E+01
    -26.193  0.0000E+00  0.2000E+01
    -26.075  0.0000E+00  0.2000E+01
    -25.957  0.0000E+00  0.2000E+01
    -25.838  0.0000E+00  0.2000E+01
    -25.720  0.0000E+00  0.2000E+01
    -25.602  0.0000E+00  0.2000E+01
    -25.484  0.0000E+00  0.2000E+01
    -25.365  0.0000E+00  0.2000E+01
    -25.247  0.0000E+00  0.2000E+01
    -25.129  0.0000E+00  0.2000E+01
    -25.011  0.0000E+00  0.2000E+01
    -24.893  0.0000E+00  0.2000E+01
    -24.774  0.0000E+00  0.2000E+01
    -24.656  0.0000E+00  0.2000E+01
    -24.538  0.0000E+00  0.2000E+01
    -24.420  0.0000E+00  0.2000E+01
    -24.301  0.0000E+00  0.2000E+01
    -24.183  0.0000E+00  0.2000E+01
    -24.065  0.0000E+00  0.2000E+01
    -23.947  0.0000E+00  0.2000E+01
    -23.828  0.0000E+00  0.2000E+01
    -23.710  0.0000E+00  0.2000E+01
    -23.592  0.0000E+00  0.2000E+01
    -23.474  0.0000E+00  0.2000E+01
    -23.356  0.0000E+00  0.2000E+01
    -23.237  0.0000E+00  0.2000E+01
    -23.119  0.0000E+00  0.2000E+01
    -23.001  0.0000E+00  0.2000E+01
    -22.883  0.0000E+00  0.2000E+01
    -22.764  0.0000E+00  0.2000E+01
    -22.646  0.0000E+00  0.2000E+01
    -22.528  0.0000E+00  0.2000E+01
    -22.410  0.0000E+00  0.2000E+01
    -22.291  0.0000E+00  0.2000E+01
    -22.173  0.0000E+00  0.2000E+01
    -22.055  0.0000E+00  0.2000E+01
    -21.937  0.0000E+00  0.2000E+01
    -21.819  0.0000E+00  0.2000E+01
    -21.700  0.0000E+00  0.2000E+01
    -21.582  0.0000E+00  0.2000E+01
    -21.464  0.0000E+00  0.2000E+01
    -21.346  0.0000E+00  0.2000E+01
    -21.227  0.0000E+00  0.2000E+01
    -21.109  0.0000E+00  0.2000E+01
    -20.991  0.0000E+00  0.2000E+01
    -20.873  0.0000E+00  0.2000E+01
    -20.754  0.0000E+00  0.2000E+01
    -20.636  0.0000E+00  0.2000E+01
    -20.518  0.0000E+00  0.2000E+01
    -20.400  0.0000E+00  0.2000E+01
    -20.282  0.0000E+00  0.2000E+01
    -20.163  0.0000E+00  0.2000E+01
    -20.045  0.0000E+00  0.2000E+01
    -19.927  0.0000E+00  0.2000E+01
    -19.809  0.0000E+00  0.2000E+01
    -19.690  0.0000E+00  0.2000E+01
    -19.572  0.0000E+00  0.2000E+01
    -19.454  0.0000E+00  0.2000E+01
    -19.336  0.0000E+00  0.2000E+01
    -19.217  0.0000E+00  0.2000E+01
    -19.099  0.0000E+00  0.2000E+01
    -18.981  0.0000E+00  0.2000E+01
    -18.863  0.0000E+00  0.2000E+01
    -18.745  0.0000E+00  0.2000E+01
    -18.626  0.0000E+00  0.2000E+01
    -18.508  0.0000E+00  0.2000E+01
    -18.390  0.0000E+00  0.2000E+01
    -18.272  0.0000E+00  0.2000E+01
    -18.153  0.0000E+00  0.2000E+01
    -18.035  0.0000E+00  0.2000E+01
    -17.917  0.0000E+00  0.2000E+01
    -17.799  0.0000E+00  0.2000E+01
    -17.680  0.0000E+00  0.2000E+01
    -17.562  0.0000E+00  0.2000E+01
    -17.444  0.0000E+00  0.2000E+01
    -17.326  0.0000E+00  0.2000E+01
    -17.208  0.0000E+00  0.2000E+01
    -17.089  0.0000E+00  0.2000E+01
    -16.971  0.0000E+00  0.2000E+01
    -16.853  0.0000E+00  0.2000E+01
    -16.735  0.0000E+00  0.2000E+01
    -16.616  0.0000E+00  0.2000E+01
    -16.498  0.0000E+00  0.2000E+01
    -16.380  0.0000E+00  0.2000E+01
    -16.262  0.0000E+00  0.2000E+01
    -16.144  0.0000E+00  0.2000E+01
    -16.025  0.0000E+00  0.2000E+01
    -15.907  0.0000E+00  0.2000E+01
    -15.789  0.0000E+00  0.2000E+01
    -15.671  0.0000E+00  0.2000E+01
    -15.552  0.0000E+00  0.2000E+01
    -15.434  0.0000E+00  0.2000E+01
    -15.316  0.0000E+00  0.2000E+01
    -15.198  0.0000E+00  0.2000E+01
    -15.079  0.1152E-11  0.2000E+01
    -14.961  0.2305E-03  0.2000E+01
    -14.843  0.1267E+01  0.2150E+01
    -14.725  0.5095E+01  0.2752E+01
    -14.607  0.3738E+02  0.7172E+01
    -14.488  0.4522E+01  0.7707E+01
    -14.370  0.2476E+01  0.8000E+01
    -14.252  0.3748E-02  0.8000E+01
    -14.134  0.2073E-09  0.8000E+01
    -14.015  0.2076E-07  0.8000E+01
    -13.897  0.3565E-01  0.8004E+01
    -13.779  0.3475E+01  0.8415E+01
    -13.661  0.7209E+00  0.8500E+01
    -13.542  0.3753E+01  0.8944E+01
    -13.424  0.4713E+01  0.9501E+01
    -13.306  0.3165E+01  0.9875E+01
    -13.188  0.1054E+01  0.1000E+02
    -13.070  0.1225E-03  0.1000E+02
    -12.951  0.3744E-12  0.1000E+02
    -12.833  0.0000E+00  0.1000E+02
    -12.715  0.0000E+00  0.1000E+02
    -12.597  0.0000E+00  0.1000E+02
    -12.478  0.0000E+00  0.1000E+02
    -12.360  0.0000E+00  0.1000E+02
    -12.242  0.0000E+00  0.1000E+02
    -12.124  0.0000E+00  0.1000E+02
    -12.005  0.0000E+00  0.1000E+02
    -11.887  0.0000E+00  0.1000E+02
    -11.769  0.0000E+00  0.1000E+02
    -11.651  0.0000E+00  0.1000E+02
    -11.533  0.0000E+00  0.1000E+02
    -11.414  0.0000E+00  0.1000E+02
    -11.296  0.0000E+00  0.1000E+02
    -11.178  0.0000E+00  0.1000E+02
    -11.060  0.0000E+00  0.1000E+02
    -10.941  0.0000E+00  0.1000E+02
    -10.823  0.0000E+00  0.1000E+02
    -10.705  0.0000E+00  0.1000E+02
    -10.587  0.0000E+00  0.1000E+02
    -10.468  0.0000E+00  0.1000E+02
    -10.350  0.0000E+00  0.1000E+02
    -10.232  0.0000E+00  0.1000E+02
    -10.114  0.0000E+00  0.1000E+02
     -9.996  0.0000E+00  0.1000E+02
     -9.877  0.0000E+00  0.1000E+02
     -9.759  0.0000E+00  0.1000E+02
     -9.641  0.0000E+00  0.1000E+02
     -9.523  0.0000E+00  0.1000E+02
     -9.404  0.0000E+00  0.1000E+02
     -9.286  0.0000E+00  0.1000E+02
     -9.168  0.0000E+00  0.1000E+02
     -9.050  0.0000E+00  0.1000E+02
     -8.931  0.0000E+00  0.1000E+02
     -8.813  0.0000E+00  0.1000E+02
     -8.695  0.0000E+00  0.1000E+02
     -8.577  0.0000E+00  0.1000E+02
     -8.459  0.0000E+00  0.1000E+02
     -8.340  0.0000E+00  0.1000E+02
     -8.222  0.0000E+00  0.1000E+02
     -8.104  0.0000E+00  0.1000E+02
     -7.986  0.0000E+00  0.1000E+02
     -7.867  0.0000E+00  0.1000E+02
     -7.749  0.0000E+00  0.1000E+02
     -7.631  0.0000E+00  0.1000E+02
     -7.513  0.0000E+00  0.1000E+02
     -7.394  0.0000E+00  0.1000E+02
     -7.276  0.0000E+00  0.1000E+02
     -7.158  0.0000E+00  0.1000E+02
     -7.040  0.0000E+00  0.1000E+02
     -6.922  0.0000E+00  0.1000E+02
     -6.803  0.0000E+00  0.1000E+02
     -6.685  0.0000E+00  0.1000E+02
     -6.567  0.0000E+00  0.1000E+02
     -6.449  0.0000E+00  0.1000E+02
     -6.330  0.0000E+00  0.1000E+02
     -6.212  0.0000E+00  0.1000E+02
     -6.094  0.0000E+00  0.1000E+02
     -5.976  0.0000E+00  0.1000E+02
     -5.857  0.0000E+00  0.1000E+02
     -5.739  0.0000E+00  0.1000E+02
     -5.621  0.0000E+00  0.1000E+02
     -5.503  0.0000E+00  0.1000E+02
     -5.385  0.0000E+00  0.1000E+02
     -5.266  0.0000E+00  0.1000E+02
     -5.148  0.0000E+00  0.1000E+02
     -5.030  0.0000E+00  0.1000E+02
     -4.912  0.0000E+00  0.1000E+02
     -4.793  0.1132E-08  0.1000E+02
     -4.675  0.8835E-02  0.1000E+02
     -4.557  0.2885E+01  0.1034E+02
     -4.439  0.1335E+01  0.1050E+02
     -4.320  0.1935E+00  0.1052E+02
     -4.202  0.7511E+01  0.1141E+02
     -4.084  0.7570E+00  0.1150E+02
     -3.966  0.7445E+01  0.1238E+02
     -3.848  0.2943E+02  0.1586E+02
     -3.729  0.1182E+01  0.1600E+02
     -3.611  0.2369E-04  0.1600E+02
     -3.493  0.1649E-13  0.1600E+02
     -3.375  0.0000E+00  0.1600E+02
     -3.256  0.0000E+00  0.1600E+02
     -3.138  0.0000E+00  0.1600E+02
     -3.020  0.0000E+00  0.1600E+02
     -2.902  0.0000E+00  0.1600E+02
     -2.783  0.0000E+00  0.1600E+02
     -2.665  0.0000E+00  0.1600E+02
     -2.547  0.0000E+00  0.1600E+02
     -2.429  0.0000E+00  0.1600E+02
     -2.311  0.0000E+00  0.1600E+02
     -2.192  0.0000E+00  0.1600E+02
     -2.074  0.0000E+00  0.1600E+02
     -1.956  0.0000E+00  0.1600E+02
     -1.838  0.0000E+00  0.1600E+02
     -1.719  0.0000E+00  0.1600E+02
     -1.601  0.0000E+00  0.1600E+02
     -1.483  0.0000E+00  0.1600E+02
     -1.365  0.0000E+00  0.1600E+02
     -1.246  0.0000E+00  0.1600E+02
     -1.128  0.0000E+00  0.1600E+02
     -1.010  0.4869E-09  0.1600E+02
     -0.892  0.1903E-02  0.1600E+02
     -0.774  0.3537E+00  0.1604E+02
     -0.655  0.1723E+00  0.1606E+02
     -0.537  0.1867E+01  0.1628E+02
     -0.419  0.1824E+01  0.1650E+02
     -0.301  0.2844E+01  0.1684E+02
     -0.182  0.2982E+01  0.1719E+02
     -0.064  0.1708E+01  0.1739E+02
      0.054  0.1564E+01  0.1757E+02
      0.172  0.2318E+01  0.1785E+02
      0.291  0.1252E+01  0.1800E+02
      0.409  0.3326E-01  0.1800E+02
      0.527  0.1887E+01  0.1822E+02
      0.645  0.3599E+01  0.1865E+02
      0.763  0.4130E+01  0.1914E+02
      0.882  0.4534E+01  0.1967E+02
      1.000  0.3528E+01  0.2009E+02
      1.118  0.6023E+01  0.2080E+02
      1.236  0.4294E+01  0.2131E+02
      1.355  0.5237E+01  0.2193E+02
      1.473  0.4880E+01  0.2251E+02
      1.591  0.2443E+01  0.2280E+02
      1.709  0.6364E+01  0.2355E+02
      1.828  0.3801E+01  0.2400E+02
      1.946  0.2408E-01  0.2400E+02
      2.064  0.2353E-07  0.2400E+02
      2.182  0.0000E+00  0.2400E+02
      2.300  0.0000E+00  0.2400E+02
      2.419  0.0000E+00  0.2400E+02
      2.537  0.0000E+00  0.2400E+02
      2.655  0.0000E+00  0.2400E+02
      2.773  0.0000E+00  0.2400E+02
      2.892  0.0000E+00  0.2400E+02
      3.010  0.0000E+00  0.2400E+02
      3.128  0.0000E+00  0.2400E+02
      3.246  0.0000E+00  0.2400E+02
      3.365  0.0000E+00  0.2400E+02
