  13  13   0   0
  0.1425412E+02  0.4952158E-09  0.4952158E-09  0.9181492E-09  0.5000000E-15
  1.000000000000000E-004
  CAR 
 unknown system                          
     24.60300340    -29.59128055  301      7.58388576      1.00000000
    -29.591  0.0000E+00  0.0000E+00
    -29.411  0.0000E+00  0.0000E+00
    -29.230  0.0000E+00  0.0000E+00
    -29.049  0.0000E+00  0.0000E+00
    -28.869  0.0000E+00  0.0000E+00
    -28.688  0.0000E+00  0.0000E+00
    -28.507  0.0000E+00  0.0000E+00
    -28.327  0.0000E+00  0.0000E+00
    -28.146  0.0000E+00  0.0000E+00
    -27.965  0.0000E+00  0.0000E+00
    -27.785  0.0000E+00  0.0000E+00
    -27.604  0.0000E+00  0.0000E+00
    -27.424  0.3414E-16  0.6168E-17
    -27.243  0.8757E-03  0.1582E-03
    -27.062  0.1004E+02  0.1814E+01
    -26.882  0.2219E+02  0.5823E+01
    -26.701  0.3036E+02  0.1131E+02
    -26.520  0.3876E+02  0.1831E+02
    -26.340  0.4678E+02  0.2676E+02
    -26.159  0.5667E+02  0.3700E+02
    -25.978  0.1622E+02  0.3993E+02
    -25.798  0.9609E+01  0.4166E+02
    -25.617  0.1862E+01  0.4200E+02
    -25.436  0.7154E-08  0.4200E+02
    -25.256  0.0000E+00  0.4200E+02
    -25.075  0.0000E+00  0.4200E+02
    -24.894  0.0000E+00  0.4200E+02
    -24.714  0.0000E+00  0.4200E+02
    -24.533  0.0000E+00  0.4200E+02
    -24.352  0.0000E+00  0.4200E+02
    -24.172  0.0000E+00  0.4200E+02
    -23.991  0.0000E+00  0.4200E+02
    -23.811  0.0000E+00  0.4200E+02
    -23.630  0.0000E+00  0.4200E+02
    -23.449  0.0000E+00  0.4200E+02
    -23.269  0.0000E+00  0.4200E+02
    -23.088  0.0000E+00  0.4200E+02
    -22.907  0.0000E+00  0.4200E+02
    -22.727  0.0000E+00  0.4200E+02
    -22.546  0.0000E+00  0.4200E+02
    -22.365  0.0000E+00  0.4200E+02
    -22.185  0.0000E+00  0.4200E+02
    -22.004  0.0000E+00  0.4200E+02
    -21.823  0.0000E+00  0.4200E+02
    -21.643  0.0000E+00  0.4200E+02
    -21.462  0.0000E+00  0.4200E+02
    -21.281  0.0000E+00  0.4200E+02
    -21.101  0.0000E+00  0.4200E+02
    -20.920  0.0000E+00  0.4200E+02
    -20.740  0.0000E+00  0.4200E+02
    -20.559  0.0000E+00  0.4200E+02
    -20.378  0.0000E+00  0.4200E+02
    -20.198  0.0000E+00  0.4200E+02
    -20.017  0.0000E+00  0.4200E+02
    -19.836  0.0000E+00  0.4200E+02
    -19.656  0.0000E+00  0.4200E+02
    -19.475  0.0000E+00  0.4200E+02
    -19.294  0.0000E+00  0.4200E+02
    -19.114  0.0000E+00  0.4200E+02
    -18.933  0.0000E+00  0.4200E+02
    -18.752  0.0000E+00  0.4200E+02
    -18.572  0.0000E+00  0.4200E+02
    -18.391  0.0000E+00  0.4200E+02
    -18.210  0.0000E+00  0.4200E+02
    -18.030  0.0000E+00  0.4200E+02
    -17.849  0.0000E+00  0.4200E+02
    -17.669  0.0000E+00  0.4200E+02
    -17.488  0.0000E+00  0.4200E+02
    -17.307  0.0000E+00  0.4200E+02
    -17.127  0.0000E+00  0.4200E+02
    -16.946  0.0000E+00  0.4200E+02
    -16.765  0.0000E+00  0.4200E+02
    -16.585  0.0000E+00  0.4200E+02
    -16.404  0.0000E+00  0.4200E+02
    -16.223  0.0000E+00  0.4200E+02
    -16.043  0.0000E+00  0.4200E+02
    -15.862  0.0000E+00  0.4200E+02
    -15.681  0.0000E+00  0.4200E+02
    -15.501  0.0000E+00  0.4200E+02
    -15.320  0.0000E+00  0.4200E+02
    -15.139  0.0000E+00  0.4200E+02
    -14.959  0.0000E+00  0.4200E+02
    -14.778  0.0000E+00  0.4200E+02
    -14.598  0.0000E+00  0.4200E+02
    -14.417  0.0000E+00  0.4200E+02
    -14.236  0.0000E+00  0.4200E+02
    -14.056  0.0000E+00  0.4200E+02
    -13.875  0.0000E+00  0.4200E+02
    -13.694  0.0000E+00  0.4200E+02
    -13.514  0.0000E+00  0.4200E+02
    -13.333  0.0000E+00  0.4200E+02
    -13.152  0.0000E+00  0.4200E+02
    -12.972  0.0000E+00  0.4200E+02
    -12.791  0.0000E+00  0.4200E+02
    -12.610  0.0000E+00  0.4200E+02
    -12.430  0.0000E+00  0.4200E+02
    -12.249  0.0000E+00  0.4200E+02
    -12.068  0.0000E+00  0.4200E+02
    -11.888  0.0000E+00  0.4200E+02
    -11.707  0.0000E+00  0.4200E+02
    -11.527  0.0000E+00  0.4200E+02
    -11.346  0.0000E+00  0.4200E+02
    -11.165  0.0000E+00  0.4200E+02
    -10.985  0.0000E+00  0.4200E+02
    -10.804  0.0000E+00  0.4200E+02
    -10.623  0.0000E+00  0.4200E+02
    -10.443  0.0000E+00  0.4200E+02
    -10.262  0.0000E+00  0.4200E+02
    -10.081  0.0000E+00  0.4200E+02
     -9.901  0.0000E+00  0.4200E+02
     -9.720  0.0000E+00  0.4200E+02
     -9.539  0.0000E+00  0.4200E+02
     -9.359  0.0000E+00  0.4200E+02
     -9.178  0.0000E+00  0.4200E+02
     -8.997  0.0000E+00  0.4200E+02
     -8.817  0.0000E+00  0.4200E+02
     -8.636  0.0000E+00  0.4200E+02
     -8.456  0.0000E+00  0.4200E+02
     -8.275  0.0000E+00  0.4200E+02
     -8.094  0.0000E+00  0.4200E+02
     -7.914  0.0000E+00  0.4200E+02
     -7.733  0.0000E+00  0.4200E+02
     -7.552  0.0000E+00  0.4200E+02
     -7.372  0.0000E+00  0.4200E+02
     -7.191  0.0000E+00  0.4200E+02
     -7.010  0.0000E+00  0.4200E+02
     -6.830  0.0000E+00  0.4200E+02
     -6.649  0.0000E+00  0.4200E+02
     -6.468  0.0000E+00  0.4200E+02
     -6.288  0.0000E+00  0.4200E+02
     -6.107  0.0000E+00  0.4200E+02
     -5.926  0.0000E+00  0.4200E+02
     -5.746  0.0000E+00  0.4200E+02
     -5.565  0.0000E+00  0.4200E+02
     -5.385  0.0000E+00  0.4200E+02
     -5.204  0.0000E+00  0.4200E+02
     -5.023  0.0000E+00  0.4200E+02
     -4.843  0.0000E+00  0.4200E+02
     -4.662  0.0000E+00  0.4200E+02
     -4.481  0.0000E+00  0.4200E+02
     -4.301  0.0000E+00  0.4200E+02
     -4.120  0.0000E+00  0.4200E+02
     -3.939  0.0000E+00  0.4200E+02
     -3.759  0.0000E+00  0.4200E+02
     -3.578  0.0000E+00  0.4200E+02
     -3.397  0.0000E+00  0.4200E+02
     -3.217  0.0000E+00  0.4200E+02
     -3.036  0.0000E+00  0.4200E+02
     -2.855  0.0000E+00  0.4200E+02
     -2.675  0.0000E+00  0.4200E+02
     -2.494  0.0000E+00  0.4200E+02
     -2.313  0.0000E+00  0.4200E+02
     -2.133  0.0000E+00  0.4200E+02
     -1.952  0.0000E+00  0.4200E+02
     -1.772  0.0000E+00  0.4200E+02
     -1.591  0.0000E+00  0.4200E+02
     -1.410  0.0000E+00  0.4200E+02
     -1.230  0.1100E-12  0.4200E+02
     -1.049  0.2843E-02  0.4200E+02
     -0.868  0.9960E-01  0.4202E+02
     -0.688  0.1398E+00  0.4204E+02
     -0.507  0.8405E+00  0.4220E+02
     -0.326  0.4638E+00  0.4228E+02
     -0.146  0.4993E+00  0.4237E+02
      0.035  0.8836E+00  0.4253E+02
      0.216  0.7502E+00  0.4266E+02
      0.396  0.1867E+01  0.4300E+02
      0.577  0.5006E+00  0.4309E+02
      0.758  0.1395E+01  0.4334E+02
      0.938  0.2946E+00  0.4340E+02
      1.119  0.2501E+01  0.4385E+02
      1.299  0.1393E+01  0.4410E+02
      1.480  0.1615E+01  0.4439E+02
      1.661  0.2548E+01  0.4485E+02
      1.841  0.1454E+01  0.4512E+02
      2.022  0.2386E+01  0.4555E+02
      2.203  0.3174E+01  0.4612E+02
      2.383  0.2922E+01  0.4665E+02
      2.564  0.3064E+01  0.4720E+02
      2.745  0.5718E+01  0.4823E+02
      2.925  0.6701E+01  0.4944E+02
      3.106  0.1138E+02  0.5150E+02
      3.287  0.1115E+02  0.5351E+02
      3.467  0.1322E+02  0.5590E+02
      3.648  0.1477E+02  0.5857E+02
      3.829  0.1030E+02  0.6043E+02
      4.009  0.5897E+01  0.6150E+02
      4.190  0.5764E+01  0.6254E+02
      4.370  0.1077E+02  0.6448E+02
      4.551  0.6052E+01  0.6558E+02
      4.732  0.1129E+02  0.6762E+02
      4.912  0.2212E+02  0.7161E+02
      5.093  0.2314E+02  0.7579E+02
      5.274  0.3462E+02  0.8205E+02
      5.454  0.3432E+02  0.8825E+02
      5.635  0.2943E+02  0.9356E+02
      5.816  0.2524E+02  0.9812E+02
      5.996  0.2288E+02  0.1023E+03
      6.177  0.1670E+02  0.1053E+03
      6.358  0.1701E+02  0.1083E+03
      6.538  0.1759E+02  0.1115E+03
      6.719  0.1955E+02  0.1151E+03
      6.900  0.2248E+02  0.1191E+03
      7.080  0.2215E+02  0.1231E+03
      7.261  0.1477E+02  0.1258E+03
      7.441  0.1585E+02  0.1286E+03
      7.622  0.1624E+02  0.1316E+03
      7.803  0.1138E+02  0.1336E+03
      7.983  0.9497E+01  0.1354E+03
      8.164  0.1673E+02  0.1384E+03
      8.345  0.8870E+01  0.1400E+03
      8.525  0.1100E+02  0.1420E+03
      8.706  0.9008E+01  0.1436E+03
      8.887  0.1458E+02  0.1462E+03
      9.067  0.1493E+02  0.1489E+03
      9.248  0.8923E+01  0.1505E+03
      9.429  0.6719E+01  0.1518E+03
      9.609  0.1174E+02  0.1539E+03
      9.790  0.7661E+01  0.1553E+03
      9.971  0.9578E+01  0.1570E+03
     10.151  0.6234E+01  0.1581E+03
     10.332  0.6907E+01  0.1594E+03
     10.512  0.8159E+01  0.1608E+03
     10.693  0.9265E+01  0.1625E+03
     10.874  0.6928E+01  0.1638E+03
     11.054  0.6754E+01  0.1650E+03
     11.235  0.8668E+01  0.1665E+03
     11.416  0.7900E+01  0.1680E+03
     11.596  0.9995E+01  0.1698E+03
     11.777  0.9199E+01  0.1714E+03
     11.958  0.1265E+02  0.1737E+03
     12.138  0.1037E+02  0.1756E+03
     12.319  0.1324E+02  0.1780E+03
     12.500  0.1181E+02  0.1801E+03
     12.680  0.7463E+01  0.1815E+03
     12.861  0.4990E+01  0.1824E+03
     13.042  0.5191E+01  0.1833E+03
     13.222  0.7214E+01  0.1846E+03
     13.403  0.5365E+01  0.1856E+03
     13.583  0.7445E+01  0.1869E+03
     13.764  0.3494E+01  0.1876E+03
     13.945  0.1926E+01  0.1879E+03
     14.125  0.4240E+01  0.1887E+03
     14.306  0.4043E+01  0.1894E+03
     14.487  0.2775E+01  0.1899E+03
     14.667  0.3301E+01  0.1905E+03
     14.848  0.3838E+01  0.1912E+03
     15.029  0.3701E+01  0.1919E+03
     15.209  0.2412E+01  0.1923E+03
     15.390  0.2167E+01  0.1927E+03
     15.571  0.3814E+01  0.1934E+03
     15.751  0.2237E+01  0.1938E+03
     15.932  0.3760E+01  0.1945E+03
     16.113  0.2210E+01  0.1949E+03
     16.293  0.3049E+01  0.1954E+03
     16.474  0.3641E+01  0.1961E+03
     16.655  0.4958E+01  0.1970E+03
     16.835  0.6222E+01  0.1981E+03
     17.016  0.5104E+01  0.1990E+03
     17.196  0.8002E+01  0.2005E+03
     17.377  0.5496E+01  0.2015E+03
     17.558  0.5866E+01  0.2025E+03
     17.738  0.5016E+01  0.2034E+03
     17.919  0.4601E+01  0.2042E+03
     18.100  0.5590E+01  0.2053E+03
     18.280  0.5865E+01  0.2063E+03
     18.461  0.5472E+01  0.2073E+03
     18.642  0.2929E+01  0.2078E+03
     18.822  0.7583E+01  0.2092E+03
     19.003  0.5310E+01  0.2102E+03
     19.184  0.6368E+01  0.2113E+03
     19.364  0.8448E+01  0.2128E+03
     19.545  0.5293E+01  0.2138E+03
     19.726  0.6123E+01  0.2149E+03
     19.906  0.7395E+01  0.2162E+03
     20.087  0.5841E+01  0.2173E+03
     20.267  0.4328E+01  0.2181E+03
     20.448  0.6466E+01  0.2192E+03
     20.629  0.4518E+01  0.2201E+03
     20.809  0.5302E+01  0.2210E+03
     20.990  0.7080E+01  0.2223E+03
     21.171  0.8698E+01  0.2239E+03
     21.351  0.7327E+01  0.2252E+03
     21.532  0.8617E+01  0.2267E+03
     21.713  0.4761E+02  0.2353E+03
     21.893  0.1301E+02  0.2377E+03
     22.074  0.1120E+02  0.2397E+03
     22.255  0.1539E+01  0.2400E+03
     22.435  0.1239E-03  0.2400E+03
     22.616  0.0000E+00  0.2400E+03
     22.797  0.0000E+00  0.2400E+03
     22.977  0.0000E+00  0.2400E+03
     23.158  0.0000E+00  0.2400E+03
     23.338  0.0000E+00  0.2400E+03
     23.519  0.0000E+00  0.2400E+03
     23.700  0.0000E+00  0.2400E+03
     23.880  0.0000E+00  0.2400E+03
     24.061  0.0000E+00  0.2400E+03
     24.242  0.0000E+00  0.2400E+03
     24.422  0.0000E+00  0.2400E+03
     24.603  0.0000E+00  0.2400E+03
