Ta7 Co6
1.0
  -2.4760789999999999   -4.2886949999999997    0.0000000000000000
   2.4760789999999999   -4.2886949999999997    0.0000000000000000
   0.0000000000000000   -2.8591299999999999    8.7249739999999996
Ta Co
7 6
direct
   0.0000000000000000    0.0000000000000000    0.0000000000000000 Ta
   0.1668360000000000    0.1668360000000000    0.4994920000000000 Ta
   0.8331640000000000    0.8331640000000000    0.5005080000000000 Ta
   0.3456980000000000    0.3456980000000000    0.9629060000000000 Ta
   0.6543020000000001    0.6543020000000001    0.0370940000000000 Ta
   0.4508610000000000    0.4508610000000000    0.6474160000000000 Ta
   0.5491390000000000    0.5491390000000000    0.3525840000000000 Ta
   0.5813030000000000    0.0929890000000000    0.2327180000000000 Co
   0.0929890000000000    0.0929890000000000    0.2327180000000000 Co
   0.0929890000000000    0.5813030000000000    0.2327180000000000 Co
   0.4186970000000000    0.9070110000000000    0.7672820000000000 Co
   0.9070110000000000    0.9070110000000000    0.7672820000000000 Co
   0.9070110000000000    0.4186970000000000    0.7672820000000000 Co
