Ti6 Pt2                                 
   1.00000000000000     
     5.0257636000000003    0.0000000000000000    0.0000000000000000
     0.0000000000000000    5.0257636000000003    0.0000000000000000
     0.0000000000000000    0.0000000000000000    5.0257636000000003
   Ti   Pt
     6     2
Direct
     0.0000000000000000    0.2500000000000000    0.5000000000000000
     0.0000000000000000    0.7500000000000000    0.5000000000000000
     0.2500000000000000    0.5000000000000000    0.0000000000000000
     0.7500000000000000    0.5000000000000000    0.0000000000000000
     0.5000000000000000    0.0000000000000000    0.2500000000000000
     0.5000000000000000    0.0000000000000000    0.7500000000000000
     0.5000000000000000    0.5000000000000000    0.5000000000000000
     0.0000000000000000    0.0000000000000000    0.0000000000000000
 
  0.00000000E+00  0.00000000E+00  0.00000000E+00
  0.00000000E+00  0.00000000E+00  0.00000000E+00
  0.00000000E+00  0.00000000E+00  0.00000000E+00
  0.00000000E+00  0.00000000E+00  0.00000000E+00
  0.00000000E+00  0.00000000E+00  0.00000000E+00
  0.00000000E+00  0.00000000E+00  0.00000000E+00
  0.00000000E+00  0.00000000E+00  0.00000000E+00
  0.00000000E+00  0.00000000E+00  0.00000000E+00
