Hf1 Mg15                                
   1.00000000000000     
     3.2065929999999998   -5.5539829999999997    0.0000000000000000
     3.2065929999999998    5.5539829999999997    0.0000000000000000
     0.0000000000000000    0.0000000000000000   10.1757980000000003
   Hf   Mg
     1    15
Direct
     0.6666669999999968    0.3333330000000032    0.0000000000000000
     0.6666669999999968    0.3333330000000032    0.5000000000000000
     0.1683570000000003    0.3367130000000031    0.0000000000000000
     0.1665089999999978    0.3330180000000027    0.5000000000000000
     0.1683570000000003    0.8316429999999997    0.0000000000000000
     0.1665089999999978    0.8334910000000022    0.5000000000000000
     0.6632869999999969    0.8316429999999997    0.0000000000000000
     0.6669819999999973    0.8334910000000022    0.5000000000000000
     0.9958450000000028    0.4979230000000001    0.2482329999999990
     0.9958450000000028    0.4979230000000001    0.7517670000000010
     0.5020769999999999    0.4979230000000001    0.2482329999999990
     0.5020769999999999    0.4979230000000001    0.7517670000000010
     0.5020769999999999    0.0041549999999972    0.2482329999999990
     0.5020769999999999    0.0041549999999972    0.7517670000000010
     0.0000000000000000    0.0000000000000000    0.2487380000000030
     0.0000000000000000    0.0000000000000000    0.7512619999999970
 
  0.00000000E+00  0.00000000E+00  0.00000000E+00
  0.00000000E+00  0.00000000E+00  0.00000000E+00
  0.00000000E+00  0.00000000E+00  0.00000000E+00
  0.00000000E+00  0.00000000E+00  0.00000000E+00
  0.00000000E+00  0.00000000E+00  0.00000000E+00
  0.00000000E+00  0.00000000E+00  0.00000000E+00
  0.00000000E+00  0.00000000E+00  0.00000000E+00
  0.00000000E+00  0.00000000E+00  0.00000000E+00
  0.00000000E+00  0.00000000E+00  0.00000000E+00
  0.00000000E+00  0.00000000E+00  0.00000000E+00
  0.00000000E+00  0.00000000E+00  0.00000000E+00
  0.00000000E+00  0.00000000E+00  0.00000000E+00
  0.00000000E+00  0.00000000E+00  0.00000000E+00
  0.00000000E+00  0.00000000E+00  0.00000000E+00
  0.00000000E+00  0.00000000E+00  0.00000000E+00
  0.00000000E+00  0.00000000E+00  0.00000000E+00
