       N       E                     dE             d eps       ncg     rms          rms(c)
DAV:   1     0.126056867456E+04    0.12606E+04   -0.95706E+04  9336   0.199E+03
DAV:   2     0.355475071533E+02   -0.12250E+04   -0.12054E+04  7648   0.558E+02
DAV:   3    -0.298459774028E+02   -0.65393E+02   -0.63237E+02  8120   0.118E+02
DAV:   4    -0.325462687968E+02   -0.27003E+01   -0.26316E+01  7808   0.157E+01
DAV:   5    -0.326433690481E+02   -0.97100E-01   -0.96893E-01  7968   0.273E+00    0.340E+01
DAV:   6    -0.320738086509E+02    0.56956E+00   -0.11381E+00  7656   0.295E+00    0.203E+01
DAV:   7    -0.319264209426E+02    0.14739E+00   -0.88490E-01  7776   0.275E+00    0.125E+00
DAV:   8    -0.319150051952E+02    0.11416E-01   -0.11758E-01  7728   0.884E-01    0.489E-01
DAV:   9    -0.319113042338E+02    0.37010E-02   -0.18723E-02  8256   0.300E-01    0.199E-01
DAV:  10    -0.319107310045E+02    0.57323E-03   -0.33720E-03  7824   0.158E-01    0.629E-02
DAV:  11    -0.319107526333E+02   -0.21629E-04   -0.73786E-04  7864   0.614E-02    0.642E-02
DAV:  12    -0.319107343969E+02    0.18236E-04   -0.86865E-05  6760   0.218E-02    0.123E-02
DAV:  13    -0.319107335051E+02    0.89181E-06   -0.66066E-06  5936   0.864E-03
   1 F= -.31910734E+02 E0= -.31903363E+02  d E =-.147404E-01
