unknown system                          
           1
     3.206593   -5.553983    0.000000
     3.206593    5.553983    0.000000
     0.000000    0.000000   10.175798
   Hf   Mg
     1    15
Direct configuration=     1
   0.66666700  0.33333300  0.00000000
   0.66666700  0.33333300  0.50000000
   0.16835700  0.33671300  0.00000000
   0.16650900  0.33301800  0.50000000
   0.16835700  0.83164300  0.00000000
   0.16650900  0.83349100  0.50000000
   0.66328700  0.83164300  0.00000000
   0.66698200  0.83349100  0.50000000
   0.99584500  0.49792300  0.24823300
   0.99584500  0.49792300  0.75176700
   0.50207700  0.49792300  0.24823300
   0.50207700  0.49792300  0.75176700
   0.50207700  0.00415500  0.24823300
   0.50207700  0.00415500  0.75176700
   0.00000000  0.00000000  0.24873800
   0.00000000  0.00000000  0.75126200
