   3   3   0   0
  0.2040189E+02  0.3078674E-09  0.3078672E-09  0.7665408E-09  0.5000000E-15
  1.000000000000000E-004
  CAR 
 unknown system                          
     19.71316283    -49.06000899  301      0.64120247      1.00000000
    -49.060  0.0000E+00  0.0000E+00
    -48.831  0.0000E+00  0.0000E+00
    -48.602  0.0000E+00  0.0000E+00
    -48.372  0.0000E+00  0.0000E+00
    -48.143  0.0000E+00  0.0000E+00
    -47.914  0.0000E+00  0.0000E+00
    -47.685  0.0000E+00  0.0000E+00
    -47.455  0.0000E+00  0.0000E+00
    -47.226  0.0000E+00  0.0000E+00
    -46.997  0.0000E+00  0.0000E+00
    -46.768  0.0000E+00  0.0000E+00
    -46.538  0.0000E+00  0.0000E+00
    -46.309  0.0000E+00  0.0000E+00
    -46.080  0.7129E-04  0.1634E-04
    -45.851  0.2494E+02  0.5718E+01
    -45.621  0.1231E+01  0.6000E+01
    -45.392  0.0000E+00  0.6000E+01
    -45.163  0.0000E+00  0.6000E+01
    -44.934  0.0000E+00  0.6000E+01
    -44.704  0.0000E+00  0.6000E+01
    -44.475  0.0000E+00  0.6000E+01
    -44.246  0.0000E+00  0.6000E+01
    -44.017  0.0000E+00  0.6000E+01
    -43.787  0.0000E+00  0.6000E+01
    -43.558  0.0000E+00  0.6000E+01
    -43.329  0.0000E+00  0.6000E+01
    -43.100  0.0000E+00  0.6000E+01
    -42.870  0.0000E+00  0.6000E+01
    -42.641  0.0000E+00  0.6000E+01
    -42.412  0.0000E+00  0.6000E+01
    -42.183  0.0000E+00  0.6000E+01
    -41.953  0.0000E+00  0.6000E+01
    -41.724  0.0000E+00  0.6000E+01
    -41.495  0.0000E+00  0.6000E+01
    -41.266  0.0000E+00  0.6000E+01
    -41.036  0.0000E+00  0.6000E+01
    -40.807  0.0000E+00  0.6000E+01
    -40.578  0.0000E+00  0.6000E+01
    -40.349  0.0000E+00  0.6000E+01
    -40.119  0.0000E+00  0.6000E+01
    -39.890  0.0000E+00  0.6000E+01
    -39.661  0.0000E+00  0.6000E+01
    -39.432  0.0000E+00  0.6000E+01
    -39.203  0.0000E+00  0.6000E+01
    -38.973  0.0000E+00  0.6000E+01
    -38.744  0.0000E+00  0.6000E+01
    -38.515  0.0000E+00  0.6000E+01
    -38.286  0.0000E+00  0.6000E+01
    -38.056  0.0000E+00  0.6000E+01
    -37.827  0.0000E+00  0.6000E+01
    -37.598  0.0000E+00  0.6000E+01
    -37.369  0.0000E+00  0.6000E+01
    -37.139  0.0000E+00  0.6000E+01
    -36.910  0.0000E+00  0.6000E+01
    -36.681  0.0000E+00  0.6000E+01
    -36.452  0.0000E+00  0.6000E+01
    -36.222  0.0000E+00  0.6000E+01
    -35.993  0.0000E+00  0.6000E+01
    -35.764  0.0000E+00  0.6000E+01
    -35.535  0.0000E+00  0.6000E+01
    -35.305  0.0000E+00  0.6000E+01
    -35.076  0.0000E+00  0.6000E+01
    -34.847  0.0000E+00  0.6000E+01
    -34.618  0.0000E+00  0.6000E+01
    -34.388  0.0000E+00  0.6000E+01
    -34.159  0.0000E+00  0.6000E+01
    -33.930  0.0000E+00  0.6000E+01
    -33.701  0.0000E+00  0.6000E+01
    -33.471  0.0000E+00  0.6000E+01
    -33.242  0.0000E+00  0.6000E+01
    -33.013  0.0000E+00  0.6000E+01
    -32.784  0.0000E+00  0.6000E+01
    -32.554  0.0000E+00  0.6000E+01
    -32.325  0.0000E+00  0.6000E+01
    -32.096  0.0000E+00  0.6000E+01
    -31.867  0.0000E+00  0.6000E+01
    -31.637  0.0000E+00  0.6000E+01
    -31.408  0.0000E+00  0.6000E+01
    -31.179  0.0000E+00  0.6000E+01
    -30.950  0.0000E+00  0.6000E+01
    -30.720  0.0000E+00  0.6000E+01
    -30.491  0.0000E+00  0.6000E+01
    -30.262  0.0000E+00  0.6000E+01
    -30.033  0.0000E+00  0.6000E+01
    -29.804  0.0000E+00  0.6000E+01
    -29.574  0.0000E+00  0.6000E+01
    -29.345  0.0000E+00  0.6000E+01
    -29.116  0.0000E+00  0.6000E+01
    -28.887  0.0000E+00  0.6000E+01
    -28.657  0.0000E+00  0.6000E+01
    -28.428  0.0000E+00  0.6000E+01
    -28.199  0.0000E+00  0.6000E+01
    -27.970  0.0000E+00  0.6000E+01
    -27.740  0.0000E+00  0.6000E+01
    -27.511  0.0000E+00  0.6000E+01
    -27.282  0.0000E+00  0.6000E+01
    -27.053  0.0000E+00  0.6000E+01
    -26.823  0.0000E+00  0.6000E+01
    -26.594  0.0000E+00  0.6000E+01
    -26.365  0.0000E+00  0.6000E+01
    -26.136  0.0000E+00  0.6000E+01
    -25.906  0.0000E+00  0.6000E+01
    -25.677  0.0000E+00  0.6000E+01
    -25.448  0.0000E+00  0.6000E+01
    -25.219  0.0000E+00  0.6000E+01
    -24.989  0.0000E+00  0.6000E+01
    -24.760  0.0000E+00  0.6000E+01
    -24.531  0.0000E+00  0.6000E+01
    -24.302  0.0000E+00  0.6000E+01
    -24.072  0.0000E+00  0.6000E+01
    -23.843  0.0000E+00  0.6000E+01
    -23.614  0.0000E+00  0.6000E+01
    -23.385  0.0000E+00  0.6000E+01
    -23.155  0.0000E+00  0.6000E+01
    -22.926  0.0000E+00  0.6000E+01
    -22.697  0.0000E+00  0.6000E+01
    -22.468  0.0000E+00  0.6000E+01
    -22.238  0.0000E+00  0.6000E+01
    -22.009  0.0000E+00  0.6000E+01
    -21.780  0.0000E+00  0.6000E+01
    -21.551  0.0000E+00  0.6000E+01
    -21.321  0.0000E+00  0.6000E+01
    -21.092  0.0000E+00  0.6000E+01
    -20.863  0.0000E+00  0.6000E+01
    -20.634  0.0000E+00  0.6000E+01
    -20.405  0.0000E+00  0.6000E+01
    -20.175  0.0000E+00  0.6000E+01
    -19.946  0.0000E+00  0.6000E+01
    -19.717  0.0000E+00  0.6000E+01
    -19.488  0.0000E+00  0.6000E+01
    -19.258  0.0000E+00  0.6000E+01
    -19.029  0.0000E+00  0.6000E+01
    -18.800  0.0000E+00  0.6000E+01
    -18.571  0.0000E+00  0.6000E+01
    -18.341  0.0000E+00  0.6000E+01
    -18.112  0.0000E+00  0.6000E+01
    -17.883  0.0000E+00  0.6000E+01
    -17.654  0.0000E+00  0.6000E+01
    -17.424  0.0000E+00  0.6000E+01
    -17.195  0.0000E+00  0.6000E+01
    -16.966  0.0000E+00  0.6000E+01
    -16.737  0.0000E+00  0.6000E+01
    -16.507  0.0000E+00  0.6000E+01
    -16.278  0.0000E+00  0.6000E+01
    -16.049  0.0000E+00  0.6000E+01
    -15.820  0.0000E+00  0.6000E+01
    -15.590  0.0000E+00  0.6000E+01
    -15.361  0.0000E+00  0.6000E+01
    -15.132  0.0000E+00  0.6000E+01
    -14.903  0.0000E+00  0.6000E+01
    -14.673  0.0000E+00  0.6000E+01
    -14.444  0.0000E+00  0.6000E+01
    -14.215  0.0000E+00  0.6000E+01
    -13.986  0.0000E+00  0.6000E+01
    -13.756  0.0000E+00  0.6000E+01
    -13.527  0.0000E+00  0.6000E+01
    -13.298  0.0000E+00  0.6000E+01
    -13.069  0.0000E+00  0.6000E+01
    -12.839  0.0000E+00  0.6000E+01
    -12.610  0.0000E+00  0.6000E+01
    -12.381  0.0000E+00  0.6000E+01
    -12.152  0.0000E+00  0.6000E+01
    -11.922  0.0000E+00  0.6000E+01
    -11.693  0.0000E+00  0.6000E+01
    -11.464  0.0000E+00  0.6000E+01
    -11.235  0.0000E+00  0.6000E+01
    -11.006  0.0000E+00  0.6000E+01
    -10.776  0.0000E+00  0.6000E+01
    -10.547  0.0000E+00  0.6000E+01
    -10.318  0.0000E+00  0.6000E+01
    -10.089  0.0000E+00  0.6000E+01
     -9.859  0.0000E+00  0.6000E+01
     -9.630  0.0000E+00  0.6000E+01
     -9.401  0.0000E+00  0.6000E+01
     -9.172  0.0000E+00  0.6000E+01
     -8.942  0.0000E+00  0.6000E+01
     -8.713  0.0000E+00  0.6000E+01
     -8.484  0.0000E+00  0.6000E+01
     -8.255  0.0000E+00  0.6000E+01
     -8.025  0.0000E+00  0.6000E+01
     -7.796  0.0000E+00  0.6000E+01
     -7.567  0.0000E+00  0.6000E+01
     -7.338  0.0000E+00  0.6000E+01
     -7.108  0.0000E+00  0.6000E+01
     -6.879  0.0000E+00  0.6000E+01
     -6.650  0.0000E+00  0.6000E+01
     -6.421  0.0000E+00  0.6000E+01
     -6.191  0.0000E+00  0.6000E+01
     -5.962  0.0000E+00  0.6000E+01
     -5.733  0.0000E+00  0.6000E+01
     -5.504  0.0000E+00  0.6000E+01
     -5.274  0.0000E+00  0.6000E+01
     -5.045  0.0000E+00  0.6000E+01
     -4.816  0.0000E+00  0.6000E+01
     -4.587  0.0000E+00  0.6000E+01
     -4.357  0.0000E+00  0.6000E+01
     -4.128  0.0000E+00  0.6000E+01
     -3.899  0.0000E+00  0.6000E+01
     -3.670  0.0000E+00  0.6000E+01
     -3.440  0.0000E+00  0.6000E+01
     -3.211  0.0000E+00  0.6000E+01
     -2.982  0.2152E-03  0.6000E+01
     -2.753  0.1660E+00  0.6038E+01
     -2.523  0.3869E+00  0.6127E+01
     -2.294  0.3902E+00  0.6216E+01
     -2.065  0.6370E+00  0.6362E+01
     -1.836  0.6111E+00  0.6502E+01
     -1.607  0.7186E+00  0.6667E+01
     -1.377  0.7459E+00  0.6838E+01
     -1.148  0.7575E+00  0.7012E+01
     -0.919  0.1159E+01  0.7277E+01
     -0.690  0.9475E+00  0.7495E+01
     -0.460  0.7380E+00  0.7664E+01
     -0.231  0.1234E+01  0.7947E+01
     -0.002  0.1382E+01  0.8264E+01
      0.227  0.9003E+00  0.8470E+01
      0.457  0.1329E+01  0.8775E+01
      0.686  0.1298E+01  0.9072E+01
      0.915  0.1802E+01  0.9485E+01
      1.144  0.1484E+01  0.9826E+01
      1.374  0.1145E+01  0.1009E+02
      1.603  0.1287E+01  0.1038E+02
      1.832  0.1286E+01  0.1068E+02
      2.061  0.1511E+01  0.1102E+02
      2.291  0.1200E+01  0.1130E+02
      2.520  0.8111E+00  0.1149E+02
      2.749  0.1178E+01  0.1176E+02
      2.978  0.4561E+00  0.1186E+02
      3.208  0.5152E+00  0.1198E+02
      3.437  0.2064E+00  0.1203E+02
      3.666  0.2958E+00  0.1209E+02
      3.895  0.1411E+01  0.1242E+02
      4.125  0.2045E+01  0.1289E+02
      4.354  0.1824E+01  0.1330E+02
      4.583  0.1940E+01  0.1375E+02
      4.812  0.1087E+01  0.1400E+02
      5.042  0.1525E+01  0.1435E+02
      5.271  0.1741E+01  0.1475E+02
      5.500  0.1397E+01  0.1507E+02
      5.729  0.6650E+00  0.1522E+02
      5.959  0.1485E+01  0.1556E+02
      6.188  0.1222E+01  0.1584E+02
      6.417  0.1249E+01  0.1613E+02
      6.646  0.1389E+01  0.1644E+02
      6.876  0.1717E+01  0.1684E+02
      7.105  0.1830E+01  0.1726E+02
      7.334  0.1505E+01  0.1760E+02
      7.563  0.1164E+01  0.1787E+02
      7.792  0.1953E+01  0.1832E+02
      8.022  0.1570E+01  0.1868E+02
      8.251  0.1199E+01  0.1895E+02
      8.480  0.1661E+01  0.1933E+02
      8.709  0.1625E+01  0.1971E+02
      8.939  0.1394E+01  0.2002E+02
      9.168  0.2031E+01  0.2049E+02
      9.397  0.2725E+01  0.2111E+02
      9.626  0.2418E+01  0.2167E+02
      9.856  0.1535E+01  0.2202E+02
     10.085  0.1958E+01  0.2247E+02
     10.314  0.2069E+01  0.2294E+02
     10.543  0.2013E+01  0.2341E+02
     10.773  0.1999E+01  0.2386E+02
     11.002  0.2204E+01  0.2437E+02
     11.231  0.2105E+01  0.2485E+02
     11.460  0.2276E+01  0.2537E+02
     11.690  0.1842E+01  0.2580E+02
     11.919  0.2349E+01  0.2633E+02
     12.148  0.2816E+01  0.2698E+02
     12.377  0.2260E+01  0.2750E+02
     12.607  0.2435E+01  0.2806E+02
     12.836  0.2034E+01  0.2852E+02
     13.065  0.1797E+01  0.2893E+02
     13.294  0.1455E+01  0.2927E+02
     13.524  0.1426E+01  0.2959E+02
     13.753  0.1423E+01  0.2992E+02
     13.982  0.1499E+01  0.3026E+02
     14.211  0.1356E+01  0.3058E+02
     14.441  0.1511E+01  0.3092E+02
     14.670  0.1111E+01  0.3118E+02
     14.899  0.1253E+01  0.3146E+02
     15.128  0.6533E+00  0.3161E+02
     15.358  0.5573E+00  0.3174E+02
     15.587  0.4443E+00  0.3184E+02
     15.816  0.2615E+00  0.3190E+02
     16.045  0.2474E+00  0.3196E+02
     16.275  0.1186E-01  0.3196E+02
     16.504  0.8152E-01  0.3198E+02
     16.733  0.8140E-01  0.3200E+02
     16.962  0.8045E-06  0.3200E+02
     17.191  0.0000E+00  0.3200E+02
     17.421  0.0000E+00  0.3200E+02
     17.650  0.0000E+00  0.3200E+02
     17.879  0.0000E+00  0.3200E+02
     18.108  0.0000E+00  0.3200E+02
     18.338  0.0000E+00  0.3200E+02
     18.567  0.0000E+00  0.3200E+02
     18.796  0.0000E+00  0.3200E+02
     19.025  0.0000E+00  0.3200E+02
     19.255  0.0000E+00  0.3200E+02
     19.484  0.0000E+00  0.3200E+02
     19.713  0.0000E+00  0.3200E+02
