       N       E                     dE             d eps       ncg     rms          rms(c)
DAV:   1     0.360957040978E+02    0.36096E+02   -0.33964E+03 12808   0.536E+02
DAV:   2     0.502427090527E+00   -0.35593E+02   -0.34141E+02 17056   0.144E+02
DAV:   3    -0.564467779171E+01   -0.61471E+01   -0.60727E+01 24416   0.339E+01
DAV:   4    -0.572215268015E+01   -0.77475E-01   -0.77459E-01 14256   0.580E+00
DAV:   5    -0.572339483405E+01   -0.12422E-02   -0.12421E-02 19488   0.610E-01    0.402E-01
DAV:   6    -0.571934456570E+01    0.40503E-02   -0.40470E-03 20824   0.159E-01    0.227E-01
DAV:   7    -0.571761343435E+01    0.17311E-02   -0.15375E-03 24760   0.133E-01    0.528E-02
DAV:   8    -0.571752723937E+01    0.86195E-04   -0.16385E-04 22712   0.501E-02    0.233E-02
DAV:   9    -0.571752626901E+01    0.97037E-06   -0.12060E-05 18920   0.193E-02    0.309E-03
DAV:  10    -0.571752541797E+01    0.85104E-06   -0.21806E-07 13400   0.242E-03
   1 F= -.57175254E+01 E0= -.57166725E+01  d E =-.170576E-02
