   4   4   0   0
  0.2583019E+02  0.4163354E-09  0.4163355E-09  0.6882880E-09  0.5000000E-15
  1.000000000000000E-004
  CAR 
 unknown system                          
     16.04740003    -46.16613748  301      7.11369605      1.00000000
    -46.166  0.0000E+00  0.0000E+00
    -45.959  0.0000E+00  0.0000E+00
    -45.751  0.0000E+00  0.0000E+00
    -45.544  0.0000E+00  0.0000E+00
    -45.337  0.0000E+00  0.0000E+00
    -45.129  0.0000E+00  0.0000E+00
    -44.922  0.0000E+00  0.0000E+00
    -44.714  0.0000E+00  0.0000E+00
    -44.507  0.0000E+00  0.0000E+00
    -44.300  0.0000E+00  0.0000E+00
    -44.092  0.0000E+00  0.0000E+00
    -43.885  0.0000E+00  0.0000E+00
    -43.678  0.0000E+00  0.0000E+00
    -43.470  0.9205E-03  0.1909E-03
    -43.263  0.1877E+02  0.3893E+01
    -43.055  0.5175E+00  0.4000E+01
    -42.848  0.0000E+00  0.4000E+01
    -42.641  0.0000E+00  0.4000E+01
    -42.433  0.0000E+00  0.4000E+01
    -42.226  0.0000E+00  0.4000E+01
    -42.019  0.0000E+00  0.4000E+01
    -41.811  0.0000E+00  0.4000E+01
    -41.604  0.0000E+00  0.4000E+01
    -41.396  0.0000E+00  0.4000E+01
    -41.189  0.0000E+00  0.4000E+01
    -40.982  0.0000E+00  0.4000E+01
    -40.774  0.0000E+00  0.4000E+01
    -40.567  0.0000E+00  0.4000E+01
    -40.360  0.0000E+00  0.4000E+01
    -40.152  0.0000E+00  0.4000E+01
    -39.945  0.0000E+00  0.4000E+01
    -39.737  0.0000E+00  0.4000E+01
    -39.530  0.0000E+00  0.4000E+01
    -39.323  0.0000E+00  0.4000E+01
    -39.115  0.0000E+00  0.4000E+01
    -38.908  0.0000E+00  0.4000E+01
    -38.701  0.0000E+00  0.4000E+01
    -38.493  0.0000E+00  0.4000E+01
    -38.286  0.0000E+00  0.4000E+01
    -38.078  0.0000E+00  0.4000E+01
    -37.871  0.0000E+00  0.4000E+01
    -37.664  0.0000E+00  0.4000E+01
    -37.456  0.0000E+00  0.4000E+01
    -37.249  0.0000E+00  0.4000E+01
    -37.041  0.0000E+00  0.4000E+01
    -36.834  0.0000E+00  0.4000E+01
    -36.627  0.0000E+00  0.4000E+01
    -36.419  0.0000E+00  0.4000E+01
    -36.212  0.0000E+00  0.4000E+01
    -36.005  0.0000E+00  0.4000E+01
    -35.797  0.0000E+00  0.4000E+01
    -35.590  0.0000E+00  0.4000E+01
    -35.382  0.0000E+00  0.4000E+01
    -35.175  0.0000E+00  0.4000E+01
    -34.968  0.0000E+00  0.4000E+01
    -34.760  0.0000E+00  0.4000E+01
    -34.553  0.0000E+00  0.4000E+01
    -34.346  0.0000E+00  0.4000E+01
    -34.138  0.0000E+00  0.4000E+01
    -33.931  0.0000E+00  0.4000E+01
    -33.723  0.0000E+00  0.4000E+01
    -33.516  0.0000E+00  0.4000E+01
    -33.309  0.0000E+00  0.4000E+01
    -33.101  0.0000E+00  0.4000E+01
    -32.894  0.0000E+00  0.4000E+01
    -32.687  0.0000E+00  0.4000E+01
    -32.479  0.0000E+00  0.4000E+01
    -32.272  0.0000E+00  0.4000E+01
    -32.064  0.0000E+00  0.4000E+01
    -31.857  0.0000E+00  0.4000E+01
    -31.650  0.0000E+00  0.4000E+01
    -31.442  0.0000E+00  0.4000E+01
    -31.235  0.0000E+00  0.4000E+01
    -31.028  0.0000E+00  0.4000E+01
    -30.820  0.0000E+00  0.4000E+01
    -30.613  0.0000E+00  0.4000E+01
    -30.405  0.0000E+00  0.4000E+01
    -30.198  0.0000E+00  0.4000E+01
    -29.991  0.0000E+00  0.4000E+01
    -29.783  0.0000E+00  0.4000E+01
    -29.576  0.0000E+00  0.4000E+01
    -29.368  0.0000E+00  0.4000E+01
    -29.161  0.0000E+00  0.4000E+01
    -28.954  0.0000E+00  0.4000E+01
    -28.746  0.0000E+00  0.4000E+01
    -28.539  0.0000E+00  0.4000E+01
    -28.332  0.0000E+00  0.4000E+01
    -28.124  0.0000E+00  0.4000E+01
    -27.917  0.0000E+00  0.4000E+01
    -27.709  0.0000E+00  0.4000E+01
    -27.502  0.0000E+00  0.4000E+01
    -27.295  0.0000E+00  0.4000E+01
    -27.087  0.0000E+00  0.4000E+01
    -26.880  0.0000E+00  0.4000E+01
    -26.673  0.0000E+00  0.4000E+01
    -26.465  0.0000E+00  0.4000E+01
    -26.258  0.0000E+00  0.4000E+01
    -26.050  0.0000E+00  0.4000E+01
    -25.843  0.0000E+00  0.4000E+01
    -25.636  0.0000E+00  0.4000E+01
    -25.428  0.0000E+00  0.4000E+01
    -25.221  0.0000E+00  0.4000E+01
    -25.014  0.0000E+00  0.4000E+01
    -24.806  0.0000E+00  0.4000E+01
    -24.599  0.0000E+00  0.4000E+01
    -24.391  0.0000E+00  0.4000E+01
    -24.184  0.0000E+00  0.4000E+01
    -23.977  0.0000E+00  0.4000E+01
    -23.769  0.0000E+00  0.4000E+01
    -23.562  0.0000E+00  0.4000E+01
    -23.355  0.0000E+00  0.4000E+01
    -23.147  0.0000E+00  0.4000E+01
    -22.940  0.0000E+00  0.4000E+01
    -22.732  0.0000E+00  0.4000E+01
    -22.525  0.0000E+00  0.4000E+01
    -22.318  0.1852E-10  0.4000E+01
    -22.110  0.2380E+01  0.4493E+01
    -21.903  0.4339E+02  0.1349E+02
    -21.695  0.1209E+02  0.1600E+02
    -21.488  0.1876E-02  0.1600E+02
    -21.281  0.0000E+00  0.1600E+02
    -21.073  0.0000E+00  0.1600E+02
    -20.866  0.0000E+00  0.1600E+02
    -20.659  0.0000E+00  0.1600E+02
    -20.451  0.0000E+00  0.1600E+02
    -20.244  0.0000E+00  0.1600E+02
    -20.036  0.0000E+00  0.1600E+02
    -19.829  0.0000E+00  0.1600E+02
    -19.622  0.0000E+00  0.1600E+02
    -19.414  0.0000E+00  0.1600E+02
    -19.207  0.0000E+00  0.1600E+02
    -19.000  0.0000E+00  0.1600E+02
    -18.792  0.0000E+00  0.1600E+02
    -18.585  0.0000E+00  0.1600E+02
    -18.377  0.0000E+00  0.1600E+02
    -18.170  0.0000E+00  0.1600E+02
    -17.963  0.0000E+00  0.1600E+02
    -17.755  0.0000E+00  0.1600E+02
    -17.548  0.0000E+00  0.1600E+02
    -17.341  0.0000E+00  0.1600E+02
    -17.133  0.0000E+00  0.1600E+02
    -16.926  0.0000E+00  0.1600E+02
    -16.718  0.0000E+00  0.1600E+02
    -16.511  0.0000E+00  0.1600E+02
    -16.304  0.0000E+00  0.1600E+02
    -16.096  0.0000E+00  0.1600E+02
    -15.889  0.0000E+00  0.1600E+02
    -15.682  0.0000E+00  0.1600E+02
    -15.474  0.0000E+00  0.1600E+02
    -15.267  0.0000E+00  0.1600E+02
    -15.059  0.0000E+00  0.1600E+02
    -14.852  0.0000E+00  0.1600E+02
    -14.645  0.0000E+00  0.1600E+02
    -14.437  0.0000E+00  0.1600E+02
    -14.230  0.0000E+00  0.1600E+02
    -14.022  0.0000E+00  0.1600E+02
    -13.815  0.0000E+00  0.1600E+02
    -13.608  0.0000E+00  0.1600E+02
    -13.400  0.0000E+00  0.1600E+02
    -13.193  0.0000E+00  0.1600E+02
    -12.986  0.0000E+00  0.1600E+02
    -12.778  0.0000E+00  0.1600E+02
    -12.571  0.0000E+00  0.1600E+02
    -12.363  0.0000E+00  0.1600E+02
    -12.156  0.0000E+00  0.1600E+02
    -11.949  0.0000E+00  0.1600E+02
    -11.741  0.0000E+00  0.1600E+02
    -11.534  0.0000E+00  0.1600E+02
    -11.327  0.0000E+00  0.1600E+02
    -11.119  0.0000E+00  0.1600E+02
    -10.912  0.0000E+00  0.1600E+02
    -10.704  0.0000E+00  0.1600E+02
    -10.497  0.0000E+00  0.1600E+02
    -10.290  0.0000E+00  0.1600E+02
    -10.082  0.0000E+00  0.1600E+02
     -9.875  0.0000E+00  0.1600E+02
     -9.668  0.0000E+00  0.1600E+02
     -9.460  0.0000E+00  0.1600E+02
     -9.253  0.0000E+00  0.1600E+02
     -9.045  0.0000E+00  0.1600E+02
     -8.838  0.0000E+00  0.1600E+02
     -8.631  0.0000E+00  0.1600E+02
     -8.423  0.0000E+00  0.1600E+02
     -8.216  0.0000E+00  0.1600E+02
     -8.009  0.0000E+00  0.1600E+02
     -7.801  0.0000E+00  0.1600E+02
     -7.594  0.0000E+00  0.1600E+02
     -7.386  0.0000E+00  0.1600E+02
     -7.179  0.0000E+00  0.1600E+02
     -6.972  0.0000E+00  0.1600E+02
     -6.764  0.0000E+00  0.1600E+02
     -6.557  0.0000E+00  0.1600E+02
     -6.349  0.7320E-14  0.1600E+02
     -6.142  0.3758E-02  0.1600E+02
     -5.935  0.2593E+00  0.1605E+02
     -5.727  0.7678E+00  0.1621E+02
     -5.520  0.1099E+01  0.1644E+02
     -5.313  0.1510E+01  0.1675E+02
     -5.105  0.3142E+01  0.1741E+02
     -4.898  0.6745E+01  0.1880E+02
     -4.690  0.5763E+01  0.2000E+02
     -4.483  0.1917E-03  0.2000E+02
     -4.276  0.0000E+00  0.2000E+02
     -4.068  0.0000E+00  0.2000E+02
     -3.861  0.0000E+00  0.2000E+02
     -3.654  0.0000E+00  0.2000E+02
     -3.446  0.0000E+00  0.2000E+02
     -3.239  0.0000E+00  0.2000E+02
     -3.031  0.0000E+00  0.2000E+02
     -2.824  0.0000E+00  0.2000E+02
     -2.617  0.0000E+00  0.2000E+02
     -2.409  0.0000E+00  0.2000E+02
     -2.202  0.0000E+00  0.2000E+02
     -1.995  0.0000E+00  0.2000E+02
     -1.787  0.0000E+00  0.2000E+02
     -1.580  0.0000E+00  0.2000E+02
     -1.372  0.0000E+00  0.2000E+02
     -1.165  0.0000E+00  0.2000E+02
     -0.958  0.0000E+00  0.2000E+02
     -0.750  0.0000E+00  0.2000E+02
     -0.543  0.0000E+00  0.2000E+02
     -0.335  0.0000E+00  0.2000E+02
     -0.128  0.0000E+00  0.2000E+02
      0.079  0.0000E+00  0.2000E+02
      0.287  0.0000E+00  0.2000E+02
      0.494  0.0000E+00  0.2000E+02
      0.701  0.1692E-03  0.2000E+02
      0.909  0.4909E-01  0.2001E+02
      1.116  0.2974E+00  0.2007E+02
      1.324  0.1917E+01  0.2047E+02
      1.531  0.2207E+01  0.2093E+02
      1.738  0.5158E+01  0.2200E+02
      1.946  0.3546E+01  0.2273E+02
      2.153  0.1101E+01  0.2296E+02
      2.360  0.2437E+01  0.2347E+02
      2.568  0.2596E+01  0.2400E+02
      2.775  0.1092E+01  0.2423E+02
      2.983  0.3425E+01  0.2494E+02
      3.190  0.3334E+01  0.2563E+02
      3.397  0.5646E+01  0.2680E+02
      3.605  0.7919E+01  0.2845E+02
      3.812  0.7569E+01  0.3002E+02
      4.019  0.3389E+01  0.3072E+02
      4.227  0.2926E+01  0.3132E+02
      4.434  0.1150E+01  0.3156E+02
      4.642  0.6150E+00  0.3169E+02
      4.849  0.8188E+00  0.3186E+02
      5.056  0.5109E+00  0.3197E+02
      5.264  0.1414E-01  0.3197E+02
      5.471  0.7822E-01  0.3199E+02
      5.678  0.6931E-01  0.3200E+02
      5.886  0.2313E+00  0.3205E+02
      6.093  0.4657E+00  0.3214E+02
      6.301  0.8904E+00  0.3233E+02
      6.508  0.1299E+01  0.3260E+02
      6.715  0.3228E+01  0.3327E+02
      6.923  0.1765E+01  0.3363E+02
      7.130  0.1922E+01  0.3403E+02
      7.338  0.4971E+01  0.3506E+02
      7.545  0.4655E+01  0.3603E+02
      7.752  0.5106E+01  0.3709E+02
      7.960  0.7431E+01  0.3863E+02
      8.167  0.6056E+01  0.3988E+02
      8.374  0.8613E+01  0.4167E+02
      8.582  0.7563E+01  0.4324E+02
      8.789  0.8275E+01  0.4496E+02
      8.997  0.5802E+01  0.4616E+02
      9.204  0.6382E+01  0.4748E+02
      9.411  0.4454E+01  0.4841E+02
      9.619  0.5419E+01  0.4953E+02
      9.826  0.5147E+01  0.5060E+02
     10.033  0.4406E+01  0.5151E+02
     10.241  0.2940E+01  0.5212E+02
     10.448  0.2312E+01  0.5260E+02
     10.656  0.8963E+00  0.5279E+02
     10.863  0.4075E+01  0.5363E+02
     11.070  0.2964E+01  0.5425E+02
     11.278  0.3112E+00  0.5431E+02
     11.485  0.1636E+01  0.5465E+02
     11.692  0.1591E+01  0.5498E+02
     11.900  0.4028E+01  0.5581E+02
     12.107  0.3178E+00  0.5588E+02
     12.315  0.2804E+00  0.5594E+02
     12.522  0.1572E-04  0.5594E+02
     12.729  0.0000E+00  0.5594E+02
     12.937  0.3614E-13  0.5594E+02
     13.144  0.1683E-01  0.5594E+02
     13.351  0.2784E+00  0.5600E+02
     13.559  0.8152E-05  0.5600E+02
     13.766  0.0000E+00  0.5600E+02
     13.974  0.0000E+00  0.5600E+02
     14.181  0.0000E+00  0.5600E+02
     14.388  0.0000E+00  0.5600E+02
     14.596  0.0000E+00  0.5600E+02
     14.803  0.0000E+00  0.5600E+02
     15.011  0.0000E+00  0.5600E+02
     15.218  0.0000E+00  0.5600E+02
     15.425  0.0000E+00  0.5600E+02
     15.633  0.0000E+00  0.5600E+02
     15.840  0.0000E+00  0.5600E+02
     16.047  0.0000E+00  0.5600E+02
