       N       E                     dE             d eps       ncg     rms          rms(c)
DAV:   1     0.399765517812E+03    0.39977E+03   -0.15174E+04 10992   0.128E+03
DAV:   2     0.627365250168E+01   -0.39349E+03   -0.38223E+03 12160   0.429E+02
DAV:   3    -0.242029507940E+02   -0.30477E+02   -0.29435E+02 17636   0.121E+02
DAV:   4    -0.253748779490E+02   -0.11719E+01   -0.11567E+01 18176   0.219E+01
DAV:   5    -0.253923795606E+02   -0.17502E-01   -0.17493E-01 17360   0.322E+00    0.977E+00
DAV:   6    -0.235435358950E+02    0.18488E+01   -0.53340E+00 16384   0.201E+01    0.367E+00
DAV:   7    -0.234964389050E+02    0.47097E-01   -0.23870E-01 18156   0.320E+00    0.218E+00
DAV:   8    -0.234827390661E+02    0.13700E-01   -0.42561E-02 16100   0.156E+00    0.244E-01
DAV:   9    -0.234821827554E+02    0.55631E-03   -0.45833E-03 17328   0.663E-01    0.148E-01
DAV:  10    -0.234822430023E+02   -0.60247E-04   -0.41084E-04 17392   0.207E-01    0.790E-02
DAV:  11    -0.234823079247E+02   -0.64922E-04   -0.33590E-04 17476   0.173E-01    0.371E-02
DAV:  12    -0.234822884073E+02    0.19517E-04   -0.14693E-04 17360   0.112E-01    0.190E-02
DAV:  13    -0.234822853484E+02    0.30588E-05   -0.79674E-06 16840   0.246E-02    0.385E-03
DAV:  14    -0.234822848967E+02    0.45169E-06   -0.34785E-07  7016   0.673E-03
   1 F= -.23482285E+02 E0= -.23481122E+02  d E =-.232673E-02
