       N       E                     dE             d eps       ncg     rms          rms(c)
DAV:   1     0.138184195045E+04    0.13818E+04   -0.96486E+04  7200   0.134E+03
DAV:   2    -0.698508028685E+02   -0.14517E+04   -0.13855E+04  9160   0.279E+02
DAV:   3    -0.217790358282E+03   -0.14794E+03   -0.14489E+03  8768   0.926E+01
DAV:   4    -0.221632709910E+03   -0.38424E+01   -0.38066E+01  9088   0.159E+01
DAV:   5    -0.221745397969E+03   -0.11269E+00   -0.11240E+00  9008   0.250E+00    0.958E+01
DAV:   6    -0.198506086487E+03    0.23239E+02   -0.76078E+01  9120   0.300E+01    0.533E+01
DAV:   7    -0.202120046613E+03   -0.36140E+01   -0.33075E+01  9328   0.178E+01    0.210E+01
DAV:   8    -0.207210154049E+03   -0.50901E+01   -0.46830E+01 10184   0.228E+01    0.172E+01
DAV:   9    -0.201428443167E+03    0.57817E+01   -0.15062E+02 10656   0.220E+01    0.962E+00
DAV:  10    -0.198845108415E+03    0.25833E+01   -0.84558E+00  9112   0.699E+00    0.574E+00
DAV:  11    -0.198413314681E+03    0.43179E+00   -0.15433E+00  9096   0.367E+00    0.379E+00
DAV:  12    -0.198282473495E+03    0.13084E+00   -0.12795E+00  8840   0.250E+00    0.243E+00
DAV:  13    -0.198270632406E+03    0.11841E-01   -0.30741E-01  8760   0.135E+00    0.158E+00
DAV:  14    -0.198269803519E+03    0.82889E-03   -0.52729E-02  8912   0.665E-01    0.117E+00
DAV:  15    -0.198277824392E+03   -0.80209E-02   -0.19890E-01  9472   0.958E-01    0.887E-01
DAV:  16    -0.198261604216E+03    0.16220E-01   -0.26180E-01  9480   0.982E-01    0.538E-01
DAV:  17    -0.198255965951E+03    0.56383E-02   -0.28530E-02  8792   0.442E-01    0.238E-01
DAV:  18    -0.198256094674E+03   -0.12872E-03   -0.51429E-03  8144   0.186E-01    0.150E-01
DAV:  19    -0.198256019581E+03    0.75093E-04   -0.59017E-04  8928   0.633E-02    0.901E-02
DAV:  20    -0.198256029381E+03   -0.98006E-05   -0.21404E-04  8608   0.343E-02    0.561E-02
DAV:  21    -0.198256030674E+03   -0.12928E-05   -0.99520E-05  9080   0.238E-02    0.378E-02
DAV:  22    -0.198256030483E+03    0.19119E-06   -0.24235E-05  8400   0.128E-02    0.241E-02
DAV:  23    -0.198256025742E+03    0.47408E-05   -0.21035E-05  8968   0.112E-02    0.114E-02
DAV:  24    -0.198256025496E+03    0.24641E-06   -0.52022E-06  8008   0.566E-03
   1 F= -.19825603E+03 E0= -.19825059E+03  d E =-.108614E-01
