S18N18
1.0
      4.9786650       0.0000000       0.0000000
      0.0000000       5.2921960       0.0000000
      0.0000000       0.2589810      27.6670000
  S     N   
  18    18  
Direct
      0.5258790       0.5646500       0.8834730
      0.0859850       0.5010890       0.6662360
      0.5655390       0.4083370       0.7251690
      0.1099450       0.9191360       0.0257050
      0.1864680       0.6549800       0.5050120
      0.6864680       0.3450200       0.4949880
      0.2942850       0.0229400       0.7962950
      0.7689150       0.8885300       0.8536480
      0.0655390       0.5916630       0.2748310
      0.5859840       0.4989110       0.3337640
      0.3415360       0.9684340       0.5865630
      0.9350980       0.0597520       0.6074400
      0.0258790       0.4353500       0.1165270
      0.4350980       0.9402480       0.3925600
      0.8415360       0.0315660       0.4134370
      0.2689150       0.1114700       0.1463520
      0.7942850       0.9770600       0.2037050
      0.6099450       0.0808640       0.9742950
      0.2342210       0.6086160       0.8781880
      0.5230360       0.6431610       0.7606170
      0.3529800       0.3560750       0.6825110
      0.9292970       0.4696210       0.5239950
      0.2962760       0.0542530       0.9851630
      0.4292970       0.5303790       0.4760050
      0.5271560       0.0684540       0.8339020
      0.8529800       0.6439250       0.3174890
      0.3152220       0.7913900       0.7570470
      0.0230360       0.3568390       0.2393830
      0.9115350       0.3327190       0.6315060
      0.7342210       0.3913840       0.1218120
      0.3251780       0.7012510       0.5612220
      0.8251780       0.2987490       0.4387780
      0.4115350       0.6672810       0.3684940
      0.8152220       0.2086100       0.2429530
      0.0271560       0.9315460       0.1660980
      0.7962760       0.9457470       0.0148370
