   1   1   0   0
  0.1545111E+02  0.2717652E-09  0.2717652E-09  0.2717652E-09  0.5000000E-15
  1.000000000000000E-004
  CAR 
 unknown system                          
     37.16309450     -9.36614110  301      3.00346840      1.00000000
     -9.366  0.0000E+00  0.0000E+00
     -9.211  0.0000E+00  0.0000E+00
     -9.056  0.0000E+00  0.0000E+00
     -8.901  0.0000E+00  0.0000E+00
     -8.746  0.0000E+00  0.0000E+00
     -8.591  0.0000E+00  0.0000E+00
     -8.436  0.0000E+00  0.0000E+00
     -8.280  0.0000E+00  0.0000E+00
     -8.125  0.0000E+00  0.0000E+00
     -7.970  0.0000E+00  0.0000E+00
     -7.815  0.0000E+00  0.0000E+00
     -7.660  0.0000E+00  0.0000E+00
     -7.505  0.3416E-14  0.5298E-15
     -7.350  0.2541E-04  0.3940E-05
     -7.195  0.9127E-02  0.1419E-02
     -7.040  0.1068E-01  0.3076E-02
     -6.885  0.1060E+00  0.1951E-01
     -6.729  0.3324E-01  0.2467E-01
     -6.574  0.2711E-01  0.2887E-01
     -6.419  0.2254E+00  0.6383E-01
     -6.264  0.5471E-01  0.7231E-01
     -6.109  0.6799E-01  0.8286E-01
     -5.954  0.2240E+00  0.1176E+00
     -5.799  0.5848E-01  0.1267E+00
     -5.644  0.2604E+00  0.1671E+00
     -5.489  0.2455E+00  0.2051E+00
     -5.334  0.2881E+00  0.2498E+00
     -5.179  0.2280E+01  0.6035E+00
     -5.023  0.5064E+01  0.1389E+01
     -4.868  0.8346E+01  0.2683E+01
     -4.713  0.7475E+01  0.3843E+01
     -4.558  0.6083E+01  0.4786E+01
     -4.403  0.4780E+01  0.5528E+01
     -4.248  0.8887E+01  0.6906E+01
     -4.093  0.1391E+02  0.9064E+01
     -3.938  0.5798E+01  0.9963E+01
     -3.783  0.2085E+01  0.1029E+02
     -3.628  0.1009E+00  0.1030E+02
     -3.472  0.1053E+00  0.1032E+02
     -3.317  0.2227E+00  0.1035E+02
     -3.162  0.6049E+00  0.1045E+02
     -3.007  0.2297E+00  0.1048E+02
     -2.852  0.2001E-04  0.1048E+02
     -2.697  0.1932E+00  0.1051E+02
     -2.542  0.3717E+00  0.1057E+02
     -2.387  0.1653E-01  0.1057E+02
     -2.232  0.1971E+00  0.1060E+02
     -2.077  0.1489E+00  0.1063E+02
     -1.921  0.2238E+00  0.1066E+02
     -1.766  0.1931E+00  0.1069E+02
     -1.611  0.6039E+00  0.1078E+02
     -1.456  0.1929E+00  0.1081E+02
     -1.301  0.1538E+00  0.1084E+02
     -1.146  0.4360E+00  0.1091E+02
     -0.991  0.1648E-02  0.1091E+02
     -0.836  0.2186E+00  0.1094E+02
     -0.681  0.2245E+00  0.1097E+02
     -0.526  0.2539E+00  0.1101E+02
     -0.370  0.2800E-01  0.1102E+02
     -0.215  0.1957E+00  0.1105E+02
     -0.060  0.3797E+00  0.1111E+02
      0.095  0.5202E+00  0.1119E+02
      0.250  0.1129E-02  0.1119E+02
      0.405  0.6233E+00  0.1129E+02
      0.560  0.3141E+00  0.1133E+02
      0.715  0.4948E+00  0.1141E+02
      0.870  0.3464E+00  0.1146E+02
      1.025  0.8063E-01  0.1148E+02
      1.180  0.2023E-06  0.1148E+02
      1.336  0.4080E-03  0.1148E+02
      1.491  0.6047E+00  0.1157E+02
      1.646  0.1464E+00  0.1159E+02
      1.801  0.6535E-02  0.1159E+02
      1.956  0.2259E+00  0.1163E+02
      2.111  0.2394E+00  0.1167E+02
      2.266  0.6880E+00  0.1177E+02
      2.421  0.2392E+00  0.1181E+02
      2.576  0.1869E+00  0.1184E+02
      2.731  0.3328E+00  0.1189E+02
      2.887  0.4183E+00  0.1196E+02
      3.042  0.3269E+00  0.1201E+02
      3.197  0.8597E-01  0.1202E+02
      3.352  0.5745E+00  0.1211E+02
      3.507  0.2710E+00  0.1215E+02
      3.662  0.1628E+00  0.1218E+02
      3.817  0.3450E+00  0.1223E+02
      3.972  0.4648E+00  0.1230E+02
      4.127  0.1253E+00  0.1232E+02
      4.282  0.7076E-01  0.1233E+02
      4.438  0.6745E+00  0.1244E+02
      4.593  0.3191E+00  0.1249E+02
      4.748  0.5417E+00  0.1257E+02
      4.903  0.2225E+00  0.1261E+02
      5.058  0.3712E+00  0.1266E+02
      5.213  0.6099E+00  0.1276E+02
      5.368  0.2905E+00  0.1280E+02
      5.523  0.1408E+00  0.1282E+02
      5.678  0.5300E+00  0.1291E+02
      5.833  0.2650E+00  0.1295E+02
      5.989  0.2918E+00  0.1299E+02
      6.144  0.6308E+00  0.1309E+02
      6.299  0.4439E+00  0.1316E+02
      6.454  0.2252E+00  0.1319E+02
      6.609  0.4353E+00  0.1326E+02
      6.764  0.1775E+00  0.1329E+02
      6.919  0.8282E-01  0.1330E+02
      7.074  0.4776E+00  0.1338E+02
      7.229  0.8420E+00  0.1351E+02
      7.384  0.2788E+00  0.1355E+02
      7.539  0.7409E+00  0.1367E+02
      7.695  0.1591E+00  0.1369E+02
      7.850  0.1588E+00  0.1371E+02
      8.005  0.3403E+00  0.1377E+02
      8.160  0.3083E+00  0.1382E+02
      8.315  0.7402E+00  0.1393E+02
      8.470  0.5050E+00  0.1401E+02
      8.625  0.4996E+00  0.1409E+02
      8.780  0.5552E+00  0.1417E+02
      8.935  0.5003E+00  0.1425E+02
      9.090  0.2252E+00  0.1428E+02
      9.246  0.4493E+00  0.1435E+02
      9.401  0.1952E+00  0.1438E+02
      9.556  0.4903E+00  0.1446E+02
      9.711  0.1453E+00  0.1448E+02
      9.866  0.5774E+00  0.1457E+02
     10.021  0.1446E+00  0.1459E+02
     10.176  0.2039E+00  0.1463E+02
     10.331  0.2813E+00  0.1467E+02
     10.486  0.2055E+00  0.1470E+02
     10.641  0.8185E+00  0.1483E+02
     10.797  0.3075E+00  0.1488E+02
     10.952  0.1936E+00  0.1491E+02
     11.107  0.7044E+00  0.1502E+02
     11.262  0.4906E+00  0.1509E+02
     11.417  0.5160E+00  0.1517E+02
     11.572  0.4011E+00  0.1523E+02
     11.727  0.4260E+00  0.1530E+02
     11.882  0.1891E+00  0.1533E+02
     12.037  0.5044E+00  0.1541E+02
     12.192  0.1368E+00  0.1543E+02
     12.348  0.3193E+00  0.1548E+02
     12.503  0.7631E+00  0.1560E+02
     12.658  0.4131E+00  0.1566E+02
     12.813  0.7112E+00  0.1577E+02
     12.968  0.5001E+00  0.1585E+02
     13.123  0.4306E+00  0.1592E+02
     13.278  0.2083E+00  0.1595E+02
     13.433  0.3300E+00  0.1600E+02
     13.588  0.7609E+00  0.1612E+02
     13.743  0.7453E+00  0.1623E+02
     13.898  0.1400E+00  0.1625E+02
     14.054  0.2703E+00  0.1630E+02
     14.209  0.4296E+00  0.1636E+02
     14.364  0.3038E+00  0.1641E+02
     14.519  0.7116E+00  0.1652E+02
     14.674  0.8061E+00  0.1665E+02
     14.829  0.3555E+00  0.1670E+02
     14.984  0.1666E+01  0.1696E+02
     15.139  0.5848E+00  0.1705E+02
     15.294  0.6101E+00  0.1714E+02
     15.449  0.3213E+00  0.1719E+02
     15.605  0.3360E-01  0.1720E+02
     15.760  0.2314E+00  0.1724E+02
     15.915  0.6318E+00  0.1733E+02
     16.070  0.1096E+01  0.1750E+02
     16.225  0.2846E+00  0.1755E+02
     16.380  0.2286E+00  0.1758E+02
     16.535  0.5050E+00  0.1766E+02
     16.690  0.7364E+00  0.1778E+02
     16.845  0.9168E+00  0.1792E+02
     17.000  0.6954E+00  0.1803E+02
     17.156  0.2025E+00  0.1806E+02
     17.311  0.1960E+00  0.1809E+02
     17.466  0.6435E+00  0.1819E+02
     17.621  0.5392E+00  0.1827E+02
     17.776  0.2991E+00  0.1832E+02
     17.931  0.1745E+00  0.1834E+02
     18.086  0.9581E-05  0.1834E+02
     18.241  0.2895E-01  0.1835E+02
     18.396  0.1744E+00  0.1838E+02
     18.551  0.2615E+00  0.1842E+02
     18.706  0.2551E+00  0.1846E+02
     18.862  0.2179E+00  0.1849E+02
     19.017  0.1431E+00  0.1851E+02
     19.172  0.4687E+00  0.1858E+02
     19.327  0.4925E+00  0.1866E+02
     19.482  0.6221E+00  0.1876E+02
     19.637  0.3472E+00  0.1881E+02
     19.792  0.1807E+01  0.1909E+02
     19.947  0.6014E+00  0.1918E+02
     20.102  0.2717E+00  0.1923E+02
     20.257  0.4346E+00  0.1929E+02
     20.413  0.4550E+00  0.1936E+02
     20.568  0.4803E+00  0.1944E+02
     20.723  0.5058E+00  0.1952E+02
     20.878  0.4821E-01  0.1953E+02
     21.033  0.2624E+00  0.1957E+02
     21.188  0.9684E+00  0.1972E+02
     21.343  0.7265E+00  0.1983E+02
     21.498  0.4404E+00  0.1990E+02
     21.653  0.7793E+00  0.2002E+02
     21.808  0.4080E-03  0.2002E+02
     21.964  0.4726E+00  0.2009E+02
     22.119  0.1117E+01  0.2026E+02
     22.274  0.2124E+00  0.2030E+02
     22.429  0.7429E+00  0.2041E+02
     22.584  0.8763E+00  0.2055E+02
     22.739  0.9129E+00  0.2069E+02
     22.894  0.3866E+00  0.2075E+02
     23.049  0.5505E+00  0.2084E+02
     23.204  0.6458E+00  0.2094E+02
     23.359  0.1369E+00  0.2096E+02
     23.515  0.4000E+00  0.2102E+02
     23.670  0.5626E+00  0.2111E+02
     23.825  0.8971E+00  0.2125E+02
     23.980  0.6126E+00  0.2134E+02
     24.135  0.1087E+01  0.2151E+02
     24.290  0.1206E+01  0.2170E+02
     24.445  0.6657E+00  0.2180E+02
     24.600  0.4064E+00  0.2186E+02
     24.755  0.5537E+00  0.2195E+02
     24.910  0.1218E+00  0.2197E+02
     25.065  0.1637E+00  0.2199E+02
     25.221  0.1080E-01  0.2199E+02
     25.376  0.1255E+01  0.2219E+02
     25.531  0.6668E+00  0.2229E+02
     25.686  0.3243E+00  0.2234E+02
     25.841  0.1103E+01  0.2251E+02
     25.996  0.6698E+00  0.2262E+02
     26.151  0.5077E-03  0.2262E+02
     26.306  0.3505E+00  0.2267E+02
     26.461  0.4046E+00  0.2273E+02
     26.616  0.2873E-01  0.2274E+02
     26.772  0.5785E+00  0.2283E+02
     26.927  0.7419E+00  0.2294E+02
     27.082  0.5177E-01  0.2295E+02
     27.237  0.6808E+00  0.2306E+02
     27.392  0.5668E+00  0.2315E+02
     27.547  0.1934E+00  0.2318E+02
     27.702  0.4938E+00  0.2325E+02
     27.857  0.4957E+00  0.2333E+02
     28.012  0.3261E+00  0.2338E+02
     28.167  0.3720E+00  0.2344E+02
     28.323  0.2107E+00  0.2347E+02
     28.478  0.8351E-01  0.2348E+02
     28.633  0.5643E+00  0.2357E+02
     28.788  0.1345E+00  0.2359E+02
     28.943  0.9948E-07  0.2359E+02
     29.098  0.5052E-01  0.2360E+02
     29.253  0.1820E+00  0.2363E+02
     29.408  0.3624E-04  0.2363E+02
     29.563  0.8842E-09  0.2363E+02
     29.718  0.1915E-01  0.2363E+02
     29.874  0.2795E+00  0.2367E+02
     30.029  0.1294E+00  0.2369E+02
     30.184  0.3795E+00  0.2375E+02
     30.339  0.9389E-01  0.2377E+02
     30.494  0.3784E+00  0.2383E+02
     30.649  0.2233E+00  0.2386E+02
     30.804  0.8176E-02  0.2386E+02
     30.959  0.6706E-10  0.2386E+02
     31.114  0.3684E-13  0.2386E+02
     31.269  0.4335E-03  0.2386E+02
     31.424  0.2161E+00  0.2390E+02
     31.580  0.3894E-01  0.2390E+02
     31.735  0.7716E-01  0.2391E+02
     31.890  0.3548E-01  0.2392E+02
     32.045  0.9006E-01  0.2393E+02
     32.200  0.6495E-01  0.2394E+02
     32.355  0.2977E-01  0.2395E+02
     32.510  0.2026E+00  0.2398E+02
     32.665  0.1385E-03  0.2398E+02
     32.820  0.0000E+00  0.2398E+02
     32.975  0.4743E-08  0.2398E+02
     33.131  0.1420E-01  0.2398E+02
     33.286  0.6328E-01  0.2399E+02
     33.441  0.1916E-04  0.2399E+02
     33.596  0.0000E+00  0.2399E+02
     33.751  0.0000E+00  0.2399E+02
     33.906  0.0000E+00  0.2399E+02
     34.061  0.0000E+00  0.2399E+02
     34.216  0.0000E+00  0.2399E+02
     34.371  0.0000E+00  0.2399E+02
     34.526  0.0000E+00  0.2399E+02
     34.682  0.0000E+00  0.2399E+02
     34.837  0.6406E-10  0.2399E+02
     34.992  0.3217E-02  0.2399E+02
     35.147  0.5476E-01  0.2400E+02
     35.302  0.1524E-03  0.2400E+02
     35.457  0.0000E+00  0.2400E+02
     35.612  0.0000E+00  0.2400E+02
     35.767  0.0000E+00  0.2400E+02
     35.922  0.0000E+00  0.2400E+02
     36.077  0.0000E+00  0.2400E+02
     36.233  0.0000E+00  0.2400E+02
     36.388  0.0000E+00  0.2400E+02
     36.543  0.0000E+00  0.2400E+02
     36.698  0.0000E+00  0.2400E+02
     36.853  0.0000E+00  0.2400E+02
     37.008  0.0000E+00  0.2400E+02
     37.163  0.0000E+00  0.2400E+02
