       N       E                     dE             d eps       ncg     rms          rms(c)
DAV:   1     0.452858678113E+02    0.45286E+02   -0.71298E+03 32696   0.173E+03
DAV:   2     0.315176641203E+00   -0.44971E+02   -0.42306E+02 33344   0.228E+02
DAV:   3    -0.111748661101E+01   -0.14327E+01   -0.14300E+01 36372   0.392E+01
DAV:   4    -0.112119619627E+01   -0.37096E-02   -0.37094E-02 35016   0.194E+00
DAV:   5    -0.112119905293E+01   -0.28567E-05   -0.28564E-05 35952   0.526E-02    0.272E+00
DAV:   6    -0.103312924980E+01    0.88070E-01   -0.45988E-01 35796   0.137E+01    0.209E+00
DAV:   7    -0.102845591844E+01    0.46733E-02   -0.83656E-03 33628   0.178E+00    0.106E+00
DAV:   8    -0.102630912458E+01    0.21468E-02   -0.11781E-03 38732   0.493E-01    0.407E-02
DAV:   9    -0.102631874394E+01   -0.96194E-05   -0.78813E-05 43104   0.117E-01    0.208E-02
DAV:  10    -0.102631928053E+01   -0.53659E-06   -0.44380E-06 33880   0.333E-02
   1 F= -.10263193E+01 E0= -.10261639E+01  d E =-.310685E-03
