Rb6 P22                                 
   1.00000000000000     
     1.6856020000000000    5.4787540000000003    0.0000000000000000
    -1.6856020000000000    5.4787540000000003    0.0000000000000000
     0.0000000000000000    3.6162800000000002   40.9192279999999968
   Rb   P 
     6    22
Direct
     0.4475189999999998    0.4475189999999998    0.1445450000000008
     0.0973290000000020    0.0973290000000020    0.3071240000000017
     0.6543780000000012    0.6543780000000012    0.4495760000000004
     0.3456219999999988    0.3456219999999988    0.5504239999999996
     0.9026709999999980    0.9026709999999980    0.6928759999999983
     0.5524810000000002    0.5524810000000002    0.8554549999999992
     0.8626059999999995    0.8626059999999995    0.9710449999999966
     0.4984219999999979    0.4984219999999979    0.0274059999999992
     0.1373940000000005    0.1373940000000005    0.0289550000000034
     0.1448779999999985    0.1448779999999985    0.0835999999999970
     0.0900889999999990    0.0900889999999990    0.2080010000000030
     0.7699119999999979    0.7699119999999979    0.0899629999999974
     0.7245089999999976    0.7245089999999976    0.2036810000000031
     0.7981899999999982    0.7981899999999982    0.2534149999999968
     0.4318629999999999    0.4318629999999999    0.2514409999999998
     0.3751859999999994    0.3751859999999994    0.3642400000000023
     0.3959370000000035    0.3959370000000035    0.4174399999999991
     0.9892759999999967    0.9892759999999967    0.3856030000000032
     0.0107240000000033    0.0107240000000033    0.6143969999999968
     0.6040629999999965    0.6040629999999965    0.5825600000000009
     0.6248140000000006    0.6248140000000006    0.6357599999999977
     0.5681370000000001    0.5681370000000001    0.7485590000000002
     0.2018100000000018    0.2018100000000018    0.7465850000000032
     0.2754910000000024    0.2754910000000024    0.7963189999999969
     0.2300880000000021    0.2300880000000021    0.9100370000000026
     0.9099110000000010    0.9099110000000010    0.7919989999999970
     0.8551220000000015    0.8551220000000015    0.9164000000000030
     0.5015780000000021    0.5015780000000021    0.9725940000000008
 
  0.00000000E+00  0.00000000E+00  0.00000000E+00
  0.00000000E+00  0.00000000E+00  0.00000000E+00
  0.00000000E+00  0.00000000E+00  0.00000000E+00
  0.00000000E+00  0.00000000E+00  0.00000000E+00
  0.00000000E+00  0.00000000E+00  0.00000000E+00
  0.00000000E+00  0.00000000E+00  0.00000000E+00
  0.00000000E+00  0.00000000E+00  0.00000000E+00
  0.00000000E+00  0.00000000E+00  0.00000000E+00
  0.00000000E+00  0.00000000E+00  0.00000000E+00
  0.00000000E+00  0.00000000E+00  0.00000000E+00
  0.00000000E+00  0.00000000E+00  0.00000000E+00
  0.00000000E+00  0.00000000E+00  0.00000000E+00
  0.00000000E+00  0.00000000E+00  0.00000000E+00
  0.00000000E+00  0.00000000E+00  0.00000000E+00
  0.00000000E+00  0.00000000E+00  0.00000000E+00
  0.00000000E+00  0.00000000E+00  0.00000000E+00
  0.00000000E+00  0.00000000E+00  0.00000000E+00
  0.00000000E+00  0.00000000E+00  0.00000000E+00
  0.00000000E+00  0.00000000E+00  0.00000000E+00
  0.00000000E+00  0.00000000E+00  0.00000000E+00
  0.00000000E+00  0.00000000E+00  0.00000000E+00
  0.00000000E+00  0.00000000E+00  0.00000000E+00
  0.00000000E+00  0.00000000E+00  0.00000000E+00
  0.00000000E+00  0.00000000E+00  0.00000000E+00
  0.00000000E+00  0.00000000E+00  0.00000000E+00
  0.00000000E+00  0.00000000E+00  0.00000000E+00
  0.00000000E+00  0.00000000E+00  0.00000000E+00
  0.00000000E+00  0.00000000E+00  0.00000000E+00
