  28  28   0   0
  0.2699207E+02  0.5732190E-09  0.5732190E-09  0.4107871E-08  0.5000000E-15
  1.000000000000000E-004
  CAR 
 unknown system                          
     10.24477824    -26.77037482  301      3.66667570      1.00000000
    -26.770  0.0000E+00  0.0000E+00
    -26.647  0.0000E+00  0.0000E+00
    -26.524  0.0000E+00  0.0000E+00
    -26.400  0.0000E+00  0.0000E+00
    -26.277  0.0000E+00  0.0000E+00
    -26.153  0.0000E+00  0.0000E+00
    -26.030  0.0000E+00  0.0000E+00
    -25.907  0.0000E+00  0.0000E+00
    -25.783  0.0000E+00  0.0000E+00
    -25.660  0.0000E+00  0.0000E+00
    -25.537  0.0000E+00  0.0000E+00
    -25.413  0.0000E+00  0.0000E+00
    -25.290  0.2470E-07  0.3048E-08
    -25.166  0.6828E-01  0.8425E-02
    -25.043  0.1058E+02  0.1314E+01
    -24.920  0.1775E+02  0.3504E+01
    -24.796  0.4022E+01  0.4000E+01
    -24.673  0.1450E-02  0.4000E+01
    -24.549  0.2221E-02  0.4000E+01
    -24.426  0.4679E+01  0.4578E+01
    -24.303  0.1808E+02  0.6808E+01
    -24.179  0.9615E+01  0.7994E+01
    -24.056  0.7970E+00  0.8093E+01
    -23.933  0.1539E+02  0.9992E+01
    -23.809  0.1543E+02  0.1190E+02
    -23.686  0.8474E+00  0.1200E+02
    -23.562  0.1198E-04  0.1200E+02
    -23.439  0.0000E+00  0.1200E+02
    -23.316  0.0000E+00  0.1200E+02
    -23.192  0.0000E+00  0.1200E+02
    -23.069  0.0000E+00  0.1200E+02
    -22.945  0.0000E+00  0.1200E+02
    -22.822  0.0000E+00  0.1200E+02
    -22.699  0.0000E+00  0.1200E+02
    -22.575  0.0000E+00  0.1200E+02
    -22.452  0.0000E+00  0.1200E+02
    -22.329  0.0000E+00  0.1200E+02
    -22.205  0.0000E+00  0.1200E+02
    -22.082  0.0000E+00  0.1200E+02
    -21.958  0.0000E+00  0.1200E+02
    -21.835  0.0000E+00  0.1200E+02
    -21.712  0.0000E+00  0.1200E+02
    -21.588  0.0000E+00  0.1200E+02
    -21.465  0.0000E+00  0.1200E+02
    -21.341  0.0000E+00  0.1200E+02
    -21.218  0.0000E+00  0.1200E+02
    -21.095  0.0000E+00  0.1200E+02
    -20.971  0.0000E+00  0.1200E+02
    -20.848  0.0000E+00  0.1200E+02
    -20.725  0.0000E+00  0.1200E+02
    -20.601  0.0000E+00  0.1200E+02
    -20.478  0.0000E+00  0.1200E+02
    -20.354  0.0000E+00  0.1200E+02
    -20.231  0.0000E+00  0.1200E+02
    -20.108  0.0000E+00  0.1200E+02
    -19.984  0.0000E+00  0.1200E+02
    -19.861  0.0000E+00  0.1200E+02
    -19.737  0.0000E+00  0.1200E+02
    -19.614  0.0000E+00  0.1200E+02
    -19.491  0.0000E+00  0.1200E+02
    -19.367  0.0000E+00  0.1200E+02
    -19.244  0.0000E+00  0.1200E+02
    -19.121  0.0000E+00  0.1200E+02
    -18.997  0.0000E+00  0.1200E+02
    -18.874  0.0000E+00  0.1200E+02
    -18.750  0.0000E+00  0.1200E+02
    -18.627  0.0000E+00  0.1200E+02
    -18.504  0.0000E+00  0.1200E+02
    -18.380  0.0000E+00  0.1200E+02
    -18.257  0.0000E+00  0.1200E+02
    -18.134  0.0000E+00  0.1200E+02
    -18.010  0.0000E+00  0.1200E+02
    -17.887  0.0000E+00  0.1200E+02
    -17.763  0.0000E+00  0.1200E+02
    -17.640  0.0000E+00  0.1200E+02
    -17.517  0.0000E+00  0.1200E+02
    -17.393  0.0000E+00  0.1200E+02
    -17.270  0.0000E+00  0.1200E+02
    -17.146  0.0000E+00  0.1200E+02
    -17.023  0.0000E+00  0.1200E+02
    -16.900  0.0000E+00  0.1200E+02
    -16.776  0.0000E+00  0.1200E+02
    -16.653  0.0000E+00  0.1200E+02
    -16.530  0.0000E+00  0.1200E+02
    -16.406  0.0000E+00  0.1200E+02
    -16.283  0.0000E+00  0.1200E+02
    -16.159  0.0000E+00  0.1200E+02
    -16.036  0.0000E+00  0.1200E+02
    -15.913  0.0000E+00  0.1200E+02
    -15.789  0.0000E+00  0.1200E+02
    -15.666  0.0000E+00  0.1200E+02
    -15.542  0.0000E+00  0.1200E+02
    -15.419  0.0000E+00  0.1200E+02
    -15.296  0.0000E+00  0.1200E+02
    -15.172  0.0000E+00  0.1200E+02
    -15.049  0.0000E+00  0.1200E+02
    -14.926  0.0000E+00  0.1200E+02
    -14.802  0.0000E+00  0.1200E+02
    -14.679  0.0000E+00  0.1200E+02
    -14.555  0.0000E+00  0.1200E+02
    -14.432  0.0000E+00  0.1200E+02
    -14.309  0.0000E+00  0.1200E+02
    -14.185  0.0000E+00  0.1200E+02
    -14.062  0.0000E+00  0.1200E+02
    -13.938  0.0000E+00  0.1200E+02
    -13.815  0.0000E+00  0.1200E+02
    -13.692  0.0000E+00  0.1200E+02
    -13.568  0.0000E+00  0.1200E+02
    -13.445  0.0000E+00  0.1200E+02
    -13.322  0.0000E+00  0.1200E+02
    -13.198  0.0000E+00  0.1200E+02
    -13.075  0.0000E+00  0.1200E+02
    -12.951  0.0000E+00  0.1200E+02
    -12.828  0.0000E+00  0.1200E+02
    -12.705  0.0000E+00  0.1200E+02
    -12.581  0.0000E+00  0.1200E+02
    -12.458  0.0000E+00  0.1200E+02
    -12.334  0.0000E+00  0.1200E+02
    -12.211  0.4307E-13  0.1200E+02
    -12.088  0.7432E-04  0.1200E+02
    -11.964  0.1296E+01  0.1216E+02
    -11.841  0.4092E+01  0.1266E+02
    -11.718  0.5280E-01  0.1267E+02
    -11.594  0.8449E+01  0.1371E+02
    -11.471  0.2319E+01  0.1400E+02
    -11.347  0.1035E-03  0.1400E+02
    -11.224  0.5418E-01  0.1401E+02
    -11.101  0.1472E+01  0.1419E+02
    -10.977  0.1168E+01  0.1433E+02
    -10.854  0.2305E+01  0.1462E+02
    -10.730  0.8394E+01  0.1565E+02
    -10.607  0.1013E+02  0.1690E+02
    -10.484  0.5977E+01  0.1764E+02
    -10.360  0.4651E+01  0.1821E+02
    -10.237  0.2549E+01  0.1853E+02
    -10.114  0.7150E+01  0.1941E+02
     -9.990  0.5089E+01  0.2004E+02
     -9.867  0.3600E+01  0.2048E+02
     -9.743  0.3817E+01  0.2095E+02
     -9.620  0.2124E+02  0.2357E+02
     -9.497  0.4314E+01  0.2411E+02
     -9.373  0.1176E+02  0.2556E+02
     -9.250  0.1574E+02  0.2750E+02
     -9.126  0.2526E+02  0.3061E+02
     -9.003  0.3608E+02  0.3507E+02
     -8.880  0.3386E+02  0.3924E+02
     -8.756  0.5048E+01  0.3987E+02
     -8.633  0.9534E+01  0.4104E+02
     -8.510  0.3968E+02  0.4594E+02
     -8.386  0.4137E+02  0.5104E+02
     -8.263  0.2460E+02  0.5408E+02
     -8.139  0.7490E+01  0.5500E+02
     -8.016  0.2612E+02  0.5823E+02
     -7.893  0.4042E+02  0.6321E+02
     -7.769  0.2100E+02  0.6580E+02
     -7.646  0.3231E+01  0.6620E+02
     -7.522  0.1640E+01  0.6640E+02
     -7.399  0.7860E+01  0.6737E+02
     -7.276  0.2357E+01  0.6767E+02
     -7.152  0.7164E+00  0.6775E+02
     -7.029  0.4465E+01  0.6830E+02
     -6.906  0.2347E+00  0.6833E+02
     -6.782  0.1549E+01  0.6852E+02
     -6.659  0.1549E+02  0.7044E+02
     -6.535  0.4577E+01  0.7100E+02
     -6.412  0.3044E+01  0.7138E+02
     -6.289  0.4752E+01  0.7196E+02
     -6.165  0.6105E+01  0.7272E+02
     -6.042  0.7951E+01  0.7370E+02
     -5.919  0.1344E+02  0.7535E+02
     -5.795  0.8632E+01  0.7642E+02
     -5.672  0.3493E+01  0.7685E+02
     -5.548  0.6020E+01  0.7759E+02
     -5.425  0.5721E+01  0.7830E+02
     -5.302  0.1253E+02  0.7985E+02
     -5.178  0.5773E+01  0.8056E+02
     -5.055  0.2811E+01  0.8091E+02
     -4.931  0.6245E+01  0.8168E+02
     -4.808  0.7037E+01  0.8254E+02
     -4.685  0.8760E+01  0.8362E+02
     -4.561  0.1138E+02  0.8503E+02
     -4.438  0.7873E+01  0.8600E+02
     -4.315  0.2724E+01  0.8634E+02
     -4.191  0.4505E+01  0.8689E+02
     -4.068  0.4642E+01  0.8746E+02
     -3.944  0.4941E+01  0.8807E+02
     -3.821  0.4022E+01  0.8857E+02
     -3.698  0.1797E+01  0.8879E+02
     -3.574  0.2459E+01  0.8910E+02
     -3.451  0.1979E+01  0.8934E+02
     -3.327  0.1967E+01  0.8958E+02
     -3.204  0.5430E+01  0.9025E+02
     -3.081  0.1743E+01  0.9047E+02
     -2.957  0.2541E+01  0.9078E+02
     -2.834  0.1139E+01  0.9092E+02
     -2.711  0.7091E+01  0.9180E+02
     -2.587  0.7479E+00  0.9189E+02
     -2.464  0.1437E-02  0.9189E+02
     -2.340  0.1501E+01  0.9207E+02
     -2.217  0.1340E+02  0.9373E+02
     -2.094  0.1483E+02  0.9556E+02
     -1.970  0.7289E+01  0.9646E+02
     -1.847  0.2641E+01  0.9678E+02
     -1.723  0.9847E+00  0.9690E+02
     -1.600  0.1124E+02  0.9829E+02
     -1.477  0.1407E+02  0.1000E+03
     -1.353  0.1215E+02  0.1015E+03
     -1.230  0.1533E+02  0.1034E+03
     -1.107  0.1511E+02  0.1053E+03
     -0.983  0.8002E+01  0.1063E+03
     -0.860  0.1930E+02  0.1087E+03
     -0.736  0.1609E+02  0.1106E+03
     -0.613  0.1807E+02  0.1129E+03
     -0.490  0.1995E+02  0.1153E+03
     -0.366  0.1100E+02  0.1167E+03
     -0.243  0.1431E+02  0.1184E+03
     -0.119  0.1158E+02  0.1199E+03
      0.004  0.1799E+02  0.1221E+03
      0.127  0.7953E+01  0.1231E+03
      0.251  0.1289E+02  0.1247E+03
      0.374  0.1798E+02  0.1269E+03
      0.497  0.1517E+02  0.1288E+03
      0.621  0.1871E+02  0.1311E+03
      0.744  0.1605E+02  0.1330E+03
      0.868  0.5511E+01  0.1337E+03
      0.991  0.7959E+01  0.1347E+03
      1.114  0.8489E+01  0.1358E+03
      1.238  0.8102E+01  0.1368E+03
      1.361  0.1176E+02  0.1382E+03
      1.485  0.1443E+02  0.1400E+03
      1.608  0.1146E+02  0.1414E+03
      1.731  0.9430E+01  0.1426E+03
      1.855  0.1466E+02  0.1444E+03
      1.978  0.1721E+02  0.1465E+03
      2.101  0.1561E+02  0.1484E+03
      2.225  0.2219E+02  0.1512E+03
      2.348  0.1171E+02  0.1526E+03
      2.472  0.1138E+02  0.1540E+03
      2.595  0.7210E+01  0.1549E+03
      2.718  0.1098E+02  0.1563E+03
      2.842  0.1634E+02  0.1583E+03
      2.965  0.1469E+02  0.1601E+03
      3.089  0.6724E+01  0.1609E+03
      3.212  0.3629E+01  0.1614E+03
      3.335  0.5601E+01  0.1621E+03
      3.459  0.8244E+01  0.1631E+03
      3.582  0.3856E+01  0.1635E+03
      3.705  0.6509E+01  0.1643E+03
      3.829  0.4560E+01  0.1649E+03
      3.952  0.6635E+01  0.1657E+03
      4.076  0.7425E+01  0.1666E+03
      4.199  0.4171E+01  0.1672E+03
      4.322  0.5328E+01  0.1678E+03
      4.446  0.8512E+01  0.1689E+03
      4.569  0.7416E+01  0.1698E+03
      4.693  0.1226E+02  0.1713E+03
      4.816  0.6915E+01  0.1721E+03
      4.939  0.1113E+02  0.1735E+03
      5.063  0.1384E+02  0.1752E+03
      5.186  0.1455E+02  0.1770E+03
      5.309  0.1084E+02  0.1784E+03
      5.433  0.1199E+02  0.1798E+03
      5.556  0.2018E+02  0.1823E+03
      5.680  0.2214E+02  0.1851E+03
      5.803  0.2403E+02  0.1880E+03
      5.926  0.2182E+02  0.1907E+03
      6.050  0.2353E+02  0.1936E+03
      6.173  0.2123E+02  0.1962E+03
      6.296  0.2091E+02  0.1988E+03
      6.420  0.2412E+02  0.2018E+03
      6.543  0.1679E+02  0.2039E+03
      6.667  0.1690E+02  0.2060E+03
      6.790  0.1580E+02  0.2079E+03
      6.913  0.2129E+02  0.2105E+03
      7.037  0.2341E+02  0.2134E+03
      7.160  0.1819E+02  0.2157E+03
      7.284  0.2013E+02  0.2181E+03
      7.407  0.2397E+02  0.2211E+03
      7.530  0.2355E+02  0.2240E+03
      7.654  0.2559E+02  0.2272E+03
      7.777  0.3023E+02  0.2309E+03
      7.900  0.1705E+02  0.2330E+03
      8.024  0.2248E+02  0.2358E+03
      8.147  0.1330E+02  0.2374E+03
      8.271  0.8873E+01  0.2385E+03
      8.394  0.4384E+01  0.2391E+03
      8.517  0.5921E+01  0.2398E+03
      8.641  0.1758E+01  0.2400E+03
      8.764  0.1086E-01  0.2400E+03
      8.888  0.4115E-08  0.2400E+03
      9.011  0.0000E+00  0.2400E+03
      9.134  0.0000E+00  0.2400E+03
      9.258  0.0000E+00  0.2400E+03
      9.381  0.0000E+00  0.2400E+03
      9.504  0.0000E+00  0.2400E+03
      9.628  0.0000E+00  0.2400E+03
      9.751  0.0000E+00  0.2400E+03
      9.875  0.0000E+00  0.2400E+03
      9.998  0.0000E+00  0.2400E+03
     10.121  0.0000E+00  0.2400E+03
     10.245  0.0000E+00  0.2400E+03
