Rb6P22
1.0
      1.6856020       5.4787540       0.0000000
     -1.6856020       5.4787540       0.0000000
      0.0000000       3.6162800      40.9192280
  Rb    P   
  6     22  
Direct
      0.4475190       0.4475190       0.1445450
      0.0973290       0.0973290       0.3071240
      0.6543780       0.6543780       0.4495760
      0.3456220       0.3456220       0.5504240
      0.9026710       0.9026710       0.6928760
      0.5524810       0.5524810       0.8554550
      0.8626060       0.8626060       0.9710450
      0.4984220       0.4984220       0.0274060
      0.1373940       0.1373940       0.0289550
      0.1448780       0.1448780       0.0836000
      0.0900890       0.0900890       0.2080010
      0.7699120       0.7699120       0.0899630
      0.7245090       0.7245090       0.2036810
      0.7981900       0.7981900       0.2534150
      0.4318630       0.4318630       0.2514410
      0.3751860       0.3751860       0.3642400
      0.3959370       0.3959370       0.4174400
      0.9892760       0.9892760       0.3856030
      0.0107240       0.0107240       0.6143970
      0.6040630       0.6040630       0.5825600
      0.6248140       0.6248140       0.6357600
      0.5681370       0.5681370       0.7485590
      0.2018100       0.2018100       0.7465850
      0.2754910       0.2754910       0.7963190
      0.2300880       0.2300880       0.9100370
      0.9099110       0.9099110       0.7919990
      0.8551220       0.8551220       0.9164000
      0.5015780       0.5015780       0.9725940
