   2   2   0   0
  0.1305577E+02  0.3330037E-09  0.3330037E-09  0.3330037E-09  0.5000000E-15
  1.000000000000000E-004
  CAR 
 unknown system                          
     32.55817172     -8.97925769  301      6.52175171      1.00000000
     -8.979  0.0000E+00  0.0000E+00
     -8.841  0.0000E+00  0.0000E+00
     -8.702  0.0000E+00  0.0000E+00
     -8.564  0.0000E+00  0.0000E+00
     -8.425  0.0000E+00  0.0000E+00
     -8.287  0.0000E+00  0.0000E+00
     -8.149  0.0000E+00  0.0000E+00
     -8.010  0.0000E+00  0.0000E+00
     -7.872  0.0000E+00  0.0000E+00
     -7.733  0.0000E+00  0.0000E+00
     -7.595  0.0000E+00  0.0000E+00
     -7.456  0.0000E+00  0.0000E+00
     -7.318  0.1458E-11  0.2018E-12
     -7.179  0.1258E-03  0.1742E-04
     -7.041  0.1816E-01  0.2532E-02
     -6.902  0.3432E-01  0.7284E-02
     -6.764  0.2259E+00  0.3856E-01
     -6.625  0.2028E-01  0.4137E-01
     -6.487  0.2184E+00  0.7161E-01
     -6.349  0.2747E+00  0.1096E+00
     -6.210  0.3769E+00  0.1618E+00
     -6.072  0.1997E-01  0.1646E+00
     -5.933  0.3826E+00  0.2176E+00
     -5.795  0.6626E+00  0.3093E+00
     -5.656  0.5828E+00  0.3900E+00
     -5.518  0.3009E+00  0.4317E+00
     -5.379  0.6871E+00  0.5268E+00
     -5.241  0.1629E+01  0.7523E+00
     -5.102  0.8635E+00  0.8718E+00
     -4.964  0.1824E+01  0.1124E+01
     -4.826  0.1540E+01  0.1338E+01
     -4.687  0.2046E+01  0.1621E+01
     -4.549  0.2304E+01  0.1940E+01
     -4.410  0.4350E+00  0.2000E+01
     -4.272  0.1405E-04  0.2000E+01
     -4.133  0.0000E+00  0.2000E+01
     -3.995  0.0000E+00  0.2000E+01
     -3.856  0.0000E+00  0.2000E+01
     -3.718  0.0000E+00  0.2000E+01
     -3.579  0.0000E+00  0.2000E+01
     -3.441  0.0000E+00  0.2000E+01
     -3.302  0.0000E+00  0.2000E+01
     -3.164  0.0000E+00  0.2000E+01
     -3.026  0.0000E+00  0.2000E+01
     -2.887  0.0000E+00  0.2000E+01
     -2.749  0.0000E+00  0.2000E+01
     -2.610  0.0000E+00  0.2000E+01
     -2.472  0.0000E+00  0.2000E+01
     -2.333  0.0000E+00  0.2000E+01
     -2.195  0.0000E+00  0.2000E+01
     -2.056  0.0000E+00  0.2000E+01
     -1.918  0.0000E+00  0.2000E+01
     -1.779  0.0000E+00  0.2000E+01
     -1.641  0.0000E+00  0.2000E+01
     -1.503  0.0000E+00  0.2000E+01
     -1.364  0.0000E+00  0.2000E+01
     -1.226  0.0000E+00  0.2000E+01
     -1.087  0.0000E+00  0.2000E+01
     -0.949  0.6600E-16  0.2000E+01
     -0.810  0.2505E-05  0.2000E+01
     -0.672  0.5098E-01  0.2007E+01
     -0.533  0.1191E+00  0.2024E+01
     -0.395  0.7160E+00  0.2123E+01
     -0.256  0.4746E+00  0.2188E+01
     -0.118  0.9498E+00  0.2320E+01
      0.021  0.4207E+00  0.2378E+01
      0.159  0.1026E+01  0.2520E+01
      0.297  0.1806E+01  0.2770E+01
      0.436  0.2069E+01  0.3057E+01
      0.574  0.7974E+00  0.3167E+01
      0.713  0.2056E+01  0.3452E+01
      0.851  0.1949E+01  0.3722E+01
      0.990  0.1115E+01  0.3876E+01
      1.128  0.1127E+01  0.4032E+01
      1.267  0.6719E+00  0.4125E+01
      1.405  0.1641E+01  0.4352E+01
      1.544  0.2752E+01  0.4733E+01
      1.682  0.4336E+01  0.5334E+01
      1.820  0.2109E+01  0.5626E+01
      1.959  0.2542E+01  0.5978E+01
      2.097  0.1329E+01  0.6162E+01
      2.236  0.2474E+01  0.6504E+01
      2.374  0.1205E+01  0.6671E+01
      2.513  0.1277E+01  0.6848E+01
      2.651  0.4641E+00  0.6912E+01
      2.790  0.8713E+00  0.7033E+01
      2.928  0.1257E+01  0.7207E+01
      3.067  0.7440E+00  0.7310E+01
      3.205  0.2391E+01  0.7641E+01
      3.344  0.4535E+00  0.7704E+01
      3.482  0.1708E-05  0.7704E+01
      3.620  0.3872E-01  0.7709E+01
      3.759  0.1890E+01  0.7971E+01
      3.897  0.2112E+00  0.8000E+01
      4.036  0.1074E-05  0.8000E+01
      4.174  0.3141E-02  0.8000E+01
      4.313  0.5221E+00  0.8073E+01
      4.451  0.7233E+00  0.8173E+01
      4.590  0.4423E+00  0.8234E+01
      4.728  0.1162E+01  0.8395E+01
      4.867  0.1330E+01  0.8579E+01
      5.005  0.8413E+00  0.8696E+01
      5.143  0.9339E+00  0.8825E+01
      5.282  0.1089E+00  0.8840E+01
      5.420  0.4432E+00  0.8901E+01
      5.559  0.7499E+00  0.9005E+01
      5.697  0.2056E+01  0.9290E+01
      5.836  0.9365E+00  0.9420E+01
      5.974  0.5376E+00  0.9494E+01
      6.113  0.1096E+01  0.9646E+01
      6.251  0.5949E+00  0.9728E+01
      6.390  0.1316E+01  0.9910E+01
      6.528  0.6916E+00  0.1001E+02
      6.667  0.1266E+01  0.1018E+02
      6.805  0.1251E+01  0.1035E+02
      6.943  0.1696E+01  0.1059E+02
      7.082  0.3434E+01  0.1106E+02
      7.220  0.1317E+01  0.1125E+02
      7.359  0.2025E+01  0.1153E+02
      7.497  0.1538E+01  0.1174E+02
      7.636  0.1008E+01  0.1188E+02
      7.774  0.6816E+00  0.1197E+02
      7.913  0.9802E+00  0.1211E+02
      8.051  0.1724E+01  0.1235E+02
      8.190  0.1991E+01  0.1262E+02
      8.328  0.2461E+01  0.1297E+02
      8.466  0.1082E+00  0.1298E+02
      8.605  0.1582E+01  0.1320E+02
      8.743  0.1104E+01  0.1335E+02
      8.882  0.7785E+00  0.1346E+02
      9.020  0.4283E+00  0.1352E+02
      9.159  0.2173E-02  0.1352E+02
      9.297  0.1262E-02  0.1352E+02
      9.436  0.1960E-01  0.1352E+02
      9.574  0.3430E+00  0.1357E+02
      9.713  0.9359E-01  0.1358E+02
      9.851  0.5961E+00  0.1367E+02
      9.990  0.5400E+00  0.1374E+02
     10.128  0.4643E+00  0.1380E+02
     10.266  0.6959E+00  0.1390E+02
     10.405  0.1163E+01  0.1406E+02
     10.543  0.5920E+00  0.1414E+02
     10.682  0.1508E+01  0.1435E+02
     10.820  0.9063E+00  0.1448E+02
     10.959  0.1363E+01  0.1467E+02
     11.097  0.1509E+01  0.1488E+02
     11.236  0.1720E+01  0.1511E+02
     11.374  0.1235E+01  0.1529E+02
     11.513  0.1129E+01  0.1544E+02
     11.651  0.8214E+00  0.1556E+02
     11.789  0.1521E+01  0.1577E+02
     11.928  0.2124E+01  0.1606E+02
     12.066  0.1600E+01  0.1628E+02
     12.205  0.1246E+01  0.1645E+02
     12.343  0.8957E+00  0.1658E+02
     12.482  0.2101E-01  0.1658E+02
     12.620  0.1090E+01  0.1673E+02
     12.759  0.2301E+01  0.1705E+02
     12.897  0.5224E+00  0.1712E+02
     13.036  0.8565E+00  0.1724E+02
     13.174  0.1035E+01  0.1738E+02
     13.312  0.1014E+01  0.1752E+02
     13.451  0.2015E+01  0.1780E+02
     13.589  0.1483E+01  0.1801E+02
     13.728  0.7373E+00  0.1811E+02
     13.866  0.8933E+00  0.1824E+02
     14.005  0.4284E+00  0.1829E+02
     14.143  0.1268E+01  0.1847E+02
     14.282  0.1107E+01  0.1862E+02
     14.420  0.3155E+00  0.1867E+02
     14.559  0.2117E+01  0.1896E+02
     14.697  0.1403E+00  0.1898E+02
     14.836  0.1438E-04  0.1898E+02
     14.974  0.3205E+00  0.1902E+02
     15.112  0.1182E+01  0.1919E+02
     15.251  0.6036E-01  0.1920E+02
     15.389  0.4504E+00  0.1926E+02
     15.528  0.8237E-02  0.1926E+02
     15.666  0.6752E-06  0.1926E+02
     15.805  0.4694E-01  0.1927E+02
     15.943  0.1115E+00  0.1928E+02
     16.082  0.1102E+00  0.1930E+02
     16.220  0.1515E+01  0.1951E+02
     16.359  0.1003E+01  0.1965E+02
     16.497  0.1565E+01  0.1986E+02
     16.635  0.3830E+00  0.1991E+02
     16.774  0.9890E+00  0.2005E+02
     16.912  0.4420E+00  0.2011E+02
     17.051  0.5514E+00  0.2019E+02
     17.189  0.8951E+00  0.2031E+02
     17.328  0.1209E+01  0.2048E+02
     17.466  0.4469E+00  0.2054E+02
     17.605  0.7047E+00  0.2064E+02
     17.743  0.7641E+00  0.2075E+02
     17.882  0.8830E+00  0.2087E+02
     18.020  0.1407E+01  0.2106E+02
     18.159  0.6952E+00  0.2116E+02
     18.297  0.1464E+01  0.2136E+02
     18.435  0.1637E+01  0.2159E+02
     18.574  0.5728E-01  0.2160E+02
     18.712  0.3248E+00  0.2164E+02
     18.851  0.1057E+01  0.2179E+02
     18.989  0.5598E+00  0.2187E+02
     19.128  0.1082E+00  0.2188E+02
     19.266  0.1173E+01  0.2204E+02
     19.405  0.7177E+00  0.2214E+02
     19.543  0.7338E+00  0.2224E+02
     19.682  0.5728E+00  0.2232E+02
     19.820  0.2360E+00  0.2236E+02
     19.958  0.2417E+01  0.2269E+02
     20.097  0.2136E+01  0.2299E+02
     20.235  0.1860E+01  0.2324E+02
     20.374  0.1512E+00  0.2326E+02
     20.512  0.1716E+00  0.2329E+02
     20.651  0.1499E+01  0.2350E+02
     20.789  0.1500E+01  0.2370E+02
     20.928  0.1806E+01  0.2395E+02
     21.066  0.6250E+00  0.2404E+02
     21.205  0.1010E+01  0.2418E+02
     21.343  0.2593E-01  0.2418E+02
     21.482  0.3091E+00  0.2423E+02
     21.620  0.2234E+01  0.2454E+02
     21.758  0.1324E+01  0.2472E+02
     21.897  0.6296E+00  0.2481E+02
     22.035  0.1821E+01  0.2506E+02
     22.174  0.2909E+01  0.2546E+02
     22.312  0.2452E+00  0.2550E+02
     22.451  0.5917E+00  0.2558E+02
     22.589  0.1516E+01  0.2579E+02
     22.728  0.1847E+00  0.2581E+02
     22.866  0.1039E+01  0.2596E+02
     23.005  0.9794E+00  0.2609E+02
     23.143  0.6849E-01  0.2610E+02
     23.281  0.2075E+00  0.2613E+02
     23.420  0.5243E+00  0.2620E+02
     23.558  0.5584E+00  0.2628E+02
     23.697  0.1726E-01  0.2628E+02
     23.835  0.3530E+00  0.2633E+02
     23.974  0.1847E+00  0.2636E+02
     24.112  0.5741E+00  0.2644E+02
     24.251  0.5493E+00  0.2651E+02
     24.389  0.5174E+00  0.2658E+02
     24.528  0.5104E-01  0.2659E+02
     24.666  0.2776E+00  0.2663E+02
     24.805  0.4261E+00  0.2669E+02
     24.943  0.8318E+00  0.2680E+02
     25.081  0.1306E+01  0.2698E+02
     25.220  0.9074E+00  0.2711E+02
     25.358  0.7885E+00  0.2722E+02
     25.497  0.7434E+00  0.2732E+02
     25.635  0.4938E+00  0.2739E+02
     25.774  0.6505E+00  0.2748E+02
     25.912  0.1295E+01  0.2766E+02
     26.051  0.9509E+00  0.2779E+02
     26.189  0.1175E+01  0.2795E+02
     26.328  0.9480E+00  0.2809E+02
     26.466  0.2780E+00  0.2812E+02
     26.604  0.5405E+00  0.2820E+02
     26.743  0.5729E+00  0.2828E+02
     26.881  0.1288E+00  0.2830E+02
     27.020  0.3475E+00  0.2834E+02
     27.158  0.1129E+01  0.2850E+02
     27.297  0.5190E+00  0.2857E+02
     27.435  0.1422E+01  0.2877E+02
     27.574  0.2370E+01  0.2910E+02
     27.712  0.2579E+01  0.2945E+02
     27.851  0.1329E+01  0.2964E+02
     27.989  0.6847E+00  0.2973E+02
     28.128  0.1358E+01  0.2992E+02
     28.266  0.7213E+00  0.3002E+02
     28.404  0.2664E+01  0.3039E+02
     28.543  0.1232E+01  0.3056E+02
     28.681  0.2724E+01  0.3094E+02
     28.820  0.4781E+00  0.3100E+02
     28.958  0.9455E+00  0.3114E+02
     29.097  0.2630E+01  0.3150E+02
     29.235  0.6857E+00  0.3159E+02
     29.374  0.4321E+00  0.3165E+02
     29.512  0.2455E+00  0.3169E+02
     29.651  0.5526E+00  0.3176E+02
     29.789  0.1447E+01  0.3197E+02
     29.927  0.1329E+00  0.3198E+02
     30.066  0.1830E-05  0.3198E+02
     30.204  0.0000E+00  0.3198E+02
     30.343  0.0000E+00  0.3198E+02
     30.481  0.5517E-08  0.3198E+02
     30.620  0.9180E-02  0.3198E+02
     30.758  0.1090E+00  0.3200E+02
     30.897  0.7548E-03  0.3200E+02
     31.035  0.8747E-11  0.3200E+02
     31.174  0.0000E+00  0.3200E+02
     31.312  0.0000E+00  0.3200E+02
     31.451  0.0000E+00  0.3200E+02
     31.589  0.0000E+00  0.3200E+02
     31.727  0.0000E+00  0.3200E+02
     31.866  0.0000E+00  0.3200E+02
     32.004  0.0000E+00  0.3200E+02
     32.143  0.0000E+00  0.3200E+02
     32.281  0.0000E+00  0.3200E+02
     32.420  0.0000E+00  0.3200E+02
     32.558  0.0000E+00  0.3200E+02
