       N       E                     dE             d eps       ncg     rms          rms(c)
DAV:   1     0.250716693053E+02    0.25072E+02   -0.49816E+03 23336   0.620E+02
DAV:   2    -0.230722501367E+02   -0.48144E+02   -0.44568E+02 30352   0.153E+02
DAV:   3    -0.249183010450E+02   -0.18461E+01   -0.18352E+01 30288   0.246E+01
DAV:   4    -0.249249673831E+02   -0.66663E-02   -0.66659E-02 29640   0.194E+00
DAV:   5    -0.249249944232E+02   -0.27040E-04   -0.27040E-04 30960   0.113E-01    0.307E+01
DAV:   6    -0.211373320573E+02    0.37877E+01   -0.13136E+01 31048   0.173E+01    0.746E+00
DAV:   7    -0.211380353111E+02   -0.70325E-03   -0.78755E-01 25312   0.519E+00    0.692E+00
DAV:   8    -0.211393044683E+02   -0.12692E-02   -0.13641E-01 25472   0.209E+00    0.442E+00
DAV:   9    -0.211074930247E+02    0.31811E-01   -0.56943E-02 25576   0.131E+00    0.251E-01
DAV:  10    -0.211076775251E+02   -0.18450E-03   -0.31900E-03 32104   0.344E-01    0.215E-01
DAV:  11    -0.211076726855E+02    0.48397E-05   -0.45584E-05 29088   0.484E-02    0.205E-02
DAV:  12    -0.211076705093E+02    0.21762E-05   -0.29195E-06 28776   0.896E-03    0.212E-02
DAV:  13    -0.211076704463E+02    0.63020E-07   -0.11638E-06 20920   0.826E-03
   1 F= -.21107670E+02 E0= -.21107064E+02  d E =-.121336E-02
