C4                                      
   1.00000000000000     
     0.0000000000000000    4.2546406144450799    0.0000000000000000
     2.4565648800000002    0.0000000000000000    0.0000000000000000
     0.0000000000000000   -1.3790696309310664   -3.5028300786042919
   C 
     4
Direct
     0.1666444700000014    0.0000000000000000    0.9999069599999970
     0.8333555299999986    0.0000000000000000    0.0000930400000030
     0.6666444700000014    0.5000000000000000    0.9999069599999970
     0.3333555299999986    0.5000000000000000    0.0000930400000030
 
  0.00000000E+00  0.00000000E+00  0.00000000E+00
  0.00000000E+00  0.00000000E+00  0.00000000E+00
  0.00000000E+00  0.00000000E+00  0.00000000E+00
  0.00000000E+00  0.00000000E+00  0.00000000E+00
