       N       E                     dE             d eps       ncg     rms          rms(c)
DAV:   1     0.320055622174E+02    0.32006E+02   -0.82530E+03 18824   0.102E+03
DAV:   2    -0.366926233930E+02   -0.68698E+02   -0.62628E+02 26504   0.192E+02
DAV:   3    -0.393233277126E+02   -0.26307E+01   -0.26178E+01 24568   0.349E+01
DAV:   4    -0.393460352828E+02   -0.22708E-01   -0.22699E-01 23960   0.385E+00
DAV:   5    -0.393464068754E+02   -0.37159E-03   -0.37157E-03 23888   0.470E-01    0.902E+00
DAV:   6    -0.374656861267E+02    0.18807E+01   -0.12908E+00 23192   0.710E+00    0.526E+00
DAV:   7    -0.368634437062E+02    0.60224E+00   -0.15423E+00 24312   0.787E+00    0.152E+00
DAV:   8    -0.368744835315E+02   -0.11040E-01   -0.65186E-02 21408   0.150E+00    0.300E-01
DAV:   9    -0.368732098380E+02    0.12737E-02   -0.20039E-03 24568   0.307E-01    0.110E-01
DAV:  10    -0.368734327089E+02   -0.22287E-03   -0.62564E-04 20280   0.159E-01    0.686E-02
DAV:  11    -0.368734245885E+02    0.81203E-05   -0.19713E-05 25936   0.291E-02    0.175E-02
DAV:  12    -0.368734247098E+02   -0.12134E-06   -0.16180E-06 21144   0.103E-02
   1 F= -.36873425E+02 E0= -.36873425E+02  d E =-.183244E-12
