Te2 Pd1                                 
   1.00000000000000     
     4.0700875400000003    0.0000000000000000    0.0000000000000000
    -2.0350437700000001    3.5247999000000001    0.0000000000000000
     0.0000000000000000    0.0000000000000000    5.2330846099999997
   Te   Pd
     2     1
Direct
     0.3333330000000032    0.6666669999999968    0.2610909100000001
     0.6666669999999968    0.3333330000000032    0.7389090899999999
     0.0000000000000000    0.0000000000000000    0.0000000000000000
 
  0.00000000E+00  0.00000000E+00  0.00000000E+00
  0.00000000E+00  0.00000000E+00  0.00000000E+00
  0.00000000E+00  0.00000000E+00  0.00000000E+00
