S16N16
1.0
      8.6317619       0.0000000      -0.5131235
      0.0000000       7.1010000       0.0000000
      0.0000000       0.0000000       8.7320000
  S     N   
  16    16  
Direct
      0.5982200       0.2086000       0.1514000
      0.9017800       0.7086000       0.3486000
      0.4017800       0.7914000       0.8486000
      0.0982200       0.2914000       0.6514000
      0.5593000       0.2984200       0.8505500
      0.9407000       0.7984200       0.6494500
      0.4407000       0.7015800       0.1494500
      0.0593000       0.2015800       0.3505500
      0.7736600       0.0470400       0.9598500
      0.7263400       0.5470400       0.5401500
      0.2263400       0.9529600       0.0401500
      0.2736600       0.4529600       0.4598500
      0.8035800       0.4218700       0.0061400
      0.6964200       0.9218700       0.4938600
      0.1964200       0.5781300       0.9938600
      0.3035800       0.0781300       0.5061400
      0.7178000       0.3838000       0.1648000
      0.7822000       0.8838000       0.3352000
      0.2822000       0.6162000       0.8352000
      0.2178000       0.1162000       0.6648000
      0.8921000       0.2242000       0.9741000
      0.6079000       0.7242000       0.5259000
      0.1079000       0.7758000       0.0259000
      0.3921000       0.2758000       0.4741000
      0.6494000       0.1043000       0.8190000
      0.8506000       0.6043000       0.6810000
      0.3506000       0.8957000       0.1810000
      0.1494000       0.3957000       0.3190000
      0.4759000       0.2631000       0.0097000
      0.0241000       0.7631000       0.4903000
      0.5241000       0.7369000       0.9903000
      0.9759000       0.2369000       0.5097000
