S16 N8                                  
   1.00000000000000     
    10.7643489098639566   -0.0000009715492555   -0.0000039780480227
    -0.0000010504168067   10.7643714576022820   -0.0000011922101922
    -0.0000013460784088   -0.0000003865918214    3.5985758592813650
   S    N 
    16     8
Direct
     0.3275188343615056    0.3275187618117812    0.1536121152978680
     0.1724811562961079    0.8275187380211406    0.6536120690403209
     0.6724811939145567    0.6724812297940588    0.1536120060481423
     0.8275188013434445    0.1724812153076343    0.6536120390257452
     0.1095119550733727    0.1095120442270527    0.0848323968748232
     0.3904880605533521    0.6095119976289709    0.5848326289092611
     0.8904880443472933    0.8904879639582148    0.0848330830019535
     0.6095119157428286    0.3904879759654207    0.5848327353077565
     0.3622845052406305    0.1491823557704635    0.3401084502125542
     0.3508175735151156    0.8622847123819568    0.8401085465997866
     0.6377154889725034    0.8508176504972553    0.3401086304967649
     0.6491823756670172    0.1377153423300967    0.8401085042389056
     0.1377154405005285    0.6491823599745317    0.8401085571984552
     0.8508176212753327    0.6377153429434301    0.3401085500818297
     0.8622844951344462    0.3508176455675596    0.8401085328262994
     0.1491823911531327    0.3622846759673735    0.3401084178998843
     0.2473784721478509    0.0681541086663913    0.1563188755939606
     0.4318460804315549    0.7473785869117080    0.6563191733867484
     0.7526215543626691    0.9318459732203337    0.1563193270712020
     0.5681539329908745    0.2526213979036953    0.6563190097224592
     0.2526215550029178    0.5681540111250243    0.6563188577572276
     0.9318461010645365    0.7526214011472661    0.1563192951410599
     0.7473784811517277    0.4318459086751929    0.6563192866586576
     0.0681539697566791    0.2473786002034615    0.1563189116083592
 
  0.00000000E+00  0.00000000E+00  0.00000000E+00
  0.00000000E+00  0.00000000E+00  0.00000000E+00
  0.00000000E+00  0.00000000E+00  0.00000000E+00
  0.00000000E+00  0.00000000E+00  0.00000000E+00
  0.00000000E+00  0.00000000E+00  0.00000000E+00
  0.00000000E+00  0.00000000E+00  0.00000000E+00
  0.00000000E+00  0.00000000E+00  0.00000000E+00
  0.00000000E+00  0.00000000E+00  0.00000000E+00
  0.00000000E+00  0.00000000E+00  0.00000000E+00
  0.00000000E+00  0.00000000E+00  0.00000000E+00
  0.00000000E+00  0.00000000E+00  0.00000000E+00
  0.00000000E+00  0.00000000E+00  0.00000000E+00
  0.00000000E+00  0.00000000E+00  0.00000000E+00
  0.00000000E+00  0.00000000E+00  0.00000000E+00
  0.00000000E+00  0.00000000E+00  0.00000000E+00
  0.00000000E+00  0.00000000E+00  0.00000000E+00
  0.00000000E+00  0.00000000E+00  0.00000000E+00
  0.00000000E+00  0.00000000E+00  0.00000000E+00
  0.00000000E+00  0.00000000E+00  0.00000000E+00
  0.00000000E+00  0.00000000E+00  0.00000000E+00
  0.00000000E+00  0.00000000E+00  0.00000000E+00
  0.00000000E+00  0.00000000E+00  0.00000000E+00
  0.00000000E+00  0.00000000E+00  0.00000000E+00
  0.00000000E+00  0.00000000E+00  0.00000000E+00
