S16 N8                                  
   1.00000000000000     
    10.7643489098639566   -0.0000009715492555   -0.0000039780480227
    -0.0000010504168067   10.7643714576022820   -0.0000011922101922
    -0.0000013460784088   -0.0000003865918214    3.5985758592813650
   S    N 
    16     8
Direct
     0.3275188343615072    0.3275187618117784    0.1536121152978693
     0.1724811562961091    0.8275187380211423    0.6536120690403225
     0.6724811939145554    0.6724812297940597    0.1536120060481417
     0.8275188013434470    0.1724812153076311    0.6536120390257477
     0.1095119550733695    0.1095120442270497    0.0848323968748254
     0.3904880605533530    0.6095119976289712    0.5848326289092587
     0.8904880443472943    0.8904879639582182    0.0848330830019570
     0.6095119157428289    0.3904879759654216    0.5848327353077546
     0.3622845052406304    0.1491823557704668    0.3401084502125570
     0.3508175735151157    0.8622847123819583    0.8401085465997893
     0.6377154889725002    0.8508176504972527    0.3401086304967640
     0.6491823756670179    0.1377153423300946    0.8401085042389084
     0.1377154405005308    0.6491823599745312    0.8401085571984532
     0.8508176212753311    0.6377153429434284    0.3401085500818273
     0.8622844951344469    0.3508176455675577    0.8401085328262995
     0.1491823911531332    0.3622846759673728    0.3401084178998864
     0.2473784721478511    0.0681541086663900    0.1563188755939636
     0.4318460804315530    0.7473785869117083    0.6563191733867465
     0.7526215543626711    0.9318459732203320    0.1563193270712037
     0.5681539329908754    0.2526213979036986    0.6563190097224604
     0.2526215550029153    0.5681540111250223    0.6563188577572269
     0.9318461010645375    0.7526214011472691    0.1563192951410587
     0.7473784811517293    0.4318459086751917    0.6563192866586587
     0.0681539697566761    0.2473786002034602    0.1563189116083590
 
  0.00000000E+00  0.00000000E+00  0.00000000E+00
  0.00000000E+00  0.00000000E+00  0.00000000E+00
  0.00000000E+00  0.00000000E+00  0.00000000E+00
  0.00000000E+00  0.00000000E+00  0.00000000E+00
  0.00000000E+00  0.00000000E+00  0.00000000E+00
  0.00000000E+00  0.00000000E+00  0.00000000E+00
  0.00000000E+00  0.00000000E+00  0.00000000E+00
  0.00000000E+00  0.00000000E+00  0.00000000E+00
  0.00000000E+00  0.00000000E+00  0.00000000E+00
  0.00000000E+00  0.00000000E+00  0.00000000E+00
  0.00000000E+00  0.00000000E+00  0.00000000E+00
  0.00000000E+00  0.00000000E+00  0.00000000E+00
  0.00000000E+00  0.00000000E+00  0.00000000E+00
  0.00000000E+00  0.00000000E+00  0.00000000E+00
  0.00000000E+00  0.00000000E+00  0.00000000E+00
  0.00000000E+00  0.00000000E+00  0.00000000E+00
  0.00000000E+00  0.00000000E+00  0.00000000E+00
  0.00000000E+00  0.00000000E+00  0.00000000E+00
  0.00000000E+00  0.00000000E+00  0.00000000E+00
  0.00000000E+00  0.00000000E+00  0.00000000E+00
  0.00000000E+00  0.00000000E+00  0.00000000E+00
  0.00000000E+00  0.00000000E+00  0.00000000E+00
  0.00000000E+00  0.00000000E+00  0.00000000E+00
  0.00000000E+00  0.00000000E+00  0.00000000E+00
