  24  24   0   0
  0.1737384E+02  0.1076435E-08  0.1076437E-08  0.3598576E-09  0.5000000E-15
  1.000000000000000E-004
  CAR 
 unknown system                          
     13.07709175    -18.37450351  301      3.87750014      1.00000000
    -18.375  0.0000E+00  0.0000E+00
    -18.270  0.0000E+00  0.0000E+00
    -18.165  0.0000E+00  0.0000E+00
    -18.060  0.0000E+00  0.0000E+00
    -17.955  0.0000E+00  0.0000E+00
    -17.850  0.0000E+00  0.0000E+00
    -17.745  0.0000E+00  0.0000E+00
    -17.641  0.0000E+00  0.0000E+00
    -17.536  0.0000E+00  0.0000E+00
    -17.431  0.0000E+00  0.0000E+00
    -17.326  0.0000E+00  0.0000E+00
    -17.221  0.0000E+00  0.0000E+00
    -17.116  0.0000E+00  0.0000E+00
    -17.012  0.0000E+00  0.0000E+00
    -16.907  0.0000E+00  0.0000E+00
    -16.802  0.0000E+00  0.0000E+00
    -16.697  0.0000E+00  0.0000E+00
    -16.592  0.0000E+00  0.0000E+00
    -16.487  0.0000E+00  0.0000E+00
    -16.383  0.0000E+00  0.0000E+00
    -16.278  0.4422E+02  0.1384E+01
    -16.173  0.6183E+02  0.5202E+01
    -16.068  0.2042E+02  0.8000E+01
    -15.963  0.0000E+00  0.8000E+01
    -15.858  0.0000E+00  0.8000E+01
    -15.754  0.0000E+00  0.8000E+01
    -15.649  0.0000E+00  0.8000E+01
    -15.544  0.0000E+00  0.8000E+01
    -15.439  0.0000E+00  0.8000E+01
    -15.334  0.0000E+00  0.8000E+01
    -15.229  0.0000E+00  0.8000E+01
    -15.125  0.0000E+00  0.8000E+01
    -15.020  0.0000E+00  0.8000E+01
    -14.915  0.0000E+00  0.8000E+01
    -14.810  0.0000E+00  0.8000E+01
    -14.705  0.0000E+00  0.8000E+01
    -14.600  0.0000E+00  0.8000E+01
    -14.495  0.0000E+00  0.8000E+01
    -14.391  0.0000E+00  0.8000E+01
    -14.286  0.3367E+01  0.8021E+01
    -14.181  0.2915E+02  0.9161E+01
    -14.076  0.5167E+02  0.1203E+02
    -13.971  0.4458E+02  0.1585E+02
    -13.866  0.5087E+00  0.1600E+02
    -13.762  0.0000E+00  0.1600E+02
    -13.657  0.0000E+00  0.1600E+02
    -13.552  0.0000E+00  0.1600E+02
    -13.447  0.0000E+00  0.1600E+02
    -13.342  0.0000E+00  0.1600E+02
    -13.237  0.0000E+00  0.1600E+02
    -13.133  0.0000E+00  0.1600E+02
    -13.028  0.0000E+00  0.1600E+02
    -12.923  0.0000E+00  0.1600E+02
    -12.818  0.0000E+00  0.1600E+02
    -12.713  0.0000E+00  0.1600E+02
    -12.608  0.0000E+00  0.1600E+02
    -12.504  0.0000E+00  0.1600E+02
    -12.399  0.0000E+00  0.1600E+02
    -12.294  0.2490E+02  0.1674E+02
    -12.189  0.4480E+02  0.1975E+02
    -12.084  0.4329E+02  0.2267E+02
    -11.979  0.9581E+01  0.2400E+02
    -11.875  0.0000E+00  0.2400E+02
    -11.770  0.0000E+00  0.2400E+02
    -11.665  0.0000E+00  0.2400E+02
    -11.560  0.0000E+00  0.2400E+02
    -11.455  0.0000E+00  0.2400E+02
    -11.350  0.0000E+00  0.2400E+02
    -11.245  0.0000E+00  0.2400E+02
    -11.141  0.0000E+00  0.2400E+02
    -11.036  0.0000E+00  0.2400E+02
    -10.931  0.0000E+00  0.2400E+02
    -10.826  0.0000E+00  0.2400E+02
    -10.721  0.0000E+00  0.2400E+02
    -10.616  0.0000E+00  0.2400E+02
    -10.512  0.0000E+00  0.2400E+02
    -10.407  0.0000E+00  0.2400E+02
    -10.302  0.0000E+00  0.2400E+02
    -10.197  0.0000E+00  0.2400E+02
    -10.092  0.0000E+00  0.2400E+02
     -9.987  0.0000E+00  0.2400E+02
     -9.883  0.0000E+00  0.2400E+02
     -9.778  0.0000E+00  0.2400E+02
     -9.673  0.0000E+00  0.2400E+02
     -9.568  0.0000E+00  0.2400E+02
     -9.463  0.0000E+00  0.2400E+02
     -9.358  0.2508E+01  0.2401E+02
     -9.254  0.2124E+02  0.2516E+02
     -9.149  0.4606E+02  0.2792E+02
     -9.044  0.4067E+02  0.3063E+02
     -8.939  0.3795E+02  0.3395E+02
     -8.834  0.5629E+02  0.3735E+02
     -8.729  0.1872E+02  0.4000E+02
     -8.625  0.0000E+00  0.4000E+02
     -8.520  0.0000E+00  0.4000E+02
     -8.415  0.0000E+00  0.4000E+02
     -8.310  0.0000E+00  0.4000E+02
     -8.205  0.0000E+00  0.4000E+02
     -8.100  0.0000E+00  0.4000E+02
     -7.995  0.0000E+00  0.4000E+02
     -7.891  0.0000E+00  0.4000E+02
     -7.786  0.0000E+00  0.4000E+02
     -7.681  0.0000E+00  0.4000E+02
     -7.576  0.0000E+00  0.4000E+02
     -7.471  0.0000E+00  0.4000E+02
     -7.366  0.0000E+00  0.4000E+02
     -7.262  0.0000E+00  0.4000E+02
     -7.157  0.0000E+00  0.4000E+02
     -7.052  0.0000E+00  0.4000E+02
     -6.947  0.0000E+00  0.4000E+02
     -6.842  0.0000E+00  0.4000E+02
     -6.737  0.0000E+00  0.4000E+02
     -6.633  0.0000E+00  0.4000E+02
     -6.528  0.0000E+00  0.4000E+02
     -6.423  0.0000E+00  0.4000E+02
     -6.318  0.0000E+00  0.4000E+02
     -6.213  0.0000E+00  0.4000E+02
     -6.108  0.0000E+00  0.4000E+02
     -6.004  0.0000E+00  0.4000E+02
     -5.899  0.0000E+00  0.4000E+02
     -5.794  0.0000E+00  0.4000E+02
     -5.689  0.0000E+00  0.4000E+02
     -5.584  0.0000E+00  0.4000E+02
     -5.479  0.0000E+00  0.4000E+02
     -5.375  0.0000E+00  0.4000E+02
     -5.270  0.0000E+00  0.4000E+02
     -5.165  0.0000E+00  0.4000E+02
     -5.060  0.0000E+00  0.4000E+02
     -4.955  0.0000E+00  0.4000E+02
     -4.850  0.0000E+00  0.4000E+02
     -4.745  0.1913E+01  0.4004E+02
     -4.641  0.4254E+02  0.4169E+02
     -4.536  0.6564E+02  0.4490E+02
     -4.431  0.2983E+02  0.4793E+02
     -4.326  0.2385E+02  0.4990E+02
     -4.221  0.1028E+02  0.5085E+02
     -4.116  0.2584E+02  0.5249E+02
     -4.012  0.1389E+02  0.5400E+02
     -3.907  0.1677E+02  0.5522E+02
     -3.802  0.5392E+01  0.5600E+02
     -3.697  0.0000E+00  0.5600E+02
     -3.592  0.0000E+00  0.5600E+02
     -3.487  0.0000E+00  0.5600E+02
     -3.383  0.0000E+00  0.5600E+02
     -3.278  0.0000E+00  0.5600E+02
     -3.173  0.1259E+01  0.5602E+02
     -3.068  0.1024E+02  0.5649E+02
     -2.963  0.2516E+02  0.5809E+02
     -2.858  0.1456E+02  0.5912E+02
     -2.754  0.1853E+02  0.6001E+02
     -2.649  0.8238E+01  0.6095E+02
     -2.544  0.1056E+02  0.6186E+02
     -2.439  0.2132E+02  0.6358E+02
     -2.334  0.1869E+02  0.6522E+02
     -2.229  0.1534E+02  0.6667E+02
     -2.125  0.1001E+02  0.6788E+02
     -2.020  0.5442E+01  0.6855E+02
     -1.915  0.4855E+01  0.6908E+02
     -1.810  0.9829E+01  0.6988E+02
     -1.705  0.9797E+01  0.7084E+02
     -1.600  0.1412E+02  0.7204E+02
     -1.495  0.1897E+02  0.7365E+02
     -1.391  0.1334E+02  0.7530E+02
     -1.286  0.8938E+01  0.7634E+02
     -1.181  0.8225E+01  0.7724E+02
     -1.076  0.5675E+01  0.7797E+02
     -0.971  0.1353E+02  0.7907E+02
     -0.866  0.9958E+01  0.8011E+02
     -0.762  0.1259E+02  0.8125E+02
     -0.657  0.9542E+01  0.8220E+02
     -0.552  0.1477E+02  0.8358E+02
     -0.447  0.1699E+02  0.8498E+02
     -0.342  0.1053E+02  0.8610E+02
     -0.237  0.1268E+02  0.8725E+02
     -0.133  0.1494E+02  0.8871E+02
     -0.028  0.1451E+02  0.9003E+02
      0.077  0.8819E+01  0.9097E+02
      0.182  0.1450E+02  0.9221E+02
      0.287  0.1807E+02  0.9362E+02
      0.392  0.2361E+02  0.9558E+02
      0.496  0.2256E+02  0.9767E+02
      0.601  0.3023E+02  0.1001E+03
      0.706  0.1705E+02  0.1020E+03
      0.811  0.1735E+02  0.1036E+03
      0.916  0.1119E+02  0.1048E+03
      1.021  0.5120E+01  0.1055E+03
      1.125  0.1217E+02  0.1063E+03
      1.230  0.1842E+02  0.1077E+03
      1.335  0.3825E+02  0.1097E+03
      1.440  0.1766E+02  0.1119E+03
      1.545  0.1895E+02  0.1134E+03
      1.650  0.2486E+02  0.1155E+03
      1.755  0.2026E+02  0.1173E+03
      1.859  0.1778E+02  0.1194E+03
      1.964  0.3570E+01  0.1199E+03
      2.069  0.1526E+00  0.1200E+03
      2.174  0.0000E+00  0.1200E+03
      2.279  0.0000E+00  0.1200E+03
      2.384  0.2465E+01  0.1201E+03
      2.488  0.1125E+02  0.1207E+03
      2.593  0.9100E+01  0.1216E+03
      2.698  0.8681E+01  0.1224E+03
      2.803  0.1790E+02  0.1236E+03
      2.908  0.1412E+02  0.1252E+03
      3.013  0.1565E+02  0.1264E+03
      3.117  0.8839E+01  0.1275E+03
      3.222  0.2113E+01  0.1279E+03
      3.327  0.2900E+01  0.1281E+03
      3.432  0.1114E+02  0.1286E+03
      3.537  0.1229E+02  0.1295E+03
      3.642  0.3343E+02  0.1319E+03
      3.746  0.4539E+02  0.1343E+03
      3.851  0.1041E+02  0.1360E+03
      3.956  0.0000E+00  0.1360E+03
      4.061  0.0000E+00  0.1360E+03
      4.166  0.0000E+00  0.1360E+03
      4.271  0.0000E+00  0.1360E+03
      4.375  0.0000E+00  0.1360E+03
      4.480  0.0000E+00  0.1360E+03
      4.585  0.0000E+00  0.1360E+03
      4.690  0.0000E+00  0.1360E+03
      4.795  0.0000E+00  0.1360E+03
      4.900  0.0000E+00  0.1360E+03
      5.005  0.1961E+01  0.1361E+03
      5.109  0.3358E+01  0.1364E+03
      5.214  0.6283E+01  0.1368E+03
      5.319  0.8885E+01  0.1375E+03
      5.424  0.1967E+02  0.1392E+03
      5.529  0.3920E+01  0.1398E+03
      5.634  0.7751E+01  0.1401E+03
      5.738  0.5973E+02  0.1437E+03
      5.843  0.7828E+00  0.1440E+03
      5.948  0.2350E+01  0.1441E+03
      6.053  0.3749E+01  0.1444E+03
      6.158  0.1535E+02  0.1458E+03
      6.263  0.1345E+02  0.1468E+03
      6.367  0.1349E+02  0.1480E+03
      6.472  0.2155E+02  0.1494E+03
      6.577  0.1371E+02  0.1509E+03
      6.682  0.1309E+02  0.1523E+03
      6.787  0.1288E+02  0.1531E+03
      6.892  0.1414E+02  0.1541E+03
      6.996  0.1599E+02  0.1558E+03
      7.101  0.1686E+02  0.1573E+03
      7.206  0.8811E+01  0.1583E+03
      7.311  0.4235E+01  0.1589E+03
      7.416  0.4180E+01  0.1593E+03
      7.521  0.1203E+02  0.1599E+03
      7.625  0.1612E+02  0.1612E+03
      7.730  0.2905E+02  0.1639E+03
      7.835  0.4962E+01  0.1641E+03
      7.940  0.1181E+02  0.1650E+03
      8.045  0.9794E+01  0.1660E+03
      8.150  0.1013E+02  0.1670E+03
      8.255  0.5247E+01  0.1677E+03
      8.359  0.1172E+02  0.1682E+03
      8.464  0.1872E+02  0.1701E+03
      8.569  0.4001E+01  0.1706E+03
      8.674  0.3677E+01  0.1710E+03
      8.779  0.6413E+01  0.1714E+03
      8.884  0.9723E+01  0.1725E+03
      8.988  0.4563E+01  0.1730E+03
      9.093  0.2228E+02  0.1746E+03
      9.198  0.1204E+02  0.1760E+03
      9.303  0.4145E+01  0.1766E+03
      9.408  0.7905E+01  0.1773E+03
      9.513  0.8073E+01  0.1780E+03
      9.617  0.1109E+02  0.1791E+03
      9.722  0.1023E+02  0.1802E+03
      9.827  0.8127E+01  0.1811E+03
      9.932  0.5311E+01  0.1817E+03
     10.037  0.1161E+02  0.1825E+03
     10.142  0.8703E+01  0.1836E+03
     10.246  0.1703E+01  0.1840E+03
     10.351  0.7191E+01  0.1842E+03
     10.456  0.2530E+02  0.1856E+03
     10.561  0.1538E+02  0.1875E+03
     10.666  0.8247E+01  0.1883E+03
     10.771  0.1557E+02  0.1896E+03
     10.875  0.1420E+02  0.1909E+03
     10.980  0.4870E+01  0.1919E+03
     11.085  0.4578E+00  0.1920E+03
     11.190  0.0000E+00  0.1920E+03
     11.295  0.0000E+00  0.1920E+03
     11.400  0.0000E+00  0.1920E+03
     11.505  0.0000E+00  0.1920E+03
     11.609  0.0000E+00  0.1920E+03
     11.714  0.0000E+00  0.1920E+03
     11.819  0.0000E+00  0.1920E+03
     11.924  0.0000E+00  0.1920E+03
     12.029  0.0000E+00  0.1920E+03
     12.134  0.0000E+00  0.1920E+03
     12.238  0.0000E+00  0.1920E+03
     12.343  0.0000E+00  0.1920E+03
     12.448  0.0000E+00  0.1920E+03
     12.553  0.0000E+00  0.1920E+03
     12.658  0.0000E+00  0.1920E+03
     12.763  0.0000E+00  0.1920E+03
     12.867  0.0000E+00  0.1920E+03
     12.972  0.0000E+00  0.1920E+03
     13.077  0.0000E+00  0.1920E+03
