       N       E                     dE             d eps       ncg     rms          rms(c)
DAV:   1     0.923350261145E+03    0.92335E+03   -0.74061E+04 72000   0.160E+03
DAV:   2    -0.479119203177E+02   -0.97126E+03   -0.92761E+03 88408   0.294E+02
DAV:   3    -0.136818052150E+03   -0.88906E+02   -0.87067E+02 89720   0.102E+02
DAV:   4    -0.139003152620E+03   -0.21851E+01   -0.21604E+01 88936   0.168E+01
DAV:   5    -0.139066323818E+03   -0.63171E-01   -0.63018E-01 88600   0.267E+00    0.737E+01
DAV:   6    -0.129472348165E+03    0.95940E+01   -0.27115E+01 96368   0.243E+01    0.407E+01
DAV:   7    -0.129829156932E+03   -0.35681E+00   -0.86550E+00 81664   0.959E+00    0.122E+01
DAV:   8    -0.129785910278E+03    0.43247E-01   -0.58281E-01 89688   0.279E+00    0.221E+00
DAV:   9    -0.129758947652E+03    0.26963E-01   -0.92804E-02 90712   0.142E+00    0.110E+00
DAV:  10    -0.129759325262E+03   -0.37761E-03   -0.27351E-02 84184   0.527E-01    0.647E-01
DAV:  11    -0.129758424188E+03    0.90107E-03   -0.38598E-03 93080   0.258E-01    0.200E-01
DAV:  12    -0.129758454802E+03   -0.30614E-04   -0.56349E-04 82616   0.915E-02    0.120E-01
DAV:  13    -0.129758470115E+03   -0.15313E-04   -0.63319E-05 83832   0.278E-02    0.623E-02
DAV:  14    -0.129758481631E+03   -0.11516E-04   -0.31953E-05 83008   0.190E-02    0.196E-02
DAV:  15    -0.129758481229E+03    0.40164E-06   -0.29511E-06 87160   0.669E-03    0.822E-03
DAV:  16    -0.129758480911E+03    0.31810E-06   -0.22678E-06 91456   0.492E-03    0.278E-03
DAV:  17    -0.129758480976E+03   -0.64903E-07   -0.12251E-07 84528   0.126E-03    0.177E-03
DAV:  18    -0.129758481038E+03   -0.61464E-07   -0.42217E-08 72488   0.632E-04    0.666E-04
DAV:  19    -0.129758481049E+03   -0.11591E-07   -0.75492E-09 58456   0.332E-04    0.376E-04
DAV:  20    -0.129758481053E+03   -0.32251E-08   -0.44280E-09 45000   0.190E-04
   1 F= -.13396141E+03 E0= -.13396141E+03  d E =0.000000E+00
