   4   4   0   0
  0.2015213E+02  0.4319767E-09  0.4319767E-09  0.4319767E-09  0.5000000E-15
  1.000000000000000E-004
  CAR 
 unknown system                          
     18.96943832    -30.12803288  301      3.29282894      1.00000000
    -30.128  0.0000E+00  0.0000E+00
    -29.964  0.0000E+00  0.0000E+00
    -29.801  0.0000E+00  0.0000E+00
    -29.637  0.0000E+00  0.0000E+00
    -29.473  0.0000E+00  0.0000E+00
    -29.310  0.0000E+00  0.0000E+00
    -29.146  0.0000E+00  0.0000E+00
    -28.982  0.0000E+00  0.0000E+00
    -28.819  0.0000E+00  0.0000E+00
    -28.655  0.0000E+00  0.0000E+00
    -28.491  0.0000E+00  0.0000E+00
    -28.328  0.0000E+00  0.0000E+00
    -28.164  0.2004E-12  0.3281E-13
    -28.000  0.3175E-01  0.5196E-02
    -27.837  0.3398E+02  0.5566E+01
    -27.673  0.2654E+01  0.6000E+01
    -27.510  0.2608E-07  0.6000E+01
    -27.346  0.0000E+00  0.6000E+01
    -27.182  0.0000E+00  0.6000E+01
    -27.019  0.0000E+00  0.6000E+01
    -26.855  0.0000E+00  0.6000E+01
    -26.691  0.0000E+00  0.6000E+01
    -26.528  0.0000E+00  0.6000E+01
    -26.364  0.0000E+00  0.6000E+01
    -26.200  0.0000E+00  0.6000E+01
    -26.037  0.0000E+00  0.6000E+01
    -25.873  0.0000E+00  0.6000E+01
    -25.709  0.0000E+00  0.6000E+01
    -25.546  0.0000E+00  0.6000E+01
    -25.382  0.0000E+00  0.6000E+01
    -25.218  0.0000E+00  0.6000E+01
    -25.055  0.0000E+00  0.6000E+01
    -24.891  0.0000E+00  0.6000E+01
    -24.727  0.0000E+00  0.6000E+01
    -24.564  0.0000E+00  0.6000E+01
    -24.400  0.0000E+00  0.6000E+01
    -24.236  0.0000E+00  0.6000E+01
    -24.073  0.0000E+00  0.6000E+01
    -23.909  0.0000E+00  0.6000E+01
    -23.745  0.0000E+00  0.6000E+01
    -23.582  0.0000E+00  0.6000E+01
    -23.418  0.0000E+00  0.6000E+01
    -23.254  0.0000E+00  0.6000E+01
    -23.091  0.0000E+00  0.6000E+01
    -22.927  0.0000E+00  0.6000E+01
    -22.763  0.0000E+00  0.6000E+01
    -22.600  0.0000E+00  0.6000E+01
    -22.436  0.0000E+00  0.6000E+01
    -22.272  0.0000E+00  0.6000E+01
    -22.109  0.0000E+00  0.6000E+01
    -21.945  0.0000E+00  0.6000E+01
    -21.781  0.0000E+00  0.6000E+01
    -21.618  0.0000E+00  0.6000E+01
    -21.454  0.0000E+00  0.6000E+01
    -21.290  0.0000E+00  0.6000E+01
    -21.127  0.0000E+00  0.6000E+01
    -20.963  0.0000E+00  0.6000E+01
    -20.800  0.0000E+00  0.6000E+01
    -20.636  0.0000E+00  0.6000E+01
    -20.472  0.0000E+00  0.6000E+01
    -20.309  0.0000E+00  0.6000E+01
    -20.145  0.0000E+00  0.6000E+01
    -19.981  0.0000E+00  0.6000E+01
    -19.818  0.0000E+00  0.6000E+01
    -19.654  0.0000E+00  0.6000E+01
    -19.490  0.0000E+00  0.6000E+01
    -19.327  0.0000E+00  0.6000E+01
    -19.163  0.0000E+00  0.6000E+01
    -18.999  0.0000E+00  0.6000E+01
    -18.836  0.0000E+00  0.6000E+01
    -18.672  0.0000E+00  0.6000E+01
    -18.508  0.0000E+00  0.6000E+01
    -18.345  0.0000E+00  0.6000E+01
    -18.181  0.0000E+00  0.6000E+01
    -18.017  0.0000E+00  0.6000E+01
    -17.854  0.0000E+00  0.6000E+01
    -17.690  0.0000E+00  0.6000E+01
    -17.526  0.0000E+00  0.6000E+01
    -17.363  0.0000E+00  0.6000E+01
    -17.199  0.0000E+00  0.6000E+01
    -17.035  0.0000E+00  0.6000E+01
    -16.872  0.0000E+00  0.6000E+01
    -16.708  0.0000E+00  0.6000E+01
    -16.544  0.0000E+00  0.6000E+01
    -16.381  0.0000E+00  0.6000E+01
    -16.217  0.0000E+00  0.6000E+01
    -16.053  0.0000E+00  0.6000E+01
    -15.890  0.0000E+00  0.6000E+01
    -15.726  0.0000E+00  0.6000E+01
    -15.562  0.0000E+00  0.6000E+01
    -15.399  0.0000E+00  0.6000E+01
    -15.235  0.0000E+00  0.6000E+01
    -15.071  0.0000E+00  0.6000E+01
    -14.908  0.0000E+00  0.6000E+01
    -14.744  0.0000E+00  0.6000E+01
    -14.581  0.0000E+00  0.6000E+01
    -14.417  0.0000E+00  0.6000E+01
    -14.253  0.0000E+00  0.6000E+01
    -14.090  0.0000E+00  0.6000E+01
    -13.926  0.0000E+00  0.6000E+01
    -13.762  0.0000E+00  0.6000E+01
    -13.599  0.0000E+00  0.6000E+01
    -13.435  0.0000E+00  0.6000E+01
    -13.271  0.0000E+00  0.6000E+01
    -13.108  0.0000E+00  0.6000E+01
    -12.944  0.0000E+00  0.6000E+01
    -12.780  0.0000E+00  0.6000E+01
    -12.617  0.0000E+00  0.6000E+01
    -12.453  0.0000E+00  0.6000E+01
    -12.289  0.0000E+00  0.6000E+01
    -12.126  0.0000E+00  0.6000E+01
    -11.962  0.0000E+00  0.6000E+01
    -11.798  0.0000E+00  0.6000E+01
    -11.635  0.0000E+00  0.6000E+01
    -11.471  0.0000E+00  0.6000E+01
    -11.307  0.0000E+00  0.6000E+01
    -11.144  0.0000E+00  0.6000E+01
    -10.980  0.0000E+00  0.6000E+01
    -10.816  0.0000E+00  0.6000E+01
    -10.653  0.0000E+00  0.6000E+01
    -10.489  0.0000E+00  0.6000E+01
    -10.325  0.0000E+00  0.6000E+01
    -10.162  0.0000E+00  0.6000E+01
     -9.998  0.0000E+00  0.6000E+01
     -9.834  0.0000E+00  0.6000E+01
     -9.671  0.0000E+00  0.6000E+01
     -9.507  0.0000E+00  0.6000E+01
     -9.343  0.0000E+00  0.6000E+01
     -9.180  0.0000E+00  0.6000E+01
     -9.016  0.0000E+00  0.6000E+01
     -8.852  0.0000E+00  0.6000E+01
     -8.689  0.0000E+00  0.6000E+01
     -8.525  0.0000E+00  0.6000E+01
     -8.361  0.0000E+00  0.6000E+01
     -8.198  0.0000E+00  0.6000E+01
     -8.034  0.0000E+00  0.6000E+01
     -7.871  0.0000E+00  0.6000E+01
     -7.707  0.0000E+00  0.6000E+01
     -7.543  0.0000E+00  0.6000E+01
     -7.380  0.0000E+00  0.6000E+01
     -7.216  0.0000E+00  0.6000E+01
     -7.052  0.0000E+00  0.6000E+01
     -6.889  0.0000E+00  0.6000E+01
     -6.725  0.0000E+00  0.6000E+01
     -6.561  0.0000E+00  0.6000E+01
     -6.398  0.9899E-14  0.6000E+01
     -6.234  0.7914E-03  0.6000E+01
     -6.070  0.4495E+00  0.6074E+01
     -5.907  0.4378E+01  0.6790E+01
     -5.743  0.1562E+02  0.9346E+01
     -5.579  0.1866E+02  0.1240E+02
     -5.416  0.2266E+02  0.1611E+02
     -5.252  0.1950E+02  0.1930E+02
     -5.088  0.2302E+02  0.2307E+02
     -4.925  0.3232E+02  0.2836E+02
     -4.761  0.2148E+02  0.3187E+02
     -4.597  0.1163E+02  0.3378E+02
     -4.434  0.1062E+02  0.3551E+02
     -4.270  0.3696E+01  0.3612E+02
     -4.106  0.1089E+01  0.3630E+02
     -3.943  0.1064E-03  0.3630E+02
     -3.779  0.2655E-01  0.3630E+02
     -3.615  0.1324E+01  0.3652E+02
     -3.452  0.6988E-02  0.3652E+02
     -3.288  0.3171E-02  0.3652E+02
     -3.124  0.1719E+01  0.3680E+02
     -2.961  0.8833E-01  0.3681E+02
     -2.797  0.2306E-01  0.3682E+02
     -2.633  0.2659E+01  0.3725E+02
     -2.470  0.3390E-01  0.3726E+02
     -2.306  0.3397E-01  0.3726E+02
     -2.142  0.1319E+01  0.3748E+02
     -1.979  0.4351E+00  0.3755E+02
     -1.815  0.9279E+00  0.3770E+02
     -1.651  0.7416E-01  0.3772E+02
     -1.488  0.1323E+01  0.3793E+02
     -1.324  0.1314E+01  0.3815E+02
     -1.161  0.5663E-01  0.3816E+02
     -0.997  0.2649E+01  0.3859E+02
     -0.833  0.1413E-01  0.3859E+02
     -0.670  0.1756E-02  0.3859E+02
     -0.506  0.1460E+01  0.3883E+02
     -0.342  0.1529E+01  0.3908E+02
     -0.179  0.1769E+00  0.3911E+02
     -0.015  0.3201E-06  0.3911E+02
      0.149  0.6368E+00  0.3922E+02
      0.312  0.3400E+01  0.3977E+02
      0.476  0.1531E+01  0.4002E+02
      0.640  0.1275E+01  0.4023E+02
      0.803  0.1984E+01  0.4056E+02
      0.967  0.9900E+00  0.4072E+02
      1.131  0.3248E+00  0.4077E+02
      1.294  0.4807E+01  0.4156E+02
      1.458  0.8940E+00  0.4170E+02
      1.622  0.1612E+01  0.4197E+02
      1.785  0.2187E+00  0.4200E+02
      1.949  0.1578E+01  0.4226E+02
      2.113  0.2259E+01  0.4263E+02
      2.276  0.5133E+01  0.4347E+02
      2.440  0.4242E+01  0.4417E+02
      2.604  0.5506E+01  0.4507E+02
      2.767  0.5074E+01  0.4590E+02
      2.931  0.4094E+01  0.4657E+02
      3.095  0.1513E+01  0.4681E+02
      3.258  0.3184E+00  0.4687E+02
      3.422  0.3244E+01  0.4740E+02
      3.586  0.1133E+01  0.4758E+02
      3.749  0.2830E+00  0.4763E+02
      3.913  0.1477E+01  0.4787E+02
      4.077  0.2601E+01  0.4830E+02
      4.240  0.2592E+01  0.4872E+02
      4.404  0.4149E+01  0.4940E+02
      4.568  0.4532E+01  0.5014E+02
      4.731  0.8708E+00  0.5028E+02
      4.895  0.4778E+01  0.5107E+02
      5.058  0.1597E+01  0.5133E+02
      5.222  0.3995E+01  0.5198E+02
      5.386  0.1527E+01  0.5223E+02
      5.549  0.2612E+01  0.5266E+02
      5.713  0.4077E+00  0.5273E+02
      5.877  0.1009E+01  0.5289E+02
      6.040  0.2645E+01  0.5332E+02
      6.204  0.2197E+00  0.5336E+02
      6.368  0.3043E+01  0.5386E+02
      6.531  0.8693E+00  0.5400E+02
      6.695  0.5884E+00  0.5410E+02
      6.859  0.2507E+01  0.5451E+02
      7.022  0.5887E+01  0.5547E+02
      7.186  0.1871E+01  0.5578E+02
      7.350  0.1694E+00  0.5580E+02
      7.513  0.1197E+01  0.5600E+02
      7.677  0.2610E+01  0.5643E+02
      7.841  0.3351E+01  0.5698E+02
      8.004  0.1269E+01  0.5718E+02
      8.168  0.9692E+00  0.5734E+02
      8.332  0.1758E+01  0.5763E+02
      8.495  0.5792E+00  0.5772E+02
      8.659  0.3260E+00  0.5778E+02
      8.823  0.1205E+00  0.5780E+02
      8.986  0.2515E+01  0.5821E+02
      9.150  0.4498E+01  0.5895E+02
      9.314  0.3701E+01  0.5955E+02
      9.477  0.4438E+01  0.6028E+02
      9.641  0.1466E+01  0.6052E+02
      9.805  0.8161E-02  0.6052E+02
      9.968  0.4573E+00  0.6059E+02
     10.132  0.1024E+01  0.6076E+02
     10.296  0.2564E+01  0.6118E+02
     10.459  0.3071E-01  0.6119E+02
     10.623  0.2538E+01  0.6160E+02
     10.787  0.2034E+01  0.6193E+02
     10.950  0.1978E+01  0.6226E+02
     11.114  0.4452E+00  0.6233E+02
     11.278  0.1434E+01  0.6256E+02
     11.441  0.5095E+01  0.6340E+02
     11.605  0.2313E+01  0.6378E+02
     11.768  0.1716E+01  0.6406E+02
     11.932  0.4835E+01  0.6485E+02
     12.096  0.2074E+01  0.6519E+02
     12.259  0.3121E+01  0.6570E+02
     12.423  0.1383E+01  0.6593E+02
     12.587  0.5702E+00  0.6602E+02
     12.750  0.8658E+00  0.6616E+02
     12.914  0.3537E+01  0.6674E+02
     13.078  0.1823E+01  0.6704E+02
     13.241  0.1670E+01  0.6731E+02
     13.405  0.6994E+01  0.6846E+02
     13.569  0.1287E+01  0.6867E+02
     13.732  0.3004E-03  0.6867E+02
     13.896  0.5148E-01  0.6868E+02
     14.060  0.3903E+01  0.6931E+02
     14.223  0.1477E+01  0.6956E+02
     14.387  0.1304E-03  0.6956E+02
     14.551  0.1089E+01  0.6973E+02
     14.714  0.6088E+01  0.7073E+02
     14.878  0.9707E+00  0.7089E+02
     15.042  0.1200E+01  0.7109E+02
     15.205  0.1615E+00  0.7111E+02
     15.369  0.5401E+00  0.7120E+02
     15.533  0.1442E+01  0.7144E+02
     15.696  0.7293E+00  0.7156E+02
     15.860  0.5509E-01  0.7156E+02
     16.024  0.3975E+00  0.7163E+02
     16.187  0.1437E+00  0.7165E+02
     16.351  0.1216E+01  0.7185E+02
     16.515  0.4406E+00  0.7192E+02
     16.678  0.9530E-01  0.7194E+02
     16.842  0.3676E+00  0.7200E+02
     17.006  0.1316E-03  0.7200E+02
     17.169  0.0000E+00  0.7200E+02
     17.333  0.0000E+00  0.7200E+02
     17.497  0.0000E+00  0.7200E+02
     17.660  0.0000E+00  0.7200E+02
     17.824  0.0000E+00  0.7200E+02
     17.987  0.0000E+00  0.7200E+02
     18.151  0.0000E+00  0.7200E+02
     18.315  0.0000E+00  0.7200E+02
     18.478  0.0000E+00  0.7200E+02
     18.642  0.0000E+00  0.7200E+02
     18.806  0.0000E+00  0.7200E+02
     18.969  0.0000E+00  0.7200E+02
