   2   2   0   0
  0.2349966E+02  0.3239231E-09  0.3239232E-09  0.5172220E-09  0.5000000E-15
  1.000000000000000E-004
  CAR 
 unknown system                          
     20.52433552    -42.85283463  301      8.92195190      1.00000000
    -42.853  0.0000E+00  0.0000E+00
    -42.642  0.0000E+00  0.0000E+00
    -42.430  0.0000E+00  0.0000E+00
    -42.219  0.0000E+00  0.0000E+00
    -42.008  0.0000E+00  0.0000E+00
    -41.797  0.0000E+00  0.0000E+00
    -41.585  0.0000E+00  0.0000E+00
    -41.374  0.0000E+00  0.0000E+00
    -41.163  0.0000E+00  0.0000E+00
    -40.952  0.0000E+00  0.0000E+00
    -40.740  0.0000E+00  0.0000E+00
    -40.529  0.0000E+00  0.0000E+00
    -40.318  0.0000E+00  0.0000E+00
    -40.106  0.5264E-05  0.1112E-05
    -39.895  0.2665E+01  0.5630E+00
    -39.684  0.1627E+02  0.3999E+01
    -39.473  0.3374E-02  0.4000E+01
    -39.261  0.0000E+00  0.4000E+01
    -39.050  0.0000E+00  0.4000E+01
    -38.839  0.0000E+00  0.4000E+01
    -38.628  0.0000E+00  0.4000E+01
    -38.416  0.0000E+00  0.4000E+01
    -38.205  0.0000E+00  0.4000E+01
    -37.994  0.0000E+00  0.4000E+01
    -37.783  0.0000E+00  0.4000E+01
    -37.571  0.0000E+00  0.4000E+01
    -37.360  0.0000E+00  0.4000E+01
    -37.149  0.0000E+00  0.4000E+01
    -36.938  0.0000E+00  0.4000E+01
    -36.726  0.0000E+00  0.4000E+01
    -36.515  0.0000E+00  0.4000E+01
    -36.304  0.0000E+00  0.4000E+01
    -36.093  0.0000E+00  0.4000E+01
    -35.881  0.0000E+00  0.4000E+01
    -35.670  0.0000E+00  0.4000E+01
    -35.459  0.0000E+00  0.4000E+01
    -35.248  0.0000E+00  0.4000E+01
    -35.036  0.0000E+00  0.4000E+01
    -34.825  0.0000E+00  0.4000E+01
    -34.614  0.0000E+00  0.4000E+01
    -34.403  0.0000E+00  0.4000E+01
    -34.191  0.0000E+00  0.4000E+01
    -33.980  0.0000E+00  0.4000E+01
    -33.769  0.0000E+00  0.4000E+01
    -33.558  0.0000E+00  0.4000E+01
    -33.346  0.0000E+00  0.4000E+01
    -33.135  0.0000E+00  0.4000E+01
    -32.924  0.0000E+00  0.4000E+01
    -32.712  0.0000E+00  0.4000E+01
    -32.501  0.0000E+00  0.4000E+01
    -32.290  0.0000E+00  0.4000E+01
    -32.079  0.0000E+00  0.4000E+01
    -31.867  0.0000E+00  0.4000E+01
    -31.656  0.0000E+00  0.4000E+01
    -31.445  0.0000E+00  0.4000E+01
    -31.234  0.0000E+00  0.4000E+01
    -31.022  0.0000E+00  0.4000E+01
    -30.811  0.0000E+00  0.4000E+01
    -30.600  0.0000E+00  0.4000E+01
    -30.389  0.0000E+00  0.4000E+01
    -30.177  0.0000E+00  0.4000E+01
    -29.966  0.0000E+00  0.4000E+01
    -29.755  0.0000E+00  0.4000E+01
    -29.544  0.0000E+00  0.4000E+01
    -29.332  0.0000E+00  0.4000E+01
    -29.121  0.0000E+00  0.4000E+01
    -28.910  0.0000E+00  0.4000E+01
    -28.699  0.0000E+00  0.4000E+01
    -28.487  0.0000E+00  0.4000E+01
    -28.276  0.0000E+00  0.4000E+01
    -28.065  0.0000E+00  0.4000E+01
    -27.854  0.0000E+00  0.4000E+01
    -27.642  0.0000E+00  0.4000E+01
    -27.431  0.0000E+00  0.4000E+01
    -27.220  0.0000E+00  0.4000E+01
    -27.009  0.0000E+00  0.4000E+01
    -26.797  0.0000E+00  0.4000E+01
    -26.586  0.0000E+00  0.4000E+01
    -26.375  0.0000E+00  0.4000E+01
    -26.164  0.0000E+00  0.4000E+01
    -25.952  0.0000E+00  0.4000E+01
    -25.741  0.0000E+00  0.4000E+01
    -25.530  0.0000E+00  0.4000E+01
    -25.318  0.0000E+00  0.4000E+01
    -25.107  0.0000E+00  0.4000E+01
    -24.896  0.0000E+00  0.4000E+01
    -24.685  0.0000E+00  0.4000E+01
    -24.473  0.0000E+00  0.4000E+01
    -24.262  0.0000E+00  0.4000E+01
    -24.051  0.0000E+00  0.4000E+01
    -23.840  0.0000E+00  0.4000E+01
    -23.628  0.0000E+00  0.4000E+01
    -23.417  0.0000E+00  0.4000E+01
    -23.206  0.0000E+00  0.4000E+01
    -22.995  0.0000E+00  0.4000E+01
    -22.783  0.0000E+00  0.4000E+01
    -22.572  0.0000E+00  0.4000E+01
    -22.361  0.0000E+00  0.4000E+01
    -22.150  0.0000E+00  0.4000E+01
    -21.938  0.0000E+00  0.4000E+01
    -21.727  0.0000E+00  0.4000E+01
    -21.516  0.0000E+00  0.4000E+01
    -21.305  0.0000E+00  0.4000E+01
    -21.093  0.0000E+00  0.4000E+01
    -20.882  0.0000E+00  0.4000E+01
    -20.671  0.0000E+00  0.4000E+01
    -20.460  0.0000E+00  0.4000E+01
    -20.248  0.0000E+00  0.4000E+01
    -20.037  0.0000E+00  0.4000E+01
    -19.826  0.0000E+00  0.4000E+01
    -19.615  0.0000E+00  0.4000E+01
    -19.403  0.0000E+00  0.4000E+01
    -19.192  0.0000E+00  0.4000E+01
    -18.981  0.0000E+00  0.4000E+01
    -18.770  0.1298E-17  0.4000E+01
    -18.558  0.2974E-03  0.4000E+01
    -18.347  0.1638E+01  0.4346E+01
    -18.136  0.1195E+02  0.6870E+01
    -17.924  0.8732E+01  0.8714E+01
    -17.713  0.1590E+02  0.1207E+02
    -17.502  0.1813E+02  0.1590E+02
    -17.291  0.4565E+00  0.1600E+02
    -17.079  0.0000E+00  0.1600E+02
    -16.868  0.0000E+00  0.1600E+02
    -16.657  0.0000E+00  0.1600E+02
    -16.446  0.0000E+00  0.1600E+02
    -16.234  0.0000E+00  0.1600E+02
    -16.023  0.0000E+00  0.1600E+02
    -15.812  0.0000E+00  0.1600E+02
    -15.601  0.0000E+00  0.1600E+02
    -15.389  0.0000E+00  0.1600E+02
    -15.178  0.0000E+00  0.1600E+02
    -14.967  0.0000E+00  0.1600E+02
    -14.756  0.0000E+00  0.1600E+02
    -14.544  0.0000E+00  0.1600E+02
    -14.333  0.0000E+00  0.1600E+02
    -14.122  0.0000E+00  0.1600E+02
    -13.911  0.0000E+00  0.1600E+02
    -13.699  0.0000E+00  0.1600E+02
    -13.488  0.0000E+00  0.1600E+02
    -13.277  0.0000E+00  0.1600E+02
    -13.066  0.0000E+00  0.1600E+02
    -12.854  0.0000E+00  0.1600E+02
    -12.643  0.0000E+00  0.1600E+02
    -12.432  0.0000E+00  0.1600E+02
    -12.221  0.0000E+00  0.1600E+02
    -12.009  0.0000E+00  0.1600E+02
    -11.798  0.0000E+00  0.1600E+02
    -11.587  0.0000E+00  0.1600E+02
    -11.376  0.0000E+00  0.1600E+02
    -11.164  0.0000E+00  0.1600E+02
    -10.953  0.0000E+00  0.1600E+02
    -10.742  0.0000E+00  0.1600E+02
    -10.530  0.0000E+00  0.1600E+02
    -10.319  0.0000E+00  0.1600E+02
    -10.108  0.0000E+00  0.1600E+02
     -9.897  0.0000E+00  0.1600E+02
     -9.685  0.0000E+00  0.1600E+02
     -9.474  0.0000E+00  0.1600E+02
     -9.263  0.0000E+00  0.1600E+02
     -9.052  0.0000E+00  0.1600E+02
     -8.840  0.0000E+00  0.1600E+02
     -8.629  0.0000E+00  0.1600E+02
     -8.418  0.0000E+00  0.1600E+02
     -8.207  0.0000E+00  0.1600E+02
     -7.995  0.0000E+00  0.1600E+02
     -7.784  0.0000E+00  0.1600E+02
     -7.573  0.0000E+00  0.1600E+02
     -7.362  0.0000E+00  0.1600E+02
     -7.150  0.0000E+00  0.1600E+02
     -6.939  0.0000E+00  0.1600E+02
     -6.728  0.0000E+00  0.1600E+02
     -6.517  0.0000E+00  0.1600E+02
     -6.305  0.0000E+00  0.1600E+02
     -6.094  0.0000E+00  0.1600E+02
     -5.883  0.0000E+00  0.1600E+02
     -5.672  0.0000E+00  0.1600E+02
     -5.460  0.0000E+00  0.1600E+02
     -5.249  0.0000E+00  0.1600E+02
     -5.038  0.0000E+00  0.1600E+02
     -4.827  0.0000E+00  0.1600E+02
     -4.615  0.0000E+00  0.1600E+02
     -4.404  0.0000E+00  0.1600E+02
     -4.193  0.0000E+00  0.1600E+02
     -3.982  0.0000E+00  0.1600E+02
     -3.770  0.0000E+00  0.1600E+02
     -3.559  0.0000E+00  0.1600E+02
     -3.348  0.0000E+00  0.1600E+02
     -3.136  0.0000E+00  0.1600E+02
     -2.925  0.0000E+00  0.1600E+02
     -2.714  0.0000E+00  0.1600E+02
     -2.503  0.0000E+00  0.1600E+02
     -2.291  0.0000E+00  0.1600E+02
     -2.080  0.0000E+00  0.1600E+02
     -1.869  0.0000E+00  0.1600E+02
     -1.658  0.0000E+00  0.1600E+02
     -1.446  0.0000E+00  0.1600E+02
     -1.235  0.0000E+00  0.1600E+02
     -1.024  0.0000E+00  0.1600E+02
     -0.813  0.0000E+00  0.1600E+02
     -0.601  0.0000E+00  0.1600E+02
     -0.390  0.0000E+00  0.1600E+02
     -0.179  0.0000E+00  0.1600E+02
      0.032  0.0000E+00  0.1600E+02
      0.244  0.0000E+00  0.1600E+02
      0.455  0.0000E+00  0.1600E+02
      0.666  0.0000E+00  0.1600E+02
      0.877  0.0000E+00  0.1600E+02
      1.089  0.0000E+00  0.1600E+02
      1.300  0.0000E+00  0.1600E+02
      1.511  0.0000E+00  0.1600E+02
      1.722  0.0000E+00  0.1600E+02
      1.934  0.0000E+00  0.1600E+02
      2.145  0.0000E+00  0.1600E+02
      2.356  0.0000E+00  0.1600E+02
      2.567  0.0000E+00  0.1600E+02
      2.779  0.0000E+00  0.1600E+02
      2.990  0.2852E-14  0.1600E+02
      3.201  0.2081E-02  0.1600E+02
      3.412  0.2130E-01  0.1600E+02
      3.624  0.1623E+00  0.1604E+02
      3.835  0.3603E-01  0.1605E+02
      4.046  0.2692E+00  0.1610E+02
      4.258  0.1255E+00  0.1613E+02
      4.469  0.1864E+00  0.1617E+02
      4.680  0.3460E+00  0.1624E+02
      4.891  0.5108E+00  0.1635E+02
      5.103  0.4618E-04  0.1635E+02
      5.314  0.5419E+00  0.1647E+02
      5.525  0.9211E+00  0.1666E+02
      5.736  0.6565E+00  0.1680E+02
      5.948  0.1229E+01  0.1706E+02
      6.159  0.1748E+01  0.1743E+02
      6.370  0.2207E+01  0.1789E+02
      6.581  0.2005E+01  0.1832E+02
      6.793  0.3126E+01  0.1898E+02
      7.004  0.2491E+01  0.1950E+02
      7.215  0.1655E+01  0.1985E+02
      7.426  0.2673E+01  0.2042E+02
      7.638  0.2087E+01  0.2086E+02
      7.849  0.2556E+01  0.2140E+02
      8.060  0.3641E+01  0.2217E+02
      8.271  0.2855E+01  0.2277E+02
      8.483  0.2746E+01  0.2335E+02
      8.694  0.2242E+01  0.2383E+02
      8.905  0.6506E+00  0.2396E+02
      9.116  0.3161E+01  0.2463E+02
      9.328  0.3755E+01  0.2542E+02
      9.539  0.3402E+01  0.2614E+02
      9.750  0.3226E+01  0.2682E+02
      9.961  0.3961E+01  0.2766E+02
     10.173  0.4134E+01  0.2853E+02
     10.384  0.3035E+01  0.2918E+02
     10.595  0.3028E+01  0.2982E+02
     10.807  0.2618E+01  0.3037E+02
     11.018  0.6292E+00  0.3050E+02
     11.229  0.1276E+01  0.3077E+02
     11.440  0.2560E+01  0.3131E+02
     11.652  0.1822E+01  0.3170E+02
     11.863  0.8034E+00  0.3187E+02
     12.074  0.4946E+00  0.3197E+02
     12.285  0.1608E+01  0.3231E+02
     12.497  0.2485E+01  0.3284E+02
     12.708  0.2287E+01  0.3332E+02
     12.919  0.1974E+01  0.3374E+02
     13.130  0.3194E+01  0.3441E+02
     13.342  0.2575E+01  0.3495E+02
     13.553  0.2480E+01  0.3548E+02
     13.764  0.3490E+01  0.3622E+02
     13.975  0.4306E+01  0.3712E+02
     14.187  0.2785E+01  0.3771E+02
     14.398  0.1428E+01  0.3801E+02
     14.609  0.1131E+01  0.3825E+02
     14.820  0.6355E+00  0.3839E+02
     15.032  0.2926E+00  0.3845E+02
     15.243  0.8218E+00  0.3862E+02
     15.454  0.6747E+00  0.3877E+02
     15.665  0.1484E+01  0.3908E+02
     15.877  0.2124E+01  0.3953E+02
     16.088  0.7802E+00  0.3969E+02
     16.299  0.3687E+00  0.3977E+02
     16.510  0.1328E+00  0.3980E+02
     16.722  0.1097E+00  0.3982E+02
     16.933  0.6252E-13  0.3982E+02
     17.144  0.2885E-01  0.3983E+02
     17.355  0.6383E+00  0.3996E+02
     17.567  0.8376E-01  0.3998E+02
     17.778  0.9057E-01  0.4000E+02
     17.989  0.1712E-05  0.4000E+02
     18.201  0.0000E+00  0.4000E+02
     18.412  0.0000E+00  0.4000E+02
     18.623  0.0000E+00  0.4000E+02
     18.834  0.0000E+00  0.4000E+02
     19.046  0.0000E+00  0.4000E+02
     19.257  0.0000E+00  0.4000E+02
     19.468  0.0000E+00  0.4000E+02
     19.679  0.0000E+00  0.4000E+02
     19.891  0.0000E+00  0.4000E+02
     20.102  0.0000E+00  0.4000E+02
     20.313  0.0000E+00  0.4000E+02
     20.524  0.0000E+00  0.4000E+02
