       N       E                     dE             d eps       ncg     rms          rms(c)
DAV:   1     0.235779637593E+03    0.23578E+03   -0.14095E+04 16200   0.132E+03
DAV:   2    -0.385333286486E+00   -0.23616E+03   -0.23082E+03 18404   0.374E+02
DAV:   3    -0.172574649331E+02   -0.16872E+02   -0.16706E+02 29504   0.739E+01
DAV:   4    -0.177577511889E+02   -0.50029E+00   -0.49960E+00 19036   0.124E+01
DAV:   5    -0.177722609988E+02   -0.14510E-01   -0.14508E-01 24068   0.149E+00    0.141E+01
DAV:   6    -0.171627130403E+02    0.60955E+00   -0.91252E-01 17416   0.698E+00    0.551E+00
DAV:   7    -0.170399146929E+02    0.12280E+00   -0.55104E-01 20392   0.485E+00    0.108E+00
DAV:   8    -0.170469747556E+02   -0.70601E-02   -0.46713E-02 21700   0.150E+00    0.207E-01
DAV:   9    -0.170470477845E+02   -0.73029E-04   -0.11977E-03 21740   0.272E-01    0.492E-02
DAV:  10    -0.170469825313E+02    0.65253E-04   -0.43535E-05 19232   0.472E-02    0.184E-02
DAV:  11    -0.170469805073E+02    0.20239E-05   -0.85506E-06 18104   0.215E-02    0.933E-03
DAV:  12    -0.170469805797E+02   -0.72320E-07   -0.24451E-06 12848   0.154E-02
   1 F= -.17046981E+02 E0= -.17045449E+02  d E =-.306323E-02
