Ir4 W1                                  
   1.00000000000000     
    11.3385020000000001   -1.3778400000000000    0.0000000000000000
    11.3385020000000001    1.3778400000000000    0.0000000000000000
    11.1710680000000000    0.0000000000000000    2.3806080000000001
   Ir   W 
     4     1
Direct
     0.6003320000000016    0.6003320000000016    0.6003320000000016
     0.1991909999999990    0.1991909999999990    0.1991909999999990
     0.8008090000000010    0.8008090000000010    0.8008090000000010
     0.3996679999999984    0.3996679999999984    0.3996679999999984
     0.0000000000000000    0.0000000000000000    0.0000000000000000
 
  0.00000000E+00  0.00000000E+00  0.00000000E+00
  0.00000000E+00  0.00000000E+00  0.00000000E+00
  0.00000000E+00  0.00000000E+00  0.00000000E+00
  0.00000000E+00  0.00000000E+00  0.00000000E+00
  0.00000000E+00  0.00000000E+00  0.00000000E+00
