       N       E                     dE             d eps       ncg     rms          rms(c)
DAV:   1     0.423476041787E+03    0.42348E+03   -0.18649E+04 20736   0.961E+02
DAV:   2    -0.305056837578E+02   -0.45398E+03   -0.39958E+03 21280   0.292E+02
DAV:   3    -0.518845930467E+02   -0.21379E+02   -0.20184E+02 24680   0.755E+01
DAV:   4    -0.522398564675E+02   -0.35526E+00   -0.35466E+00 24576   0.862E+00
DAV:   5    -0.522497741932E+02   -0.99177E-02   -0.99169E-02 24608   0.127E+00    0.339E+01
DAV:   6    -0.545581292072E+02   -0.23084E+01   -0.33122E+01 27664   0.308E+01    0.295E+01
DAV:   7    -0.504096093635E+02    0.41485E+01   -0.54984E+01 27928   0.318E+01    0.137E+01
DAV:   8    -0.495255668135E+02    0.88404E+00   -0.97428E+00 31448   0.178E+01    0.698E+00
DAV:   9    -0.487218934859E+02    0.80367E+00   -0.41865E+00 27872   0.122E+01    0.430E+00
DAV:  10    -0.486503955657E+02    0.71498E-01   -0.17101E-01 25000   0.260E+00    0.286E+00
DAV:  11    -0.485953054607E+02    0.55090E-01   -0.11089E-01 32736   0.173E+00    0.124E+00
DAV:  12    -0.485907720958E+02    0.45334E-02   -0.36293E-02 32240   0.805E-01    0.620E-01
DAV:  13    -0.485894084084E+02    0.13637E-02   -0.14369E-02 27264   0.615E-01    0.466E-01
DAV:  14    -0.485890829088E+02    0.32550E-03   -0.51355E-03 31280   0.317E-01    0.379E-01
DAV:  15    -0.485887195142E+02    0.36339E-03   -0.15926E-03 31096   0.182E-01    0.168E-01
DAV:  16    -0.485887379746E+02   -0.18460E-04   -0.19601E-04 31536   0.698E-02    0.107E-01
DAV:  17    -0.485887253782E+02    0.12596E-04   -0.11762E-04 27232   0.580E-02    0.581E-02
DAV:  18    -0.485887221303E+02    0.32479E-05   -0.10021E-05 24144   0.147E-02    0.241E-02
DAV:  19    -0.485887220281E+02    0.10228E-06   -0.86527E-07 13984   0.503E-03
   1 F= -.48588722E+02 E0= -.48582884E+02  d E =-.116754E-01
