Rb1 P1                                  
   1.00000000000000     
     2.4456650000000000    4.3043920000000000    0.0000000000000000
    -2.4456650000000000    4.3043920000000000    0.0000000000000000
     0.0000000000000000    2.9132870000000000    4.1453870000000004
   Rb   P 
     1     1
Direct
     0.0000000000000000    0.0000000000000000    0.0000000000000000
     0.5000000000000000    0.5000000000000000    0.5000000000000000
 
  0.00000000E+00  0.00000000E+00  0.00000000E+00
  0.00000000E+00  0.00000000E+00  0.00000000E+00
