Mg6 Zr2                                 
   1.00000000000000     
     3.1584500599999998   -5.4705965900000004    0.0000000000000000
     3.1584500599999998    5.4705965900000004    0.0000000000000000
     0.0000000000000000    0.0000000000000000    5.0110294199999998
   Mg   Zr
     6     2
Direct
     0.3335873600000028    0.1667941799999966    0.2500000000000000
     0.8332058200000034    0.1667941799999966    0.2500000000000000
     0.8332058200000034    0.6664126399999972    0.2500000000000000
     0.6664126399999972    0.8332058200000034    0.7500000000000000
     0.1667941799999966    0.3335873600000028    0.7500000000000000
     0.1667941799999966    0.8332058200000034    0.7500000000000000
     0.3333330000000032    0.6666669999999968    0.2500000000000000
     0.6666669999999968    0.3333330000000032    0.7500000000000000
 
  0.00000000E+00  0.00000000E+00  0.00000000E+00
  0.00000000E+00  0.00000000E+00  0.00000000E+00
  0.00000000E+00  0.00000000E+00  0.00000000E+00
  0.00000000E+00  0.00000000E+00  0.00000000E+00
  0.00000000E+00  0.00000000E+00  0.00000000E+00
  0.00000000E+00  0.00000000E+00  0.00000000E+00
  0.00000000E+00  0.00000000E+00  0.00000000E+00
  0.00000000E+00  0.00000000E+00  0.00000000E+00
