   8   8   0   0
  0.2164590E+02  0.6316901E-09  0.6316901E-09  0.5011029E-09  0.5000000E-15
  1.000000000000000E-004
  CAR 
 unknown system                          
     10.07433838    -47.60924154  301      4.05729769      1.00000000
    -47.609  0.0000E+00  0.0000E+00
    -47.417  0.0000E+00  0.0000E+00
    -47.225  0.0000E+00  0.0000E+00
    -47.032  0.0000E+00  0.0000E+00
    -46.840  0.0000E+00  0.0000E+00
    -46.648  0.0000E+00  0.0000E+00
    -46.456  0.0000E+00  0.0000E+00
    -46.263  0.0000E+00  0.0000E+00
    -46.071  0.0000E+00  0.0000E+00
    -45.879  0.0000E+00  0.0000E+00
    -45.686  0.0000E+00  0.0000E+00
    -45.494  0.0000E+00  0.0000E+00
    -45.302  0.0000E+00  0.0000E+00
    -45.110  0.5151E-02  0.9904E-03
    -44.917  0.2027E+02  0.3899E+01
    -44.725  0.5263E+00  0.4000E+01
    -44.533  0.0000E+00  0.4000E+01
    -44.341  0.0000E+00  0.4000E+01
    -44.148  0.0000E+00  0.4000E+01
    -43.956  0.0000E+00  0.4000E+01
    -43.764  0.0000E+00  0.4000E+01
    -43.571  0.0000E+00  0.4000E+01
    -43.379  0.0000E+00  0.4000E+01
    -43.187  0.0000E+00  0.4000E+01
    -42.995  0.0000E+00  0.4000E+01
    -42.802  0.0000E+00  0.4000E+01
    -42.610  0.0000E+00  0.4000E+01
    -42.418  0.0000E+00  0.4000E+01
    -42.225  0.0000E+00  0.4000E+01
    -42.033  0.0000E+00  0.4000E+01
    -41.841  0.0000E+00  0.4000E+01
    -41.649  0.0000E+00  0.4000E+01
    -41.456  0.0000E+00  0.4000E+01
    -41.264  0.0000E+00  0.4000E+01
    -41.072  0.0000E+00  0.4000E+01
    -40.879  0.0000E+00  0.4000E+01
    -40.687  0.0000E+00  0.4000E+01
    -40.495  0.0000E+00  0.4000E+01
    -40.303  0.0000E+00  0.4000E+01
    -40.110  0.0000E+00  0.4000E+01
    -39.918  0.0000E+00  0.4000E+01
    -39.726  0.0000E+00  0.4000E+01
    -39.534  0.0000E+00  0.4000E+01
    -39.341  0.0000E+00  0.4000E+01
    -39.149  0.0000E+00  0.4000E+01
    -38.957  0.0000E+00  0.4000E+01
    -38.764  0.0000E+00  0.4000E+01
    -38.572  0.0000E+00  0.4000E+01
    -38.380  0.0000E+00  0.4000E+01
    -38.188  0.0000E+00  0.4000E+01
    -37.995  0.2221E-03  0.4000E+01
    -37.803  0.1071E+03  0.2460E+02
    -37.611  0.8011E+02  0.4000E+02
    -37.418  0.1336E-04  0.4000E+02
    -37.226  0.0000E+00  0.4000E+02
    -37.034  0.0000E+00  0.4000E+02
    -36.842  0.0000E+00  0.4000E+02
    -36.649  0.0000E+00  0.4000E+02
    -36.457  0.0000E+00  0.4000E+02
    -36.265  0.0000E+00  0.4000E+02
    -36.073  0.0000E+00  0.4000E+02
    -35.880  0.0000E+00  0.4000E+02
    -35.688  0.0000E+00  0.4000E+02
    -35.496  0.0000E+00  0.4000E+02
    -35.303  0.0000E+00  0.4000E+02
    -35.111  0.0000E+00  0.4000E+02
    -34.919  0.0000E+00  0.4000E+02
    -34.727  0.0000E+00  0.4000E+02
    -34.534  0.0000E+00  0.4000E+02
    -34.342  0.0000E+00  0.4000E+02
    -34.150  0.0000E+00  0.4000E+02
    -33.957  0.0000E+00  0.4000E+02
    -33.765  0.0000E+00  0.4000E+02
    -33.573  0.0000E+00  0.4000E+02
    -33.381  0.0000E+00  0.4000E+02
    -33.188  0.0000E+00  0.4000E+02
    -32.996  0.0000E+00  0.4000E+02
    -32.804  0.0000E+00  0.4000E+02
    -32.612  0.0000E+00  0.4000E+02
    -32.419  0.0000E+00  0.4000E+02
    -32.227  0.0000E+00  0.4000E+02
    -32.035  0.0000E+00  0.4000E+02
    -31.842  0.0000E+00  0.4000E+02
    -31.650  0.0000E+00  0.4000E+02
    -31.458  0.0000E+00  0.4000E+02
    -31.266  0.0000E+00  0.4000E+02
    -31.073  0.0000E+00  0.4000E+02
    -30.881  0.0000E+00  0.4000E+02
    -30.689  0.0000E+00  0.4000E+02
    -30.496  0.0000E+00  0.4000E+02
    -30.304  0.0000E+00  0.4000E+02
    -30.112  0.0000E+00  0.4000E+02
    -29.920  0.0000E+00  0.4000E+02
    -29.727  0.0000E+00  0.4000E+02
    -29.535  0.0000E+00  0.4000E+02
    -29.343  0.0000E+00  0.4000E+02
    -29.150  0.0000E+00  0.4000E+02
    -28.958  0.0000E+00  0.4000E+02
    -28.766  0.0000E+00  0.4000E+02
    -28.574  0.0000E+00  0.4000E+02
    -28.381  0.0000E+00  0.4000E+02
    -28.189  0.0000E+00  0.4000E+02
    -27.997  0.0000E+00  0.4000E+02
    -27.805  0.0000E+00  0.4000E+02
    -27.612  0.0000E+00  0.4000E+02
    -27.420  0.0000E+00  0.4000E+02
    -27.228  0.0000E+00  0.4000E+02
    -27.035  0.0000E+00  0.4000E+02
    -26.843  0.0000E+00  0.4000E+02
    -26.651  0.0000E+00  0.4000E+02
    -26.459  0.0000E+00  0.4000E+02
    -26.266  0.0000E+00  0.4000E+02
    -26.074  0.0000E+00  0.4000E+02
    -25.882  0.0000E+00  0.4000E+02
    -25.689  0.0000E+00  0.4000E+02
    -25.497  0.0000E+00  0.4000E+02
    -25.305  0.0000E+00  0.4000E+02
    -25.113  0.0000E+00  0.4000E+02
    -24.920  0.0000E+00  0.4000E+02
    -24.728  0.0000E+00  0.4000E+02
    -24.536  0.0000E+00  0.4000E+02
    -24.344  0.0000E+00  0.4000E+02
    -24.151  0.0000E+00  0.4000E+02
    -23.959  0.0000E+00  0.4000E+02
    -23.767  0.0000E+00  0.4000E+02
    -23.574  0.0000E+00  0.4000E+02
    -23.382  0.0000E+00  0.4000E+02
    -23.190  0.1802E-02  0.4000E+02
    -22.998  0.4076E+02  0.4784E+02
    -22.805  0.2165E+02  0.5200E+02
    -22.613  0.1444E-05  0.5200E+02
    -22.421  0.0000E+00  0.5200E+02
    -22.228  0.0000E+00  0.5200E+02
    -22.036  0.0000E+00  0.5200E+02
    -21.844  0.0000E+00  0.5200E+02
    -21.652  0.0000E+00  0.5200E+02
    -21.459  0.0000E+00  0.5200E+02
    -21.267  0.0000E+00  0.5200E+02
    -21.075  0.0000E+00  0.5200E+02
    -20.883  0.0000E+00  0.5200E+02
    -20.690  0.0000E+00  0.5200E+02
    -20.498  0.0000E+00  0.5200E+02
    -20.306  0.0000E+00  0.5200E+02
    -20.113  0.0000E+00  0.5200E+02
    -19.921  0.0000E+00  0.5200E+02
    -19.729  0.0000E+00  0.5200E+02
    -19.537  0.0000E+00  0.5200E+02
    -19.344  0.0000E+00  0.5200E+02
    -19.152  0.0000E+00  0.5200E+02
    -18.960  0.0000E+00  0.5200E+02
    -18.767  0.0000E+00  0.5200E+02
    -18.575  0.0000E+00  0.5200E+02
    -18.383  0.0000E+00  0.5200E+02
    -18.191  0.0000E+00  0.5200E+02
    -17.998  0.0000E+00  0.5200E+02
    -17.806  0.0000E+00  0.5200E+02
    -17.614  0.0000E+00  0.5200E+02
    -17.422  0.0000E+00  0.5200E+02
    -17.229  0.0000E+00  0.5200E+02
    -17.037  0.0000E+00  0.5200E+02
    -16.845  0.0000E+00  0.5200E+02
    -16.652  0.0000E+00  0.5200E+02
    -16.460  0.0000E+00  0.5200E+02
    -16.268  0.0000E+00  0.5200E+02
    -16.076  0.0000E+00  0.5200E+02
    -15.883  0.0000E+00  0.5200E+02
    -15.691  0.0000E+00  0.5200E+02
    -15.499  0.0000E+00  0.5200E+02
    -15.306  0.0000E+00  0.5200E+02
    -15.114  0.0000E+00  0.5200E+02
    -14.922  0.0000E+00  0.5200E+02
    -14.730  0.0000E+00  0.5200E+02
    -14.537  0.0000E+00  0.5200E+02
    -14.345  0.0000E+00  0.5200E+02
    -14.153  0.0000E+00  0.5200E+02
    -13.960  0.0000E+00  0.5200E+02
    -13.768  0.0000E+00  0.5200E+02
    -13.576  0.0000E+00  0.5200E+02
    -13.384  0.0000E+00  0.5200E+02
    -13.191  0.0000E+00  0.5200E+02
    -12.999  0.0000E+00  0.5200E+02
    -12.807  0.0000E+00  0.5200E+02
    -12.615  0.0000E+00  0.5200E+02
    -12.422  0.0000E+00  0.5200E+02
    -12.230  0.0000E+00  0.5200E+02
    -12.038  0.0000E+00  0.5200E+02
    -11.845  0.0000E+00  0.5200E+02
    -11.653  0.0000E+00  0.5200E+02
    -11.461  0.0000E+00  0.5200E+02
    -11.269  0.0000E+00  0.5200E+02
    -11.076  0.0000E+00  0.5200E+02
    -10.884  0.0000E+00  0.5200E+02
    -10.692  0.0000E+00  0.5200E+02
    -10.499  0.0000E+00  0.5200E+02
    -10.307  0.0000E+00  0.5200E+02
    -10.115  0.0000E+00  0.5200E+02
     -9.923  0.0000E+00  0.5200E+02
     -9.730  0.0000E+00  0.5200E+02
     -9.538  0.0000E+00  0.5200E+02
     -9.346  0.0000E+00  0.5200E+02
     -9.154  0.0000E+00  0.5200E+02
     -8.961  0.0000E+00  0.5200E+02
     -8.769  0.0000E+00  0.5200E+02
     -8.577  0.0000E+00  0.5200E+02
     -8.384  0.0000E+00  0.5200E+02
     -8.192  0.0000E+00  0.5200E+02
     -8.000  0.0000E+00  0.5200E+02
     -7.808  0.0000E+00  0.5200E+02
     -7.615  0.0000E+00  0.5200E+02
     -7.423  0.0000E+00  0.5200E+02
     -7.231  0.0000E+00  0.5200E+02
     -7.038  0.0000E+00  0.5200E+02
     -6.846  0.0000E+00  0.5200E+02
     -6.654  0.0000E+00  0.5200E+02
     -6.462  0.0000E+00  0.5200E+02
     -6.269  0.0000E+00  0.5200E+02
     -6.077  0.0000E+00  0.5200E+02
     -5.885  0.0000E+00  0.5200E+02
     -5.693  0.0000E+00  0.5200E+02
     -5.500  0.0000E+00  0.5200E+02
     -5.308  0.0000E+00  0.5200E+02
     -5.116  0.0000E+00  0.5200E+02
     -4.923  0.0000E+00  0.5200E+02
     -4.731  0.0000E+00  0.5200E+02
     -4.539  0.0000E+00  0.5200E+02
     -4.347  0.0000E+00  0.5200E+02
     -4.154  0.0000E+00  0.5200E+02
     -3.962  0.0000E+00  0.5200E+02
     -3.770  0.0000E+00  0.5200E+02
     -3.577  0.0000E+00  0.5200E+02
     -3.385  0.0000E+00  0.5200E+02
     -3.193  0.0000E+00  0.5200E+02
     -3.001  0.0000E+00  0.5200E+02
     -2.808  0.0000E+00  0.5200E+02
     -2.616  0.3128E-04  0.5200E+02
     -2.424  0.1060E+00  0.5202E+02
     -2.231  0.2239E+00  0.5206E+02
     -2.039  0.6818E+00  0.5219E+02
     -1.847  0.1267E+01  0.5244E+02
     -1.655  0.2130E+00  0.5248E+02
     -1.462  0.9694E+00  0.5267E+02
     -1.270  0.2268E+01  0.5310E+02
     -1.078  0.9497E+00  0.5328E+02
     -0.886  0.1093E+01  0.5349E+02
     -0.693  0.1495E+01  0.5378E+02
     -0.501  0.1893E+01  0.5415E+02
     -0.309  0.1267E+01  0.5439E+02
     -0.116  0.1666E+01  0.5471E+02
      0.076  0.2888E+01  0.5527E+02
      0.268  0.2003E+01  0.5565E+02
      0.460  0.2952E+01  0.5622E+02
      0.653  0.2442E+01  0.5669E+02
      0.845  0.6041E+00  0.5680E+02
      1.037  0.4341E+01  0.5764E+02
      1.230  0.2675E+01  0.5815E+02
      1.422  0.2091E+01  0.5855E+02
      1.614  0.3074E+01  0.5915E+02
      1.806  0.4636E+01  0.6004E+02
      1.999  0.5173E+01  0.6103E+02
      2.191  0.3089E+01  0.6163E+02
      2.383  0.2688E+01  0.6214E+02
      2.575  0.4257E+01  0.6296E+02
      2.768  0.5142E+01  0.6395E+02
      2.960  0.4370E+01  0.6479E+02
      3.152  0.4089E+01  0.6558E+02
      3.345  0.8059E+01  0.6713E+02
      3.537  0.7908E+01  0.6865E+02
      3.729  0.7396E+01  0.7007E+02
      3.921  0.6644E+01  0.7135E+02
      4.114  0.5185E+01  0.7234E+02
      4.306  0.3146E+01  0.7295E+02
      4.498  0.6998E+01  0.7429E+02
      4.691  0.6133E+01  0.7547E+02
      4.883  0.4403E+01  0.7632E+02
      5.075  0.5296E+01  0.7734E+02
      5.267  0.5962E+01  0.7848E+02
      5.460  0.8069E+01  0.8004E+02
      5.652  0.5344E+01  0.8106E+02
      5.844  0.5099E+01  0.8204E+02
      6.036  0.8025E+01  0.8359E+02
      6.229  0.3762E+01  0.8431E+02
      6.421  0.3528E+01  0.8499E+02
      6.613  0.4346E+01  0.8582E+02
      6.806  0.4707E+01  0.8673E+02
      6.998  0.2905E+01  0.8729E+02
      7.190  0.2936E+01  0.8785E+02
      7.382  0.4223E+00  0.8793E+02
      7.575  0.3479E+00  0.8800E+02
      7.767  0.2918E-04  0.8800E+02
      7.959  0.0000E+00  0.8800E+02
      8.152  0.0000E+00  0.8800E+02
      8.344  0.0000E+00  0.8800E+02
      8.536  0.0000E+00  0.8800E+02
      8.728  0.0000E+00  0.8800E+02
      8.921  0.0000E+00  0.8800E+02
      9.113  0.0000E+00  0.8800E+02
      9.305  0.0000E+00  0.8800E+02
      9.498  0.0000E+00  0.8800E+02
      9.690  0.0000E+00  0.8800E+02
      9.882  0.0000E+00  0.8800E+02
     10.074  0.0000E+00  0.8800E+02
