Mg6Zr2
1.0
      3.1584501      -5.4705966       0.0000000
      3.1584501       5.4705966       0.0000000
      0.0000000       0.0000000       5.0110294
  Mg    Zr  
  6     2   
Direct
      0.3335874       0.1667942       0.2500000
      0.8332058       0.1667942       0.2500000
      0.8332058       0.6664126       0.2500000
      0.6664126       0.8332058       0.7500000
      0.1667942       0.3335874       0.7500000
      0.1667942       0.8332058       0.7500000
      0.3333330       0.6666670       0.2500000
      0.6666670       0.3333330       0.7500000
