Mg6 Zr2
1.0
   3.1584500599999998   -5.4705965900000004    0.0000000000000000
   3.1584500599999998    5.4705965900000004   -0.0000000000000000
   0.0000000000000000    0.0000000000000000    5.0110294199999998
Mg Zr
6 2
direct
   0.3335873600000000    0.1667941800000000    0.2500000000000000 Mg
   0.8332058200000000    0.1667941800000000    0.2500000000000000 Mg
   0.8332058200000000    0.6664126400000000    0.2500000000000000 Mg
   0.6664126400000000    0.8332058200000000    0.7500000000000000 Mg
   0.1667941800000000    0.3335873600000000    0.7500000000000000 Mg
   0.1667941800000000    0.8332058200000000    0.7500000000000000 Mg
   0.3333330000000000    0.6666670000000000    0.2500000000000000 Zr
   0.6666670000000000    0.3333330000000000    0.7500000000000000 Zr
