B1 Pd5                                  
   1.00000000000000     
    -1.5640540000000001    1.5640540000000001    8.8288860000000007
     1.5640540000000001   -1.5640540000000001    8.8288860000000007
     1.5640540000000001    1.5640540000000001   -8.8288860000000007
   B    Pd
     1     5
Direct
     0.0000000000000000    0.0000000000000000    0.0000000000000000
     0.1125919999999994    0.1125919999999994    0.0000000000000000
     0.5000000000000000    0.5000000000000000    0.0000000000000000
     0.8874080000000006    0.8874080000000006    0.0000000000000000
     0.2956410000000034    0.2956410000000034    0.0000000000000000
     0.7043589999999966    0.7043589999999966    0.0000000000000000
 
  0.00000000E+00  0.00000000E+00  0.00000000E+00
  0.00000000E+00  0.00000000E+00  0.00000000E+00
  0.00000000E+00  0.00000000E+00  0.00000000E+00
  0.00000000E+00  0.00000000E+00  0.00000000E+00
  0.00000000E+00  0.00000000E+00  0.00000000E+00
  0.00000000E+00  0.00000000E+00  0.00000000E+00
