   3   3   0   0
  0.3882082E+02  0.4291012E-09  0.4291011E-09  0.7303584E-09  0.5000000E-15
  1.000000000000000E-004
  CAR 
 unknown system                          
     12.19085803    -11.71465720  301      1.51804154      1.00000000
    -11.715  0.0000E+00  0.0000E+00
    -11.635  0.0000E+00  0.0000E+00
    -11.555  0.0000E+00  0.0000E+00
    -11.476  0.0000E+00  0.0000E+00
    -11.396  0.0000E+00  0.0000E+00
    -11.316  0.0000E+00  0.0000E+00
    -11.237  0.0000E+00  0.0000E+00
    -11.157  0.0000E+00  0.0000E+00
    -11.077  0.0000E+00  0.0000E+00
    -10.997  0.0000E+00  0.0000E+00
    -10.918  0.1422E-16  0.1133E-17
    -10.838  0.1809E-09  0.1441E-10
    -10.758  0.1483E-04  0.1181E-05
    -10.679  0.1166E-01  0.9304E-03
    -10.599  0.2492E+00  0.2079E-01
    -10.519  0.1334E+01  0.1271E+00
    -10.440  0.1803E+01  0.2707E+00
    -10.360  0.1632E+01  0.4008E+00
    -10.280  0.3306E+01  0.6642E+00
    -10.201  0.1832E+01  0.8102E+00
    -10.121  0.6034E+01  0.1291E+01
    -10.041  0.1384E+02  0.2394E+01
     -9.962  0.1796E+02  0.3825E+01
     -9.882  0.2184E+01  0.3999E+01
     -9.802  0.7041E-02  0.4000E+01
     -9.723  0.2706E-06  0.4000E+01
     -9.643  0.8880E-13  0.4000E+01
     -9.563  0.0000E+00  0.4000E+01
     -9.483  0.0000E+00  0.4000E+01
     -9.404  0.0000E+00  0.4000E+01
     -9.324  0.0000E+00  0.4000E+01
     -9.244  0.0000E+00  0.4000E+01
     -9.165  0.0000E+00  0.4000E+01
     -9.085  0.0000E+00  0.4000E+01
     -9.005  0.0000E+00  0.4000E+01
     -8.926  0.0000E+00  0.4000E+01
     -8.846  0.0000E+00  0.4000E+01
     -8.766  0.0000E+00  0.4000E+01
     -8.687  0.0000E+00  0.4000E+01
     -8.607  0.0000E+00  0.4000E+01
     -8.527  0.0000E+00  0.4000E+01
     -8.448  0.0000E+00  0.4000E+01
     -8.368  0.0000E+00  0.4000E+01
     -8.288  0.0000E+00  0.4000E+01
     -8.209  0.0000E+00  0.4000E+01
     -8.129  0.0000E+00  0.4000E+01
     -8.049  0.0000E+00  0.4000E+01
     -7.969  0.0000E+00  0.4000E+01
     -7.890  0.0000E+00  0.4000E+01
     -7.810  0.0000E+00  0.4000E+01
     -7.730  0.0000E+00  0.4000E+01
     -7.651  0.0000E+00  0.4000E+01
     -7.571  0.0000E+00  0.4000E+01
     -7.491  0.0000E+00  0.4000E+01
     -7.412  0.0000E+00  0.4000E+01
     -7.332  0.0000E+00  0.4000E+01
     -7.252  0.0000E+00  0.4000E+01
     -7.173  0.0000E+00  0.4000E+01
     -7.093  0.0000E+00  0.4000E+01
     -7.013  0.0000E+00  0.4000E+01
     -6.934  0.0000E+00  0.4000E+01
     -6.854  0.0000E+00  0.4000E+01
     -6.774  0.0000E+00  0.4000E+01
     -6.694  0.0000E+00  0.4000E+01
     -6.615  0.0000E+00  0.4000E+01
     -6.535  0.0000E+00  0.4000E+01
     -6.455  0.1965E-09  0.4000E+01
     -6.376  0.4569E-04  0.4000E+01
     -6.296  0.1222E+00  0.4010E+01
     -6.216  0.7048E+01  0.4571E+01
     -6.137  0.2436E+02  0.6512E+01
     -6.057  0.3688E+02  0.9451E+01
     -5.977  0.4224E+02  0.1282E+02
     -5.898  0.1310E+02  0.1386E+02
     -5.818  0.1739E+01  0.1400E+02
     -5.738  0.1264E-01  0.1400E+02
     -5.659  0.9919E-06  0.1400E+02
     -5.579  0.6126E-12  0.1400E+02
     -5.499  0.0000E+00  0.1400E+02
     -5.420  0.0000E+00  0.1400E+02
     -5.340  0.0000E+00  0.1400E+02
     -5.260  0.0000E+00  0.1400E+02
     -5.180  0.0000E+00  0.1400E+02
     -5.101  0.0000E+00  0.1400E+02
     -5.021  0.0000E+00  0.1400E+02
     -4.941  0.0000E+00  0.1400E+02
     -4.862  0.0000E+00  0.1400E+02
     -4.782  0.0000E+00  0.1400E+02
     -4.702  0.0000E+00  0.1400E+02
     -4.623  0.0000E+00  0.1400E+02
     -4.543  0.0000E+00  0.1400E+02
     -4.463  0.0000E+00  0.1400E+02
     -4.384  0.0000E+00  0.1400E+02
     -4.304  0.0000E+00  0.1400E+02
     -4.224  0.0000E+00  0.1400E+02
     -4.145  0.0000E+00  0.1400E+02
     -4.065  0.0000E+00  0.1400E+02
     -3.985  0.0000E+00  0.1400E+02
     -3.906  0.0000E+00  0.1400E+02
     -3.826  0.0000E+00  0.1400E+02
     -3.746  0.0000E+00  0.1400E+02
     -3.666  0.0000E+00  0.1400E+02
     -3.587  0.0000E+00  0.1400E+02
     -3.507  0.0000E+00  0.1400E+02
     -3.427  0.0000E+00  0.1400E+02
     -3.348  0.0000E+00  0.1400E+02
     -3.268  0.0000E+00  0.1400E+02
     -3.188  0.0000E+00  0.1400E+02
     -3.109  0.0000E+00  0.1400E+02
     -3.029  0.0000E+00  0.1400E+02
     -2.949  0.0000E+00  0.1400E+02
     -2.870  0.0000E+00  0.1400E+02
     -2.790  0.0000E+00  0.1400E+02
     -2.710  0.0000E+00  0.1400E+02
     -2.631  0.2597E-09  0.1400E+02
     -2.551  0.4971E-04  0.1400E+02
     -2.471  0.8805E-01  0.1401E+02
     -2.392  0.2532E+01  0.1421E+02
     -2.312  0.4514E+01  0.1457E+02
     -2.232  0.4192E+01  0.1490E+02
     -2.152  0.3860E+01  0.1521E+02
     -2.073  0.2431E+01  0.1540E+02
     -1.993  0.3193E+01  0.1566E+02
     -1.913  0.2926E+01  0.1589E+02
     -1.834  0.4976E+00  0.1593E+02
     -1.754  0.5382E+00  0.1597E+02
     -1.674  0.3101E+00  0.1600E+02
     -1.595  0.3299E-01  0.1600E+02
     -1.515  0.7949E+00  0.1606E+02
     -1.435  0.1530E+01  0.1619E+02
     -1.356  0.1799E+01  0.1633E+02
     -1.276  0.1519E+01  0.1645E+02
     -1.196  0.2445E+01  0.1665E+02
     -1.117  0.2757E+01  0.1687E+02
     -1.037  0.2290E+01  0.1705E+02
     -0.957  0.2954E+01  0.1728E+02
     -0.877  0.1737E+01  0.1742E+02
     -0.798  0.2186E+01  0.1760E+02
     -0.718  0.7394E+00  0.1766E+02
     -0.638  0.5492E+00  0.1770E+02
     -0.559  0.1414E+01  0.1781E+02
     -0.479  0.4359E+01  0.1816E+02
     -0.399  0.5331E+01  0.1858E+02
     -0.320  0.5165E+01  0.1900E+02
     -0.240  0.2495E+01  0.1919E+02
     -0.160  0.4108E+01  0.1952E+02
     -0.081  0.3775E+01  0.1982E+02
     -0.001  0.3931E+01  0.2014E+02
      0.079  0.5055E+01  0.2054E+02
      0.158  0.2462E+01  0.2073E+02
      0.238  0.2460E+01  0.2093E+02
      0.318  0.3004E+01  0.2117E+02
      0.397  0.1594E+01  0.2130E+02
      0.477  0.2660E+01  0.2151E+02
      0.557  0.4161E+01  0.2184E+02
      0.637  0.2647E+01  0.2205E+02
      0.716  0.7410E+01  0.2264E+02
      0.796  0.8378E+01  0.2331E+02
      0.876  0.6982E+01  0.2387E+02
      0.955  0.7154E+01  0.2444E+02
      1.035  0.8039E+01  0.2508E+02
      1.115  0.4549E+01  0.2544E+02
      1.194  0.3304E+01  0.2570E+02
      1.274  0.3029E+01  0.2594E+02
      1.354  0.6981E+00  0.2600E+02
      1.433  0.8426E-02  0.2600E+02
      1.513  0.1371E-05  0.2600E+02
      1.593  0.1884E-11  0.2600E+02
      1.672  0.0000E+00  0.2600E+02
      1.752  0.0000E+00  0.2600E+02
      1.832  0.0000E+00  0.2600E+02
      1.911  0.0000E+00  0.2600E+02
      1.991  0.0000E+00  0.2600E+02
      2.071  0.0000E+00  0.2600E+02
      2.151  0.0000E+00  0.2600E+02
      2.230  0.0000E+00  0.2600E+02
      2.310  0.0000E+00  0.2600E+02
      2.390  0.0000E+00  0.2600E+02
      2.469  0.0000E+00  0.2600E+02
      2.549  0.0000E+00  0.2600E+02
      2.629  0.0000E+00  0.2600E+02
      2.708  0.0000E+00  0.2600E+02
      2.788  0.0000E+00  0.2600E+02
      2.868  0.0000E+00  0.2600E+02
      2.947  0.0000E+00  0.2600E+02
      3.027  0.0000E+00  0.2600E+02
      3.107  0.0000E+00  0.2600E+02
      3.186  0.0000E+00  0.2600E+02
      3.266  0.0000E+00  0.2600E+02
      3.346  0.0000E+00  0.2600E+02
      3.426  0.4265E-16  0.2600E+02
      3.505  0.5343E-09  0.2600E+02
      3.585  0.7025E-04  0.2600E+02
      3.665  0.7674E-01  0.2601E+02
      3.744  0.1112E+01  0.2609E+02
      3.824  0.6075E+00  0.2614E+02
      3.904  0.8672E+00  0.2621E+02
      3.983  0.6151E+00  0.2626E+02
      4.063  0.1881E+01  0.2641E+02
      4.143  0.1853E+01  0.2656E+02
      4.222  0.2504E+01  0.2676E+02
      4.302  0.3618E+01  0.2705E+02
      4.382  0.3917E+01  0.2736E+02
      4.461  0.1680E+01  0.2749E+02
      4.541  0.1685E+01  0.2763E+02
      4.621  0.2741E+01  0.2785E+02
      4.700  0.1576E+01  0.2797E+02
      4.780  0.3606E+00  0.2800E+02
      4.860  0.6903E-02  0.2800E+02
      4.940  0.1472E-05  0.2800E+02
      5.019  0.2396E-11  0.2800E+02
      5.099  0.0000E+00  0.2800E+02
      5.179  0.0000E+00  0.2800E+02
      5.258  0.0000E+00  0.2800E+02
      5.338  0.0000E+00  0.2800E+02
      5.418  0.0000E+00  0.2800E+02
      5.497  0.1208E-15  0.2800E+02
      5.577  0.9678E-09  0.2800E+02
      5.657  0.5932E-04  0.2800E+02
      5.736  0.3615E-01  0.2800E+02
      5.816  0.3594E+00  0.2803E+02
      5.896  0.1159E+00  0.2804E+02
      5.975  0.7544E-03  0.2804E+02
      6.055  0.4879E-07  0.2804E+02
      6.135  0.3207E-05  0.2804E+02
      6.214  0.1333E-01  0.2804E+02
      6.294  0.8422E+00  0.2811E+02
      6.374  0.3241E+01  0.2837E+02
      6.454  0.2583E+01  0.2857E+02
      6.533  0.9803E+00  0.2865E+02
      6.613  0.3250E+00  0.2868E+02
      6.693  0.2447E+01  0.2887E+02
      6.772  0.1911E+01  0.2902E+02
      6.852  0.2359E+01  0.2921E+02
      6.932  0.2089E+01  0.2938E+02
      7.011  0.2339E+01  0.2957E+02
      7.091  0.2718E+01  0.2978E+02
      7.171  0.3464E+01  0.3006E+02
      7.250  0.2554E+01  0.3026E+02
      7.330  0.1997E+01  0.3042E+02
      7.410  0.6591E+00  0.3047E+02
      7.489  0.3169E+01  0.3073E+02
      7.569  0.2698E+01  0.3094E+02
      7.649  0.4453E+01  0.3130E+02
      7.728  0.4739E+01  0.3167E+02
      7.808  0.3428E+01  0.3195E+02
      7.888  0.4263E+01  0.3229E+02
      7.968  0.6258E+01  0.3278E+02
      8.047  0.6516E+01  0.3330E+02
      8.127  0.4124E+01  0.3363E+02
      8.207  0.3430E+01  0.3391E+02
      8.286  0.1609E+01  0.3403E+02
      8.366  0.2686E+01  0.3425E+02
      8.446  0.3163E+01  0.3450E+02
      8.525  0.5965E+01  0.3498E+02
      8.605  0.5294E+01  0.3540E+02
      8.685  0.1906E+01  0.3555E+02
      8.764  0.1433E+01  0.3566E+02
      8.844  0.1465E+01  0.3578E+02
      8.924  0.1849E+01  0.3593E+02
      9.003  0.9431E+00  0.3600E+02
      9.083  0.4024E+00  0.3603E+02
      9.163  0.3374E+00  0.3606E+02
      9.243  0.1150E+01  0.3615E+02
      9.322  0.2828E+01  0.3638E+02
      9.402  0.3342E+01  0.3664E+02
      9.482  0.2971E+01  0.3688E+02
      9.561  0.2132E+01  0.3705E+02
      9.641  0.1749E+01  0.3719E+02
      9.721  0.3075E+01  0.3744E+02
      9.800  0.5399E+01  0.3787E+02
      9.880  0.5257E+01  0.3828E+02
      9.960  0.9650E+00  0.3836E+02
     10.039  0.9649E+00  0.3844E+02
     10.119  0.3640E+01  0.3873E+02
     10.199  0.3834E+01  0.3903E+02
     10.278  0.2481E+01  0.3923E+02
     10.358  0.1826E+01  0.3938E+02
     10.438  0.1793E+01  0.3952E+02
     10.517  0.1337E+01  0.3963E+02
     10.597  0.9538E-01  0.3963E+02
     10.677  0.6846E+00  0.3969E+02
     10.757  0.1436E+01  0.3980E+02
     10.836  0.6136E+00  0.3985E+02
     10.916  0.3406E+00  0.3988E+02
     10.996  0.4963E+00  0.3992E+02
     11.075  0.4072E+00  0.3995E+02
     11.155  0.5535E+00  0.4000E+02
     11.235  0.5734E-01  0.4000E+02
     11.314  0.8442E-04  0.4000E+02
     11.394  0.1037E-08  0.4000E+02
     11.474  0.8530E-16  0.4000E+02
     11.553  0.0000E+00  0.4000E+02
     11.633  0.0000E+00  0.4000E+02
     11.713  0.0000E+00  0.4000E+02
     11.792  0.0000E+00  0.4000E+02
     11.872  0.0000E+00  0.4000E+02
     11.952  0.0000E+00  0.4000E+02
     12.031  0.0000E+00  0.4000E+02
     12.111  0.0000E+00  0.4000E+02
     12.191  0.0000E+00  0.4000E+02
