   9   9   0   0
  0.2424932E+02  0.4027405E-09  0.5405598E-09  0.1022520E-08  0.5000000E-15
  1.000000000000000E-004
  CAR 
 unknown system                          
     18.30874931     -7.05946128  301      8.29016260      1.00000000
     -7.059  0.0000E+00  0.0000E+00
     -6.975  0.0000E+00  0.0000E+00
     -6.890  0.0000E+00  0.0000E+00
     -6.806  0.0000E+00  0.0000E+00
     -6.721  0.0000E+00  0.0000E+00
     -6.637  0.0000E+00  0.0000E+00
     -6.552  0.0000E+00  0.0000E+00
     -6.468  0.0000E+00  0.0000E+00
     -6.383  0.0000E+00  0.0000E+00
     -6.298  0.0000E+00  0.0000E+00
     -6.214  0.0000E+00  0.0000E+00
     -6.129  0.4853E-10  0.4104E-11
     -6.045  0.1535E-04  0.1298E-05
     -5.960  0.2161E-01  0.1829E-02
     -5.876  0.2514E+00  0.2309E-01
     -5.791  0.1635E+00  0.3691E-01
     -5.706  0.1191E+01  0.1376E+00
     -5.622  0.6569E+00  0.1931E+00
     -5.537  0.1894E+01  0.3533E+00
     -5.453  0.8275E+00  0.4233E+00
     -5.368  0.1247E+01  0.5287E+00
     -5.284  0.7617E+00  0.5931E+00
     -5.199  0.2031E+01  0.7649E+00
     -5.115  0.2420E+01  0.9695E+00
     -5.030  0.3358E+01  0.1253E+01
     -4.945  0.1550E+01  0.1385E+01
     -4.861  0.1033E+01  0.1472E+01
     -4.776  0.2294E+01  0.1666E+01
     -4.692  0.5339E+01  0.2117E+01
     -4.607  0.4393E+01  0.2489E+01
     -4.523  0.3021E+01  0.2744E+01
     -4.438  0.2488E+01  0.2955E+01
     -4.354  0.1787E+01  0.3106E+01
     -4.269  0.2605E+01  0.3326E+01
     -4.184  0.4181E+01  0.3680E+01
     -4.100  0.4736E+01  0.4080E+01
     -4.015  0.3455E+01  0.4372E+01
     -3.931  0.3114E+01  0.4636E+01
     -3.846  0.5351E+01  0.5088E+01
     -3.762  0.8593E+01  0.5815E+01
     -3.677  0.4740E+01  0.6216E+01
     -3.592  0.2915E+01  0.6462E+01
     -3.508  0.3197E+01  0.6732E+01
     -3.423  0.8675E+01  0.7466E+01
     -3.339  0.1023E+02  0.8331E+01
     -3.254  0.7303E+01  0.8949E+01
     -3.170  0.6132E+01  0.9467E+01
     -3.085  0.8370E+01  0.1018E+02
     -3.001  0.5511E+01  0.1064E+02
     -2.916  0.5874E+01  0.1114E+02
     -2.831  0.5761E+01  0.1162E+02
     -2.747  0.1118E+01  0.1172E+02
     -2.662  0.1027E+01  0.1181E+02
     -2.578  0.6459E+00  0.1186E+02
     -2.493  0.1307E+01  0.1197E+02
     -2.409  0.3334E+00  0.1200E+02
     -2.324  0.4099E-02  0.1200E+02
     -2.240  0.4939E-06  0.1200E+02
     -2.155  0.2623E-12  0.1200E+02
     -2.070  0.0000E+00  0.1200E+02
     -1.986  0.0000E+00  0.1200E+02
     -1.901  0.0000E+00  0.1200E+02
     -1.817  0.0000E+00  0.1200E+02
     -1.732  0.0000E+00  0.1200E+02
     -1.648  0.0000E+00  0.1200E+02
     -1.563  0.0000E+00  0.1200E+02
     -1.478  0.0000E+00  0.1200E+02
     -1.394  0.0000E+00  0.1200E+02
     -1.309  0.0000E+00  0.1200E+02
     -1.225  0.0000E+00  0.1200E+02
     -1.140  0.0000E+00  0.1200E+02
     -1.056  0.0000E+00  0.1200E+02
     -0.971  0.0000E+00  0.1200E+02
     -0.887  0.0000E+00  0.1200E+02
     -0.802  0.0000E+00  0.1200E+02
     -0.717  0.0000E+00  0.1200E+02
     -0.633  0.0000E+00  0.1200E+02
     -0.548  0.0000E+00  0.1200E+02
     -0.464  0.0000E+00  0.1200E+02
     -0.379  0.0000E+00  0.1200E+02
     -0.295  0.0000E+00  0.1200E+02
     -0.210  0.0000E+00  0.1200E+02
     -0.125  0.0000E+00  0.1200E+02
     -0.041  0.0000E+00  0.1200E+02
      0.044  0.0000E+00  0.1200E+02
      0.128  0.0000E+00  0.1200E+02
      0.213  0.0000E+00  0.1200E+02
      0.297  0.0000E+00  0.1200E+02
      0.382  0.0000E+00  0.1200E+02
      0.466  0.0000E+00  0.1200E+02
      0.551  0.0000E+00  0.1200E+02
      0.636  0.0000E+00  0.1200E+02
      0.720  0.0000E+00  0.1200E+02
      0.805  0.0000E+00  0.1200E+02
      0.889  0.0000E+00  0.1200E+02
      0.974  0.7850E-12  0.1200E+02
      1.058  0.1034E-05  0.1200E+02
      1.143  0.5990E-02  0.1200E+02
      1.227  0.2868E+00  0.1202E+02
      1.312  0.4152E+00  0.1206E+02
      1.397  0.7778E+00  0.1213E+02
      1.481  0.3360E+01  0.1241E+02
      1.566  0.6641E+01  0.1297E+02
      1.650  0.6217E+01  0.1350E+02
      1.735  0.8201E+01  0.1419E+02
      1.819  0.7101E+01  0.1479E+02
      1.904  0.1944E+01  0.1496E+02
      1.989  0.3980E+01  0.1529E+02
      2.073  0.5024E+01  0.1572E+02
      2.158  0.5642E+01  0.1619E+02
      2.242  0.5862E+01  0.1669E+02
      2.327  0.6106E+01  0.1721E+02
      2.411  0.5939E+01  0.1771E+02
      2.496  0.6935E+01  0.1829E+02
      2.580  0.6366E+01  0.1883E+02
      2.665  0.5749E+01  0.1932E+02
      2.750  0.5130E+01  0.1975E+02
      2.834  0.7422E+01  0.2038E+02
      2.919  0.9909E+01  0.2122E+02
      3.003  0.8562E+01  0.2194E+02
      3.088  0.8314E+01  0.2265E+02
      3.172  0.1010E+02  0.2350E+02
      3.257  0.9276E+01  0.2428E+02
      3.342  0.8294E+01  0.2498E+02
      3.426  0.9383E+01  0.2578E+02
      3.511  0.1009E+02  0.2663E+02
      3.595  0.8766E+01  0.2737E+02
      3.680  0.8672E+01  0.2811E+02
      3.764  0.8536E+01  0.2883E+02
      3.849  0.8164E+01  0.2952E+02
      3.933  0.6289E+01  0.3005E+02
      4.018  0.5634E+01  0.3053E+02
      4.103  0.7713E+01  0.3118E+02
      4.187  0.6727E+01  0.3175E+02
      4.272  0.6466E+01  0.3229E+02
      4.356  0.7006E+01  0.3289E+02
      4.441  0.6537E+01  0.3344E+02
      4.525  0.7550E+01  0.3408E+02
      4.610  0.8650E+01  0.3481E+02
      4.694  0.1054E+02  0.3570E+02
      4.779  0.1034E+02  0.3657E+02
      4.864  0.6778E+01  0.3715E+02
      4.948  0.6618E+01  0.3771E+02
      5.033  0.1124E+02  0.3866E+02
      5.117  0.1382E+02  0.3983E+02
      5.202  0.1006E+02  0.4068E+02
      5.286  0.1162E+02  0.4166E+02
      5.371  0.1130E+02  0.4262E+02
      5.456  0.9666E+01  0.4343E+02
      5.540  0.1279E+02  0.4452E+02
      5.625  0.1209E+02  0.4554E+02
      5.709  0.1024E+02  0.4640E+02
      5.794  0.9891E+01  0.4724E+02
      5.878  0.1433E+02  0.4845E+02
      5.963  0.9680E+01  0.4927E+02
      6.047  0.8256E+01  0.4997E+02
      6.132  0.1144E+02  0.5094E+02
      6.217  0.1305E+02  0.5204E+02
      6.301  0.9868E+01  0.5287E+02
      6.386  0.1065E+02  0.5377E+02
      6.470  0.1104E+02  0.5471E+02
      6.555  0.7388E+01  0.5533E+02
      6.639  0.8375E+01  0.5604E+02
      6.724  0.6085E+01  0.5656E+02
      6.808  0.6583E+01  0.5711E+02
      6.893  0.4840E+01  0.5752E+02
      6.978  0.3763E+01  0.5784E+02
      7.062  0.4773E+01  0.5824E+02
      7.147  0.6169E+01  0.5876E+02
      7.231  0.4828E+01  0.5917E+02
      7.316  0.8460E+01  0.5989E+02
      7.400  0.8402E+01  0.6060E+02
      7.485  0.5401E+01  0.6106E+02
      7.570  0.5004E+01  0.6148E+02
      7.654  0.2484E+01  0.6169E+02
      7.739  0.2863E+01  0.6193E+02
      7.823  0.2214E+01  0.6212E+02
      7.908  0.2208E+01  0.6230E+02
      7.992  0.3764E+01  0.6262E+02
      8.077  0.9306E+00  0.6270E+02
      8.161  0.9231E+00  0.6278E+02
      8.246  0.1300E+01  0.6289E+02
      8.331  0.2999E+01  0.6314E+02
      8.415  0.2878E+01  0.6339E+02
      8.500  0.3513E+01  0.6368E+02
      8.584  0.3382E+01  0.6397E+02
      8.669  0.5105E+01  0.6440E+02
      8.753  0.3696E+01  0.6471E+02
      8.838  0.2427E+01  0.6492E+02
      8.923  0.4602E+01  0.6531E+02
      9.007  0.4708E+01  0.6571E+02
      9.092  0.6864E+01  0.6629E+02
      9.176  0.6168E+01  0.6681E+02
      9.261  0.5712E+01  0.6729E+02
      9.345  0.7577E+01  0.6793E+02
      9.430  0.6786E+01  0.6851E+02
      9.514  0.5000E+01  0.6893E+02
      9.599  0.3747E+01  0.6925E+02
      9.684  0.5086E+01  0.6968E+02
      9.768  0.5936E+01  0.7018E+02
      9.853  0.7158E+01  0.7078E+02
      9.937  0.6780E+01  0.7136E+02
     10.022  0.5703E+01  0.7184E+02
     10.106  0.4517E+01  0.7222E+02
     10.191  0.4505E+01  0.7260E+02
     10.275  0.7479E+01  0.7323E+02
     10.360  0.6791E+01  0.7381E+02
     10.445  0.6869E+01  0.7439E+02
     10.529  0.4074E+01  0.7473E+02
     10.614  0.5582E+01  0.7521E+02
     10.698  0.3974E+01  0.7554E+02
     10.783  0.4099E+01  0.7589E+02
     10.867  0.5147E+01  0.7632E+02
     10.952  0.5073E+01  0.7675E+02
     11.037  0.4952E+01  0.7717E+02
     11.121  0.3369E+01  0.7746E+02
     11.206  0.2537E+01  0.7767E+02
     11.290  0.2272E+01  0.7786E+02
     11.375  0.3144E+01  0.7813E+02
     11.459  0.1220E+01  0.7823E+02
     11.544  0.8372E+00  0.7830E+02
     11.628  0.7297E+00  0.7836E+02
     11.713  0.5109E+00  0.7841E+02
     11.798  0.7420E+00  0.7847E+02
     11.882  0.1816E+01  0.7862E+02
     11.967  0.1264E+01  0.7873E+02
     12.051  0.4888E+01  0.7914E+02
     12.136  0.5440E+01  0.7960E+02
     12.220  0.3875E+01  0.7993E+02
     12.305  0.3806E+01  0.8025E+02
     12.390  0.3212E+01  0.8053E+02
     12.474  0.4354E+01  0.8089E+02
     12.559  0.4241E+01  0.8125E+02
     12.643  0.5724E+01  0.8174E+02
     12.728  0.5022E+01  0.8216E+02
     12.812  0.4439E+01  0.8254E+02
     12.897  0.5528E+01  0.8300E+02
     12.981  0.6021E+01  0.8351E+02
     13.066  0.3743E+01  0.8383E+02
     13.151  0.3040E+01  0.8409E+02
     13.235  0.4266E+01  0.8445E+02
     13.320  0.3058E+01  0.8471E+02
     13.404  0.4601E+01  0.8509E+02
     13.489  0.4533E+01  0.8548E+02
     13.573  0.5305E+01  0.8593E+02
     13.658  0.4667E+01  0.8632E+02
     13.742  0.4499E+01  0.8670E+02
     13.827  0.5969E+01  0.8721E+02
     13.912  0.4575E+01  0.8759E+02
     13.996  0.4453E+01  0.8797E+02
     14.081  0.5574E+01  0.8844E+02
     14.165  0.4095E+01  0.8879E+02
     14.250  0.3677E+01  0.8910E+02
     14.334  0.6152E+01  0.8962E+02
     14.419  0.6475E+01  0.9017E+02
     14.504  0.5932E+01  0.9067E+02
     14.588  0.3507E+01  0.9096E+02
     14.673  0.3646E+01  0.9127E+02
     14.757  0.7749E+01  0.9193E+02
     14.842  0.7029E+01  0.9252E+02
     14.926  0.5387E+01  0.9298E+02
     15.011  0.7928E+01  0.9365E+02
     15.095  0.6677E+01  0.9421E+02
     15.180  0.7563E+01  0.9485E+02
     15.265  0.8647E+01  0.9558E+02
     15.349  0.7202E+01  0.9619E+02
     15.434  0.5954E+01  0.9670E+02
     15.518  0.4331E+01  0.9706E+02
     15.603  0.7612E+01  0.9771E+02
     15.687  0.7182E+01  0.9831E+02
     15.772  0.6343E+01  0.9885E+02
     15.856  0.5105E+01  0.9928E+02
     15.941  0.6232E+01  0.9981E+02
     16.026  0.8276E+01  0.1005E+03
     16.110  0.4790E+01  0.1009E+03
     16.195  0.4570E+01  0.1013E+03
     16.279  0.5750E+01  0.1018E+03
     16.364  0.5942E+01  0.1023E+03
     16.448  0.6323E+01  0.1028E+03
     16.533  0.3977E+01  0.1032E+03
     16.618  0.3619E+01  0.1035E+03
     16.702  0.1793E+01  0.1036E+03
     16.787  0.7677E+00  0.1037E+03
     16.871  0.1020E+01  0.1038E+03
     16.956  0.1215E+01  0.1039E+03
     17.040  0.5655E+00  0.1039E+03
     17.125  0.4233E+00  0.1040E+03
     17.209  0.5020E+00  0.1040E+03
     17.294  0.4029E-01  0.1040E+03
     17.379  0.2665E-04  0.1040E+03
     17.463  0.7868E-10  0.1040E+03
     17.548  0.0000E+00  0.1040E+03
     17.632  0.0000E+00  0.1040E+03
     17.717  0.0000E+00  0.1040E+03
     17.801  0.0000E+00  0.1040E+03
     17.886  0.0000E+00  0.1040E+03
     17.971  0.0000E+00  0.1040E+03
     18.055  0.0000E+00  0.1040E+03
     18.140  0.0000E+00  0.1040E+03
     18.224  0.0000E+00  0.1040E+03
     18.309  0.0000E+00  0.1040E+03
