       N       E                     dE             d eps       ncg     rms          rms(c)
DAV:   1     0.464302095270E+03    0.46430E+03   -0.26009E+04  7280   0.117E+03
DAV:   2    -0.701549065743E+01   -0.47132E+03   -0.41261E+03  7376   0.257E+02
DAV:   3    -0.475728067260E+02   -0.40557E+02   -0.38541E+02  9296   0.837E+01
DAV:   4    -0.488713327957E+02   -0.12985E+01   -0.12858E+01  8608   0.156E+01
DAV:   5    -0.489115868645E+02   -0.40254E-01   -0.40234E-01  9732   0.290E+00    0.222E+01
DAV:   6    -0.482962827086E+02    0.61530E+00   -0.13800E+00  9928   0.104E+01    0.125E+01
DAV:   7    -0.483444253235E+02   -0.48143E-01   -0.11883E+00 10052   0.118E+01    0.582E+00
DAV:   8    -0.480264150955E+02    0.31801E+00   -0.70890E-01  9500   0.953E+00    0.175E+00
DAV:   9    -0.479999535418E+02    0.26462E-01   -0.14481E-01  9448   0.358E+00    0.111E+00
DAV:  10    -0.480001942084E+02   -0.24067E-03   -0.16256E-02  8320   0.548E-01    0.729E-01
DAV:  11    -0.479993831804E+02    0.81103E-03   -0.65689E-03  9000   0.559E-01    0.177E-01
DAV:  12    -0.479992609822E+02    0.12220E-03   -0.55093E-04 10092   0.197E-01    0.963E-02
DAV:  13    -0.479992672530E+02   -0.62707E-05   -0.66133E-05  8284   0.399E-02    0.541E-02
DAV:  14    -0.479992604015E+02    0.68515E-05   -0.15572E-05  9852   0.299E-02    0.175E-02
DAV:  15    -0.479992603026E+02    0.98833E-07   -0.82598E-06  8588   0.176E-02
   1 F= -.47999260E+02 E0= -.47997205E+02  d E =-.411003E-02
