Te6Ir3
1.0
      3.9479977      -0.0000000      -0.7958035
     -0.0075784       5.4054614      -0.0375934
      0.0069031       0.0051592      10.2251979
  Te    Ir  
  6     3   
Direct
      0.8789645       0.2866001       0.7579290
      0.1210355       0.7133999       0.2420710
      0.7807504       0.7617386       0.5615018
      0.5442313       0.2219168       0.0884637
      0.4557687       0.7780832       0.9115363
      0.2192496       0.2382614       0.4384982
      0.0000000       0.5000000       0.0000000
      0.3407086       0.0019838       0.6814163
      0.6592914       0.9980162       0.3185837
