Te6 Ir3
1.0
   3.9479977499999999   -0.0000000100000000   -0.7958035300000000
  -0.0075784200000000    5.4054614100000000   -0.0375933800000000
   0.0069031100000000    0.0051592200000000   10.2251978700000006
Te Ir
6 3
direct
   0.8789644900000000    0.2866000800000000    0.7579289800000000 Te
   0.1210355100000000    0.7133999200000000    0.2420710200000000 Te
   0.7807504199999999    0.7617385600000000    0.5615018400000000 Te
   0.5442313400000000    0.2219167700000000    0.0884636800000000 Te
   0.4557686600000000    0.7780832300000000    0.9115363200000000 Te
   0.2192495800000000    0.2382614400000000    0.4384981600000000 Te
   0.0000000000000000    0.5000000000000000    0.0000000000000000 Ir
   0.3407086300000000    0.0019837800000000    0.6814162600000000 Ir
   0.6592913700000000    0.9980162200000000    0.3185837400000000 Ir
