unknown system                          
           1
     3.947998   -0.000000   -0.795804
    -0.007578    5.405461   -0.037593
     0.006903    0.005159   10.225198
   Te   Ir
     6     3
Direct configuration=     1
   0.87896449  0.28660008  0.75792898
   0.12103551  0.71339992  0.24207102
   0.78075042  0.76173856  0.56150184
   0.54423134  0.22191677  0.08846368
   0.45576866  0.77808323  0.91153632
   0.21924958  0.23826144  0.43849816
   0.00000000  0.50000000  0.00000000
   0.34070863  0.00198378  0.68141626
   0.65929137  0.99801622  0.31858374
