  12  12   0   0
  0.1026374E+02  0.4545350E-09  0.4909197E-09  0.5519620E-09  0.5000000E-15
  1.000000000000000E-004
  CAR 
 unknown system                          
     19.93072267    -32.02627093  301      3.49932344      1.00000000
    -32.026  0.0000E+00  0.0000E+00
    -31.853  0.0000E+00  0.0000E+00
    -31.680  0.0000E+00  0.0000E+00
    -31.507  0.0000E+00  0.0000E+00
    -31.334  0.0000E+00  0.0000E+00
    -31.160  0.0000E+00  0.0000E+00
    -30.987  0.0000E+00  0.0000E+00
    -30.814  0.0000E+00  0.0000E+00
    -30.641  0.0000E+00  0.0000E+00
    -30.468  0.0000E+00  0.0000E+00
    -30.294  0.0000E+00  0.0000E+00
    -30.121  0.0000E+00  0.0000E+00
    -29.948  0.5983E-16  0.1036E-16
    -29.775  0.3168E-03  0.5487E-04
    -29.602  0.1629E+02  0.2822E+01
    -29.428  0.6783E+02  0.1457E+02
    -29.255  0.5444E+02  0.2400E+02
    -29.082  0.1369E-01  0.2400E+02
    -28.909  0.0000E+00  0.2400E+02
    -28.736  0.0000E+00  0.2400E+02
    -28.562  0.0000E+00  0.2400E+02
    -28.389  0.0000E+00  0.2400E+02
    -28.216  0.0000E+00  0.2400E+02
    -28.043  0.0000E+00  0.2400E+02
    -27.870  0.0000E+00  0.2400E+02
    -27.697  0.0000E+00  0.2400E+02
    -27.523  0.0000E+00  0.2400E+02
    -27.350  0.0000E+00  0.2400E+02
    -27.177  0.0000E+00  0.2400E+02
    -27.004  0.0000E+00  0.2400E+02
    -26.831  0.0000E+00  0.2400E+02
    -26.657  0.0000E+00  0.2400E+02
    -26.484  0.0000E+00  0.2400E+02
    -26.311  0.0000E+00  0.2400E+02
    -26.138  0.0000E+00  0.2400E+02
    -25.965  0.0000E+00  0.2400E+02
    -25.791  0.0000E+00  0.2400E+02
    -25.618  0.0000E+00  0.2400E+02
    -25.445  0.0000E+00  0.2400E+02
    -25.272  0.0000E+00  0.2400E+02
    -25.099  0.0000E+00  0.2400E+02
    -24.925  0.0000E+00  0.2400E+02
    -24.752  0.0000E+00  0.2400E+02
    -24.579  0.0000E+00  0.2400E+02
    -24.406  0.0000E+00  0.2400E+02
    -24.233  0.0000E+00  0.2400E+02
    -24.060  0.0000E+00  0.2400E+02
    -23.886  0.0000E+00  0.2400E+02
    -23.713  0.0000E+00  0.2400E+02
    -23.540  0.0000E+00  0.2400E+02
    -23.367  0.0000E+00  0.2400E+02
    -23.194  0.0000E+00  0.2400E+02
    -23.020  0.0000E+00  0.2400E+02
    -22.847  0.0000E+00  0.2400E+02
    -22.674  0.0000E+00  0.2400E+02
    -22.501  0.0000E+00  0.2400E+02
    -22.328  0.0000E+00  0.2400E+02
    -22.154  0.0000E+00  0.2400E+02
    -21.981  0.0000E+00  0.2400E+02
    -21.808  0.0000E+00  0.2400E+02
    -21.635  0.0000E+00  0.2400E+02
    -21.462  0.0000E+00  0.2400E+02
    -21.288  0.0000E+00  0.2400E+02
    -21.115  0.0000E+00  0.2400E+02
    -20.942  0.0000E+00  0.2400E+02
    -20.769  0.0000E+00  0.2400E+02
    -20.596  0.0000E+00  0.2400E+02
    -20.423  0.0000E+00  0.2400E+02
    -20.249  0.0000E+00  0.2400E+02
    -20.076  0.0000E+00  0.2400E+02
    -19.903  0.0000E+00  0.2400E+02
    -19.730  0.0000E+00  0.2400E+02
    -19.557  0.0000E+00  0.2400E+02
    -19.383  0.0000E+00  0.2400E+02
    -19.210  0.0000E+00  0.2400E+02
    -19.037  0.0000E+00  0.2400E+02
    -18.864  0.0000E+00  0.2400E+02
    -18.691  0.0000E+00  0.2400E+02
    -18.517  0.0000E+00  0.2400E+02
    -18.344  0.0000E+00  0.2400E+02
    -18.171  0.0000E+00  0.2400E+02
    -17.998  0.0000E+00  0.2400E+02
    -17.825  0.0000E+00  0.2400E+02
    -17.652  0.0000E+00  0.2400E+02
    -17.478  0.0000E+00  0.2400E+02
    -17.305  0.0000E+00  0.2400E+02
    -17.132  0.0000E+00  0.2400E+02
    -16.959  0.0000E+00  0.2400E+02
    -16.786  0.0000E+00  0.2400E+02
    -16.612  0.0000E+00  0.2400E+02
    -16.439  0.0000E+00  0.2400E+02
    -16.266  0.0000E+00  0.2400E+02
    -16.093  0.0000E+00  0.2400E+02
    -15.920  0.0000E+00  0.2400E+02
    -15.746  0.0000E+00  0.2400E+02
    -15.573  0.0000E+00  0.2400E+02
    -15.400  0.0000E+00  0.2400E+02
    -15.227  0.0000E+00  0.2400E+02
    -15.054  0.0000E+00  0.2400E+02
    -14.880  0.4274E-17  0.2400E+02
    -14.707  0.2457E-04  0.2400E+02
    -14.534  0.9633E-01  0.2402E+02
    -14.361  0.9202E+00  0.2418E+02
    -14.188  0.1297E+01  0.2440E+02
    -14.015  0.2502E+01  0.2483E+02
    -13.841  0.2503E+01  0.2527E+02
    -13.668  0.6381E+01  0.2637E+02
    -13.495  0.5197E+01  0.2727E+02
    -13.322  0.8270E+01  0.2870E+02
    -13.149  0.1451E+02  0.3122E+02
    -12.975  0.1514E+02  0.3384E+02
    -12.802  0.2587E+02  0.3832E+02
    -12.629  0.9651E+01  0.3999E+02
    -12.456  0.5332E-01  0.4000E+02
    -12.283  0.1865E-08  0.4000E+02
    -12.109  0.0000E+00  0.4000E+02
    -11.936  0.0000E+00  0.4000E+02
    -11.763  0.0000E+00  0.4000E+02
    -11.590  0.0000E+00  0.4000E+02
    -11.417  0.0000E+00  0.4000E+02
    -11.243  0.0000E+00  0.4000E+02
    -11.070  0.0000E+00  0.4000E+02
    -10.897  0.0000E+00  0.4000E+02
    -10.724  0.0000E+00  0.4000E+02
    -10.551  0.0000E+00  0.4000E+02
    -10.378  0.0000E+00  0.4000E+02
    -10.204  0.0000E+00  0.4000E+02
    -10.031  0.0000E+00  0.4000E+02
     -9.858  0.0000E+00  0.4000E+02
     -9.685  0.0000E+00  0.4000E+02
     -9.512  0.0000E+00  0.4000E+02
     -9.338  0.0000E+00  0.4000E+02
     -9.165  0.0000E+00  0.4000E+02
     -8.992  0.0000E+00  0.4000E+02
     -8.819  0.0000E+00  0.4000E+02
     -8.646  0.0000E+00  0.4000E+02
     -8.472  0.0000E+00  0.4000E+02
     -8.299  0.0000E+00  0.4000E+02
     -8.126  0.0000E+00  0.4000E+02
     -7.953  0.0000E+00  0.4000E+02
     -7.780  0.0000E+00  0.4000E+02
     -7.606  0.0000E+00  0.4000E+02
     -7.433  0.0000E+00  0.4000E+02
     -7.260  0.0000E+00  0.4000E+02
     -7.087  0.0000E+00  0.4000E+02
     -6.914  0.0000E+00  0.4000E+02
     -6.741  0.0000E+00  0.4000E+02
     -6.567  0.0000E+00  0.4000E+02
     -6.394  0.0000E+00  0.4000E+02
     -6.221  0.0000E+00  0.4000E+02
     -6.048  0.0000E+00  0.4000E+02
     -5.875  0.0000E+00  0.4000E+02
     -5.701  0.0000E+00  0.4000E+02
     -5.528  0.0000E+00  0.4000E+02
     -5.355  0.0000E+00  0.4000E+02
     -5.182  0.0000E+00  0.4000E+02
     -5.009  0.0000E+00  0.4000E+02
     -4.835  0.0000E+00  0.4000E+02
     -4.662  0.0000E+00  0.4000E+02
     -4.489  0.0000E+00  0.4000E+02
     -4.316  0.0000E+00  0.4000E+02
     -4.143  0.0000E+00  0.4000E+02
     -3.969  0.0000E+00  0.4000E+02
     -3.796  0.0000E+00  0.4000E+02
     -3.623  0.0000E+00  0.4000E+02
     -3.450  0.0000E+00  0.4000E+02
     -3.277  0.0000E+00  0.4000E+02
     -3.104  0.0000E+00  0.4000E+02
     -2.930  0.0000E+00  0.4000E+02
     -2.757  0.0000E+00  0.4000E+02
     -2.584  0.0000E+00  0.4000E+02
     -2.411  0.0000E+00  0.4000E+02
     -2.238  0.0000E+00  0.4000E+02
     -2.064  0.0000E+00  0.4000E+02
     -1.891  0.4843E-05  0.4000E+02
     -1.718  0.7270E-01  0.4001E+02
     -1.545  0.1188E+01  0.4022E+02
     -1.372  0.6634E+01  0.4137E+02
     -1.198  0.1182E+02  0.4341E+02
     -1.025  0.1144E+02  0.4539E+02
     -0.852  0.1702E+02  0.4834E+02
     -0.679  0.1223E+02  0.5046E+02
     -0.506  0.1233E+02  0.5260E+02
     -0.333  0.9889E+01  0.5431E+02
     -0.159  0.8682E+01  0.5581E+02
      0.014  0.5458E+01  0.5676E+02
      0.187  0.9992E+01  0.5849E+02
      0.360  0.1047E+02  0.6030E+02
      0.533  0.5087E+01  0.6118E+02
      0.707  0.9268E+01  0.6279E+02
      0.880  0.1093E+02  0.6468E+02
      1.053  0.9396E+01  0.6631E+02
      1.226  0.9968E+01  0.6803E+02
      1.399  0.1120E+02  0.6997E+02
      1.573  0.9287E+01  0.7158E+02
      1.746  0.1100E+02  0.7349E+02
      1.919  0.1210E+02  0.7558E+02
      2.092  0.1003E+02  0.7732E+02
      2.265  0.1022E+02  0.7909E+02
      2.439  0.1005E+02  0.8083E+02
      2.612  0.1038E+02  0.8263E+02
      2.785  0.8566E+01  0.8411E+02
      2.958  0.1342E+02  0.8643E+02
      3.131  0.7665E+01  0.8776E+02
      3.304  0.1359E+01  0.8800E+02
      3.478  0.2703E-01  0.8800E+02
      3.651  0.8769E-09  0.8800E+02
      3.824  0.0000E+00  0.8800E+02
      3.997  0.0000E+00  0.8800E+02
      4.170  0.0000E+00  0.8800E+02
      4.344  0.0000E+00  0.8800E+02
      4.517  0.0000E+00  0.8800E+02
      4.690  0.0000E+00  0.8800E+02
      4.863  0.0000E+00  0.8800E+02
      5.036  0.0000E+00  0.8800E+02
      5.210  0.0000E+00  0.8800E+02
      5.383  0.0000E+00  0.8800E+02
      5.556  0.0000E+00  0.8800E+02
      5.729  0.9194E-05  0.8800E+02
      5.902  0.1201E+01  0.8821E+02
      6.076  0.1523E+02  0.9085E+02
      6.249  0.1465E+02  0.9338E+02
      6.422  0.1458E+02  0.9591E+02
      6.595  0.1286E+02  0.9814E+02
      6.768  0.1015E+02  0.9990E+02
      6.941  0.1741E+02  0.1029E+03
      7.115  0.1390E+02  0.1053E+03
      7.288  0.1418E+02  0.1078E+03
      7.461  0.8662E+01  0.1093E+03
      7.634  0.9687E+01  0.1110E+03
      7.807  0.4433E+01  0.1117E+03
      7.981  0.1600E+01  0.1120E+03
      8.154  0.1536E-01  0.1120E+03
      8.327  0.1045E+00  0.1120E+03
      8.500  0.3505E+01  0.1126E+03
      8.673  0.6979E+01  0.1138E+03
      8.847  0.4992E+01  0.1147E+03
      9.020  0.7539E+01  0.1160E+03
      9.193  0.5866E+01  0.1170E+03
      9.366  0.7690E+01  0.1184E+03
      9.539  0.6842E+01  0.1195E+03
      9.713  0.5555E+01  0.1205E+03
      9.886  0.7287E+01  0.1218E+03
     10.059  0.1072E+02  0.1236E+03
     10.232  0.1156E+02  0.1256E+03
     10.405  0.1132E+02  0.1276E+03
     10.578  0.2340E+01  0.1280E+03
     10.752  0.8481E-01  0.1280E+03
     10.925  0.3691E-05  0.1280E+03
     11.098  0.0000E+00  0.1280E+03
     11.271  0.2474E-10  0.1280E+03
     11.444  0.7706E-02  0.1280E+03
     11.618  0.6927E-01  0.1280E+03
     11.791  0.2968E-02  0.1280E+03
     11.964  0.4406E+00  0.1281E+03
     12.137  0.1868E-01  0.1281E+03
     12.310  0.7904E+00  0.1282E+03
     12.484  0.1332E+00  0.1283E+03
     12.657  0.5306E+00  0.1283E+03
     12.830  0.2212E+00  0.1284E+03
     13.003  0.2012E+00  0.1284E+03
     13.176  0.9565E+00  0.1286E+03
     13.350  0.8914E+00  0.1287E+03
     13.523  0.1373E+01  0.1290E+03
     13.696  0.5991E+00  0.1291E+03
     13.869  0.8178E-01  0.1291E+03
     14.042  0.8784E+00  0.1292E+03
     14.215  0.1884E+01  0.1296E+03
     14.389  0.1563E+01  0.1298E+03
     14.562  0.1546E+01  0.1301E+03
     14.735  0.1253E+01  0.1303E+03
     14.908  0.2452E+01  0.1308E+03
     15.081  0.2673E+01  0.1312E+03
     15.255  0.1390E+01  0.1315E+03
     15.428  0.3716E+01  0.1321E+03
     15.601  0.2122E+01  0.1325E+03
     15.774  0.4524E+01  0.1333E+03
     15.947  0.3886E+01  0.1339E+03
     16.121  0.2847E+01  0.1344E+03
     16.294  0.2055E+01  0.1348E+03
     16.467  0.3311E+01  0.1353E+03
     16.640  0.1578E+01  0.1356E+03
     16.813  0.1210E+01  0.1358E+03
     16.986  0.2220E+00  0.1359E+03
     17.160  0.4613E+00  0.1359E+03
     17.333  0.1489E+00  0.1360E+03
     17.506  0.1034E-01  0.1360E+03
     17.679  0.1435E+00  0.1360E+03
     17.852  0.8256E-04  0.1360E+03
     18.026  0.0000E+00  0.1360E+03
     18.199  0.0000E+00  0.1360E+03
     18.372  0.0000E+00  0.1360E+03
     18.545  0.0000E+00  0.1360E+03
     18.718  0.0000E+00  0.1360E+03
     18.892  0.0000E+00  0.1360E+03
     19.065  0.0000E+00  0.1360E+03
     19.238  0.0000E+00  0.1360E+03
     19.411  0.0000E+00  0.1360E+03
     19.584  0.0000E+00  0.1360E+03
     19.758  0.0000E+00  0.1360E+03
     19.931  0.0000E+00  0.1360E+03
