Ti4O8
1.0
      4.5453496       0.0000000       0.0000000
      0.0000000       4.9091969       0.0000000
      0.0000000       0.0000000       5.5196194
  Ti    O   
  4     8   
Direct
      0.5000000       0.7500000       0.3270091
      0.0000000       0.2500000       0.1729909
      0.5000000       0.2500000       0.6729909
      0.0000000       0.7500000       0.8270091
      0.7285494       0.0813509       0.3817246
      0.2285494       0.9186491       0.1182754
      0.7714506       0.5813509       0.1182754
      0.2714506       0.4186491       0.3817246
      0.7285494       0.5813509       0.6182754
      0.2285494       0.4186491       0.8817246
      0.7714506       0.0813509       0.8817246
      0.2714506       0.9186491       0.6182754
