   2   2   0   0
  0.2795448E+02  0.4402776E-09  0.4402776E-09  0.4402775E-09  0.5000000E-15
  1.000000000000000E-004
  CAR 
 unknown system                          
     18.12133014    -20.87310237  301      5.78934086      1.00000000
    -20.873  0.0000E+00  0.0000E+00
    -20.743  0.0000E+00  0.0000E+00
    -20.613  0.0000E+00  0.0000E+00
    -20.483  0.0000E+00  0.0000E+00
    -20.353  0.0000E+00  0.0000E+00
    -20.223  0.0000E+00  0.0000E+00
    -20.093  0.0000E+00  0.0000E+00
    -19.963  0.0000E+00  0.0000E+00
    -19.833  0.0000E+00  0.0000E+00
    -19.703  0.0000E+00  0.0000E+00
    -19.573  0.0000E+00  0.0000E+00
    -19.443  0.0000E+00  0.0000E+00
    -19.313  0.1891E-07  0.2458E-08
    -19.183  0.3560E+00  0.4628E-01
    -19.053  0.6449E+02  0.8429E+01
    -18.923  0.1208E+02  0.1000E+02
    -18.793  0.1440E-03  0.1000E+02
    -18.663  0.0000E+00  0.1000E+02
    -18.533  0.0000E+00  0.1000E+02
    -18.403  0.0000E+00  0.1000E+02
    -18.273  0.0000E+00  0.1000E+02
    -18.143  0.0000E+00  0.1000E+02
    -18.014  0.0000E+00  0.1000E+02
    -17.884  0.0000E+00  0.1000E+02
    -17.754  0.0000E+00  0.1000E+02
    -17.624  0.0000E+00  0.1000E+02
    -17.494  0.0000E+00  0.1000E+02
    -17.364  0.0000E+00  0.1000E+02
    -17.234  0.0000E+00  0.1000E+02
    -17.104  0.0000E+00  0.1000E+02
    -16.974  0.0000E+00  0.1000E+02
    -16.844  0.0000E+00  0.1000E+02
    -16.714  0.0000E+00  0.1000E+02
    -16.584  0.0000E+00  0.1000E+02
    -16.454  0.0000E+00  0.1000E+02
    -16.324  0.0000E+00  0.1000E+02
    -16.194  0.0000E+00  0.1000E+02
    -16.064  0.0000E+00  0.1000E+02
    -15.934  0.0000E+00  0.1000E+02
    -15.804  0.0000E+00  0.1000E+02
    -15.674  0.0000E+00  0.1000E+02
    -15.544  0.0000E+00  0.1000E+02
    -15.414  0.0000E+00  0.1000E+02
    -15.284  0.0000E+00  0.1000E+02
    -15.154  0.0000E+00  0.1000E+02
    -15.024  0.0000E+00  0.1000E+02
    -14.894  0.0000E+00  0.1000E+02
    -14.764  0.0000E+00  0.1000E+02
    -14.634  0.0000E+00  0.1000E+02
    -14.504  0.0000E+00  0.1000E+02
    -14.374  0.0000E+00  0.1000E+02
    -14.244  0.0000E+00  0.1000E+02
    -14.114  0.0000E+00  0.1000E+02
    -13.984  0.0000E+00  0.1000E+02
    -13.854  0.0000E+00  0.1000E+02
    -13.724  0.0000E+00  0.1000E+02
    -13.594  0.0000E+00  0.1000E+02
    -13.464  0.0000E+00  0.1000E+02
    -13.334  0.0000E+00  0.1000E+02
    -13.204  0.0000E+00  0.1000E+02
    -13.074  0.0000E+00  0.1000E+02
    -12.944  0.0000E+00  0.1000E+02
    -12.814  0.0000E+00  0.1000E+02
    -12.684  0.0000E+00  0.1000E+02
    -12.554  0.0000E+00  0.1000E+02
    -12.424  0.0000E+00  0.1000E+02
    -12.294  0.0000E+00  0.1000E+02
    -12.164  0.0000E+00  0.1000E+02
    -12.034  0.0000E+00  0.1000E+02
    -11.904  0.0000E+00  0.1000E+02
    -11.774  0.0000E+00  0.1000E+02
    -11.644  0.0000E+00  0.1000E+02
    -11.514  0.0000E+00  0.1000E+02
    -11.384  0.0000E+00  0.1000E+02
    -11.254  0.0000E+00  0.1000E+02
    -11.124  0.0000E+00  0.1000E+02
    -10.995  0.0000E+00  0.1000E+02
    -10.865  0.0000E+00  0.1000E+02
    -10.735  0.0000E+00  0.1000E+02
    -10.605  0.0000E+00  0.1000E+02
    -10.475  0.0000E+00  0.1000E+02
    -10.345  0.0000E+00  0.1000E+02
    -10.215  0.0000E+00  0.1000E+02
    -10.085  0.0000E+00  0.1000E+02
     -9.955  0.0000E+00  0.1000E+02
     -9.825  0.0000E+00  0.1000E+02
     -9.695  0.0000E+00  0.1000E+02
     -9.565  0.0000E+00  0.1000E+02
     -9.435  0.0000E+00  0.1000E+02
     -9.305  0.0000E+00  0.1000E+02
     -9.175  0.0000E+00  0.1000E+02
     -9.045  0.0000E+00  0.1000E+02
     -8.915  0.0000E+00  0.1000E+02
     -8.785  0.0000E+00  0.1000E+02
     -8.655  0.0000E+00  0.1000E+02
     -8.525  0.0000E+00  0.1000E+02
     -8.395  0.0000E+00  0.1000E+02
     -8.265  0.0000E+00  0.1000E+02
     -8.135  0.0000E+00  0.1000E+02
     -8.005  0.0000E+00  0.1000E+02
     -7.875  0.0000E+00  0.1000E+02
     -7.745  0.0000E+00  0.1000E+02
     -7.615  0.4001E-13  0.1000E+02
     -7.485  0.1662E-04  0.1000E+02
     -7.355  0.2775E-01  0.1000E+02
     -7.225  0.5300E-01  0.1001E+02
     -7.095  0.4903E+00  0.1007E+02
     -6.965  0.1145E+00  0.1009E+02
     -6.835  0.3451E+00  0.1013E+02
     -6.705  0.6257E+00  0.1022E+02
     -6.575  0.8599E+00  0.1033E+02
     -6.445  0.2718E+00  0.1036E+02
     -6.315  0.5908E+00  0.1044E+02
     -6.185  0.1116E+01  0.1058E+02
     -6.055  0.1118E+01  0.1073E+02
     -5.925  0.1101E+01  0.1087E+02
     -5.795  0.1874E+01  0.1112E+02
     -5.665  0.7487E+00  0.1121E+02
     -5.535  0.2538E+01  0.1154E+02
     -5.405  0.2570E+01  0.1188E+02
     -5.275  0.8712E+00  0.1199E+02
     -5.145  0.7056E-01  0.1200E+02
     -5.015  0.4309E-06  0.1200E+02
     -4.885  0.0000E+00  0.1200E+02
     -4.755  0.0000E+00  0.1200E+02
     -4.625  0.0000E+00  0.1200E+02
     -4.495  0.0000E+00  0.1200E+02
     -4.365  0.0000E+00  0.1200E+02
     -4.235  0.0000E+00  0.1200E+02
     -4.105  0.0000E+00  0.1200E+02
     -3.976  0.0000E+00  0.1200E+02
     -3.846  0.0000E+00  0.1200E+02
     -3.716  0.0000E+00  0.1200E+02
     -3.586  0.0000E+00  0.1200E+02
     -3.456  0.0000E+00  0.1200E+02
     -3.326  0.3018E-14  0.1200E+02
     -3.196  0.1392E-04  0.1200E+02
     -3.066  0.2021E+00  0.1203E+02
     -2.936  0.7693E+00  0.1213E+02
     -2.806  0.1271E+00  0.1214E+02
     -2.676  0.1810E+01  0.1238E+02
     -2.546  0.1871E+01  0.1262E+02
     -2.416  0.1550E+01  0.1282E+02
     -2.286  0.1329E+01  0.1300E+02
     -2.156  0.1254E+01  0.1316E+02
     -2.026  0.1124E+01  0.1330E+02
     -1.896  0.1302E+01  0.1347E+02
     -1.766  0.8747E+00  0.1359E+02
     -1.636  0.3295E+00  0.1363E+02
     -1.506  0.2781E+00  0.1367E+02
     -1.376  0.8700E-02  0.1367E+02
     -1.246  0.2055E+00  0.1369E+02
     -1.116  0.1032E+01  0.1383E+02
     -0.986  0.1242E+00  0.1384E+02
     -0.856  0.4551E+00  0.1390E+02
     -0.726  0.6717E-01  0.1391E+02
     -0.596  0.1400E-05  0.1391E+02
     -0.466  0.0000E+00  0.1391E+02
     -0.336  0.1436E-07  0.1391E+02
     -0.206  0.1434E-01  0.1391E+02
     -0.076  0.4661E+00  0.1397E+02
      0.054  0.1475E+00  0.1399E+02
      0.184  0.2954E-04  0.1399E+02
      0.314  0.1132E-12  0.1399E+02
      0.444  0.7690E-04  0.1399E+02
      0.574  0.2728E+00  0.1403E+02
      0.704  0.2844E+00  0.1407E+02
      0.834  0.1618E+00  0.1409E+02
      0.964  0.1880E+01  0.1433E+02
      1.094  0.1069E+01  0.1447E+02
      1.224  0.4258E+00  0.1453E+02
      1.354  0.4518E+00  0.1459E+02
      1.484  0.7060E+00  0.1468E+02
      1.614  0.1139E+01  0.1482E+02
      1.744  0.1594E+01  0.1503E+02
      1.874  0.1818E+01  0.1527E+02
      2.004  0.3737E+00  0.1532E+02
      2.134  0.7544E+00  0.1542E+02
      2.264  0.1439E+01  0.1560E+02
      2.394  0.1138E+01  0.1575E+02
      2.524  0.2313E+01  0.1605E+02
      2.654  0.1546E+01  0.1625E+02
      2.784  0.1836E+01  0.1649E+02
      2.914  0.1420E+01  0.1667E+02
      3.043  0.1773E+01  0.1691E+02
      3.173  0.1567E+01  0.1711E+02
      3.303  0.1780E+01  0.1734E+02
      3.433  0.1586E+01  0.1755E+02
      3.563  0.1970E+01  0.1780E+02
      3.693  0.1109E+01  0.1795E+02
      3.823  0.1696E+01  0.1817E+02
      3.953  0.9311E+00  0.1829E+02
      4.083  0.1858E+01  0.1853E+02
      4.213  0.9294E+00  0.1865E+02
      4.343  0.6185E+00  0.1873E+02
      4.473  0.1667E+01  0.1895E+02
      4.603  0.1202E+01  0.1910E+02
      4.733  0.1533E+01  0.1930E+02
      4.863  0.1262E+01  0.1947E+02
      4.993  0.1692E+01  0.1969E+02
      5.123  0.9165E+00  0.1981E+02
      5.253  0.4031E+00  0.1986E+02
      5.383  0.4902E+00  0.1992E+02
      5.513  0.3479E+00  0.1997E+02
      5.643  0.2495E+00  0.2000E+02
      5.773  0.1704E-02  0.2000E+02
      5.903  0.9220E-10  0.2000E+02
      6.033  0.3777E-12  0.2000E+02
      6.163  0.1253E-03  0.2000E+02
      6.293  0.1729E+00  0.2002E+02
      6.423  0.9615E-01  0.2003E+02
      6.553  0.9532E-01  0.2005E+02
      6.683  0.1003E+01  0.2018E+02
      6.813  0.4249E+00  0.2023E+02
      6.943  0.2907E+01  0.2061E+02
      7.073  0.1925E+01  0.2086E+02
      7.203  0.1834E+01  0.2110E+02
      7.333  0.1985E+01  0.2136E+02
      7.463  0.1697E+01  0.2158E+02
      7.593  0.1817E+01  0.2181E+02
      7.723  0.9539E+00  0.2194E+02
      7.853  0.1465E+01  0.2213E+02
      7.983  0.5039E+00  0.2219E+02
      8.113  0.6630E+00  0.2228E+02
      8.243  0.1570E+01  0.2248E+02
      8.373  0.1772E+01  0.2271E+02
      8.503  0.3023E+01  0.2311E+02
      8.633  0.1162E+01  0.2326E+02
      8.763  0.1488E+01  0.2345E+02
      8.893  0.1321E+01  0.2362E+02
      9.023  0.9655E+00  0.2375E+02
      9.153  0.8794E+00  0.2386E+02
      9.283  0.1502E+01  0.2406E+02
      9.413  0.2188E+01  0.2434E+02
      9.543  0.1236E+01  0.2450E+02
      9.673  0.1377E+01  0.2468E+02
      9.803  0.7091E+00  0.2477E+02
      9.932  0.6612E+00  0.2486E+02
     10.062  0.1958E+01  0.2512E+02
     10.192  0.9727E+00  0.2524E+02
     10.322  0.5982E+00  0.2532E+02
     10.452  0.7755E+00  0.2542E+02
     10.582  0.6687E+00  0.2551E+02
     10.712  0.1194E+01  0.2566E+02
     10.842  0.1567E+01  0.2587E+02
     10.972  0.1423E+01  0.2605E+02
     11.102  0.1575E+01  0.2626E+02
     11.232  0.1504E+01  0.2645E+02
     11.362  0.1837E+01  0.2669E+02
     11.492  0.2036E+01  0.2695E+02
     11.622  0.3020E+01  0.2735E+02
     11.752  0.9063E+00  0.2746E+02
     11.882  0.1340E+01  0.2764E+02
     12.012  0.1122E+01  0.2778E+02
     12.142  0.9587E+00  0.2791E+02
     12.272  0.1938E+00  0.2793E+02
     12.402  0.6751E+00  0.2802E+02
     12.532  0.2779E+00  0.2806E+02
     12.662  0.3714E+00  0.2811E+02
     12.792  0.1771E+01  0.2834E+02
     12.922  0.7847E+00  0.2844E+02
     13.052  0.1496E+01  0.2863E+02
     13.182  0.9376E+00  0.2876E+02
     13.312  0.1147E+01  0.2890E+02
     13.442  0.1189E+01  0.2906E+02
     13.572  0.7304E+00  0.2915E+02
     13.702  0.5847E+00  0.2923E+02
     13.832  0.1476E+01  0.2942E+02
     13.962  0.1967E+01  0.2968E+02
     14.092  0.4888E+00  0.2974E+02
     14.222  0.6440E+00  0.2982E+02
     14.352  0.1471E+01  0.3002E+02
     14.482  0.1144E+01  0.3016E+02
     14.612  0.9945E+00  0.3029E+02
     14.742  0.2048E+00  0.3032E+02
     14.872  0.2112E+00  0.3035E+02
     15.002  0.1918E+01  0.3060E+02
     15.132  0.1421E+01  0.3078E+02
     15.262  0.9361E+00  0.3090E+02
     15.392  0.1246E+01  0.3107E+02
     15.522  0.1998E+01  0.3133E+02
     15.652  0.1365E+01  0.3150E+02
     15.782  0.7441E+00  0.3160E+02
     15.912  0.7867E+00  0.3170E+02
     16.042  0.6720E+00  0.3179E+02
     16.172  0.1744E+00  0.3181E+02
     16.302  0.1146E+01  0.3196E+02
     16.432  0.2996E+00  0.3200E+02
     16.562  0.2402E-02  0.3200E+02
     16.692  0.2013E-09  0.3200E+02
     16.822  0.0000E+00  0.3200E+02
     16.951  0.0000E+00  0.3200E+02
     17.081  0.0000E+00  0.3200E+02
     17.211  0.0000E+00  0.3200E+02
     17.341  0.0000E+00  0.3200E+02
     17.471  0.0000E+00  0.3200E+02
     17.601  0.0000E+00  0.3200E+02
     17.731  0.0000E+00  0.3200E+02
     17.861  0.0000E+00  0.3200E+02
     17.991  0.0000E+00  0.3200E+02
     18.121  0.0000E+00  0.3200E+02
