   2   2   0   0
  0.9543496E+01  0.2672468E-09  0.2672468E-09  0.2672468E-09  0.5000000E-15
  1.000000000000000E-004
  CAR 
 unknown system                          
     31.37330533    -99.43127639  301      6.59440165      1.00000000
    -99.431  0.0000E+00  0.0000E+00
    -98.995  0.0000E+00  0.0000E+00
    -98.559  0.0000E+00  0.0000E+00
    -98.123  0.0000E+00  0.0000E+00
    -97.687  0.0000E+00  0.0000E+00
    -97.251  0.0000E+00  0.0000E+00
    -96.815  0.0000E+00  0.0000E+00
    -96.379  0.0000E+00  0.0000E+00
    -95.943  0.0000E+00  0.0000E+00
    -95.507  0.0000E+00  0.0000E+00
    -95.071  0.0000E+00  0.0000E+00
    -94.635  0.0000E+00  0.0000E+00
    -94.199  0.0000E+00  0.0000E+00
    -93.763  0.7781E-14  0.3393E-14
    -93.327  0.4587E+01  0.2000E+01
    -92.891  0.0000E+00  0.2000E+01
    -92.455  0.0000E+00  0.2000E+01
    -92.019  0.0000E+00  0.2000E+01
    -91.583  0.0000E+00  0.2000E+01
    -91.147  0.0000E+00  0.2000E+01
    -90.711  0.0000E+00  0.2000E+01
    -90.275  0.0000E+00  0.2000E+01
    -89.839  0.0000E+00  0.2000E+01
    -89.403  0.0000E+00  0.2000E+01
    -88.967  0.0000E+00  0.2000E+01
    -88.531  0.0000E+00  0.2000E+01
    -88.095  0.0000E+00  0.2000E+01
    -87.659  0.0000E+00  0.2000E+01
    -87.223  0.0000E+00  0.2000E+01
    -86.787  0.0000E+00  0.2000E+01
    -86.351  0.0000E+00  0.2000E+01
    -85.915  0.0000E+00  0.2000E+01
    -85.479  0.0000E+00  0.2000E+01
    -85.043  0.0000E+00  0.2000E+01
    -84.607  0.0000E+00  0.2000E+01
    -84.171  0.0000E+00  0.2000E+01
    -83.735  0.0000E+00  0.2000E+01
    -83.299  0.0000E+00  0.2000E+01
    -82.863  0.0000E+00  0.2000E+01
    -82.427  0.0000E+00  0.2000E+01
    -81.991  0.0000E+00  0.2000E+01
    -81.555  0.0000E+00  0.2000E+01
    -81.119  0.0000E+00  0.2000E+01
    -80.683  0.0000E+00  0.2000E+01
    -80.247  0.0000E+00  0.2000E+01
    -79.811  0.0000E+00  0.2000E+01
    -79.375  0.0000E+00  0.2000E+01
    -78.939  0.0000E+00  0.2000E+01
    -78.503  0.0000E+00  0.2000E+01
    -78.067  0.0000E+00  0.2000E+01
    -77.631  0.0000E+00  0.2000E+01
    -77.194  0.0000E+00  0.2000E+01
    -76.758  0.0000E+00  0.2000E+01
    -76.322  0.0000E+00  0.2000E+01
    -75.886  0.0000E+00  0.2000E+01
    -75.450  0.0000E+00  0.2000E+01
    -75.014  0.0000E+00  0.2000E+01
    -74.578  0.0000E+00  0.2000E+01
    -74.142  0.0000E+00  0.2000E+01
    -73.706  0.0000E+00  0.2000E+01
    -73.270  0.0000E+00  0.2000E+01
    -72.834  0.0000E+00  0.2000E+01
    -72.398  0.0000E+00  0.2000E+01
    -71.962  0.0000E+00  0.2000E+01
    -71.526  0.0000E+00  0.2000E+01
    -71.090  0.0000E+00  0.2000E+01
    -70.654  0.0000E+00  0.2000E+01
    -70.218  0.0000E+00  0.2000E+01
    -69.782  0.0000E+00  0.2000E+01
    -69.346  0.0000E+00  0.2000E+01
    -68.910  0.0000E+00  0.2000E+01
    -68.474  0.0000E+00  0.2000E+01
    -68.038  0.0000E+00  0.2000E+01
    -67.602  0.0000E+00  0.2000E+01
    -67.166  0.0000E+00  0.2000E+01
    -66.730  0.0000E+00  0.2000E+01
    -66.294  0.0000E+00  0.2000E+01
    -65.858  0.0000E+00  0.2000E+01
    -65.422  0.0000E+00  0.2000E+01
    -64.986  0.0000E+00  0.2000E+01
    -64.550  0.0000E+00  0.2000E+01
    -64.114  0.1370E+02  0.7974E+01
    -63.678  0.0000E+00  0.8000E+01
    -63.242  0.0000E+00  0.8000E+01
    -62.806  0.0000E+00  0.8000E+01
    -62.370  0.0000E+00  0.8000E+01
    -61.934  0.0000E+00  0.8000E+01
    -61.498  0.0000E+00  0.8000E+01
    -61.062  0.0000E+00  0.8000E+01
    -60.626  0.0000E+00  0.8000E+01
    -60.190  0.0000E+00  0.8000E+01
    -59.754  0.0000E+00  0.8000E+01
    -59.318  0.0000E+00  0.8000E+01
    -58.882  0.0000E+00  0.8000E+01
    -58.446  0.0000E+00  0.8000E+01
    -58.010  0.0000E+00  0.8000E+01
    -57.574  0.0000E+00  0.8000E+01
    -57.138  0.0000E+00  0.8000E+01
    -56.702  0.0000E+00  0.8000E+01
    -56.266  0.0000E+00  0.8000E+01
    -55.830  0.0000E+00  0.8000E+01
    -55.394  0.0000E+00  0.8000E+01
    -54.958  0.0000E+00  0.8000E+01
    -54.522  0.0000E+00  0.8000E+01
    -54.086  0.0000E+00  0.8000E+01
    -53.650  0.0000E+00  0.8000E+01
    -53.214  0.0000E+00  0.8000E+01
    -52.778  0.0000E+00  0.8000E+01
    -52.342  0.0000E+00  0.8000E+01
    -51.906  0.0000E+00  0.8000E+01
    -51.470  0.0000E+00  0.8000E+01
    -51.034  0.0000E+00  0.8000E+01
    -50.598  0.0000E+00  0.8000E+01
    -50.162  0.0000E+00  0.8000E+01
    -49.726  0.0000E+00  0.8000E+01
    -49.290  0.0000E+00  0.8000E+01
    -48.854  0.0000E+00  0.8000E+01
    -48.417  0.0000E+00  0.8000E+01
    -47.981  0.0000E+00  0.8000E+01
    -47.545  0.0000E+00  0.8000E+01
    -47.109  0.0000E+00  0.8000E+01
    -46.673  0.0000E+00  0.8000E+01
    -46.237  0.0000E+00  0.8000E+01
    -45.801  0.0000E+00  0.8000E+01
    -45.365  0.0000E+00  0.8000E+01
    -44.929  0.0000E+00  0.8000E+01
    -44.493  0.0000E+00  0.8000E+01
    -44.057  0.0000E+00  0.8000E+01
    -43.621  0.0000E+00  0.8000E+01
    -43.185  0.0000E+00  0.8000E+01
    -42.749  0.0000E+00  0.8000E+01
    -42.313  0.0000E+00  0.8000E+01
    -41.877  0.0000E+00  0.8000E+01
    -41.441  0.0000E+00  0.8000E+01
    -41.005  0.0000E+00  0.8000E+01
    -40.569  0.0000E+00  0.8000E+01
    -40.133  0.0000E+00  0.8000E+01
    -39.697  0.0000E+00  0.8000E+01
    -39.261  0.0000E+00  0.8000E+01
    -38.825  0.0000E+00  0.8000E+01
    -38.389  0.0000E+00  0.8000E+01
    -37.953  0.0000E+00  0.8000E+01
    -37.517  0.0000E+00  0.8000E+01
    -37.081  0.0000E+00  0.8000E+01
    -36.645  0.0000E+00  0.8000E+01
    -36.209  0.0000E+00  0.8000E+01
    -35.773  0.0000E+00  0.8000E+01
    -35.337  0.0000E+00  0.8000E+01
    -34.901  0.0000E+00  0.8000E+01
    -34.465  0.0000E+00  0.8000E+01
    -34.029  0.0000E+00  0.8000E+01
    -33.593  0.0000E+00  0.8000E+01
    -33.157  0.0000E+00  0.8000E+01
    -32.721  0.0000E+00  0.8000E+01
    -32.285  0.0000E+00  0.8000E+01
    -31.849  0.0000E+00  0.8000E+01
    -31.413  0.0000E+00  0.8000E+01
    -30.977  0.0000E+00  0.8000E+01
    -30.541  0.0000E+00  0.8000E+01
    -30.105  0.0000E+00  0.8000E+01
    -29.669  0.0000E+00  0.8000E+01
    -29.233  0.0000E+00  0.8000E+01
    -28.797  0.0000E+00  0.8000E+01
    -28.361  0.0000E+00  0.8000E+01
    -27.925  0.0000E+00  0.8000E+01
    -27.489  0.0000E+00  0.8000E+01
    -27.053  0.0000E+00  0.8000E+01
    -26.617  0.0000E+00  0.8000E+01
    -26.181  0.0000E+00  0.8000E+01
    -25.745  0.0000E+00  0.8000E+01
    -25.309  0.0000E+00  0.8000E+01
    -24.873  0.0000E+00  0.8000E+01
    -24.437  0.0000E+00  0.8000E+01
    -24.001  0.0000E+00  0.8000E+01
    -23.565  0.0000E+00  0.8000E+01
    -23.129  0.0000E+00  0.8000E+01
    -22.693  0.0000E+00  0.8000E+01
    -22.257  0.0000E+00  0.8000E+01
    -21.821  0.0000E+00  0.8000E+01
    -21.385  0.0000E+00  0.8000E+01
    -20.949  0.0000E+00  0.8000E+01
    -20.513  0.0000E+00  0.8000E+01
    -20.076  0.0000E+00  0.8000E+01
    -19.640  0.0000E+00  0.8000E+01
    -19.204  0.0000E+00  0.8000E+01
    -18.768  0.0000E+00  0.8000E+01
    -18.332  0.0000E+00  0.8000E+01
    -17.896  0.0000E+00  0.8000E+01
    -17.460  0.0000E+00  0.8000E+01
    -17.024  0.0000E+00  0.8000E+01
    -16.588  0.0000E+00  0.8000E+01
    -16.152  0.0000E+00  0.8000E+01
    -15.716  0.0000E+00  0.8000E+01
    -15.280  0.0000E+00  0.8000E+01
    -14.844  0.0000E+00  0.8000E+01
    -14.408  0.0000E+00  0.8000E+01
    -13.972  0.0000E+00  0.8000E+01
    -13.536  0.0000E+00  0.8000E+01
    -13.100  0.0000E+00  0.8000E+01
    -12.664  0.0000E+00  0.8000E+01
    -12.228  0.0000E+00  0.8000E+01
    -11.792  0.0000E+00  0.8000E+01
    -11.356  0.0000E+00  0.8000E+01
    -10.920  0.0000E+00  0.8000E+01
    -10.484  0.0000E+00  0.8000E+01
    -10.048  0.0000E+00  0.8000E+01
     -9.612  0.0000E+00  0.8000E+01
     -9.176  0.0000E+00  0.8000E+01
     -8.740  0.0000E+00  0.8000E+01
     -8.304  0.0000E+00  0.8000E+01
     -7.868  0.0000E+00  0.8000E+01
     -7.432  0.0000E+00  0.8000E+01
     -6.996  0.0000E+00  0.8000E+01
     -6.560  0.0000E+00  0.8000E+01
     -6.124  0.0000E+00  0.8000E+01
     -5.688  0.0000E+00  0.8000E+01
     -5.252  0.0000E+00  0.8000E+01
     -4.816  0.0000E+00  0.8000E+01
     -4.380  0.0000E+00  0.8000E+01
     -3.944  0.1239E-06  0.8000E+01
     -3.508  0.3690E-01  0.8016E+01
     -3.072  0.1216E+00  0.8069E+01
     -2.636  0.2180E+00  0.8164E+01
     -2.200  0.2197E+00  0.8272E+01
     -1.764  0.1103E+00  0.8320E+01
     -1.328  0.2560E+00  0.8432E+01
     -0.892  0.2120E+00  0.8605E+01
     -0.456  0.3670E+00  0.8768E+01
     -0.020  0.4403E+00  0.8960E+01
      0.416  0.3877E+00  0.9129E+01
      0.852  0.4245E+00  0.9392E+01
      1.288  0.1294E+01  0.9956E+01
      1.724  0.1521E+01  0.1065E+02
      2.160  0.2858E+01  0.1200E+02
      2.596  0.3121E+01  0.1367E+02
      3.032  0.3433E+01  0.1521E+02
      3.468  0.5276E+01  0.1770E+02
      3.904  0.3123E+01  0.1917E+02
      4.340  0.8454E+00  0.1954E+02
      4.776  0.3816E+00  0.1971E+02
      5.212  0.1238E+01  0.2027E+02
      5.648  0.4221E+00  0.2046E+02
      6.084  0.3150E+00  0.2065E+02
      6.520  0.4908E+00  0.2092E+02
      6.956  0.6270E+00  0.2122E+02
      7.392  0.9442E-01  0.2132E+02
      7.828  0.2299E+00  0.2143E+02
      8.264  0.4449E+00  0.2162E+02
      8.701  0.3300E+00  0.2181E+02
      9.137  0.3670E-01  0.2182E+02
      9.573  0.1451E+00  0.2189E+02
     10.009  0.1107E+00  0.2194E+02
     10.445  0.7754E+00  0.2227E+02
     10.881  0.5775E+00  0.2256E+02
     11.317  0.1182E+01  0.2314E+02
     11.753  0.2692E+00  0.2332E+02
     12.189  0.2439E+00  0.2345E+02
     12.625  0.1113E+01  0.2394E+02
     13.061  0.5516E+00  0.2418E+02
     13.497  0.6212E+00  0.2445E+02
     13.933  0.7526E+00  0.2478E+02
     14.369  0.4121E+00  0.2501E+02
     14.805  0.1517E+01  0.2567E+02
     15.241  0.3450E+00  0.2591E+02
     15.677  0.8757E+00  0.2629E+02
     16.113  0.6970E+00  0.2663E+02
     16.549  0.1647E+00  0.2678E+02
     16.985  0.1219E+01  0.2736E+02
     17.421  0.2779E+00  0.2751E+02
     17.857  0.5940E+00  0.2784E+02
     18.293  0.2130E+00  0.2796E+02
     18.729  0.3101E+00  0.2810E+02
     19.165  0.3296E+00  0.2826E+02
     19.601  0.5284E+00  0.2849E+02
     20.037  0.2191E+00  0.2866E+02
     20.473  0.4421E+00  0.2889E+02
     20.909  0.4386E+00  0.2910E+02
     21.345  0.8402E+00  0.2947E+02
     21.781  0.5822E+00  0.2974E+02
     22.217  0.6542E+00  0.3006E+02
     22.653  0.4392E+00  0.3026E+02
     23.089  0.1128E+01  0.3075E+02
     23.525  0.8405E+00  0.3117E+02
     23.961  0.4978E+00  0.3139E+02
     24.397  0.4363E+00  0.3165E+02
     24.833  0.5503E+00  0.3195E+02
     25.269  0.5373E-06  0.3195E+02
     25.705  0.1101E+00  0.3200E+02
     26.141  0.0000E+00  0.3200E+02
     26.577  0.0000E+00  0.3200E+02
     27.013  0.0000E+00  0.3200E+02
     27.449  0.0000E+00  0.3200E+02
     27.885  0.0000E+00  0.3200E+02
     28.321  0.0000E+00  0.3200E+02
     28.757  0.0000E+00  0.3200E+02
     29.193  0.0000E+00  0.3200E+02
     29.629  0.0000E+00  0.3200E+02
     30.065  0.0000E+00  0.3200E+02
     30.501  0.0000E+00  0.3200E+02
     30.937  0.0000E+00  0.3200E+02
     31.373  0.0000E+00  0.3200E+02
