       N       E                     dE             d eps       ncg     rms          rms(c)
DAV:   1     0.194132661033E+03    0.19413E+03   -0.15192E+04 34072   0.456E+03
DAV:   2    -0.375920745311E+01   -0.19789E+03   -0.19262E+03 33144   0.654E+02
DAV:   3    -0.100591943935E+02   -0.63000E+01   -0.62429E+01 37704   0.105E+02
DAV:   4    -0.103382345182E+02   -0.27904E+00   -0.27899E+00 48776   0.156E+01
DAV:   5    -0.103398509732E+02   -0.16165E-02   -0.16164E-02 38512   0.116E+00    0.156E+01
DAV:   6    -0.107387759420E+02   -0.39892E+00   -0.36194E+01 32624   0.116E+02    0.245E+01
DAV:   7    -0.778064360037E+01    0.29581E+01   -0.70549E+00 32000   0.549E+01    0.307E+00
DAV:   8    -0.770158912327E+01    0.79054E-01   -0.51613E-01 36128   0.131E+01    0.623E-01
DAV:   9    -0.769675090945E+01    0.48382E-02   -0.25386E-02 44480   0.225E+00    0.247E-01
DAV:  10    -0.769678442504E+01   -0.33516E-04   -0.77248E-04 37888   0.329E-01    0.153E-01
DAV:  11    -0.769673472826E+01    0.49697E-04   -0.17973E-04 42736   0.247E-01    0.165E-02
DAV:  12    -0.769673457048E+01    0.15778E-06   -0.96859E-06 33848   0.374E-02
   1 F= -.76967346E+01 E0= -.76957876E+01  d E =-.189399E-02
