P2 I4                                   
   1.00000000000000     
     4.5115500099999997    0.0458400100000000    1.2804742899999999
     0.8440486100000000    7.1862131400000004    1.1904471700000001
     0.0315525300000000    0.0327491800000000    7.4940741299999996
   P    I 
     2     4
Direct
     0.5968323800000022    0.1350703600000003    0.9635147600000025
     0.4031676199999978    0.8649296399999997    0.0364852399999975
     0.4395245899999978    0.2261026799999968    0.6680442600000021
     0.5604754100000022    0.7738973200000032    0.3319557399999979
     0.1924666299999984    0.3012201800000014    0.1905966500000034
     0.8075333700000016    0.6987798199999986    0.8094033499999966
 
  0.00000000E+00  0.00000000E+00  0.00000000E+00
  0.00000000E+00  0.00000000E+00  0.00000000E+00
  0.00000000E+00  0.00000000E+00  0.00000000E+00
  0.00000000E+00  0.00000000E+00  0.00000000E+00
  0.00000000E+00  0.00000000E+00  0.00000000E+00
  0.00000000E+00  0.00000000E+00  0.00000000E+00
