       N       E                     dE             d eps       ncg     rms          rms(c)
DAV:   1     0.240039196435E+03    0.24004E+03   -0.15538E+04  3456   0.142E+03
DAV:   2     0.343325646430E+01   -0.23661E+03   -0.23296E+03  4800   0.203E+02
DAV:   3    -0.169459573504E+02   -0.20379E+02   -0.20314E+02  4504   0.676E+01
DAV:   4    -0.174006020539E+02   -0.45464E+00   -0.45421E+00  4216   0.119E+01
DAV:   5    -0.174101616541E+02   -0.95596E-02   -0.95594E-02  4328   0.175E+00    0.116E+01
DAV:   6    -0.172768758063E+02    0.13329E+00   -0.10859E-01  3968   0.162E+00    0.721E+00
DAV:   7    -0.172333513535E+02    0.43524E-01   -0.22009E-01  4032   0.230E+00    0.431E-01
DAV:   8    -0.172320225504E+02    0.13288E-02   -0.24802E-02  3720   0.840E-01    0.264E-01
DAV:   9    -0.172322327786E+02   -0.21023E-03   -0.83740E-04  3800   0.163E-01    0.156E-01
DAV:  10    -0.172323913993E+02   -0.15862E-03   -0.28993E-04  3848   0.915E-02    0.288E-02
DAV:  11    -0.172324263115E+02   -0.34912E-04   -0.51009E-05  3968   0.391E-02    0.187E-02
DAV:  12    -0.172324303248E+02   -0.40133E-05   -0.42664E-06  3664   0.115E-02    0.902E-03
DAV:  13    -0.172324342473E+02   -0.39225E-05   -0.53801E-06  3608   0.127E-02    0.330E-03
DAV:  14    -0.172324343435E+02   -0.96224E-07   -0.24747E-07  1816   0.286E-03
   1 F= -.17232434E+02 E0= -.17232434E+02  d E =-.346023E-14
