Sc2                                     
   1.00000000000000     
     3.2912259100000001    0.0000000000000000    0.0000000000000000
    -1.6456119400000000    2.8502836199999999    0.0000000000000000
     0.0000000000000000    0.0000000000000000    5.3325723900000002
   Sc
     2
Direct
     0.3333330000000032    0.6666669999999968    0.2500000000000000
     0.6666669999999968    0.3333330000000032    0.7500000000000000
 
  0.00000000E+00  0.00000000E+00  0.00000000E+00
  0.00000000E+00  0.00000000E+00  0.00000000E+00
