       N       E                     dE             d eps       ncg     rms          rms(c)
DAV:   1     0.363431856248E+03    0.36343E+03   -0.11551E+04 16232   0.130E+03
DAV:   2     0.659039253414E+01   -0.35684E+03   -0.34857E+03 18456   0.486E+02
DAV:   3    -0.134285940894E+02   -0.20019E+02   -0.19062E+02 25880   0.143E+02
DAV:   4    -0.139126936617E+02   -0.48410E+00   -0.48020E+00 24836   0.198E+01
DAV:   5    -0.139180188836E+02   -0.53252E-02   -0.53236E-02 24024   0.238E+00    0.750E+00
DAV:   6    -0.126585490255E+02    0.12595E+01   -0.26000E+00 21484   0.168E+01    0.224E+00
DAV:   7    -0.124982841876E+02    0.16026E+00   -0.64220E-01 21764   0.757E+00    0.892E-01
DAV:   8    -0.124889645397E+02    0.93196E-02   -0.35203E-02 20624   0.216E+00    0.281E-01
DAV:   9    -0.124867256520E+02    0.22389E-02   -0.10539E-02 21436   0.101E+00    0.305E-02
DAV:  10    -0.124867387007E+02   -0.13049E-04   -0.22312E-04 22972   0.172E-01    0.229E-02
DAV:  11    -0.124867346746E+02    0.40261E-05   -0.55420E-05 21832   0.762E-02    0.842E-03
DAV:  12    -0.124867308756E+02    0.37990E-05   -0.65697E-06 21300   0.304E-02    0.127E-03
DAV:  13    -0.124867322218E+02   -0.13462E-05   -0.20816E-07  8720   0.672E-03    0.715E-04
DAV:  14    -0.124867322582E+02   -0.36461E-07   -0.60744E-08  8464   0.474E-03
   1 F= -.12486732E+02 E0= -.12483111E+02  d E =-.724279E-02
