   8   8   0   0
  0.1564420E+02  0.3613299E-09  0.5683115E-09  0.6094708E-09  0.5000000E-15
  1.000000000000000E-004
  CAR 
 unknown system                          
     20.54811312    -40.05010391  301      9.61150495      1.00000000
    -40.050  0.0000E+00  0.0000E+00
    -39.848  0.0000E+00  0.0000E+00
    -39.646  0.0000E+00  0.0000E+00
    -39.444  0.0000E+00  0.0000E+00
    -39.242  0.0000E+00  0.0000E+00
    -39.040  0.0000E+00  0.0000E+00
    -38.838  0.0000E+00  0.0000E+00
    -38.636  0.0000E+00  0.0000E+00
    -38.434  0.0000E+00  0.0000E+00
    -38.232  0.0000E+00  0.0000E+00
    -38.030  0.0000E+00  0.0000E+00
    -37.828  0.0000E+00  0.0000E+00
    -37.626  0.0000E+00  0.0000E+00
    -37.424  0.5866E-03  0.1185E-03
    -37.222  0.2890E+02  0.5838E+01
    -37.020  0.8873E+02  0.2376E+02
    -36.818  0.1184E+01  0.2400E+02
    -36.616  0.0000E+00  0.2400E+02
    -36.414  0.0000E+00  0.2400E+02
    -36.212  0.0000E+00  0.2400E+02
    -36.010  0.0000E+00  0.2400E+02
    -35.808  0.0000E+00  0.2400E+02
    -35.606  0.0000E+00  0.2400E+02
    -35.404  0.0000E+00  0.2400E+02
    -35.202  0.0000E+00  0.2400E+02
    -35.000  0.0000E+00  0.2400E+02
    -34.798  0.0000E+00  0.2400E+02
    -34.596  0.0000E+00  0.2400E+02
    -34.394  0.0000E+00  0.2400E+02
    -34.192  0.0000E+00  0.2400E+02
    -33.990  0.0000E+00  0.2400E+02
    -33.788  0.0000E+00  0.2400E+02
    -33.586  0.0000E+00  0.2400E+02
    -33.384  0.0000E+00  0.2400E+02
    -33.182  0.0000E+00  0.2400E+02
    -32.980  0.0000E+00  0.2400E+02
    -32.778  0.0000E+00  0.2400E+02
    -32.576  0.0000E+00  0.2400E+02
    -32.374  0.0000E+00  0.2400E+02
    -32.172  0.0000E+00  0.2400E+02
    -31.970  0.0000E+00  0.2400E+02
    -31.768  0.0000E+00  0.2400E+02
    -31.566  0.0000E+00  0.2400E+02
    -31.364  0.0000E+00  0.2400E+02
    -31.162  0.0000E+00  0.2400E+02
    -30.960  0.0000E+00  0.2400E+02
    -30.758  0.0000E+00  0.2400E+02
    -30.556  0.0000E+00  0.2400E+02
    -30.354  0.0000E+00  0.2400E+02
    -30.152  0.0000E+00  0.2400E+02
    -29.950  0.0000E+00  0.2400E+02
    -29.748  0.0000E+00  0.2400E+02
    -29.546  0.0000E+00  0.2400E+02
    -29.344  0.0000E+00  0.2400E+02
    -29.142  0.0000E+00  0.2400E+02
    -28.940  0.0000E+00  0.2400E+02
    -28.738  0.0000E+00  0.2400E+02
    -28.536  0.0000E+00  0.2400E+02
    -28.334  0.0000E+00  0.2400E+02
    -28.132  0.0000E+00  0.2400E+02
    -27.930  0.0000E+00  0.2400E+02
    -27.728  0.0000E+00  0.2400E+02
    -27.526  0.0000E+00  0.2400E+02
    -27.324  0.0000E+00  0.2400E+02
    -27.122  0.0000E+00  0.2400E+02
    -26.920  0.0000E+00  0.2400E+02
    -26.718  0.0000E+00  0.2400E+02
    -26.517  0.0000E+00  0.2400E+02
    -26.315  0.0000E+00  0.2400E+02
    -26.113  0.0000E+00  0.2400E+02
    -25.911  0.0000E+00  0.2400E+02
    -25.709  0.0000E+00  0.2400E+02
    -25.507  0.0000E+00  0.2400E+02
    -25.305  0.0000E+00  0.2400E+02
    -25.103  0.0000E+00  0.2400E+02
    -24.901  0.0000E+00  0.2400E+02
    -24.699  0.0000E+00  0.2400E+02
    -24.497  0.0000E+00  0.2400E+02
    -24.295  0.0000E+00  0.2400E+02
    -24.093  0.0000E+00  0.2400E+02
    -23.891  0.0000E+00  0.2400E+02
    -23.689  0.0000E+00  0.2400E+02
    -23.487  0.0000E+00  0.2400E+02
    -23.285  0.0000E+00  0.2400E+02
    -23.083  0.0000E+00  0.2400E+02
    -22.881  0.0000E+00  0.2400E+02
    -22.679  0.0000E+00  0.2400E+02
    -22.477  0.0000E+00  0.2400E+02
    -22.275  0.0000E+00  0.2400E+02
    -22.073  0.0000E+00  0.2400E+02
    -21.871  0.0000E+00  0.2400E+02
    -21.669  0.0000E+00  0.2400E+02
    -21.467  0.0000E+00  0.2400E+02
    -21.265  0.0000E+00  0.2400E+02
    -21.063  0.0000E+00  0.2400E+02
    -20.861  0.0000E+00  0.2400E+02
    -20.659  0.0000E+00  0.2400E+02
    -20.457  0.0000E+00  0.2400E+02
    -20.255  0.0000E+00  0.2400E+02
    -20.053  0.0000E+00  0.2400E+02
    -19.851  0.0000E+00  0.2400E+02
    -19.649  0.0000E+00  0.2400E+02
    -19.447  0.0000E+00  0.2400E+02
    -19.245  0.0000E+00  0.2400E+02
    -19.043  0.0000E+00  0.2400E+02
    -18.841  0.0000E+00  0.2400E+02
    -18.639  0.0000E+00  0.2400E+02
    -18.437  0.0000E+00  0.2400E+02
    -18.235  0.0000E+00  0.2400E+02
    -18.033  0.0000E+00  0.2400E+02
    -17.831  0.0000E+00  0.2400E+02
    -17.629  0.0000E+00  0.2400E+02
    -17.427  0.0000E+00  0.2400E+02
    -17.225  0.0000E+00  0.2400E+02
    -17.023  0.0000E+00  0.2400E+02
    -16.821  0.0000E+00  0.2400E+02
    -16.619  0.0000E+00  0.2400E+02
    -16.417  0.0000E+00  0.2400E+02
    -16.215  0.0000E+00  0.2400E+02
    -16.013  0.0000E+00  0.2400E+02
    -15.811  0.0000E+00  0.2400E+02
    -15.609  0.0000E+00  0.2400E+02
    -15.407  0.0000E+00  0.2400E+02
    -15.205  0.0000E+00  0.2400E+02
    -15.003  0.0000E+00  0.2400E+02
    -14.801  0.0000E+00  0.2400E+02
    -14.599  0.0000E+00  0.2400E+02
    -14.397  0.0000E+00  0.2400E+02
    -14.195  0.0000E+00  0.2400E+02
    -13.993  0.0000E+00  0.2400E+02
    -13.791  0.0000E+00  0.2400E+02
    -13.589  0.0000E+00  0.2400E+02
    -13.387  0.0000E+00  0.2400E+02
    -13.185  0.0000E+00  0.2400E+02
    -12.983  0.0000E+00  0.2400E+02
    -12.781  0.0000E+00  0.2400E+02
    -12.579  0.0000E+00  0.2400E+02
    -12.377  0.0000E+00  0.2400E+02
    -12.175  0.0000E+00  0.2400E+02
    -11.973  0.0000E+00  0.2400E+02
    -11.771  0.0000E+00  0.2400E+02
    -11.569  0.0000E+00  0.2400E+02
    -11.367  0.0000E+00  0.2400E+02
    -11.165  0.0000E+00  0.2400E+02
    -10.963  0.0000E+00  0.2400E+02
    -10.761  0.0000E+00  0.2400E+02
    -10.559  0.0000E+00  0.2400E+02
    -10.357  0.0000E+00  0.2400E+02
    -10.155  0.0000E+00  0.2400E+02
     -9.953  0.0000E+00  0.2400E+02
     -9.751  0.0000E+00  0.2400E+02
     -9.549  0.0000E+00  0.2400E+02
     -9.347  0.0000E+00  0.2400E+02
     -9.145  0.0000E+00  0.2400E+02
     -8.943  0.0000E+00  0.2400E+02
     -8.741  0.0000E+00  0.2400E+02
     -8.539  0.0000E+00  0.2400E+02
     -8.337  0.0000E+00  0.2400E+02
     -8.135  0.0000E+00  0.2400E+02
     -7.933  0.0000E+00  0.2400E+02
     -7.731  0.0000E+00  0.2400E+02
     -7.529  0.0000E+00  0.2400E+02
     -7.327  0.0000E+00  0.2400E+02
     -7.125  0.0000E+00  0.2400E+02
     -6.923  0.0000E+00  0.2400E+02
     -6.721  0.0000E+00  0.2400E+02
     -6.519  0.0000E+00  0.2400E+02
     -6.317  0.0000E+00  0.2400E+02
     -6.115  0.0000E+00  0.2400E+02
     -5.913  0.0000E+00  0.2400E+02
     -5.711  0.0000E+00  0.2400E+02
     -5.509  0.0000E+00  0.2400E+02
     -5.307  0.0000E+00  0.2400E+02
     -5.105  0.0000E+00  0.2400E+02
     -4.903  0.2336E-14  0.2400E+02
     -4.701  0.2401E-02  0.2400E+02
     -4.499  0.1251E+00  0.2403E+02
     -4.297  0.5803E+00  0.2414E+02
     -4.095  0.8334E+00  0.2431E+02
     -3.893  0.5340E+00  0.2442E+02
     -3.691  0.1789E+01  0.2478E+02
     -3.489  0.1268E+01  0.2504E+02
     -3.287  0.1783E+01  0.2540E+02
     -3.085  0.2282E+01  0.2586E+02
     -2.883  0.2520E+01  0.2637E+02
     -2.681  0.1739E+01  0.2672E+02
     -2.479  0.2673E+01  0.2726E+02
     -2.277  0.3172E+01  0.2790E+02
     -2.075  0.4412E+01  0.2879E+02
     -1.873  0.1062E+02  0.3093E+02
     -1.671  0.4630E+01  0.3187E+02
     -1.469  0.6444E+00  0.3200E+02
     -1.267  0.6539E-04  0.3200E+02
     -1.065  0.0000E+00  0.3200E+02
     -0.863  0.0000E+00  0.3200E+02
     -0.661  0.0000E+00  0.3200E+02
     -0.459  0.0000E+00  0.3200E+02
     -0.257  0.0000E+00  0.3200E+02
     -0.055  0.0000E+00  0.3200E+02
      0.147  0.0000E+00  0.3200E+02
      0.349  0.0000E+00  0.3200E+02
      0.551  0.0000E+00  0.3200E+02
      0.753  0.0000E+00  0.3200E+02
      0.955  0.0000E+00  0.3200E+02
      1.157  0.0000E+00  0.3200E+02
      1.359  0.0000E+00  0.3200E+02
      1.561  0.0000E+00  0.3200E+02
      1.763  0.0000E+00  0.3200E+02
      1.965  0.1305E-15  0.3200E+02
      2.167  0.1712E-02  0.3200E+02
      2.369  0.4656E+00  0.3209E+02
      2.571  0.1084E+01  0.3231E+02
      2.773  0.3500E+01  0.3302E+02
      2.975  0.3296E+01  0.3369E+02
      3.177  0.6566E+01  0.3501E+02
      3.379  0.6911E+01  0.3641E+02
      3.581  0.3900E+01  0.3720E+02
      3.783  0.5621E+01  0.3833E+02
      3.985  0.3737E+01  0.3909E+02
      4.187  0.3303E+01  0.3975E+02
      4.389  0.5485E+01  0.4086E+02
      4.591  0.8332E+01  0.4254E+02
      4.793  0.8831E+01  0.4433E+02
      4.995  0.1056E+02  0.4646E+02
      5.197  0.9917E+01  0.4846E+02
      5.399  0.9629E+01  0.5041E+02
      5.601  0.9082E+01  0.5224E+02
      5.803  0.6783E+01  0.5361E+02
      6.005  0.7792E+01  0.5519E+02
      6.207  0.8812E+01  0.5697E+02
      6.409  0.9528E+01  0.5889E+02
      6.611  0.9484E+01  0.6081E+02
      6.813  0.9926E+01  0.6281E+02
      7.015  0.4477E+01  0.6372E+02
      7.217  0.6927E+01  0.6512E+02
      7.418  0.7473E+01  0.6663E+02
      7.620  0.8832E+01  0.6841E+02
      7.822  0.1332E+02  0.7110E+02
      8.024  0.8422E+01  0.7280E+02
      8.226  0.1243E+02  0.7531E+02
      8.428  0.7117E+01  0.7675E+02
      8.630  0.4038E+01  0.7757E+02
      8.832  0.1631E+01  0.7790E+02
      9.034  0.1800E+01  0.7826E+02
      9.236  0.2218E+01  0.7871E+02
      9.438  0.4081E+01  0.7953E+02
      9.640  0.3065E+01  0.8015E+02
      9.842  0.4587E+01  0.8108E+02
     10.044  0.4346E+01  0.8195E+02
     10.246  0.4900E+01  0.8294E+02
     10.448  0.4440E+01  0.8384E+02
     10.650  0.4159E+01  0.8468E+02
     10.852  0.4786E+01  0.8565E+02
     11.054  0.5139E+01  0.8669E+02
     11.256  0.4442E+01  0.8758E+02
     11.458  0.2347E+01  0.8806E+02
     11.660  0.2547E+01  0.8857E+02
     11.862  0.3377E+01  0.8925E+02
     12.064  0.5426E+01  0.9035E+02
     12.266  0.5703E+01  0.9150E+02
     12.468  0.2294E+01  0.9197E+02
     12.670  0.2202E+01  0.9241E+02
     12.872  0.6203E+01  0.9366E+02
     13.074  0.4053E+01  0.9448E+02
     13.276  0.4086E+01  0.9531E+02
     13.478  0.2371E+01  0.9579E+02
     13.680  0.7571E+00  0.9594E+02
     13.882  0.4970E+00  0.9604E+02
     14.084  0.5150E+00  0.9614E+02
     14.286  0.7749E+00  0.9630E+02
     14.488  0.1125E+01  0.9653E+02
     14.690  0.1808E+01  0.9689E+02
     14.892  0.1676E+01  0.9723E+02
     15.094  0.1657E+01  0.9757E+02
     15.296  0.3769E+01  0.9833E+02
     15.498  0.3716E+01  0.9908E+02
     15.700  0.3862E+01  0.9986E+02
     15.902  0.2919E+01  0.1004E+03
     16.104  0.2641E+01  0.1010E+03
     16.306  0.4030E+01  0.1018E+03
     16.508  0.3256E+01  0.1025E+03
     16.710  0.3573E+01  0.1032E+03
     16.912  0.2325E+01  0.1036E+03
     17.114  0.6276E+00  0.1038E+03
     17.316  0.8749E+00  0.1039E+03
     17.518  0.1413E-01  0.1040E+03
     17.720  0.6177E-01  0.1040E+03
     17.922  0.1857E+00  0.1040E+03
     18.124  0.1508E-04  0.1040E+03
     18.326  0.0000E+00  0.1040E+03
     18.528  0.0000E+00  0.1040E+03
     18.730  0.0000E+00  0.1040E+03
     18.932  0.0000E+00  0.1040E+03
     19.134  0.0000E+00  0.1040E+03
     19.336  0.0000E+00  0.1040E+03
     19.538  0.0000E+00  0.1040E+03
     19.740  0.0000E+00  0.1040E+03
     19.942  0.0000E+00  0.1040E+03
     20.144  0.0000E+00  0.1040E+03
     20.346  0.0000E+00  0.1040E+03
     20.548  0.0000E+00  0.1040E+03
