       N       E                     dE             d eps       ncg     rms          rms(c)
DAV:   1     0.923600491320E+03    0.92360E+03   -0.48928E+04 17256   0.176E+03
DAV:   2    -0.822757187924E+01   -0.93183E+03   -0.89589E+03 17716   0.494E+02
DAV:   3    -0.515592359347E+02   -0.43332E+02   -0.41718E+02 19384   0.103E+02
DAV:   4    -0.524336711743E+02   -0.87444E+00   -0.86941E+00 18292   0.136E+01
DAV:   5    -0.524432864612E+02   -0.96153E-02   -0.96102E-02 19168   0.151E+00    0.202E+01
DAV:   6    -0.517694085786E+02    0.67388E+00   -0.46264E+00 17808   0.143E+01    0.880E+00
DAV:   7    -0.515733982581E+02    0.19601E+00   -0.12399E+00 17512   0.776E+00    0.626E+00
DAV:   8    -0.514798090302E+02    0.93589E-01   -0.32955E-01 17812   0.362E+00    0.587E-01
DAV:   9    -0.514785832760E+02    0.12258E-02   -0.12507E-02 18012   0.531E-01    0.278E-01
DAV:  10    -0.514786028019E+02   -0.19526E-04   -0.37511E-03 17780   0.380E-01    0.907E-02
DAV:  11    -0.514785521457E+02    0.50656E-04   -0.38791E-04 18080   0.223E-01    0.580E-02
DAV:  12    -0.514785232718E+02    0.28874E-04   -0.13600E-04 17764   0.139E-01    0.198E-02
DAV:  13    -0.514785261877E+02   -0.29159E-05   -0.19625E-05 17724   0.412E-02    0.110E-02
DAV:  14    -0.514785249561E+02    0.12316E-05   -0.48307E-06 16172   0.308E-02    0.491E-03
DAV:  15    -0.514785244110E+02    0.54504E-06   -0.65289E-07  9552   0.806E-03
   1 F= -.51478524E+02 E0= -.51475164E+02  d E =-.672103E-02
