As4Rh4
1.0
      3.6132990       0.0000000       0.0000000
      0.0000000       5.6831154       0.0000000
      0.0000000       0.0000000       6.0947084
  As    Rh  
  4     4   
Direct
      0.2500000       0.6966578       0.9136943
      0.7500000       0.3033422       0.0863057
      0.2500000       0.1966578       0.5863057
      0.7500000       0.8033422       0.4136943
      0.2500000       0.4982498       0.3048580
      0.7500000       0.5017502       0.6951420
      0.2500000       0.9982498       0.1951420
      0.7500000       0.0017502       0.8048580
