unknown system                          
           1
     3.613299    0.000000    0.000000
     0.000000    5.683115    0.000000
     0.000000    0.000000    6.094708
   As   Rh
     4     4
Direct configuration=     1
   0.25000000  0.69665782  0.91369432
   0.75000000  0.30334218  0.08630568
   0.25000000  0.19665782  0.58630568
   0.75000000  0.80334218  0.41369432
   0.25000000  0.49824980  0.30485803
   0.75000000  0.50175020  0.69514197
   0.25000000  0.99824980  0.19514197
   0.75000000  0.00175020  0.80485803
