   2   2   0   0
  0.1412740E+02  0.2746134E-09  0.2746135E-09  0.4326314E-09  0.5000000E-15
  1.000000000000000E-004
  CAR 
 unknown system                          
     27.79617627    -40.83906272  301      9.00063270      1.00000000
    -40.839  0.0000E+00  0.0000E+00
    -40.610  0.0000E+00  0.0000E+00
    -40.381  0.0000E+00  0.0000E+00
    -40.153  0.0000E+00  0.0000E+00
    -39.924  0.0000E+00  0.0000E+00
    -39.695  0.0000E+00  0.0000E+00
    -39.466  0.0000E+00  0.0000E+00
    -39.238  0.0000E+00  0.0000E+00
    -39.009  0.0000E+00  0.0000E+00
    -38.780  0.0000E+00  0.0000E+00
    -38.551  0.0000E+00  0.0000E+00
    -38.322  0.0000E+00  0.0000E+00
    -38.094  0.0000E+00  0.0000E+00
    -37.865  0.2294E-06  0.5248E-07
    -37.636  0.3400E+00  0.7778E-01
    -37.407  0.9358E+01  0.2219E+01
    -37.179  0.7794E+01  0.4002E+01
    -36.950  0.1132E+02  0.6591E+01
    -36.721  0.1968E+02  0.1109E+02
    -36.492  0.3966E+01  0.1200E+02
    -36.263  0.9770E-04  0.1200E+02
    -36.035  0.0000E+00  0.1200E+02
    -35.806  0.0000E+00  0.1200E+02
    -35.577  0.0000E+00  0.1200E+02
    -35.348  0.0000E+00  0.1200E+02
    -35.119  0.0000E+00  0.1200E+02
    -34.891  0.0000E+00  0.1200E+02
    -34.662  0.0000E+00  0.1200E+02
    -34.433  0.0000E+00  0.1200E+02
    -34.204  0.0000E+00  0.1200E+02
    -33.976  0.0000E+00  0.1200E+02
    -33.747  0.0000E+00  0.1200E+02
    -33.518  0.0000E+00  0.1200E+02
    -33.289  0.0000E+00  0.1200E+02
    -33.060  0.0000E+00  0.1200E+02
    -32.832  0.0000E+00  0.1200E+02
    -32.603  0.0000E+00  0.1200E+02
    -32.374  0.0000E+00  0.1200E+02
    -32.145  0.0000E+00  0.1200E+02
    -31.916  0.0000E+00  0.1200E+02
    -31.688  0.0000E+00  0.1200E+02
    -31.459  0.0000E+00  0.1200E+02
    -31.230  0.0000E+00  0.1200E+02
    -31.001  0.0000E+00  0.1200E+02
    -30.773  0.0000E+00  0.1200E+02
    -30.544  0.0000E+00  0.1200E+02
    -30.315  0.0000E+00  0.1200E+02
    -30.086  0.0000E+00  0.1200E+02
    -29.857  0.0000E+00  0.1200E+02
    -29.629  0.0000E+00  0.1200E+02
    -29.400  0.0000E+00  0.1200E+02
    -29.171  0.0000E+00  0.1200E+02
    -28.942  0.0000E+00  0.1200E+02
    -28.714  0.0000E+00  0.1200E+02
    -28.485  0.0000E+00  0.1200E+02
    -28.256  0.0000E+00  0.1200E+02
    -28.027  0.0000E+00  0.1200E+02
    -27.798  0.0000E+00  0.1200E+02
    -27.570  0.0000E+00  0.1200E+02
    -27.341  0.0000E+00  0.1200E+02
    -27.112  0.0000E+00  0.1200E+02
    -26.883  0.0000E+00  0.1200E+02
    -26.654  0.0000E+00  0.1200E+02
    -26.426  0.0000E+00  0.1200E+02
    -26.197  0.0000E+00  0.1200E+02
    -25.968  0.0000E+00  0.1200E+02
    -25.739  0.0000E+00  0.1200E+02
    -25.511  0.0000E+00  0.1200E+02
    -25.282  0.0000E+00  0.1200E+02
    -25.053  0.0000E+00  0.1200E+02
    -24.824  0.0000E+00  0.1200E+02
    -24.595  0.0000E+00  0.1200E+02
    -24.367  0.0000E+00  0.1200E+02
    -24.138  0.0000E+00  0.1200E+02
    -23.909  0.0000E+00  0.1200E+02
    -23.680  0.0000E+00  0.1200E+02
    -23.451  0.0000E+00  0.1200E+02
    -23.223  0.0000E+00  0.1200E+02
    -22.994  0.0000E+00  0.1200E+02
    -22.765  0.0000E+00  0.1200E+02
    -22.536  0.0000E+00  0.1200E+02
    -22.308  0.0000E+00  0.1200E+02
    -22.079  0.0000E+00  0.1200E+02
    -21.850  0.0000E+00  0.1200E+02
    -21.621  0.0000E+00  0.1200E+02
    -21.392  0.0000E+00  0.1200E+02
    -21.164  0.0000E+00  0.1200E+02
    -20.935  0.0000E+00  0.1200E+02
    -20.706  0.0000E+00  0.1200E+02
    -20.477  0.0000E+00  0.1200E+02
    -20.248  0.0000E+00  0.1200E+02
    -20.020  0.0000E+00  0.1200E+02
    -19.791  0.0000E+00  0.1200E+02
    -19.562  0.0000E+00  0.1200E+02
    -19.333  0.0000E+00  0.1200E+02
    -19.105  0.0000E+00  0.1200E+02
    -18.876  0.0000E+00  0.1200E+02
    -18.647  0.0000E+00  0.1200E+02
    -18.418  0.0000E+00  0.1200E+02
    -18.189  0.0000E+00  0.1200E+02
    -17.961  0.0000E+00  0.1200E+02
    -17.732  0.0000E+00  0.1200E+02
    -17.503  0.0000E+00  0.1200E+02
    -17.274  0.0000E+00  0.1200E+02
    -17.046  0.0000E+00  0.1200E+02
    -16.817  0.0000E+00  0.1200E+02
    -16.588  0.0000E+00  0.1200E+02
    -16.359  0.0000E+00  0.1200E+02
    -16.130  0.0000E+00  0.1200E+02
    -15.902  0.0000E+00  0.1200E+02
    -15.673  0.0000E+00  0.1200E+02
    -15.444  0.0000E+00  0.1200E+02
    -15.215  0.0000E+00  0.1200E+02
    -14.986  0.0000E+00  0.1200E+02
    -14.758  0.0000E+00  0.1200E+02
    -14.529  0.0000E+00  0.1200E+02
    -14.300  0.0000E+00  0.1200E+02
    -14.071  0.0000E+00  0.1200E+02
    -13.843  0.0000E+00  0.1200E+02
    -13.614  0.0000E+00  0.1200E+02
    -13.385  0.0000E+00  0.1200E+02
    -13.156  0.0000E+00  0.1200E+02
    -12.927  0.0000E+00  0.1200E+02
    -12.699  0.0000E+00  0.1200E+02
    -12.470  0.0000E+00  0.1200E+02
    -12.241  0.0000E+00  0.1200E+02
    -12.012  0.0000E+00  0.1200E+02
    -11.783  0.0000E+00  0.1200E+02
    -11.555  0.0000E+00  0.1200E+02
    -11.326  0.0000E+00  0.1200E+02
    -11.097  0.0000E+00  0.1200E+02
    -10.868  0.0000E+00  0.1200E+02
    -10.640  0.0000E+00  0.1200E+02
    -10.411  0.0000E+00  0.1200E+02
    -10.182  0.0000E+00  0.1200E+02
     -9.953  0.0000E+00  0.1200E+02
     -9.724  0.0000E+00  0.1200E+02
     -9.496  0.0000E+00  0.1200E+02
     -9.267  0.0000E+00  0.1200E+02
     -9.038  0.0000E+00  0.1200E+02
     -8.809  0.0000E+00  0.1200E+02
     -8.581  0.0000E+00  0.1200E+02
     -8.352  0.0000E+00  0.1200E+02
     -8.123  0.0000E+00  0.1200E+02
     -7.894  0.0000E+00  0.1200E+02
     -7.665  0.0000E+00  0.1200E+02
     -7.437  0.0000E+00  0.1200E+02
     -7.208  0.0000E+00  0.1200E+02
     -6.979  0.0000E+00  0.1200E+02
     -6.750  0.0000E+00  0.1200E+02
     -6.521  0.0000E+00  0.1200E+02
     -6.293  0.0000E+00  0.1200E+02
     -6.064  0.0000E+00  0.1200E+02
     -5.835  0.0000E+00  0.1200E+02
     -5.606  0.0000E+00  0.1200E+02
     -5.378  0.0000E+00  0.1200E+02
     -5.149  0.0000E+00  0.1200E+02
     -4.920  0.0000E+00  0.1200E+02
     -4.691  0.0000E+00  0.1200E+02
     -4.462  0.0000E+00  0.1200E+02
     -4.234  0.0000E+00  0.1200E+02
     -4.005  0.0000E+00  0.1200E+02
     -3.776  0.0000E+00  0.1200E+02
     -3.547  0.0000E+00  0.1200E+02
     -3.318  0.0000E+00  0.1200E+02
     -3.090  0.0000E+00  0.1200E+02
     -2.861  0.0000E+00  0.1200E+02
     -2.632  0.0000E+00  0.1200E+02
     -2.403  0.0000E+00  0.1200E+02
     -2.175  0.1516E-13  0.1200E+02
     -1.946  0.3149E-02  0.1200E+02
     -1.717  0.9539E-02  0.1200E+02
     -1.488  0.8014E-01  0.1202E+02
     -1.259  0.1233E+00  0.1205E+02
     -1.031  0.3960E-02  0.1205E+02
     -0.802  0.8524E-01  0.1207E+02
     -0.573  0.3027E+00  0.1214E+02
     -0.344  0.1247E+00  0.1217E+02
     -0.115  0.3758E-01  0.1218E+02
      0.113  0.1700E+00  0.1222E+02
      0.342  0.4860E+00  0.1233E+02
      0.571  0.1242E+00  0.1235E+02
      0.800  0.2692E+00  0.1242E+02
      1.028  0.3905E+00  0.1251E+02
      1.257  0.2806E+00  0.1257E+02
      1.486  0.1355E+01  0.1288E+02
      1.715  0.1875E+01  0.1331E+02
      1.944  0.9386E+00  0.1352E+02
      2.172  0.2095E+01  0.1400E+02
      2.401  0.2442E+01  0.1456E+02
      2.630  0.1713E+01  0.1495E+02
      2.859  0.2233E+01  0.1546E+02
      3.087  0.1774E+01  0.1587E+02
      3.316  0.1189E+01  0.1614E+02
      3.545  0.2394E+01  0.1669E+02
      3.774  0.1852E+01  0.1711E+02
      4.003  0.1757E+01  0.1752E+02
      4.231  0.2102E+01  0.1800E+02
      4.460  0.2632E+01  0.1860E+02
      4.689  0.2893E+01  0.1926E+02
      4.918  0.1202E+01  0.1954E+02
      5.147  0.9297E+00  0.1975E+02
      5.375  0.1578E+01  0.2011E+02
      5.604  0.3896E+01  0.2100E+02
      5.833  0.2907E+01  0.2167E+02
      6.062  0.2202E+01  0.2217E+02
      6.290  0.2858E+01  0.2282E+02
      6.519  0.3277E+01  0.2357E+02
      6.748  0.1860E+01  0.2400E+02
      6.977  0.3079E+01  0.2470E+02
      7.206  0.2857E+01  0.2536E+02
      7.434  0.1756E+01  0.2576E+02
      7.663  0.1398E+01  0.2608E+02
      7.892  0.2731E+01  0.2670E+02
      8.121  0.9389E+00  0.2692E+02
      8.350  0.1265E+01  0.2721E+02
      8.578  0.1206E+01  0.2748E+02
      8.807  0.1185E+01  0.2775E+02
      9.036  0.1294E+01  0.2805E+02
      9.265  0.1393E+01  0.2837E+02
      9.493  0.1014E+01  0.2860E+02
      9.722  0.1280E+01  0.2889E+02
      9.951  0.7922E+00  0.2908E+02
     10.180  0.2603E+01  0.2967E+02
     10.409  0.2407E+01  0.3022E+02
     10.637  0.1563E+01  0.3058E+02
     10.866  0.3456E+01  0.3137E+02
     11.095  0.2378E+01  0.3191E+02
     11.324  0.3123E+01  0.3263E+02
     11.553  0.2376E+01  0.3317E+02
     11.781  0.5308E+00  0.3329E+02
     12.010  0.8942E+00  0.3350E+02
     12.239  0.1115E+01  0.3375E+02
     12.468  0.7145E+00  0.3392E+02
     12.696  0.2903E+00  0.3398E+02
     12.925  0.3907E+00  0.3407E+02
     13.154  0.4285E+00  0.3417E+02
     13.383  0.4517E+00  0.3427E+02
     13.612  0.6841E+00  0.3443E+02
     13.840  0.4225E+00  0.3453E+02
     14.069  0.7957E+00  0.3471E+02
     14.298  0.4461E+00  0.3481E+02
     14.527  0.4010E+00  0.3490E+02
     14.755  0.7343E+00  0.3507E+02
     14.984  0.3629E+00  0.3515E+02
     15.213  0.6096E+00  0.3529E+02
     15.442  0.7539E+00  0.3547E+02
     15.671  0.1674E+00  0.3550E+02
     15.899  0.1279E+00  0.3553E+02
     16.128  0.5293E+00  0.3565E+02
     16.357  0.5524E+00  0.3578E+02
     16.586  0.2117E+00  0.3583E+02
     16.815  0.3359E-02  0.3583E+02
     17.043  0.2531E+00  0.3589E+02
     17.272  0.3671E+00  0.3597E+02
     17.501  0.5539E+00  0.3610E+02
     17.730  0.5846E+00  0.3623E+02
     17.958  0.7492E+00  0.3640E+02
     18.187  0.1055E+01  0.3665E+02
     18.416  0.9731E+00  0.3687E+02
     18.645  0.3998E+00  0.3696E+02
     18.874  0.8826E+00  0.3716E+02
     19.102  0.1331E+01  0.3747E+02
     19.331  0.1045E+01  0.3770E+02
     19.560  0.4893E+00  0.3782E+02
     19.789  0.4685E+00  0.3792E+02
     20.018  0.4921E+00  0.3804E+02
     20.246  0.8480E+00  0.3823E+02
     20.475  0.3519E+00  0.3831E+02
     20.704  0.1728E+00  0.3835E+02
     20.933  0.5393E+00  0.3847E+02
     21.161  0.6339E+00  0.3862E+02
     21.390  0.7397E+00  0.3879E+02
     21.619  0.4533E+00  0.3889E+02
     21.848  0.2399E+00  0.3895E+02
     22.077  0.2219E+00  0.3900E+02
     22.305  0.3643E+00  0.3908E+02
     22.534  0.7687E-01  0.3910E+02
     22.763  0.1751E+00  0.3914E+02
     22.992  0.7316E+00  0.3931E+02
     23.220  0.3373E+00  0.3938E+02
     23.449  0.4565E+00  0.3949E+02
     23.678  0.2555E+00  0.3955E+02
     23.907  0.3672E+00  0.3963E+02
     24.136  0.5267E+00  0.3975E+02
     24.364  0.5013E+00  0.3987E+02
     24.593  0.3789E+00  0.3995E+02
     24.822  0.2109E+00  0.4000E+02
     25.051  0.1182E-05  0.4000E+02
     25.280  0.0000E+00  0.4000E+02
     25.508  0.0000E+00  0.4000E+02
     25.737  0.0000E+00  0.4000E+02
     25.966  0.0000E+00  0.4000E+02
     26.195  0.0000E+00  0.4000E+02
     26.423  0.0000E+00  0.4000E+02
     26.652  0.0000E+00  0.4000E+02
     26.881  0.0000E+00  0.4000E+02
     27.110  0.0000E+00  0.4000E+02
     27.339  0.0000E+00  0.4000E+02
     27.567  0.0000E+00  0.4000E+02
     27.796  0.0000E+00  0.4000E+02
