       N       E                     dE             d eps       ncg     rms          rms(c)
DAV:   1     0.308327977427E+03    0.30833E+03   -0.17412E+04 33936   0.199E+03
DAV:   2    -0.847872401912E+01   -0.31681E+03   -0.30627E+03 34024   0.592E+02
DAV:   3    -0.235904631653E+02   -0.15112E+02   -0.14200E+02 38408   0.117E+02
DAV:   4    -0.238614237405E+02   -0.27096E+00   -0.26881E+00 37080   0.152E+01
DAV:   5    -0.238630576480E+02   -0.16339E-02   -0.16338E-02 37844   0.132E+00    0.228E+01
DAV:   6    -0.226993587499E+02    0.11637E+01   -0.14782E+00 38628   0.125E+01    0.102E+01
DAV:   7    -0.224596856515E+02    0.23967E+00   -0.80483E-01 39756   0.857E+00    0.973E-01
DAV:   8    -0.224540387525E+02    0.56469E-02   -0.22434E-02 34268   0.171E+00    0.686E-01
DAV:   9    -0.224514573644E+02    0.25814E-02   -0.48961E-03 36712   0.793E-01    0.412E-02
DAV:  10    -0.224514764438E+02   -0.19079E-04   -0.14543E-04 37704   0.113E-01    0.140E-02
DAV:  11    -0.224514674467E+02    0.89970E-05   -0.29413E-06 30724   0.266E-02    0.591E-03
DAV:  12    -0.224514668259E+02    0.62082E-06   -0.79250E-07 20252   0.148E-02
   1 F= -.22451467E+02 E0= -.22450717E+02  d E =-.150059E-02
