K2 N6                                   
   1.00000000000000     
     5.1058869600000003   -0.0096236300000000   -2.2157282800000000
    -2.9050651799999998    4.6101188100000003   -1.1344644900000000
    -0.0060641300000000    0.0096236300000000    5.5659220700000001
   K    N 
     2     6
Direct
     0.0000000000000000    0.7500000000000000    0.7500000000000000
     0.0000000000000000    0.2500000000000000    0.2500000000000000
     0.5000000000000000    0.0000000000000000    0.5000000000000000
     0.5000000000000000    0.5000000000000000    0.0000000000000000
     0.7738876299999973    0.6369428100000007    0.1369428100000007
     0.5000000000000000    0.1369428100000007    0.3630571899999993
     0.5000000000000000    0.8630571899999993    0.6369428100000007
     0.2261123700000027    0.3630571899999993    0.8630571899999993
 
  0.00000000E+00  0.00000000E+00  0.00000000E+00
  0.00000000E+00  0.00000000E+00  0.00000000E+00
  0.00000000E+00  0.00000000E+00  0.00000000E+00
  0.00000000E+00  0.00000000E+00  0.00000000E+00
  0.00000000E+00  0.00000000E+00  0.00000000E+00
  0.00000000E+00  0.00000000E+00  0.00000000E+00
  0.00000000E+00  0.00000000E+00  0.00000000E+00
  0.00000000E+00  0.00000000E+00  0.00000000E+00
