Li8 S4                                  
   1.00000000000000     
     3.7911204299999999    0.0000000000000000    0.0000000000000000
     0.0000000000000000    6.2662029800000001    0.0000000000000000
     0.0000000000000000    0.0000000000000000    7.1936704100000002
   Li   S 
     8     4
Direct
     0.2500000000000000    0.8581046899999976    0.9285390499999977
     0.7500000000000000    0.1418953100000024    0.0714609500000023
     0.2500000000000000    0.3581046899999976    0.5714609500000023
     0.7500000000000000    0.6418953100000024    0.4285390499999977
     0.7500000000000000    0.0209564000000029    0.6663737599999990
     0.2500000000000000    0.9790435999999971    0.3336262400000010
     0.7500000000000000    0.5209564000000029    0.8336262400000010
     0.2500000000000000    0.4790435999999971    0.1663737599999990
     0.2500000000000000    0.2444823200000030    0.8904163799999978
     0.7500000000000000    0.7555176799999970    0.1095836200000022
     0.2500000000000000    0.7444823200000030    0.6095836200000022
     0.7500000000000000    0.2555176799999970    0.3904163799999978
 
  0.00000000E+00  0.00000000E+00  0.00000000E+00
  0.00000000E+00  0.00000000E+00  0.00000000E+00
  0.00000000E+00  0.00000000E+00  0.00000000E+00
  0.00000000E+00  0.00000000E+00  0.00000000E+00
  0.00000000E+00  0.00000000E+00  0.00000000E+00
  0.00000000E+00  0.00000000E+00  0.00000000E+00
  0.00000000E+00  0.00000000E+00  0.00000000E+00
  0.00000000E+00  0.00000000E+00  0.00000000E+00
  0.00000000E+00  0.00000000E+00  0.00000000E+00
  0.00000000E+00  0.00000000E+00  0.00000000E+00
  0.00000000E+00  0.00000000E+00  0.00000000E+00
  0.00000000E+00  0.00000000E+00  0.00000000E+00
