  12  12   0   0
  0.1424103E+02  0.3791120E-09  0.6266203E-09  0.7193671E-09  0.5000000E-15
  1.000000000000000E-004
  CAR 
 unknown system                          
     21.14104551    -45.58046732  301      2.70922759      1.00000000
    -45.580  0.0000E+00  0.0000E+00
    -45.358  0.0000E+00  0.0000E+00
    -45.136  0.0000E+00  0.0000E+00
    -44.913  0.0000E+00  0.0000E+00
    -44.691  0.0000E+00  0.0000E+00
    -44.468  0.0000E+00  0.0000E+00
    -44.246  0.0000E+00  0.0000E+00
    -44.024  0.0000E+00  0.0000E+00
    -43.801  0.0000E+00  0.0000E+00
    -43.579  0.0000E+00  0.0000E+00
    -43.356  0.0000E+00  0.0000E+00
    -43.134  0.0000E+00  0.0000E+00
    -42.912  0.0000E+00  0.0000E+00
    -42.689  0.6518E-03  0.1450E-03
    -42.467  0.3540E+02  0.7873E+01
    -42.244  0.5731E+00  0.8000E+01
    -42.022  0.3594E-04  0.8000E+01
    -41.800  0.3327E+02  0.1540E+02
    -41.577  0.2696E+01  0.1600E+02
    -41.355  0.0000E+00  0.1600E+02
    -41.132  0.0000E+00  0.1600E+02
    -40.910  0.0000E+00  0.1600E+02
    -40.688  0.0000E+00  0.1600E+02
    -40.465  0.0000E+00  0.1600E+02
    -40.243  0.0000E+00  0.1600E+02
    -40.020  0.0000E+00  0.1600E+02
    -39.798  0.0000E+00  0.1600E+02
    -39.576  0.0000E+00  0.1600E+02
    -39.353  0.0000E+00  0.1600E+02
    -39.131  0.0000E+00  0.1600E+02
    -38.908  0.0000E+00  0.1600E+02
    -38.686  0.0000E+00  0.1600E+02
    -38.464  0.0000E+00  0.1600E+02
    -38.241  0.0000E+00  0.1600E+02
    -38.019  0.0000E+00  0.1600E+02
    -37.796  0.0000E+00  0.1600E+02
    -37.574  0.0000E+00  0.1600E+02
    -37.351  0.0000E+00  0.1600E+02
    -37.129  0.0000E+00  0.1600E+02
    -36.907  0.0000E+00  0.1600E+02
    -36.684  0.0000E+00  0.1600E+02
    -36.462  0.0000E+00  0.1600E+02
    -36.239  0.0000E+00  0.1600E+02
    -36.017  0.0000E+00  0.1600E+02
    -35.795  0.0000E+00  0.1600E+02
    -35.572  0.0000E+00  0.1600E+02
    -35.350  0.0000E+00  0.1600E+02
    -35.127  0.0000E+00  0.1600E+02
    -34.905  0.0000E+00  0.1600E+02
    -34.683  0.0000E+00  0.1600E+02
    -34.460  0.0000E+00  0.1600E+02
    -34.238  0.0000E+00  0.1600E+02
    -34.015  0.0000E+00  0.1600E+02
    -33.793  0.0000E+00  0.1600E+02
    -33.571  0.0000E+00  0.1600E+02
    -33.348  0.0000E+00  0.1600E+02
    -33.126  0.0000E+00  0.1600E+02
    -32.903  0.0000E+00  0.1600E+02
    -32.681  0.0000E+00  0.1600E+02
    -32.459  0.0000E+00  0.1600E+02
    -32.236  0.0000E+00  0.1600E+02
    -32.014  0.0000E+00  0.1600E+02
    -31.791  0.0000E+00  0.1600E+02
    -31.569  0.0000E+00  0.1600E+02
    -31.347  0.0000E+00  0.1600E+02
    -31.124  0.0000E+00  0.1600E+02
    -30.902  0.0000E+00  0.1600E+02
    -30.679  0.0000E+00  0.1600E+02
    -30.457  0.0000E+00  0.1600E+02
    -30.235  0.0000E+00  0.1600E+02
    -30.012  0.0000E+00  0.1600E+02
    -29.790  0.0000E+00  0.1600E+02
    -29.567  0.0000E+00  0.1600E+02
    -29.345  0.0000E+00  0.1600E+02
    -29.122  0.0000E+00  0.1600E+02
    -28.900  0.0000E+00  0.1600E+02
    -28.678  0.0000E+00  0.1600E+02
    -28.455  0.0000E+00  0.1600E+02
    -28.233  0.0000E+00  0.1600E+02
    -28.010  0.0000E+00  0.1600E+02
    -27.788  0.0000E+00  0.1600E+02
    -27.566  0.0000E+00  0.1600E+02
    -27.343  0.0000E+00  0.1600E+02
    -27.121  0.0000E+00  0.1600E+02
    -26.898  0.0000E+00  0.1600E+02
    -26.676  0.0000E+00  0.1600E+02
    -26.454  0.0000E+00  0.1600E+02
    -26.231  0.0000E+00  0.1600E+02
    -26.009  0.0000E+00  0.1600E+02
    -25.786  0.0000E+00  0.1600E+02
    -25.564  0.0000E+00  0.1600E+02
    -25.342  0.0000E+00  0.1600E+02
    -25.119  0.0000E+00  0.1600E+02
    -24.897  0.0000E+00  0.1600E+02
    -24.674  0.0000E+00  0.1600E+02
    -24.452  0.0000E+00  0.1600E+02
    -24.230  0.0000E+00  0.1600E+02
    -24.007  0.0000E+00  0.1600E+02
    -23.785  0.0000E+00  0.1600E+02
    -23.562  0.0000E+00  0.1600E+02
    -23.340  0.0000E+00  0.1600E+02
    -23.118  0.0000E+00  0.1600E+02
    -22.895  0.0000E+00  0.1600E+02
    -22.673  0.0000E+00  0.1600E+02
    -22.450  0.0000E+00  0.1600E+02
    -22.228  0.0000E+00  0.1600E+02
    -22.006  0.0000E+00  0.1600E+02
    -21.783  0.0000E+00  0.1600E+02
    -21.561  0.0000E+00  0.1600E+02
    -21.338  0.0000E+00  0.1600E+02
    -21.116  0.0000E+00  0.1600E+02
    -20.894  0.0000E+00  0.1600E+02
    -20.671  0.0000E+00  0.1600E+02
    -20.449  0.0000E+00  0.1600E+02
    -20.226  0.0000E+00  0.1600E+02
    -20.004  0.0000E+00  0.1600E+02
    -19.781  0.0000E+00  0.1600E+02
    -19.559  0.0000E+00  0.1600E+02
    -19.337  0.0000E+00  0.1600E+02
    -19.114  0.0000E+00  0.1600E+02
    -18.892  0.0000E+00  0.1600E+02
    -18.669  0.0000E+00  0.1600E+02
    -18.447  0.0000E+00  0.1600E+02
    -18.225  0.0000E+00  0.1600E+02
    -18.002  0.0000E+00  0.1600E+02
    -17.780  0.0000E+00  0.1600E+02
    -17.557  0.0000E+00  0.1600E+02
    -17.335  0.0000E+00  0.1600E+02
    -17.113  0.0000E+00  0.1600E+02
    -16.890  0.0000E+00  0.1600E+02
    -16.668  0.0000E+00  0.1600E+02
    -16.445  0.0000E+00  0.1600E+02
    -16.223  0.0000E+00  0.1600E+02
    -16.001  0.0000E+00  0.1600E+02
    -15.778  0.0000E+00  0.1600E+02
    -15.556  0.0000E+00  0.1600E+02
    -15.333  0.0000E+00  0.1600E+02
    -15.111  0.0000E+00  0.1600E+02
    -14.889  0.0000E+00  0.1600E+02
    -14.666  0.0000E+00  0.1600E+02
    -14.444  0.0000E+00  0.1600E+02
    -14.221  0.0000E+00  0.1600E+02
    -13.999  0.0000E+00  0.1600E+02
    -13.777  0.0000E+00  0.1600E+02
    -13.554  0.0000E+00  0.1600E+02
    -13.332  0.0000E+00  0.1600E+02
    -13.109  0.0000E+00  0.1600E+02
    -12.887  0.0000E+00  0.1600E+02
    -12.665  0.0000E+00  0.1600E+02
    -12.442  0.0000E+00  0.1600E+02
    -12.220  0.0000E+00  0.1600E+02
    -11.997  0.0000E+00  0.1600E+02
    -11.775  0.0000E+00  0.1600E+02
    -11.552  0.0000E+00  0.1600E+02
    -11.330  0.0000E+00  0.1600E+02
    -11.108  0.0000E+00  0.1600E+02
    -10.885  0.0000E+00  0.1600E+02
    -10.663  0.0000E+00  0.1600E+02
    -10.440  0.0000E+00  0.1600E+02
    -10.218  0.0000E+00  0.1600E+02
     -9.996  0.0000E+00  0.1600E+02
     -9.773  0.0000E+00  0.1600E+02
     -9.551  0.0000E+00  0.1600E+02
     -9.328  0.3769E-11  0.1600E+02
     -9.106  0.4547E-01  0.1601E+02
     -8.884  0.2174E+01  0.1649E+02
     -8.661  0.5753E+01  0.1777E+02
     -8.439  0.1550E+02  0.2122E+02
     -8.216  0.1184E+02  0.2385E+02
     -7.994  0.6580E+00  0.2400E+02
     -7.772  0.0000E+00  0.2400E+02
     -7.549  0.0000E+00  0.2400E+02
     -7.327  0.0000E+00  0.2400E+02
     -7.104  0.0000E+00  0.2400E+02
     -6.882  0.0000E+00  0.2400E+02
     -6.660  0.0000E+00  0.2400E+02
     -6.437  0.0000E+00  0.2400E+02
     -6.215  0.0000E+00  0.2400E+02
     -5.992  0.0000E+00  0.2400E+02
     -5.770  0.0000E+00  0.2400E+02
     -5.548  0.0000E+00  0.2400E+02
     -5.325  0.0000E+00  0.2400E+02
     -5.103  0.0000E+00  0.2400E+02
     -4.880  0.0000E+00  0.2400E+02
     -4.658  0.0000E+00  0.2400E+02
     -4.436  0.0000E+00  0.2400E+02
     -4.213  0.0000E+00  0.2400E+02
     -3.991  0.0000E+00  0.2400E+02
     -3.768  0.0000E+00  0.2400E+02
     -3.546  0.0000E+00  0.2400E+02
     -3.324  0.0000E+00  0.2400E+02
     -3.101  0.0000E+00  0.2400E+02
     -2.879  0.0000E+00  0.2400E+02
     -2.656  0.0000E+00  0.2400E+02
     -2.434  0.0000E+00  0.2400E+02
     -2.211  0.0000E+00  0.2400E+02
     -1.989  0.0000E+00  0.2400E+02
     -1.767  0.0000E+00  0.2400E+02
     -1.544  0.0000E+00  0.2400E+02
     -1.322  0.0000E+00  0.2400E+02
     -1.099  0.1442E-05  0.2400E+02
     -0.877  0.2231E+00  0.2405E+02
     -0.655  0.4841E+01  0.2513E+02
     -0.432  0.1024E+02  0.2740E+02
     -0.210  0.9230E+01  0.2946E+02
      0.013  0.4997E+01  0.3057E+02
      0.235  0.4872E+01  0.3165E+02
      0.457  0.9150E+01  0.3369E+02
      0.680  0.7989E+01  0.3546E+02
      0.902  0.8054E+01  0.3726E+02
      1.125  0.7572E+01  0.3894E+02
      1.347  0.7224E+01  0.4055E+02
      1.569  0.1015E+02  0.4280E+02
      1.792  0.1223E+02  0.4552E+02
      2.014  0.7446E+01  0.4718E+02
      2.237  0.2947E+01  0.4784E+02
      2.459  0.7382E+00  0.4800E+02
      2.681  0.2053E-03  0.4800E+02
      2.904  0.0000E+00  0.4800E+02
      3.126  0.0000E+00  0.4800E+02
      3.349  0.0000E+00  0.4800E+02
      3.571  0.0000E+00  0.4800E+02
      3.793  0.0000E+00  0.4800E+02
      4.016  0.0000E+00  0.4800E+02
      4.238  0.0000E+00  0.4800E+02
      4.461  0.0000E+00  0.4800E+02
      4.683  0.0000E+00  0.4800E+02
      4.905  0.0000E+00  0.4800E+02
      5.128  0.0000E+00  0.4800E+02
      5.350  0.0000E+00  0.4800E+02
      5.573  0.0000E+00  0.4800E+02
      5.795  0.0000E+00  0.4800E+02
      6.018  0.8914E-17  0.4800E+02
      6.240  0.3006E-02  0.4800E+02
      6.462  0.6865E+00  0.4815E+02
      6.685  0.4594E+01  0.4918E+02
      6.907  0.6607E+01  0.5064E+02
      7.130  0.5777E+01  0.5193E+02
      7.352  0.5954E+01  0.5325E+02
      7.574  0.4720E+01  0.5430E+02
      7.797  0.3716E+01  0.5513E+02
      8.019  0.3089E+01  0.5582E+02
      8.242  0.4810E+01  0.5689E+02
      8.464  0.7224E+01  0.5849E+02
      8.686  0.5191E+01  0.5965E+02
      8.909  0.4142E+01  0.6057E+02
      9.131  0.7157E+01  0.6216E+02
      9.354  0.6466E+01  0.6360E+02
      9.576  0.4562E+01  0.6461E+02
      9.798  0.5685E+01  0.6588E+02
     10.021  0.6743E+01  0.6738E+02
     10.243  0.7615E+01  0.6907E+02
     10.466  0.6327E+01  0.7048E+02
     10.688  0.6730E+01  0.7197E+02
     10.910  0.6801E+01  0.7349E+02
     11.133  0.3617E+01  0.7429E+02
     11.355  0.5168E+01  0.7544E+02
     11.578  0.5765E+01  0.7672E+02
     11.800  0.8569E+01  0.7863E+02
     12.022  0.6576E+01  0.8009E+02
     12.245  0.5849E+01  0.8139E+02
     12.467  0.4960E+01  0.8250E+02
     12.690  0.4847E+01  0.8357E+02
     12.912  0.7367E+01  0.8521E+02
     13.134  0.3804E+01  0.8606E+02
     13.357  0.4657E+01  0.8709E+02
     13.579  0.7869E+01  0.8884E+02
     13.802  0.4604E+01  0.8987E+02
     14.024  0.5033E+01  0.9099E+02
     14.246  0.5965E+01  0.9231E+02
     14.469  0.4977E+01  0.9342E+02
     14.691  0.6527E+01  0.9487E+02
     14.914  0.4968E+01  0.9598E+02
     15.136  0.3947E+01  0.9686E+02
     15.359  0.7225E+01  0.9846E+02
     15.581  0.7056E+01  0.1000E+03
     15.803  0.6731E+01  0.1015E+03
     16.026  0.7169E+01  0.1031E+03
     16.248  0.7041E+01  0.1047E+03
     16.471  0.5559E+01  0.1059E+03
     16.693  0.4788E+01  0.1070E+03
     16.915  0.2783E+01  0.1076E+03
     17.138  0.4965E+01  0.1087E+03
     17.360  0.7071E+01  0.1103E+03
     17.583  0.3156E+01  0.1110E+03
     17.805  0.2847E+01  0.1116E+03
     18.027  0.7827E+00  0.1118E+03
     18.250  0.9210E+00  0.1120E+03
     18.472  0.1081E-04  0.1120E+03
     18.695  0.0000E+00  0.1120E+03
     18.917  0.0000E+00  0.1120E+03
     19.139  0.0000E+00  0.1120E+03
     19.362  0.0000E+00  0.1120E+03
     19.584  0.0000E+00  0.1120E+03
     19.807  0.0000E+00  0.1120E+03
     20.029  0.0000E+00  0.1120E+03
     20.251  0.0000E+00  0.1120E+03
     20.474  0.0000E+00  0.1120E+03
     20.696  0.0000E+00  0.1120E+03
     20.919  0.0000E+00  0.1120E+03
     21.141  0.0000E+00  0.1120E+03
