unknown system                          
           1
     3.791120    0.000000    0.000000
     0.000000    6.266203    0.000000
     0.000000    0.000000    7.193670
   Li   S 
     8     4
Direct configuration=     1
   0.25000000  0.85810469  0.92853905
   0.75000000  0.14189531  0.07146095
   0.25000000  0.35810469  0.57146095
   0.75000000  0.64189531  0.42853905
   0.75000000  0.02095640  0.66637376
   0.25000000  0.97904360  0.33362624
   0.75000000  0.52095640  0.83362624
   0.25000000  0.47904360  0.16637376
   0.25000000  0.24448232  0.89041638
   0.75000000  0.75551768  0.10958362
   0.25000000  0.74448232  0.60958362
   0.75000000  0.25551768  0.39041638
