Ti1Be12
1.0
     -0.0000000       0.0000000       4.1636772
     -3.6622527       3.6622527       2.0818401
     -3.6622527      -3.6622527       2.0818401
  Ti    Be  
  1     12  
Direct
      0.0000000       0.0000000       0.0000000
      0.0000000       0.0000000       0.5000000
      0.5000000       0.0000000       0.5000000
      0.5000000       0.5000000       0.0000000
      0.0000000       0.5000000       0.0000000
      0.0000000       0.3507832       0.6492168
      0.0000000       0.6492168       0.3507832
      0.6492168       0.3507832       0.3507832
      0.3507832       0.6492168       0.6492168
      0.5000000       0.7829336       0.2170664
      0.5000000       0.2170664       0.7829336
      0.7170664       0.7829336       0.7829336
      0.2829336       0.2170664       0.2170664
