unknown system                          
           1
    -0.000000    0.000000    4.163677
    -3.662253    3.662253    2.081840
    -3.662253   -3.662253    2.081840
   Ti   Be
     1    12
Direct configuration=     1
   0.00000000  0.00000000  0.00000000
   0.00000000  0.00000000  0.50000000
   0.50000000  0.00000000  0.50000000
   0.50000000  0.50000000  0.00000000
   0.00000000  0.50000000  0.00000000
   0.00000000  0.35078321  0.64921679
   0.00000000  0.64921679  0.35078321
   0.64921679  0.35078321  0.35078321
   0.35078321  0.64921679  0.64921679
   0.50000000  0.78293362  0.21706638
   0.50000000  0.21706638  0.78293362
   0.71706638  0.78293362  0.78293362
   0.28293362  0.21706638  0.21706638
