  14  14   0   0
  0.2632628E+02  0.1131161E-08  0.9215313E-09  0.7763067E-09  0.5000000E-15
  1.000000000000000E-004
  CAR 
 unknown system                          
      9.88794347    -33.32491626  301      3.85614846      1.00000000
    -33.325  0.0000E+00  0.0000E+00
    -33.181  0.0000E+00  0.0000E+00
    -33.037  0.0000E+00  0.0000E+00
    -32.893  0.0000E+00  0.0000E+00
    -32.749  0.0000E+00  0.0000E+00
    -32.605  0.0000E+00  0.0000E+00
    -32.461  0.0000E+00  0.0000E+00
    -32.317  0.0000E+00  0.0000E+00
    -32.173  0.0000E+00  0.0000E+00
    -32.029  0.0000E+00  0.0000E+00
    -31.884  0.0000E+00  0.0000E+00
    -31.740  0.0000E+00  0.0000E+00
    -31.596  0.1665E-09  0.2398E-10
    -31.452  0.6371E-01  0.9177E-02
    -31.308  0.1842E+02  0.2663E+01
    -31.164  0.6419E+02  0.1191E+02
    -31.020  0.6306E+00  0.1200E+02
    -30.876  0.1225E-07  0.1200E+02
    -30.732  0.0000E+00  0.1200E+02
    -30.588  0.0000E+00  0.1200E+02
    -30.444  0.0000E+00  0.1200E+02
    -30.300  0.0000E+00  0.1200E+02
    -30.156  0.0000E+00  0.1200E+02
    -30.012  0.0000E+00  0.1200E+02
    -29.868  0.0000E+00  0.1200E+02
    -29.724  0.0000E+00  0.1200E+02
    -29.580  0.0000E+00  0.1200E+02
    -29.436  0.0000E+00  0.1200E+02
    -29.292  0.0000E+00  0.1200E+02
    -29.148  0.0000E+00  0.1200E+02
    -29.004  0.0000E+00  0.1200E+02
    -28.860  0.0000E+00  0.1200E+02
    -28.716  0.0000E+00  0.1200E+02
    -28.572  0.0000E+00  0.1200E+02
    -28.427  0.0000E+00  0.1200E+02
    -28.283  0.0000E+00  0.1200E+02
    -28.139  0.0000E+00  0.1200E+02
    -27.995  0.0000E+00  0.1200E+02
    -27.851  0.0000E+00  0.1200E+02
    -27.707  0.0000E+00  0.1200E+02
    -27.563  0.0000E+00  0.1200E+02
    -27.419  0.0000E+00  0.1200E+02
    -27.275  0.0000E+00  0.1200E+02
    -27.131  0.0000E+00  0.1200E+02
    -26.987  0.0000E+00  0.1200E+02
    -26.843  0.0000E+00  0.1200E+02
    -26.699  0.0000E+00  0.1200E+02
    -26.555  0.0000E+00  0.1200E+02
    -26.411  0.0000E+00  0.1200E+02
    -26.267  0.0000E+00  0.1200E+02
    -26.123  0.0000E+00  0.1200E+02
    -25.979  0.0000E+00  0.1200E+02
    -25.835  0.0000E+00  0.1200E+02
    -25.691  0.0000E+00  0.1200E+02
    -25.547  0.0000E+00  0.1200E+02
    -25.403  0.0000E+00  0.1200E+02
    -25.259  0.0000E+00  0.1200E+02
    -25.114  0.0000E+00  0.1200E+02
    -24.970  0.0000E+00  0.1200E+02
    -24.826  0.0000E+00  0.1200E+02
    -24.682  0.0000E+00  0.1200E+02
    -24.538  0.0000E+00  0.1200E+02
    -24.394  0.0000E+00  0.1200E+02
    -24.250  0.0000E+00  0.1200E+02
    -24.106  0.0000E+00  0.1200E+02
    -23.962  0.0000E+00  0.1200E+02
    -23.818  0.0000E+00  0.1200E+02
    -23.674  0.0000E+00  0.1200E+02
    -23.530  0.0000E+00  0.1200E+02
    -23.386  0.0000E+00  0.1200E+02
    -23.242  0.0000E+00  0.1200E+02
    -23.098  0.0000E+00  0.1200E+02
    -22.954  0.0000E+00  0.1200E+02
    -22.810  0.0000E+00  0.1200E+02
    -22.666  0.0000E+00  0.1200E+02
    -22.522  0.0000E+00  0.1200E+02
    -22.378  0.0000E+00  0.1200E+02
    -22.234  0.0000E+00  0.1200E+02
    -22.090  0.0000E+00  0.1200E+02
    -21.946  0.0000E+00  0.1200E+02
    -21.801  0.0000E+00  0.1200E+02
    -21.657  0.0000E+00  0.1200E+02
    -21.513  0.0000E+00  0.1200E+02
    -21.369  0.0000E+00  0.1200E+02
    -21.225  0.0000E+00  0.1200E+02
    -21.081  0.0000E+00  0.1200E+02
    -20.937  0.0000E+00  0.1200E+02
    -20.793  0.0000E+00  0.1200E+02
    -20.649  0.0000E+00  0.1200E+02
    -20.505  0.0000E+00  0.1200E+02
    -20.361  0.0000E+00  0.1200E+02
    -20.217  0.0000E+00  0.1200E+02
    -20.073  0.0000E+00  0.1200E+02
    -19.929  0.0000E+00  0.1200E+02
    -19.785  0.0000E+00  0.1200E+02
    -19.641  0.0000E+00  0.1200E+02
    -19.497  0.0000E+00  0.1200E+02
    -19.353  0.0000E+00  0.1200E+02
    -19.209  0.0000E+00  0.1200E+02
    -19.065  0.0000E+00  0.1200E+02
    -18.921  0.0000E+00  0.1200E+02
    -18.777  0.0000E+00  0.1200E+02
    -18.633  0.0000E+00  0.1200E+02
    -18.489  0.0000E+00  0.1200E+02
    -18.344  0.0000E+00  0.1200E+02
    -18.200  0.0000E+00  0.1200E+02
    -18.056  0.0000E+00  0.1200E+02
    -17.912  0.0000E+00  0.1200E+02
    -17.768  0.0000E+00  0.1200E+02
    -17.624  0.0000E+00  0.1200E+02
    -17.480  0.0000E+00  0.1200E+02
    -17.336  0.0000E+00  0.1200E+02
    -17.192  0.0000E+00  0.1200E+02
    -17.048  0.0000E+00  0.1200E+02
    -16.904  0.0000E+00  0.1200E+02
    -16.760  0.0000E+00  0.1200E+02
    -16.616  0.0000E+00  0.1200E+02
    -16.472  0.0000E+00  0.1200E+02
    -16.328  0.0000E+00  0.1200E+02
    -16.184  0.0000E+00  0.1200E+02
    -16.040  0.0000E+00  0.1200E+02
    -15.896  0.0000E+00  0.1200E+02
    -15.752  0.0000E+00  0.1200E+02
    -15.608  0.0000E+00  0.1200E+02
    -15.464  0.0000E+00  0.1200E+02
    -15.320  0.0000E+00  0.1200E+02
    -15.176  0.0000E+00  0.1200E+02
    -15.031  0.0000E+00  0.1200E+02
    -14.887  0.0000E+00  0.1200E+02
    -14.743  0.0000E+00  0.1200E+02
    -14.599  0.0000E+00  0.1200E+02
    -14.455  0.0000E+00  0.1200E+02
    -14.311  0.0000E+00  0.1200E+02
    -14.167  0.0000E+00  0.1200E+02
    -14.023  0.0000E+00  0.1200E+02
    -13.879  0.1332E-10  0.1200E+02
    -13.735  0.8654E-02  0.1200E+02
    -13.591  0.7947E+01  0.1315E+02
    -13.447  0.5839E+02  0.2156E+02
    -13.303  0.1012E+03  0.3613E+02
    -13.159  0.8191E+02  0.4793E+02
    -13.015  0.4918E+00  0.4800E+02
    -12.871  0.1267E-07  0.4800E+02
    -12.727  0.0000E+00  0.4800E+02
    -12.583  0.0000E+00  0.4800E+02
    -12.439  0.0000E+00  0.4800E+02
    -12.295  0.0000E+00  0.4800E+02
    -12.151  0.0000E+00  0.4800E+02
    -12.007  0.0000E+00  0.4800E+02
    -11.863  0.0000E+00  0.4800E+02
    -11.718  0.0000E+00  0.4800E+02
    -11.574  0.0000E+00  0.4800E+02
    -11.430  0.0000E+00  0.4800E+02
    -11.286  0.0000E+00  0.4800E+02
    -11.142  0.0000E+00  0.4800E+02
    -10.998  0.0000E+00  0.4800E+02
    -10.854  0.0000E+00  0.4800E+02
    -10.710  0.0000E+00  0.4800E+02
    -10.566  0.0000E+00  0.4800E+02
    -10.422  0.0000E+00  0.4800E+02
    -10.278  0.0000E+00  0.4800E+02
    -10.134  0.0000E+00  0.4800E+02
     -9.990  0.0000E+00  0.4800E+02
     -9.846  0.0000E+00  0.4800E+02
     -9.702  0.0000E+00  0.4800E+02
     -9.558  0.0000E+00  0.4800E+02
     -9.414  0.0000E+00  0.4800E+02
     -9.270  0.0000E+00  0.4800E+02
     -9.126  0.0000E+00  0.4800E+02
     -8.982  0.1636E-12  0.4800E+02
     -8.838  0.3429E-03  0.4800E+02
     -8.694  0.3077E+00  0.4804E+02
     -8.550  0.3751E+01  0.4858E+02
     -8.406  0.1021E+02  0.5006E+02
     -8.261  0.1142E+02  0.5170E+02
     -8.117  0.2078E+01  0.5200E+02
     -7.973  0.5560E-03  0.5200E+02
     -7.829  0.0000E+00  0.5200E+02
     -7.685  0.0000E+00  0.5200E+02
     -7.541  0.0000E+00  0.5200E+02
     -7.397  0.9025E-10  0.5200E+02
     -7.253  0.1204E-01  0.5200E+02
     -7.109  0.6369E+01  0.5292E+02
     -6.965  0.1959E+02  0.5574E+02
     -6.821  0.1802E+01  0.5600E+02
     -6.677  0.2424E-03  0.5600E+02
     -6.533  0.0000E+00  0.5600E+02
     -6.389  0.0000E+00  0.5600E+02
     -6.245  0.0000E+00  0.5600E+02
     -6.101  0.0000E+00  0.5600E+02
     -5.957  0.0000E+00  0.5600E+02
     -5.813  0.0000E+00  0.5600E+02
     -5.669  0.0000E+00  0.5600E+02
     -5.525  0.2002E-13  0.5600E+02
     -5.381  0.2145E-03  0.5600E+02
     -5.237  0.4008E+01  0.5658E+02
     -5.093  0.1811E+02  0.5919E+02
     -4.948  0.5648E+01  0.6000E+02
     -4.804  0.3136E-03  0.6000E+02
     -4.660  0.0000E+00  0.6000E+02
     -4.516  0.0000E+00  0.6000E+02
     -4.372  0.0000E+00  0.6000E+02
     -4.228  0.0000E+00  0.6000E+02
     -4.084  0.0000E+00  0.6000E+02
     -3.940  0.0000E+00  0.6000E+02
     -3.796  0.4635E-08  0.6000E+02
     -3.652  0.2191E-01  0.6000E+02
     -3.508  0.1926E+01  0.6028E+02
     -3.364  0.1295E+02  0.6215E+02
     -3.220  0.1223E+02  0.6391E+02
     -3.076  0.6409E+00  0.6400E+02
     -2.932  0.5844E-05  0.6400E+02
     -2.788  0.0000E+00  0.6400E+02
     -2.644  0.0000E+00  0.6400E+02
     -2.500  0.0000E+00  0.6400E+02
     -2.356  0.0000E+00  0.6400E+02
     -2.212  0.0000E+00  0.6400E+02
     -2.068  0.0000E+00  0.6400E+02
     -1.924  0.0000E+00  0.6400E+02
     -1.780  0.0000E+00  0.6400E+02
     -1.635  0.0000E+00  0.6400E+02
     -1.491  0.0000E+00  0.6400E+02
     -1.347  0.0000E+00  0.6400E+02
     -1.203  0.0000E+00  0.6400E+02
     -1.059  0.0000E+00  0.6400E+02
     -0.915  0.3608E-06  0.6400E+02
     -0.771  0.2400E+00  0.6403E+02
     -0.627  0.6466E+01  0.6497E+02
     -0.483  0.1083E+02  0.6653E+02
     -0.339  0.9465E+01  0.6789E+02
     -0.195  0.4426E+01  0.6853E+02
     -0.051  0.9311E+01  0.6987E+02
      0.093  0.1164E+02  0.7154E+02
      0.237  0.9696E+01  0.7294E+02
      0.381  0.1032E+02  0.7443E+02
      0.525  0.7763E+01  0.7555E+02
      0.669  0.2921E+01  0.7597E+02
      0.813  0.3000E+00  0.7601E+02
      0.957  0.3072E+01  0.7645E+02
      1.101  0.1025E+02  0.7793E+02
      1.245  0.1506E+02  0.8010E+02
      1.389  0.1216E+02  0.8185E+02
      1.533  0.1015E+02  0.8331E+02
      1.678  0.4689E+01  0.8399E+02
      1.822  0.5003E+00  0.8406E+02
      1.966  0.6845E+01  0.8505E+02
      2.110  0.1167E+02  0.8673E+02
      2.254  0.6267E+01  0.8763E+02
      2.398  0.5844E+01  0.8847E+02
      2.542  0.5745E+01  0.8930E+02
      2.686  0.7502E+01  0.9038E+02
      2.830  0.1409E+02  0.9241E+02
      2.974  0.1278E+02  0.9425E+02
      3.118  0.1134E+02  0.9588E+02
      3.262  0.1464E+02  0.9799E+02
      3.406  0.8839E+01  0.9926E+02
      3.550  0.4857E+01  0.9996E+02
      3.694  0.2464E+00  0.1000E+03
      3.838  0.5844E-06  0.1000E+03
      3.982  0.0000E+00  0.1000E+03
      4.126  0.0000E+00  0.1000E+03
      4.270  0.4275E-06  0.1000E+03
      4.414  0.7971E-01  0.1000E+03
      4.558  0.6368E+00  0.1001E+03
      4.702  0.3782E+01  0.1006E+03
      4.846  0.4511E+01  0.1013E+03
      4.990  0.7613E+01  0.1024E+03
      5.135  0.3306E+01  0.1029E+03
      5.279  0.5093E+01  0.1036E+03
      5.423  0.7130E+01  0.1046E+03
      5.567  0.1124E+02  0.1063E+03
      5.711  0.9284E+01  0.1076E+03
      5.855  0.8119E+01  0.1088E+03
      5.999  0.1111E+02  0.1104E+03
      6.143  0.9280E+01  0.1117E+03
      6.287  0.7111E+01  0.1127E+03
      6.431  0.7907E+01  0.1139E+03
      6.575  0.9808E+01  0.1153E+03
      6.719  0.1168E+02  0.1170E+03
      6.863  0.1132E+02  0.1186E+03
      7.007  0.1028E+02  0.1201E+03
      7.151  0.1116E+02  0.1217E+03
      7.295  0.8312E+01  0.1229E+03
      7.439  0.1203E+02  0.1246E+03
      7.583  0.1101E+02  0.1262E+03
      7.727  0.7939E+01  0.1273E+03
      7.871  0.3625E+01  0.1278E+03
      8.015  0.1040E+01  0.1280E+03
      8.159  0.2387E-02  0.1280E+03
      8.303  0.5129E-11  0.1280E+03
      8.448  0.0000E+00  0.1280E+03
      8.592  0.0000E+00  0.1280E+03
      8.736  0.0000E+00  0.1280E+03
      8.880  0.0000E+00  0.1280E+03
      9.024  0.0000E+00  0.1280E+03
      9.168  0.0000E+00  0.1280E+03
      9.312  0.0000E+00  0.1280E+03
      9.456  0.0000E+00  0.1280E+03
      9.600  0.0000E+00  0.1280E+03
      9.744  0.0000E+00  0.1280E+03
      9.888  0.0000E+00  0.1280E+03
