Sr6 P8
1.0
   0.0000000000000000    7.1866479999999999    8.7352559999999997
   2.9355229999999999    0.0000000000000000    8.7352559999999997
   2.9355229999999999    7.1866479999999999    0.0000000000000000
Sr P
6 8
direct
   0.5716500000000000    0.0939410000000000    0.4189290000000000 Sr
   0.9125250000000000    0.4276570000000000    0.0909100000000000 Sr
   0.8218420000000000    0.3423650000000000    0.6803370000000000 Sr
   0.1649820000000000    0.6755020000000000    0.3270090000000000 Sr
   0.5084540000000000    0.9970200000000000    0.9896340000000000 Sr
   0.2513750000000000    0.7516150000000000    0.7505190000000000 Sr
   0.0851890000000000    0.4169390000000000    0.5830040000000000 P
   0.9206600000000000    0.5779720000000000    0.4242720000000000 P
   0.6693730000000000    0.3368000000000000    0.1700970000000000 P
   0.8281010000000000    0.1678820000000000    0.3268930000000000 P
   0.5148300000000000    0.8289190000000000    0.6670120000000000 P
   0.9952740000000000    0.6569580000000000    0.8157290000000000 P
   0.4185910000000000    0.7327870000000000    0.2627950000000000 P
   0.5900990000000000    0.2508620000000000    0.7295779999999999 P
