Sr6P8
1.0
      0.0000000       7.1866480       8.7352560
      2.9355230       0.0000000       8.7352560
      2.9355230       7.1866480       0.0000000
  Sr    P   
  6     8   
Direct
      0.5716500       0.0939410       0.4189290
      0.9125250       0.4276570       0.0909100
      0.8218420       0.3423650       0.6803370
      0.1649820       0.6755020       0.3270090
      0.5084540       0.9970200       0.9896340
      0.2513750       0.7516150       0.7505190
      0.0851890       0.4169390       0.5830040
      0.9206600       0.5779720       0.4242720
      0.6693730       0.3368000       0.1700970
      0.8281010       0.1678820       0.3268930
      0.5148300       0.8289190       0.6670120
      0.9952740       0.6569580       0.8157290
      0.4185910       0.7327870       0.2627950
      0.5900990       0.2508620       0.7295780
