Li3 Ag1                                 
   1.00000000000000     
    -2.1091245500000002    2.1091245500000002    3.6685841300000002
     2.1091245500000002   -2.1091245500000002    3.6685841300000002
     2.1091245500000002    2.1091245500000002   -3.6685841300000002
   Li   Ag
     3     1
Direct
     0.2500000000000000    0.7500009999999975    0.5000009999999975
     0.7500009999999975    0.2500000000000000    0.5000009999999975
     0.5000000000000000    0.5000000000000000    0.0000000000000000
     0.0000000000000000    0.0000000000000000    0.0000000000000000
 
  0.00000000E+00  0.00000000E+00  0.00000000E+00
  0.00000000E+00  0.00000000E+00  0.00000000E+00
  0.00000000E+00  0.00000000E+00  0.00000000E+00
  0.00000000E+00  0.00000000E+00  0.00000000E+00
