Re16 Si8                                
   1.00000000000000     
    10.0275940000000006    0.0000000000000000    0.0000000000000000
     0.0000000000000000    5.8585110000000000    0.0000000000000000
     0.0000000000000000    0.4046840000000000    5.9592039999999997
   Re   Si
    16     8
Direct
     0.0695860000000010    0.4240520000000032    0.8096630000000005
     0.5695860000000010    0.5759479999999968    0.6903369999999995
     0.1693890000000025    0.3881519999999981    0.4019260000000031
     0.5317020000000028    0.8836069999999978    0.3251509999999982
     0.6904589999999970    0.2624569999999977    0.4167010000000033
     0.4682979999999972    0.1163930000000022    0.6748490000000018
     0.4304139999999990    0.4240520000000032    0.3096630000000005
     0.3095410000000030    0.7375430000000023    0.5832989999999967
     0.8095410000000030    0.2624569999999977    0.9167010000000033
     0.6693890000000025    0.6118480000000019    0.0980739999999969
     0.9682979999999972    0.8836069999999978    0.8251509999999982
     0.0317020000000028    0.1163930000000022    0.1748490000000018
     0.1904589999999970    0.7375430000000023    0.0832989999999967
     0.8306109999999975    0.6118480000000019    0.5980739999999969
     0.9304139999999990    0.5759479999999968    0.1903369999999995
     0.3306109999999975    0.3881519999999981    0.9019260000000031
     0.2968380000000010    0.0582399999999978    0.2657919999999976
     0.0652029999999968    0.7853130000000021    0.4724000000000004
     0.9347970000000032    0.2146869999999979    0.5275999999999996
     0.4347970000000032    0.7853130000000021    0.9724000000000004
     0.7968380000000010    0.9417600000000022    0.2342080000000024
     0.7031619999999990    0.9417600000000022    0.7342080000000024
     0.2031619999999990    0.0582399999999978    0.7657919999999976
     0.5652029999999968    0.2146869999999979    0.0275999999999996
 
  0.00000000E+00  0.00000000E+00  0.00000000E+00
  0.00000000E+00  0.00000000E+00  0.00000000E+00
  0.00000000E+00  0.00000000E+00  0.00000000E+00
  0.00000000E+00  0.00000000E+00  0.00000000E+00
  0.00000000E+00  0.00000000E+00  0.00000000E+00
  0.00000000E+00  0.00000000E+00  0.00000000E+00
  0.00000000E+00  0.00000000E+00  0.00000000E+00
  0.00000000E+00  0.00000000E+00  0.00000000E+00
  0.00000000E+00  0.00000000E+00  0.00000000E+00
  0.00000000E+00  0.00000000E+00  0.00000000E+00
  0.00000000E+00  0.00000000E+00  0.00000000E+00
  0.00000000E+00  0.00000000E+00  0.00000000E+00
  0.00000000E+00  0.00000000E+00  0.00000000E+00
  0.00000000E+00  0.00000000E+00  0.00000000E+00
  0.00000000E+00  0.00000000E+00  0.00000000E+00
  0.00000000E+00  0.00000000E+00  0.00000000E+00
  0.00000000E+00  0.00000000E+00  0.00000000E+00
  0.00000000E+00  0.00000000E+00  0.00000000E+00
  0.00000000E+00  0.00000000E+00  0.00000000E+00
  0.00000000E+00  0.00000000E+00  0.00000000E+00
  0.00000000E+00  0.00000000E+00  0.00000000E+00
  0.00000000E+00  0.00000000E+00  0.00000000E+00
  0.00000000E+00  0.00000000E+00  0.00000000E+00
  0.00000000E+00  0.00000000E+00  0.00000000E+00
