H8                                      
   1.00000000000000     
     7.1772243400000004    0.0000000000000000    0.0000000000000000
     0.0000000000000000    7.1869279199999996    0.0000000000000000
     0.0000000000000000    0.0000000000000000    7.2081540300000002
   H 
     8
Direct
     0.3655326100000025    0.7217362900000026    0.6472593299999971
     0.8655326100000025    0.7782637099999974    0.3527406700000029
     0.6344673899999975    0.2217362900000026    0.8527406700000029
     0.1344673899999975    0.2782637099999974    0.1472593299999971
     0.6445223500000026    0.1492589599999974    0.7802707100000035
     0.1445223500000026    0.3507410400000026    0.2197292899999965
     0.3554776499999974    0.6492589599999974    0.7197292899999965
     0.8554776499999974    0.8507410400000026    0.2802707100000035
 
  0.00000000E+00  0.00000000E+00  0.00000000E+00
  0.00000000E+00  0.00000000E+00  0.00000000E+00
  0.00000000E+00  0.00000000E+00  0.00000000E+00
  0.00000000E+00  0.00000000E+00  0.00000000E+00
  0.00000000E+00  0.00000000E+00  0.00000000E+00
  0.00000000E+00  0.00000000E+00  0.00000000E+00
  0.00000000E+00  0.00000000E+00  0.00000000E+00
  0.00000000E+00  0.00000000E+00  0.00000000E+00
