   8   8   0   0
  0.4647655E+02  0.7177224E-09  0.7186928E-09  0.7208154E-09  0.5000000E-15
  1.000000000000000E-004
  CAR 
 unknown system                          
      1.46209609    -10.69845034  301     -9.76487505      1.00000000
    -10.698  0.0000E+00  0.0000E+00
    -10.658  0.0000E+00  0.0000E+00
    -10.617  0.0000E+00  0.0000E+00
    -10.577  0.0000E+00  0.0000E+00
    -10.536  0.0000E+00  0.0000E+00
    -10.496  0.0000E+00  0.0000E+00
    -10.455  0.0000E+00  0.0000E+00
    -10.415  0.8593E-13  0.3483E-14
    -10.374  0.3250E-09  0.1318E-10
    -10.334  0.3427E-06  0.1390E-07
    -10.293  0.1037E-03  0.4216E-05
    -10.253  0.9429E-02  0.3864E-03
    -10.212  0.2802E+00  0.1174E-01
    -10.171  0.3094E+01  0.1372E+00
    -10.131  0.1478E+02  0.7364E+00
    -10.090  0.3479E+02  0.2147E+01
    -10.050  0.4832E+02  0.4105E+01
    -10.009  0.5128E+02  0.6184E+01
     -9.969  0.3424E+02  0.7572E+01
     -9.928  0.9599E+01  0.7961E+01
     -9.888  0.9338E+00  0.7999E+01
     -9.847  0.2903E-01  0.8000E+01
     -9.807  0.2743E-03  0.8000E+01
     -9.766  0.7611E-06  0.8000E+01
     -9.726  0.6060E-09  0.8000E+01
     -9.685  0.1349E-12  0.8000E+01
     -9.645  0.0000E+00  0.8000E+01
     -9.604  0.0000E+00  0.8000E+01
     -9.563  0.0000E+00  0.8000E+01
     -9.523  0.0000E+00  0.8000E+01
     -9.482  0.0000E+00  0.8000E+01
     -9.442  0.0000E+00  0.8000E+01
     -9.401  0.0000E+00  0.8000E+01
     -9.361  0.0000E+00  0.8000E+01
     -9.320  0.0000E+00  0.8000E+01
     -9.280  0.0000E+00  0.8000E+01
     -9.239  0.0000E+00  0.8000E+01
     -9.199  0.0000E+00  0.8000E+01
     -9.158  0.0000E+00  0.8000E+01
     -9.118  0.0000E+00  0.8000E+01
     -9.077  0.0000E+00  0.8000E+01
     -9.037  0.0000E+00  0.8000E+01
     -8.996  0.0000E+00  0.8000E+01
     -8.955  0.0000E+00  0.8000E+01
     -8.915  0.0000E+00  0.8000E+01
     -8.874  0.0000E+00  0.8000E+01
     -8.834  0.0000E+00  0.8000E+01
     -8.793  0.0000E+00  0.8000E+01
     -8.753  0.0000E+00  0.8000E+01
     -8.712  0.0000E+00  0.8000E+01
     -8.672  0.0000E+00  0.8000E+01
     -8.631  0.0000E+00  0.8000E+01
     -8.591  0.0000E+00  0.8000E+01
     -8.550  0.0000E+00  0.8000E+01
     -8.510  0.0000E+00  0.8000E+01
     -8.469  0.0000E+00  0.8000E+01
     -8.428  0.0000E+00  0.8000E+01
     -8.388  0.0000E+00  0.8000E+01
     -8.347  0.0000E+00  0.8000E+01
     -8.307  0.0000E+00  0.8000E+01
     -8.266  0.0000E+00  0.8000E+01
     -8.226  0.0000E+00  0.8000E+01
     -8.185  0.0000E+00  0.8000E+01
     -8.145  0.0000E+00  0.8000E+01
     -8.104  0.0000E+00  0.8000E+01
     -8.064  0.0000E+00  0.8000E+01
     -8.023  0.0000E+00  0.8000E+01
     -7.983  0.0000E+00  0.8000E+01
     -7.942  0.0000E+00  0.8000E+01
     -7.902  0.0000E+00  0.8000E+01
     -7.861  0.0000E+00  0.8000E+01
     -7.820  0.0000E+00  0.8000E+01
     -7.780  0.0000E+00  0.8000E+01
     -7.739  0.0000E+00  0.8000E+01
     -7.699  0.0000E+00  0.8000E+01
     -7.658  0.0000E+00  0.8000E+01
     -7.618  0.0000E+00  0.8000E+01
     -7.577  0.0000E+00  0.8000E+01
     -7.537  0.0000E+00  0.8000E+01
     -7.496  0.0000E+00  0.8000E+01
     -7.456  0.0000E+00  0.8000E+01
     -7.415  0.0000E+00  0.8000E+01
     -7.375  0.0000E+00  0.8000E+01
     -7.334  0.0000E+00  0.8000E+01
     -7.293  0.0000E+00  0.8000E+01
     -7.253  0.0000E+00  0.8000E+01
     -7.212  0.0000E+00  0.8000E+01
     -7.172  0.0000E+00  0.8000E+01
     -7.131  0.0000E+00  0.8000E+01
     -7.091  0.0000E+00  0.8000E+01
     -7.050  0.0000E+00  0.8000E+01
     -7.010  0.0000E+00  0.8000E+01
     -6.969  0.0000E+00  0.8000E+01
     -6.929  0.0000E+00  0.8000E+01
     -6.888  0.0000E+00  0.8000E+01
     -6.848  0.0000E+00  0.8000E+01
     -6.807  0.0000E+00  0.8000E+01
     -6.767  0.0000E+00  0.8000E+01
     -6.726  0.0000E+00  0.8000E+01
     -6.685  0.0000E+00  0.8000E+01
     -6.645  0.0000E+00  0.8000E+01
     -6.604  0.0000E+00  0.8000E+01
     -6.564  0.0000E+00  0.8000E+01
     -6.523  0.0000E+00  0.8000E+01
     -6.483  0.0000E+00  0.8000E+01
     -6.442  0.0000E+00  0.8000E+01
     -6.402  0.0000E+00  0.8000E+01
     -6.361  0.0000E+00  0.8000E+01
     -6.321  0.0000E+00  0.8000E+01
     -6.280  0.0000E+00  0.8000E+01
     -6.240  0.0000E+00  0.8000E+01
     -6.199  0.0000E+00  0.8000E+01
     -6.159  0.0000E+00  0.8000E+01
     -6.118  0.0000E+00  0.8000E+01
     -6.077  0.0000E+00  0.8000E+01
     -6.037  0.0000E+00  0.8000E+01
     -5.996  0.0000E+00  0.8000E+01
     -5.956  0.0000E+00  0.8000E+01
     -5.915  0.0000E+00  0.8000E+01
     -5.875  0.0000E+00  0.8000E+01
     -5.834  0.0000E+00  0.8000E+01
     -5.794  0.0000E+00  0.8000E+01
     -5.753  0.0000E+00  0.8000E+01
     -5.713  0.0000E+00  0.8000E+01
     -5.672  0.0000E+00  0.8000E+01
     -5.632  0.0000E+00  0.8000E+01
     -5.591  0.0000E+00  0.8000E+01
     -5.550  0.0000E+00  0.8000E+01
     -5.510  0.0000E+00  0.8000E+01
     -5.469  0.0000E+00  0.8000E+01
     -5.429  0.0000E+00  0.8000E+01
     -5.388  0.0000E+00  0.8000E+01
     -5.348  0.0000E+00  0.8000E+01
     -5.307  0.0000E+00  0.8000E+01
     -5.267  0.0000E+00  0.8000E+01
     -5.226  0.0000E+00  0.8000E+01
     -5.186  0.0000E+00  0.8000E+01
     -5.145  0.0000E+00  0.8000E+01
     -5.105  0.0000E+00  0.8000E+01
     -5.064  0.0000E+00  0.8000E+01
     -5.024  0.0000E+00  0.8000E+01
     -4.983  0.0000E+00  0.8000E+01
     -4.942  0.0000E+00  0.8000E+01
     -4.902  0.0000E+00  0.8000E+01
     -4.861  0.0000E+00  0.8000E+01
     -4.821  0.0000E+00  0.8000E+01
     -4.780  0.0000E+00  0.8000E+01
     -4.740  0.0000E+00  0.8000E+01
     -4.699  0.0000E+00  0.8000E+01
     -4.659  0.0000E+00  0.8000E+01
     -4.618  0.0000E+00  0.8000E+01
     -4.578  0.0000E+00  0.8000E+01
     -4.537  0.0000E+00  0.8000E+01
     -4.497  0.0000E+00  0.8000E+01
     -4.456  0.0000E+00  0.8000E+01
     -4.416  0.0000E+00  0.8000E+01
     -4.375  0.0000E+00  0.8000E+01
     -4.334  0.0000E+00  0.8000E+01
     -4.294  0.0000E+00  0.8000E+01
     -4.253  0.0000E+00  0.8000E+01
     -4.213  0.0000E+00  0.8000E+01
     -4.172  0.0000E+00  0.8000E+01
     -4.132  0.0000E+00  0.8000E+01
     -4.091  0.0000E+00  0.8000E+01
     -4.051  0.0000E+00  0.8000E+01
     -4.010  0.0000E+00  0.8000E+01
     -3.970  0.0000E+00  0.8000E+01
     -3.929  0.0000E+00  0.8000E+01
     -3.889  0.0000E+00  0.8000E+01
     -3.848  0.0000E+00  0.8000E+01
     -3.807  0.0000E+00  0.8000E+01
     -3.767  0.0000E+00  0.8000E+01
     -3.726  0.0000E+00  0.8000E+01
     -3.686  0.0000E+00  0.8000E+01
     -3.645  0.0000E+00  0.8000E+01
     -3.605  0.0000E+00  0.8000E+01
     -3.564  0.0000E+00  0.8000E+01
     -3.524  0.0000E+00  0.8000E+01
     -3.483  0.0000E+00  0.8000E+01
     -3.443  0.0000E+00  0.8000E+01
     -3.402  0.0000E+00  0.8000E+01
     -3.362  0.0000E+00  0.8000E+01
     -3.321  0.0000E+00  0.8000E+01
     -3.281  0.0000E+00  0.8000E+01
     -3.240  0.0000E+00  0.8000E+01
     -3.199  0.0000E+00  0.8000E+01
     -3.159  0.0000E+00  0.8000E+01
     -3.118  0.0000E+00  0.8000E+01
     -3.078  0.0000E+00  0.8000E+01
     -3.037  0.0000E+00  0.8000E+01
     -2.997  0.0000E+00  0.8000E+01
     -2.956  0.0000E+00  0.8000E+01
     -2.916  0.0000E+00  0.8000E+01
     -2.875  0.0000E+00  0.8000E+01
     -2.835  0.0000E+00  0.8000E+01
     -2.794  0.0000E+00  0.8000E+01
     -2.754  0.0000E+00  0.8000E+01
     -2.713  0.0000E+00  0.8000E+01
     -2.672  0.0000E+00  0.8000E+01
     -2.632  0.0000E+00  0.8000E+01
     -2.591  0.0000E+00  0.8000E+01
     -2.551  0.0000E+00  0.8000E+01
     -2.510  0.0000E+00  0.8000E+01
     -2.470  0.0000E+00  0.8000E+01
     -2.429  0.0000E+00  0.8000E+01
     -2.389  0.0000E+00  0.8000E+01
     -2.348  0.0000E+00  0.8000E+01
     -2.308  0.0000E+00  0.8000E+01
     -2.267  0.0000E+00  0.8000E+01
     -2.227  0.0000E+00  0.8000E+01
     -2.186  0.0000E+00  0.8000E+01
     -2.146  0.0000E+00  0.8000E+01
     -2.105  0.0000E+00  0.8000E+01
     -2.064  0.0000E+00  0.8000E+01
     -2.024  0.0000E+00  0.8000E+01
     -1.983  0.0000E+00  0.8000E+01
     -1.943  0.0000E+00  0.8000E+01
     -1.902  0.0000E+00  0.8000E+01
     -1.862  0.0000E+00  0.8000E+01
     -1.821  0.0000E+00  0.8000E+01
     -1.781  0.0000E+00  0.8000E+01
     -1.740  0.0000E+00  0.8000E+01
     -1.700  0.0000E+00  0.8000E+01
     -1.659  0.0000E+00  0.8000E+01
     -1.619  0.0000E+00  0.8000E+01
     -1.578  0.0000E+00  0.8000E+01
     -1.538  0.0000E+00  0.8000E+01
     -1.497  0.0000E+00  0.8000E+01
     -1.456  0.0000E+00  0.8000E+01
     -1.416  0.0000E+00  0.8000E+01
     -1.375  0.0000E+00  0.8000E+01
     -1.335  0.0000E+00  0.8000E+01
     -1.294  0.0000E+00  0.8000E+01
     -1.254  0.0000E+00  0.8000E+01
     -1.213  0.0000E+00  0.8000E+01
     -1.173  0.0000E+00  0.8000E+01
     -1.132  0.0000E+00  0.8000E+01
     -1.092  0.0000E+00  0.8000E+01
     -1.051  0.0000E+00  0.8000E+01
     -1.011  0.0000E+00  0.8000E+01
     -0.970  0.0000E+00  0.8000E+01
     -0.929  0.0000E+00  0.8000E+01
     -0.889  0.0000E+00  0.8000E+01
     -0.848  0.0000E+00  0.8000E+01
     -0.808  0.0000E+00  0.8000E+01
     -0.767  0.0000E+00  0.8000E+01
     -0.727  0.0000E+00  0.8000E+01
     -0.686  0.0000E+00  0.8000E+01
     -0.646  0.0000E+00  0.8000E+01
     -0.605  0.0000E+00  0.8000E+01
     -0.565  0.0000E+00  0.8000E+01
     -0.524  0.0000E+00  0.8000E+01
     -0.484  0.2054E-13  0.8000E+01
     -0.443  0.9571E-10  0.8000E+01
     -0.403  0.1250E-06  0.8000E+01
     -0.362  0.4628E-04  0.8000E+01
     -0.321  0.4975E-02  0.8000E+01
     -0.281  0.1613E+00  0.8007E+01
     -0.240  0.1671E+01  0.8074E+01
     -0.200  0.6195E+01  0.8326E+01
     -0.159  0.1087E+02  0.8766E+01
     -0.119  0.1431E+02  0.9346E+01
     -0.078  0.1574E+02  0.9984E+01
     -0.038  0.1335E+02  0.1053E+02
      0.003  0.9484E+01  0.1091E+02
      0.043  0.7067E+01  0.1120E+02
      0.084  0.5980E+01  0.1144E+02
      0.124  0.4262E+01  0.1161E+02
      0.165  0.2847E+01  0.1173E+02
      0.206  0.2838E+01  0.1184E+02
      0.246  0.6045E+01  0.1209E+02
      0.287  0.7090E+01  0.1237E+02
      0.327  0.6613E+01  0.1264E+02
      0.368  0.8516E+01  0.1299E+02
      0.408  0.8204E+01  0.1332E+02
      0.449  0.7064E+01  0.1361E+02
      0.489  0.6710E+01  0.1388E+02
      0.530  0.6001E+01  0.1412E+02
      0.570  0.6863E+01  0.1440E+02
      0.611  0.6860E+01  0.1468E+02
      0.651  0.5578E+01  0.1490E+02
      0.692  0.3730E+01  0.1506E+02
      0.732  0.4914E+01  0.1525E+02
      0.773  0.6501E+01  0.1552E+02
      0.814  0.4419E+01  0.1570E+02
      0.854  0.1546E+01  0.1576E+02
      0.895  0.1837E+01  0.1583E+02
      0.935  0.2648E+01  0.1594E+02
      0.976  0.1249E+01  0.1599E+02
      1.016  0.1793E+00  0.1600E+02
      1.057  0.7634E-02  0.1600E+02
      1.097  0.9397E-04  0.1600E+02
      1.138  0.3275E-06  0.1600E+02
      1.178  0.3183E-09  0.1600E+02
      1.219  0.8491E-13  0.1600E+02
      1.259  0.0000E+00  0.1600E+02
      1.300  0.0000E+00  0.1600E+02
      1.340  0.0000E+00  0.1600E+02
      1.381  0.0000E+00  0.1600E+02
      1.422  0.0000E+00  0.1600E+02
      1.462  0.0000E+00  0.1600E+02
