unknown system                          
           1
     7.177224    0.000000    0.000000
     0.000000    7.186928    0.000000
     0.000000    0.000000    7.208154
   H 
     8
Direct configuration=     1
   0.36553261  0.72173629  0.64725933
   0.86553261  0.77826371  0.35274067
   0.63446739  0.22173629  0.85274067
   0.13446739  0.27826371  0.14725933
   0.64452235  0.14925896  0.78027071
   0.14452235  0.35074104  0.21972929
   0.35547765  0.64925896  0.71972929
   0.85547765  0.85074104  0.28027071
