Sr2 Si2                                 
   1.00000000000000     
     4.0558239299999999    0.0000000000000000    0.0000000000000000
     0.0000000000000000    4.4429851800000000   -1.8913155800000001
     0.0000000000000000   -0.0048013100000000    6.1530016600000002
   Sr   Si
     2     2
Direct
     0.2500000000000000    0.6387113299999996    0.2774216500000009
     0.7500000000000000    0.3612886700000004    0.7225783499999991
     0.2500000000000000    0.9362947999999989    0.8725875900000020
     0.7500000000000000    0.0637052000000011    0.1274124099999980
 
  0.00000000E+00  0.00000000E+00  0.00000000E+00
  0.00000000E+00  0.00000000E+00  0.00000000E+00
  0.00000000E+00  0.00000000E+00  0.00000000E+00
  0.00000000E+00  0.00000000E+00  0.00000000E+00
