   4   4   0   0
  0.3760613E+02  0.5969591E-09  0.5969591E-09  0.5969591E-09  0.5000000E-15
  1.000000000000000E-004
  CAR 
 unknown system                          
      7.04899595    -28.82394749  301      1.72410591      1.00000000
    -28.824  0.0000E+00  0.0000E+00
    -28.704  0.0000E+00  0.0000E+00
    -28.585  0.0000E+00  0.0000E+00
    -28.465  0.0000E+00  0.0000E+00
    -28.346  0.0000E+00  0.0000E+00
    -28.226  0.0000E+00  0.0000E+00
    -28.106  0.0000E+00  0.0000E+00
    -27.987  0.0000E+00  0.0000E+00
    -27.867  0.0000E+00  0.0000E+00
    -27.748  0.0000E+00  0.0000E+00
    -27.628  0.0000E+00  0.0000E+00
    -27.509  0.0000E+00  0.0000E+00
    -27.389  0.9727E-07  0.1163E-07
    -27.269  0.1665E+00  0.1990E-01
    -27.150  0.1410E+02  0.1706E+01
    -27.030  0.2459E+01  0.2000E+01
    -26.911  0.7973E-04  0.2000E+01
    -26.791  0.4816E-13  0.2000E+01
    -26.672  0.0000E+00  0.2000E+01
    -26.552  0.0000E+00  0.2000E+01
    -26.432  0.0000E+00  0.2000E+01
    -26.313  0.2236E-08  0.2000E+01
    -26.193  0.3323E-01  0.2004E+01
    -26.074  0.1960E+02  0.4348E+01
    -25.954  0.1381E+02  0.5999E+01
    -25.835  0.7258E-02  0.6000E+01
    -25.715  0.1522E-09  0.6000E+01
    -25.595  0.0000E+00  0.6000E+01
    -25.476  0.0000E+00  0.6000E+01
    -25.356  0.0000E+00  0.6000E+01
    -25.237  0.0000E+00  0.6000E+01
    -25.117  0.0000E+00  0.6000E+01
    -24.998  0.0000E+00  0.6000E+01
    -24.878  0.0000E+00  0.6000E+01
    -24.758  0.0000E+00  0.6000E+01
    -24.639  0.0000E+00  0.6000E+01
    -24.519  0.0000E+00  0.6000E+01
    -24.400  0.0000E+00  0.6000E+01
    -24.280  0.0000E+00  0.6000E+01
    -24.160  0.0000E+00  0.6000E+01
    -24.041  0.0000E+00  0.6000E+01
    -23.921  0.0000E+00  0.6000E+01
    -23.802  0.0000E+00  0.6000E+01
    -23.682  0.0000E+00  0.6000E+01
    -23.563  0.0000E+00  0.6000E+01
    -23.443  0.0000E+00  0.6000E+01
    -23.323  0.0000E+00  0.6000E+01
    -23.204  0.0000E+00  0.6000E+01
    -23.084  0.0000E+00  0.6000E+01
    -22.965  0.0000E+00  0.6000E+01
    -22.845  0.0000E+00  0.6000E+01
    -22.726  0.0000E+00  0.6000E+01
    -22.606  0.0000E+00  0.6000E+01
    -22.486  0.0000E+00  0.6000E+01
    -22.367  0.0000E+00  0.6000E+01
    -22.247  0.0000E+00  0.6000E+01
    -22.128  0.0000E+00  0.6000E+01
    -22.008  0.0000E+00  0.6000E+01
    -21.889  0.0000E+00  0.6000E+01
    -21.769  0.0000E+00  0.6000E+01
    -21.649  0.0000E+00  0.6000E+01
    -21.530  0.0000E+00  0.6000E+01
    -21.410  0.0000E+00  0.6000E+01
    -21.291  0.0000E+00  0.6000E+01
    -21.171  0.0000E+00  0.6000E+01
    -21.051  0.0000E+00  0.6000E+01
    -20.932  0.0000E+00  0.6000E+01
    -20.812  0.0000E+00  0.6000E+01
    -20.693  0.0000E+00  0.6000E+01
    -20.573  0.0000E+00  0.6000E+01
    -20.454  0.0000E+00  0.6000E+01
    -20.334  0.0000E+00  0.6000E+01
    -20.214  0.0000E+00  0.6000E+01
    -20.095  0.0000E+00  0.6000E+01
    -19.975  0.0000E+00  0.6000E+01
    -19.856  0.0000E+00  0.6000E+01
    -19.736  0.0000E+00  0.6000E+01
    -19.617  0.0000E+00  0.6000E+01
    -19.497  0.0000E+00  0.6000E+01
    -19.377  0.0000E+00  0.6000E+01
    -19.258  0.0000E+00  0.6000E+01
    -19.138  0.0000E+00  0.6000E+01
    -19.019  0.0000E+00  0.6000E+01
    -18.899  0.0000E+00  0.6000E+01
    -18.780  0.0000E+00  0.6000E+01
    -18.660  0.0000E+00  0.6000E+01
    -18.540  0.0000E+00  0.6000E+01
    -18.421  0.0000E+00  0.6000E+01
    -18.301  0.0000E+00  0.6000E+01
    -18.182  0.0000E+00  0.6000E+01
    -18.062  0.0000E+00  0.6000E+01
    -17.942  0.0000E+00  0.6000E+01
    -17.823  0.0000E+00  0.6000E+01
    -17.703  0.0000E+00  0.6000E+01
    -17.584  0.0000E+00  0.6000E+01
    -17.464  0.0000E+00  0.6000E+01
    -17.345  0.0000E+00  0.6000E+01
    -17.225  0.0000E+00  0.6000E+01
    -17.105  0.0000E+00  0.6000E+01
    -16.986  0.0000E+00  0.6000E+01
    -16.866  0.0000E+00  0.6000E+01
    -16.747  0.0000E+00  0.6000E+01
    -16.627  0.0000E+00  0.6000E+01
    -16.508  0.0000E+00  0.6000E+01
    -16.388  0.0000E+00  0.6000E+01
    -16.268  0.0000E+00  0.6000E+01
    -16.149  0.0000E+00  0.6000E+01
    -16.029  0.0000E+00  0.6000E+01
    -15.910  0.0000E+00  0.6000E+01
    -15.790  0.0000E+00  0.6000E+01
    -15.671  0.0000E+00  0.6000E+01
    -15.551  0.0000E+00  0.6000E+01
    -15.431  0.0000E+00  0.6000E+01
    -15.312  0.0000E+00  0.6000E+01
    -15.192  0.0000E+00  0.6000E+01
    -15.073  0.0000E+00  0.6000E+01
    -14.953  0.0000E+00  0.6000E+01
    -14.833  0.0000E+00  0.6000E+01
    -14.714  0.0000E+00  0.6000E+01
    -14.594  0.0000E+00  0.6000E+01
    -14.475  0.0000E+00  0.6000E+01
    -14.355  0.0000E+00  0.6000E+01
    -14.236  0.0000E+00  0.6000E+01
    -14.116  0.0000E+00  0.6000E+01
    -13.996  0.0000E+00  0.6000E+01
    -13.877  0.0000E+00  0.6000E+01
    -13.757  0.0000E+00  0.6000E+01
    -13.638  0.0000E+00  0.6000E+01
    -13.518  0.0000E+00  0.6000E+01
    -13.399  0.0000E+00  0.6000E+01
    -13.279  0.0000E+00  0.6000E+01
    -13.159  0.0000E+00  0.6000E+01
    -13.040  0.0000E+00  0.6000E+01
    -12.920  0.0000E+00  0.6000E+01
    -12.801  0.0000E+00  0.6000E+01
    -12.681  0.0000E+00  0.6000E+01
    -12.562  0.0000E+00  0.6000E+01
    -12.442  0.0000E+00  0.6000E+01
    -12.322  0.0000E+00  0.6000E+01
    -12.203  0.0000E+00  0.6000E+01
    -12.083  0.0000E+00  0.6000E+01
    -11.964  0.0000E+00  0.6000E+01
    -11.844  0.0000E+00  0.6000E+01
    -11.725  0.4421E-13  0.6000E+01
    -11.605  0.5349E-04  0.6000E+01
    -11.485  0.1715E+01  0.6205E+01
    -11.366  0.3588E+02  0.1050E+02
    -11.246  0.1254E+02  0.1200E+02
    -11.127  0.3828E-01  0.1200E+02
    -11.007  0.3901E-07  0.1200E+02
    -10.887  0.0000E+00  0.1200E+02
    -10.768  0.0000E+00  0.1200E+02
    -10.648  0.1594E-09  0.1200E+02
    -10.529  0.2829E-02  0.1200E+02
    -10.409  0.2238E+01  0.1227E+02
    -10.290  0.1571E+02  0.1415E+02
    -10.170  0.3613E+02  0.1847E+02
    -10.050  0.4028E+02  0.2328E+02
     -9.931  0.5992E+01  0.2400E+02
     -9.811  0.8671E-03  0.2400E+02
     -9.692  0.6198E-11  0.2400E+02
     -9.572  0.0000E+00  0.2400E+02
     -9.453  0.0000E+00  0.2400E+02
     -9.333  0.0000E+00  0.2400E+02
     -9.213  0.0000E+00  0.2400E+02
     -9.094  0.0000E+00  0.2400E+02
     -8.974  0.0000E+00  0.2400E+02
     -8.855  0.0000E+00  0.2400E+02
     -8.735  0.0000E+00  0.2400E+02
     -8.616  0.0000E+00  0.2400E+02
     -8.496  0.0000E+00  0.2400E+02
     -8.376  0.0000E+00  0.2400E+02
     -8.257  0.0000E+00  0.2400E+02
     -8.137  0.0000E+00  0.2400E+02
     -8.018  0.0000E+00  0.2400E+02
     -7.898  0.0000E+00  0.2400E+02
     -7.778  0.0000E+00  0.2400E+02
     -7.659  0.0000E+00  0.2400E+02
     -7.539  0.0000E+00  0.2400E+02
     -7.420  0.0000E+00  0.2400E+02
     -7.300  0.0000E+00  0.2400E+02
     -7.181  0.0000E+00  0.2400E+02
     -7.061  0.0000E+00  0.2400E+02
     -6.941  0.0000E+00  0.2400E+02
     -6.822  0.0000E+00  0.2400E+02
     -6.702  0.0000E+00  0.2400E+02
     -6.583  0.0000E+00  0.2400E+02
     -6.463  0.0000E+00  0.2400E+02
     -6.344  0.4536E-10  0.2400E+02
     -6.224  0.3556E-03  0.2400E+02
     -6.104  0.2399E+00  0.2403E+02
     -5.985  0.5176E+01  0.2465E+02
     -5.865  0.1117E+02  0.2598E+02
     -5.746  0.1432E+00  0.2600E+02
     -5.626  0.1576E-06  0.2600E+02
     -5.507  0.0000E+00  0.2600E+02
     -5.387  0.0000E+00  0.2600E+02
     -5.267  0.0000E+00  0.2600E+02
     -5.148  0.0000E+00  0.2600E+02
     -5.028  0.0000E+00  0.2600E+02
     -4.909  0.0000E+00  0.2600E+02
     -4.789  0.0000E+00  0.2600E+02
     -4.669  0.0000E+00  0.2600E+02
     -4.550  0.0000E+00  0.2600E+02
     -4.430  0.0000E+00  0.2600E+02
     -4.311  0.0000E+00  0.2600E+02
     -4.191  0.0000E+00  0.2600E+02
     -4.072  0.0000E+00  0.2600E+02
     -3.952  0.0000E+00  0.2600E+02
     -3.832  0.0000E+00  0.2600E+02
     -3.713  0.0000E+00  0.2600E+02
     -3.593  0.0000E+00  0.2600E+02
     -3.474  0.0000E+00  0.2600E+02
     -3.354  0.0000E+00  0.2600E+02
     -3.235  0.0000E+00  0.2600E+02
     -3.115  0.0000E+00  0.2600E+02
     -2.995  0.0000E+00  0.2600E+02
     -2.876  0.0000E+00  0.2600E+02
     -2.756  0.0000E+00  0.2600E+02
     -2.637  0.0000E+00  0.2600E+02
     -2.517  0.0000E+00  0.2600E+02
     -2.398  0.0000E+00  0.2600E+02
     -2.278  0.0000E+00  0.2600E+02
     -2.158  0.0000E+00  0.2600E+02
     -2.039  0.0000E+00  0.2600E+02
     -1.919  0.0000E+00  0.2600E+02
     -1.800  0.0000E+00  0.2600E+02
     -1.680  0.0000E+00  0.2600E+02
     -1.561  0.0000E+00  0.2600E+02
     -1.441  0.0000E+00  0.2600E+02
     -1.321  0.0000E+00  0.2600E+02
     -1.202  0.0000E+00  0.2600E+02
     -1.082  0.0000E+00  0.2600E+02
     -0.963  0.0000E+00  0.2600E+02
     -0.843  0.0000E+00  0.2600E+02
     -0.723  0.0000E+00  0.2600E+02
     -0.604  0.0000E+00  0.2600E+02
     -0.484  0.0000E+00  0.2600E+02
     -0.365  0.0000E+00  0.2600E+02
     -0.245  0.0000E+00  0.2600E+02
     -0.126  0.0000E+00  0.2600E+02
     -0.006  0.0000E+00  0.2600E+02
      0.114  0.0000E+00  0.2600E+02
      0.233  0.0000E+00  0.2600E+02
      0.353  0.2607E-08  0.2600E+02
      0.472  0.1206E-01  0.2600E+02
      0.592  0.3783E+01  0.2645E+02
      0.711  0.4923E+01  0.2704E+02
      0.831  0.7382E+01  0.2793E+02
      0.951  0.4918E+00  0.2798E+02
      1.070  0.1830E+00  0.2801E+02
      1.190  0.6521E+01  0.2879E+02
      1.309  0.1388E+02  0.3045E+02
      1.429  0.1017E+02  0.3166E+02
      1.548  0.2699E+01  0.3198E+02
      1.668  0.1282E+00  0.3200E+02
      1.788  0.6510E-05  0.3200E+02
      1.907  0.3807E-01  0.3200E+02
      2.027  0.9540E-01  0.3202E+02
      2.146  0.3286E-03  0.3202E+02
      2.266  0.3902E-10  0.3202E+02
      2.386  0.0000E+00  0.3202E+02
      2.505  0.0000E+00  0.3202E+02
      2.625  0.0000E+00  0.3202E+02
      2.744  0.5501E-08  0.3202E+02
      2.864  0.1021E-01  0.3202E+02
      2.983  0.9566E+00  0.3213E+02
      3.103  0.8839E+00  0.3224E+02
      3.223  0.2260E-01  0.3224E+02
      3.342  0.6684E-01  0.3225E+02
      3.462  0.2124E+01  0.3250E+02
      3.581  0.2715E+01  0.3283E+02
      3.701  0.4075E+01  0.3331E+02
      3.820  0.3788E+01  0.3377E+02
      3.940  0.2158E+01  0.3402E+02
      4.060  0.4377E+01  0.3455E+02
      4.179  0.3795E+01  0.3500E+02
      4.299  0.5630E+01  0.3568E+02
      4.418  0.3612E+01  0.3611E+02
      4.538  0.1073E+01  0.3624E+02
      4.657  0.9194E+01  0.3733E+02
      4.777  0.2400E+01  0.3762E+02
      4.897  0.3306E+01  0.3802E+02
      5.016  0.6187E+01  0.3876E+02
      5.136  0.6687E+01  0.3956E+02
      5.255  0.2366E+01  0.3984E+02
      5.375  0.1217E+01  0.3999E+02
      5.495  0.1215E+00  0.4000E+02
      5.614  0.2099E-02  0.4000E+02
      5.734  0.2089E-08  0.4000E+02
      5.853  0.0000E+00  0.4000E+02
      5.973  0.0000E+00  0.4000E+02
      6.092  0.0000E+00  0.4000E+02
      6.212  0.0000E+00  0.4000E+02
      6.332  0.0000E+00  0.4000E+02
      6.451  0.0000E+00  0.4000E+02
      6.571  0.0000E+00  0.4000E+02
      6.690  0.0000E+00  0.4000E+02
      6.810  0.0000E+00  0.4000E+02
      6.929  0.0000E+00  0.4000E+02
      7.049  0.0000E+00  0.4000E+02
