       N       E                     dE             d eps       ncg     rms          rms(c)
DAV:   1     0.632929236691E+03    0.63293E+03   -0.29164E+04  1512   0.152E+03
DAV:   2     0.795216626909E+02   -0.55341E+03   -0.55030E+03  1872   0.305E+02
DAV:   3    -0.473979215658E+01   -0.84261E+02   -0.83965E+02  1976   0.107E+02
DAV:   4    -0.739428398734E+01   -0.26545E+01   -0.26414E+01  1744   0.246E+01
DAV:   5    -0.752753748001E+01   -0.13325E+00   -0.13324E+00  2248   0.383E+00    0.330E+00
DAV:   6    -0.753427283163E+01   -0.67354E-02   -0.29375E-02  1688   0.901E-01    0.199E+00
DAV:   7    -0.754244765321E+01   -0.81748E-02   -0.26498E-02  1896   0.656E-01    0.135E-01
DAV:   8    -0.754341498930E+01   -0.96734E-03   -0.17056E-03  1832   0.190E-01    0.299E-02
DAV:   9    -0.754349157453E+01   -0.76585E-04   -0.66468E-05  2056   0.362E-02    0.158E-02
DAV:  10    -0.754350586278E+01   -0.14288E-04   -0.39097E-05  1664   0.247E-02    0.245E-03
DAV:  11    -0.754350602717E+01   -0.16439E-06   -0.18411E-06  1096   0.444E-03
   1 F= -.75435060E+01 E0= -.75407301E+01  d E =-.555185E-02
