Rb8
1.0
      8.2076700       0.2911710      -0.0085127
     -0.3472659       8.1734724      -0.0812684
     -3.9054918      -4.2558679      11.2902180
  Rb  
  8   
Direct
      0.4339879       0.6880098       0.8747811
      0.0580948       0.8103278       0.1233907
      0.3095971       0.0660362       0.6253119
      0.5587145       0.3103161       0.1248489
      0.6822491       0.9334289       0.3735420
      0.1859536       0.4429199       0.3777466
      0.9333904       0.1840825       0.8750122
      0.8078816       0.5566438       0.6237205
