   6   6   0   0
  0.1439853E+02  0.9101745E-09  0.9101745E-09  0.9101745E-09  0.5000000E-15
  1.000000000000000E-004
  CAR 
 unknown system                          
     32.43355500     -3.04124086  301      8.67884181      1.00000000
     -3.041  0.0000E+00  0.0000E+00
     -2.923  0.0000E+00  0.0000E+00
     -2.805  0.0000E+00  0.0000E+00
     -2.686  0.0000E+00  0.0000E+00
     -2.568  0.0000E+00  0.0000E+00
     -2.450  0.0000E+00  0.0000E+00
     -2.332  0.0000E+00  0.0000E+00
     -2.213  0.0000E+00  0.0000E+00
     -2.095  0.0000E+00  0.0000E+00
     -1.977  0.0000E+00  0.0000E+00
     -1.859  0.0000E+00  0.0000E+00
     -1.740  0.0000E+00  0.0000E+00
     -1.622  0.4785E-08  0.5659E-09
     -1.504  0.4958E-02  0.5862E-03
     -1.386  0.3891E+00  0.4660E-01
     -1.268  0.7573E-01  0.5556E-01
     -1.149  0.1543E-02  0.5574E-01
     -1.031  0.1059E+01  0.1810E+00
     -0.913  0.8180E+00  0.2777E+00
     -0.795  0.4443E-02  0.2782E+00
     -0.676  0.1266E+01  0.4280E+00
     -0.558  0.6089E+00  0.5000E+00
     -0.440  0.1505E-03  0.5000E+00
     -0.322  0.1204E-11  0.5000E+00
     -0.203  0.1977E-07  0.5000E+00
     -0.085  0.2229E-01  0.5026E+00
      0.033  0.1866E+01  0.7233E+00
      0.151  0.2676E+01  0.1040E+01
      0.270  0.4353E+01  0.1555E+01
      0.388  0.9482E+00  0.1667E+01
      0.506  0.2401E-03  0.1667E+01
      0.624  0.3890E-02  0.1667E+01
      0.743  0.1280E+01  0.1819E+01
      0.861  0.5948E+00  0.1889E+01
      0.979  0.1729E-01  0.1891E+01
      1.097  0.8238E+00  0.1988E+01
      1.216  0.9862E-01  0.2000E+01
      1.334  0.2001E-05  0.2000E+01
      1.452  0.9389E-15  0.2000E+01
      1.570  0.0000E+00  0.2000E+01
      1.689  0.4617E-11  0.2000E+01
      1.807  0.2496E-03  0.2000E+01
      1.925  0.4248E+00  0.2050E+01
      2.043  0.5140E+00  0.2111E+01
      2.162  0.5923E-03  0.2111E+01
      2.280  0.4217E-03  0.2111E+01
      2.398  0.8664E+00  0.2214E+01
      2.516  0.1209E+01  0.2357E+01
      2.635  0.1215E+00  0.2371E+01
      2.753  0.5196E+00  0.2432E+01
      2.871  0.3402E+01  0.2835E+01
      2.989  0.3311E+01  0.3226E+01
      3.108  0.2232E+01  0.3490E+01
      3.226  0.4328E+01  0.4002E+01
      3.344  0.5120E+01  0.4607E+01
      3.462  0.2526E+01  0.4906E+01
      3.581  0.3644E+01  0.5337E+01
      3.699  0.6968E+01  0.6161E+01
      3.817  0.5361E+01  0.6795E+01
      3.935  0.5546E+01  0.7451E+01
      4.054  0.4644E+01  0.8000E+01
      4.172  0.4379E+01  0.8518E+01
      4.290  0.3965E+01  0.8986E+01
      4.408  0.7203E+01  0.9838E+01
      4.527  0.1192E+02  0.1125E+02
      4.645  0.1140E+02  0.1260E+02
      4.763  0.6890E+01  0.1341E+02
      4.881  0.8037E+01  0.1436E+02
      5.000  0.1130E+02  0.1570E+02
      5.118  0.1292E+02  0.1723E+02
      5.236  0.1046E+02  0.1846E+02
      5.354  0.1313E+02  0.2002E+02
      5.473  0.1476E+02  0.2176E+02
      5.591  0.1711E+02  0.2378E+02
      5.709  0.8951E+01  0.2484E+02
      5.827  0.9468E+01  0.2596E+02
      5.946  0.1049E+02  0.2720E+02
      6.064  0.8222E+01  0.2817E+02
      6.182  0.8215E+01  0.2915E+02
      6.300  0.7183E+01  0.3000E+02
      6.419  0.1429E+02  0.3169E+02
      6.537  0.1070E+02  0.3295E+02
      6.655  0.6562E+01  0.3373E+02
      6.773  0.6789E+01  0.3453E+02
      6.892  0.9836E+01  0.3569E+02
      7.010  0.1689E+02  0.3769E+02
      7.128  0.6051E+01  0.3841E+02
      7.246  0.5119E+01  0.3901E+02
      7.365  0.1222E+02  0.4046E+02
      7.483  0.1207E+02  0.4188E+02
      7.601  0.1425E+02  0.4357E+02
      7.719  0.1041E+02  0.4480E+02
      7.838  0.8957E+01  0.4586E+02
      7.956  0.1156E+02  0.4722E+02
      8.074  0.1645E+02  0.4917E+02
      8.192  0.7297E+01  0.5003E+02
      8.311  0.7284E+01  0.5089E+02
      8.429  0.6777E+01  0.5170E+02
      8.547  0.4385E+01  0.5221E+02
      8.665  0.6265E+01  0.5295E+02
      8.784  0.4489E+01  0.5349E+02
      8.902  0.3534E+01  0.5390E+02
      9.020  0.1266E+01  0.5405E+02
      9.138  0.9837E+00  0.5417E+02
      9.257  0.1478E+01  0.5434E+02
      9.375  0.1958E+01  0.5458E+02
      9.493  0.1995E+01  0.5481E+02
      9.611  0.2635E+01  0.5512E+02
      9.730  0.4110E+01  0.5561E+02
      9.848  0.1961E+01  0.5584E+02
      9.966  0.3038E+00  0.5588E+02
     10.084  0.2145E+01  0.5613E+02
     10.203  0.1872E+01  0.5635E+02
     10.321  0.3080E+01  0.5672E+02
     10.439  0.9961E+00  0.5683E+02
     10.557  0.8016E+00  0.5693E+02
     10.676  0.2131E+01  0.5718E+02
     10.794  0.1271E+01  0.5733E+02
     10.912  0.1707E+01  0.5753E+02
     11.030  0.1308E+01  0.5769E+02
     11.149  0.1815E+01  0.5790E+02
     11.267  0.4747E+01  0.5846E+02
     11.385  0.1871E+01  0.5868E+02
     11.503  0.2340E+01  0.5896E+02
     11.622  0.2076E+01  0.5921E+02
     11.740  0.2477E+01  0.5950E+02
     11.858  0.1981E+01  0.5973E+02
     11.976  0.1713E+01  0.5994E+02
     12.095  0.2743E+01  0.6026E+02
     12.213  0.8733E+00  0.6036E+02
     12.331  0.1832E+01  0.6058E+02
     12.449  0.2272E+01  0.6085E+02
     12.568  0.2030E+00  0.6087E+02
     12.686  0.9036E+00  0.6098E+02
     12.804  0.3300E+01  0.6137E+02
     12.922  0.4787E+00  0.6143E+02
     13.041  0.5363E+00  0.6149E+02
     13.159  0.4665E+00  0.6155E+02
     13.277  0.8735E+00  0.6165E+02
     13.395  0.4003E+01  0.6212E+02
     13.514  0.4331E+01  0.6263E+02
     13.632  0.2058E+01  0.6288E+02
     13.750  0.1269E+01  0.6303E+02
     13.868  0.1072E+01  0.6315E+02
     13.987  0.1179E+01  0.6329E+02
     14.105  0.2196E+01  0.6355E+02
     14.223  0.6718E+00  0.6363E+02
     14.341  0.1956E+01  0.6386E+02
     14.460  0.2128E+01  0.6412E+02
     14.578  0.4237E+01  0.6462E+02
     14.696  0.1565E+01  0.6480E+02
     14.814  0.1910E+01  0.6503E+02
     14.933  0.8287E-01  0.6504E+02
     15.051  0.2867E+00  0.6507E+02
     15.169  0.5885E+00  0.6514E+02
     15.287  0.6350E+00  0.6522E+02
     15.406  0.1261E+01  0.6537E+02
     15.524  0.1902E+01  0.6559E+02
     15.642  0.4774E+00  0.6565E+02
     15.760  0.1679E+00  0.6567E+02
     15.879  0.9995E-02  0.6567E+02
     15.997  0.7896E+00  0.6576E+02
     16.115  0.1400E+00  0.6578E+02
     16.233  0.2520E-01  0.6578E+02
     16.352  0.1162E+01  0.6592E+02
     16.470  0.2882E+01  0.6626E+02
     16.588  0.2564E+01  0.6656E+02
     16.706  0.2691E+01  0.6688E+02
     16.825  0.2443E+01  0.6717E+02
     16.943  0.1239E+01  0.6732E+02
     17.061  0.2255E+01  0.6758E+02
     17.179  0.3245E+01  0.6797E+02
     17.298  0.1690E+01  0.6817E+02
     17.416  0.2765E+01  0.6849E+02
     17.534  0.2547E+01  0.6879E+02
     17.652  0.2204E+01  0.6905E+02
     17.771  0.1856E+01  0.6927E+02
     17.889  0.1738E+01  0.6948E+02
     18.007  0.8101E+00  0.6958E+02
     18.125  0.1177E+01  0.6971E+02
     18.244  0.2990E+01  0.7007E+02
     18.362  0.1815E+01  0.7028E+02
     18.480  0.2380E+01  0.7056E+02
     18.598  0.1468E+01  0.7074E+02
     18.717  0.2168E+01  0.7099E+02
     18.835  0.2890E+01  0.7134E+02
     18.953  0.2315E+01  0.7161E+02
     19.071  0.3553E+01  0.7203E+02
     19.190  0.5558E+01  0.7269E+02
     19.308  0.3092E+01  0.7305E+02
     19.426  0.2161E+01  0.7331E+02
     19.544  0.2624E+01  0.7362E+02
     19.663  0.2889E+01  0.7396E+02
     19.781  0.3508E+01  0.7437E+02
     19.899  0.5513E+01  0.7503E+02
     20.017  0.1703E+01  0.7523E+02
     20.136  0.1406E+01  0.7539E+02
     20.254  0.1656E+01  0.7559E+02
     20.372  0.2429E+01  0.7588E+02
     20.490  0.2079E+01  0.7612E+02
     20.609  0.1633E+01  0.7632E+02
     20.727  0.2492E+01  0.7661E+02
     20.845  0.3216E+01  0.7699E+02
     20.963  0.1441E+01  0.7716E+02
     21.082  0.1901E+01  0.7739E+02
     21.200  0.1547E+01  0.7757E+02
     21.318  0.2778E+01  0.7790E+02
     21.436  0.2941E+01  0.7825E+02
     21.555  0.3633E+01  0.7868E+02
     21.673  0.4967E+01  0.7926E+02
     21.791  0.4944E+01  0.7985E+02
     21.909  0.1125E+01  0.7998E+02
     22.028  0.2926E+01  0.8033E+02
     22.146  0.4404E+01  0.8085E+02
     22.264  0.3794E+01  0.8130E+02
     22.382  0.2728E+01  0.8162E+02
     22.501  0.2971E+01  0.8197E+02
     22.619  0.1678E+01  0.8217E+02
     22.737  0.1475E+01  0.8234E+02
     22.855  0.2431E+01  0.8263E+02
     22.974  0.4260E+01  0.8313E+02
     23.092  0.1977E+01  0.8337E+02
     23.210  0.2106E+01  0.8362E+02
     23.328  0.3003E+01  0.8397E+02
     23.447  0.3673E+01  0.8441E+02
     23.565  0.3819E+01  0.8486E+02
     23.683  0.3314E+01  0.8525E+02
     23.801  0.3623E+01  0.8568E+02
     23.920  0.1399E+01  0.8584E+02
     24.038  0.2342E+01  0.8612E+02
     24.156  0.5516E+00  0.8619E+02
     24.274  0.2086E+01  0.8643E+02
     24.393  0.2007E+01  0.8667E+02
     24.511  0.1778E+01  0.8688E+02
     24.629  0.5667E+01  0.8755E+02
     24.747  0.2507E+01  0.8785E+02
     24.866  0.2390E+01  0.8813E+02
     24.984  0.4292E+01  0.8864E+02
     25.102  0.3987E+01  0.8911E+02
     25.220  0.2967E+01  0.8946E+02
     25.339  0.1595E+01  0.8965E+02
     25.457  0.5851E+01  0.9034E+02
     25.575  0.3324E+01  0.9073E+02
     25.693  0.4454E+01  0.9126E+02
     25.812  0.3385E+01  0.9166E+02
     25.930  0.1925E+01  0.9189E+02
     26.048  0.2961E+01  0.9224E+02
     26.166  0.9705E+00  0.9235E+02
     26.285  0.1005E+01  0.9247E+02
     26.403  0.2570E+01  0.9277E+02
     26.521  0.3409E+01  0.9318E+02
     26.639  0.1932E+01  0.9341E+02
     26.758  0.2902E+01  0.9375E+02
     26.876  0.4423E+01  0.9427E+02
     26.994  0.3288E+01  0.9466E+02
     27.112  0.4465E+01  0.9519E+02
     27.231  0.4476E+01  0.9572E+02
     27.349  0.5398E+01  0.9636E+02
     27.467  0.3916E+01  0.9682E+02
     27.585  0.4124E+01  0.9731E+02
     27.704  0.2124E+01  0.9756E+02
     27.822  0.4027E+01  0.9804E+02
     27.940  0.5753E+01  0.9872E+02
     28.058  0.2388E+01  0.9900E+02
     28.177  0.1937E+01  0.9923E+02
     28.295  0.1258E+01  0.9938E+02
     28.413  0.2828E+01  0.9971E+02
     28.531  0.2937E+01  0.1001E+03
     28.650  0.2448E+01  0.1003E+03
     28.768  0.2552E+01  0.1006E+03
     28.886  0.2383E+01  0.1009E+03
     29.004  0.2942E+01  0.1013E+03
     29.123  0.2224E+01  0.1015E+03
     29.241  0.2145E+01  0.1018E+03
     29.359  0.4100E-01  0.1018E+03
     29.477  0.2005E+01  0.1020E+03
     29.596  0.2809E+01  0.1024E+03
     29.714  0.8200E+00  0.1025E+03
     29.832  0.6202E+00  0.1025E+03
     29.950  0.2351E+01  0.1028E+03
     30.069  0.1390E+01  0.1030E+03
     30.187  0.2415E+01  0.1033E+03
     30.305  0.1099E+01  0.1034E+03
     30.423  0.2009E+01  0.1036E+03
     30.542  0.3379E+00  0.1037E+03
     30.660  0.8459E+00  0.1038E+03
     30.778  0.1326E+01  0.1039E+03
     30.896  0.5731E+00  0.1040E+03
     31.015  0.6041E-02  0.1040E+03
     31.133  0.6193E-08  0.1040E+03
     31.251  0.0000E+00  0.1040E+03
     31.369  0.0000E+00  0.1040E+03
     31.488  0.0000E+00  0.1040E+03
     31.606  0.0000E+00  0.1040E+03
     31.724  0.0000E+00  0.1040E+03
     31.842  0.0000E+00  0.1040E+03
     31.961  0.0000E+00  0.1040E+03
     32.079  0.0000E+00  0.1040E+03
     32.197  0.0000E+00  0.1040E+03
     32.315  0.0000E+00  0.1040E+03
     32.434  0.0000E+00  0.1040E+03
