Cd2P8
1.0
      5.1720650       0.0000000       0.0000000
      0.0000000       5.2193158      -0.8576497
      0.0000000       0.0115927       7.6504640
  Cd    P   
  2     8   
Direct
      0.5000000       0.0000000       0.5000000
      0.0000000       0.0000000       0.0000000
      0.6012764       0.6000231       0.8992315
      0.1012764       0.3999769       0.6007685
      0.2893791       0.7364508       0.7475372
      0.7893791       0.2635492       0.7524628
      0.7106209       0.2635492       0.2524628
      0.2106209       0.7364508       0.2475372
      0.8987236       0.6000231       0.3992315
      0.3987236       0.3999769       0.1007685
