unknown system                          
           1
     5.172065    0.000000    0.000000
     0.000000    5.219316   -0.857650
     0.000000    0.011593    7.650464
   Cd   P 
     2     8
Direct configuration=     1
   0.50000000  0.00000000  0.50000000
   0.00000000  0.00000000  0.00000000
   0.60127637  0.60002315  0.89923150
   0.10127637  0.39997685  0.60076850
   0.28937911  0.73645077  0.74753723
   0.78937911  0.26354923  0.75246277
   0.71062089  0.26354923  0.25246277
   0.21062089  0.73645077  0.24753723
   0.89872363  0.60002315  0.39923150
   0.39872363  0.39997685  0.10076850
