       N       E                     dE             d eps       ncg     rms          rms(c)
DAV:   1     0.262626836359E+03    0.26263E+03   -0.18938E+04 36700   0.239E+03
DAV:   2     0.409220813487E+01   -0.25853E+03   -0.25221E+03 29276   0.511E+02
DAV:   3    -0.845993504343E+01   -0.12552E+02   -0.12304E+02 32052   0.130E+02
DAV:   4    -0.878382954520E+01   -0.32389E+00   -0.32349E+00 35968   0.199E+01
DAV:   5    -0.879987450153E+01   -0.16045E-01   -0.16044E-01 39740   0.424E+00    0.872E+00
DAV:   6    -0.958837000789E+01   -0.78850E+00   -0.20010E+01 32824   0.456E+01    0.127E+01
DAV:   7    -0.822600687697E+01    0.13624E+01   -0.75546E+00 32900   0.316E+01    0.217E+00
DAV:   8    -0.822097580187E+01    0.50311E-02   -0.21270E-01 37352   0.460E+00    0.938E-01
DAV:   9    -0.821326426943E+01    0.77115E-02   -0.48093E-02 32720   0.231E+00    0.233E-01
DAV:  10    -0.821279523417E+01    0.46904E-03   -0.18668E-03 33516   0.671E-01    0.539E-02
DAV:  11    -0.821277788355E+01    0.17351E-04   -0.15423E-04 41648   0.168E-01    0.327E-02
DAV:  12    -0.821277502909E+01    0.28545E-05   -0.17242E-05 34796   0.460E-02    0.108E-02
DAV:  13    -0.821277492633E+01    0.10276E-06   -0.11840E-06 19856   0.124E-02
   1 F= -.82127749E+01 E0= -.82119678E+01  d E =-.161434E-02
