Na3 Si34                                
   1.00000000000000     
     8.9842792500000002   -5.1793381600000004   -0.0007468300000000
     8.9842792500000002    5.1793381600000004   -0.0007468300000000
     5.9991505500000004    0.0000000000000000    8.4589015199999995
   Na   Si
     3    34
Direct
     0.3750475800000004    0.3750475800000004    0.3750475800000004
     0.6249524199999996    0.6249524199999996    0.6249524199999996
     0.0000000000000000    0.0000000000000000    0.0000000000000000
     0.2176401099999978    0.2176401099999978    0.2176401099999978
     0.8475540600000002    0.2177986700000005    0.2177986700000005
     0.2177986700000005    0.2177986700000005    0.8475540600000002
     0.2177986700000005    0.8475540600000002    0.2177986700000005
     0.7823598900000022    0.7823598900000022    0.7823598900000022
     0.1524459399999998    0.7822013299999995    0.7822013299999995
     0.7822013299999995    0.7822013299999995    0.1524459399999998
     0.7822013299999995    0.1524459399999998    0.7822013299999995
     0.1254017600000026    0.1254017600000026    0.1254017600000026
     0.8745982399999974    0.8745982399999974    0.8745982399999974
     0.3706257300000004    0.9945351200000019    0.3706257300000004
     0.7629141999999973    0.3712799600000025    0.9948872599999987
     0.9948872599999987    0.3712799600000025    0.7629141999999973
     0.3713153300000016    0.7632315099999971    0.3713153300000016
     0.3712799600000025    0.9948872599999987    0.7629141999999973
     0.9945351200000019    0.3706257300000004    0.3706257300000004
     0.7632315099999971    0.3713153300000016    0.3713153300000016
     0.3712799600000025    0.7629141999999973    0.9948872599999987
     0.7629141999999973    0.9948872599999987    0.3712799600000025
     0.3713153300000016    0.3713153300000016    0.7632315099999971
     0.3706257300000004    0.3706257300000004    0.9945351200000019
     0.9948872599999987    0.7629141999999973    0.3712799600000025
     0.6293742699999996    0.0054648799999981    0.6293742699999996
     0.2370858000000027    0.6287200399999975    0.0051127400000013
     0.0051127400000013    0.6287200399999975    0.2370858000000027
     0.6286846699999984    0.2367684900000029    0.6286846699999984
     0.6287200399999975    0.0051127400000013    0.2370858000000027
     0.0054648799999981    0.6293742699999996    0.6293742699999996
     0.2367684900000029    0.6286846699999984    0.6286846699999984
     0.6287200399999975    0.2370858000000027    0.0051127400000013
     0.2370858000000027    0.0051127400000013    0.6287200399999975
     0.6286846699999984    0.6286846699999984    0.2367684900000029
     0.6293742699999996    0.6293742699999996    0.0054648799999981
     0.0051127400000013    0.2370858000000027    0.6287200399999975
 
  0.00000000E+00  0.00000000E+00  0.00000000E+00
  0.00000000E+00  0.00000000E+00  0.00000000E+00
  0.00000000E+00  0.00000000E+00  0.00000000E+00
  0.00000000E+00  0.00000000E+00  0.00000000E+00
  0.00000000E+00  0.00000000E+00  0.00000000E+00
  0.00000000E+00  0.00000000E+00  0.00000000E+00
  0.00000000E+00  0.00000000E+00  0.00000000E+00
  0.00000000E+00  0.00000000E+00  0.00000000E+00
  0.00000000E+00  0.00000000E+00  0.00000000E+00
  0.00000000E+00  0.00000000E+00  0.00000000E+00
  0.00000000E+00  0.00000000E+00  0.00000000E+00
  0.00000000E+00  0.00000000E+00  0.00000000E+00
  0.00000000E+00  0.00000000E+00  0.00000000E+00
  0.00000000E+00  0.00000000E+00  0.00000000E+00
  0.00000000E+00  0.00000000E+00  0.00000000E+00
  0.00000000E+00  0.00000000E+00  0.00000000E+00
  0.00000000E+00  0.00000000E+00  0.00000000E+00
  0.00000000E+00  0.00000000E+00  0.00000000E+00
  0.00000000E+00  0.00000000E+00  0.00000000E+00
  0.00000000E+00  0.00000000E+00  0.00000000E+00
  0.00000000E+00  0.00000000E+00  0.00000000E+00
  0.00000000E+00  0.00000000E+00  0.00000000E+00
  0.00000000E+00  0.00000000E+00  0.00000000E+00
  0.00000000E+00  0.00000000E+00  0.00000000E+00
  0.00000000E+00  0.00000000E+00  0.00000000E+00
  0.00000000E+00  0.00000000E+00  0.00000000E+00
  0.00000000E+00  0.00000000E+00  0.00000000E+00
  0.00000000E+00  0.00000000E+00  0.00000000E+00
  0.00000000E+00  0.00000000E+00  0.00000000E+00
  0.00000000E+00  0.00000000E+00  0.00000000E+00
  0.00000000E+00  0.00000000E+00  0.00000000E+00
  0.00000000E+00  0.00000000E+00  0.00000000E+00
  0.00000000E+00  0.00000000E+00  0.00000000E+00
  0.00000000E+00  0.00000000E+00  0.00000000E+00
  0.00000000E+00  0.00000000E+00  0.00000000E+00
  0.00000000E+00  0.00000000E+00  0.00000000E+00
  0.00000000E+00  0.00000000E+00  0.00000000E+00
