  37  37   0   0
  0.2127773E+02  0.1037029E-08  0.1037029E-08  0.1037029E-08  0.5000000E-15
  1.000000000000000E-004
  CAR 
 unknown system                          
     13.90645356    -21.58519935  301      5.62739648      1.00000000
    -21.585  0.0000E+00  0.0000E+00
    -21.467  0.0000E+00  0.0000E+00
    -21.349  0.0000E+00  0.0000E+00
    -21.230  0.0000E+00  0.0000E+00
    -21.112  0.0000E+00  0.0000E+00
    -20.994  0.0000E+00  0.0000E+00
    -20.875  0.0000E+00  0.0000E+00
    -20.757  0.0000E+00  0.0000E+00
    -20.639  0.0000E+00  0.0000E+00
    -20.520  0.0000E+00  0.0000E+00
    -20.402  0.0000E+00  0.0000E+00
    -20.284  0.0000E+00  0.0000E+00
    -20.166  0.2204E-05  0.2608E-06
    -20.047  0.1682E+01  0.1990E+00
    -19.929  0.8839E+02  0.1066E+02
    -19.811  0.1136E+02  0.1200E+02
    -19.692  0.2565E-03  0.1200E+02
    -19.574  0.1496E+00  0.1202E+02
    -19.456  0.3639E+02  0.1632E+02
    -19.337  0.1418E+02  0.1800E+02
    -19.219  0.2239E-02  0.1800E+02
    -19.101  0.1006E-10  0.1800E+02
    -18.982  0.0000E+00  0.1800E+02
    -18.864  0.0000E+00  0.1800E+02
    -18.746  0.0000E+00  0.1800E+02
    -18.628  0.0000E+00  0.1800E+02
    -18.509  0.0000E+00  0.1800E+02
    -18.391  0.0000E+00  0.1800E+02
    -18.273  0.0000E+00  0.1800E+02
    -18.154  0.0000E+00  0.1800E+02
    -18.036  0.0000E+00  0.1800E+02
    -17.918  0.0000E+00  0.1800E+02
    -17.799  0.0000E+00  0.1800E+02
    -17.681  0.0000E+00  0.1800E+02
    -17.563  0.0000E+00  0.1800E+02
    -17.445  0.0000E+00  0.1800E+02
    -17.326  0.0000E+00  0.1800E+02
    -17.208  0.0000E+00  0.1800E+02
    -17.090  0.0000E+00  0.1800E+02
    -16.971  0.0000E+00  0.1800E+02
    -16.853  0.0000E+00  0.1800E+02
    -16.735  0.0000E+00  0.1800E+02
    -16.616  0.0000E+00  0.1800E+02
    -16.498  0.0000E+00  0.1800E+02
    -16.380  0.0000E+00  0.1800E+02
    -16.261  0.0000E+00  0.1800E+02
    -16.143  0.0000E+00  0.1800E+02
    -16.025  0.0000E+00  0.1800E+02
    -15.907  0.0000E+00  0.1800E+02
    -15.788  0.0000E+00  0.1800E+02
    -15.670  0.0000E+00  0.1800E+02
    -15.552  0.0000E+00  0.1800E+02
    -15.433  0.0000E+00  0.1800E+02
    -15.315  0.0000E+00  0.1800E+02
    -15.197  0.0000E+00  0.1800E+02
    -15.078  0.0000E+00  0.1800E+02
    -14.960  0.0000E+00  0.1800E+02
    -14.842  0.0000E+00  0.1800E+02
    -14.723  0.0000E+00  0.1800E+02
    -14.605  0.0000E+00  0.1800E+02
    -14.487  0.0000E+00  0.1800E+02
    -14.369  0.0000E+00  0.1800E+02
    -14.250  0.0000E+00  0.1800E+02
    -14.132  0.0000E+00  0.1800E+02
    -14.014  0.0000E+00  0.1800E+02
    -13.895  0.0000E+00  0.1800E+02
    -13.777  0.0000E+00  0.1800E+02
    -13.659  0.0000E+00  0.1800E+02
    -13.540  0.0000E+00  0.1800E+02
    -13.422  0.0000E+00  0.1800E+02
    -13.304  0.0000E+00  0.1800E+02
    -13.186  0.0000E+00  0.1800E+02
    -13.067  0.0000E+00  0.1800E+02
    -12.949  0.0000E+00  0.1800E+02
    -12.831  0.0000E+00  0.1800E+02
    -12.712  0.0000E+00  0.1800E+02
    -12.594  0.0000E+00  0.1800E+02
    -12.476  0.0000E+00  0.1800E+02
    -12.357  0.0000E+00  0.1800E+02
    -12.239  0.0000E+00  0.1800E+02
    -12.121  0.0000E+00  0.1800E+02
    -12.002  0.0000E+00  0.1800E+02
    -11.884  0.0000E+00  0.1800E+02
    -11.766  0.0000E+00  0.1800E+02
    -11.648  0.0000E+00  0.1800E+02
    -11.529  0.0000E+00  0.1800E+02
    -11.411  0.0000E+00  0.1800E+02
    -11.293  0.0000E+00  0.1800E+02
    -11.174  0.0000E+00  0.1800E+02
    -11.056  0.0000E+00  0.1800E+02
    -10.938  0.0000E+00  0.1800E+02
    -10.819  0.0000E+00  0.1800E+02
    -10.701  0.0000E+00  0.1800E+02
    -10.583  0.0000E+00  0.1800E+02
    -10.464  0.0000E+00  0.1800E+02
    -10.346  0.0000E+00  0.1800E+02
    -10.228  0.0000E+00  0.1800E+02
    -10.110  0.0000E+00  0.1800E+02
     -9.991  0.0000E+00  0.1800E+02
     -9.873  0.0000E+00  0.1800E+02
     -9.755  0.0000E+00  0.1800E+02
     -9.636  0.0000E+00  0.1800E+02
     -9.518  0.0000E+00  0.1800E+02
     -9.400  0.0000E+00  0.1800E+02
     -9.281  0.0000E+00  0.1800E+02
     -9.163  0.0000E+00  0.1800E+02
     -9.045  0.0000E+00  0.1800E+02
     -8.927  0.0000E+00  0.1800E+02
     -8.808  0.0000E+00  0.1800E+02
     -8.690  0.0000E+00  0.1800E+02
     -8.572  0.0000E+00  0.1800E+02
     -8.453  0.0000E+00  0.1800E+02
     -8.335  0.0000E+00  0.1800E+02
     -8.217  0.0000E+00  0.1800E+02
     -8.098  0.0000E+00  0.1800E+02
     -7.980  0.0000E+00  0.1800E+02
     -7.862  0.0000E+00  0.1800E+02
     -7.743  0.0000E+00  0.1800E+02
     -7.625  0.0000E+00  0.1800E+02
     -7.507  0.0000E+00  0.1800E+02
     -7.389  0.0000E+00  0.1800E+02
     -7.270  0.0000E+00  0.1800E+02
     -7.152  0.0000E+00  0.1800E+02
     -7.034  0.2412E-13  0.1800E+02
     -6.915  0.1141E-04  0.1800E+02
     -6.797  0.1358E+00  0.1802E+02
     -6.679  0.5105E+00  0.1808E+02
     -6.560  0.4409E+01  0.1860E+02
     -6.442  0.4298E+01  0.1911E+02
     -6.324  0.2468E+01  0.1940E+02
     -6.205  0.5092E+01  0.2000E+02
     -6.087  0.5912E+01  0.2070E+02
     -5.969  0.1369E+02  0.2232E+02
     -5.851  0.1588E+01  0.2251E+02
     -5.732  0.4445E+01  0.2303E+02
     -5.614  0.1164E+02  0.2441E+02
     -5.496  0.5982E+01  0.2512E+02
     -5.377  0.2270E+02  0.2780E+02
     -5.259  0.6867E+01  0.2862E+02
     -5.141  0.8443E+01  0.2961E+02
     -5.022  0.1396E+00  0.2963E+02
     -4.904  0.8731E+01  0.3066E+02
     -4.786  0.9450E+01  0.3178E+02
     -4.668  0.7700E+01  0.3269E+02
     -4.549  0.1483E+02  0.3445E+02
     -4.431  0.1160E+02  0.3582E+02
     -4.313  0.3353E+01  0.3622E+02
     -4.194  0.1069E+02  0.3748E+02
     -4.076  0.1902E+02  0.3973E+02
     -3.958  0.5207E+01  0.4035E+02
     -3.839  0.1786E+02  0.4246E+02
     -3.721  0.9129E+01  0.4354E+02
     -3.603  0.3466E+01  0.4395E+02
     -3.484  0.1150E+02  0.4531E+02
     -3.366  0.1878E+02  0.4753E+02
     -3.248  0.1461E+02  0.4926E+02
     -3.130  0.9941E+01  0.5044E+02
     -3.011  0.1177E+02  0.5183E+02
     -2.893  0.5708E+01  0.5251E+02
     -2.775  0.1800E+00  0.5253E+02
     -2.656  0.9762E+01  0.5368E+02
     -2.538  0.1524E+02  0.5548E+02
     -2.420  0.7898E+01  0.5642E+02
     -2.301  0.4367E+01  0.5694E+02
     -2.183  0.6930E+01  0.5776E+02
     -2.065  0.1333E+02  0.5933E+02
     -1.946  0.3125E+01  0.5970E+02
     -1.828  0.6980E+01  0.6053E+02
     -1.710  0.1067E+02  0.6179E+02
     -1.592  0.6086E+01  0.6251E+02
     -1.473  0.2841E+01  0.6285E+02
     -1.355  0.4736E+01  0.6341E+02
     -1.237  0.5007E+01  0.6400E+02
     -1.118  0.1965E+01  0.6423E+02
     -1.000  0.5490E+01  0.6488E+02
     -0.882  0.7507E+01  0.6577E+02
     -0.763  0.2077E+02  0.6823E+02
     -0.645  0.1540E+02  0.7005E+02
     -0.527  0.2264E+02  0.7273E+02
     -0.409  0.1911E+02  0.7499E+02
     -0.290  0.1406E+02  0.7665E+02
     -0.172  0.1376E+01  0.7681E+02
     -0.054  0.1041E+02  0.7804E+02
      0.065  0.1156E+02  0.7941E+02
      0.183  0.7723E+01  0.8032E+02
      0.301  0.1699E+02  0.8233E+02
      0.420  0.9432E+01  0.8345E+02
      0.538  0.1088E+02  0.8474E+02
      0.656  0.1043E+02  0.8597E+02
      0.775  0.2377E+00  0.8600E+02
      0.893  0.5833E+01  0.8669E+02
      1.011  0.1127E+02  0.8802E+02
      1.129  0.3157E+01  0.8840E+02
      1.248  0.1271E+02  0.8990E+02
      1.366  0.1045E+02  0.9114E+02
      1.484  0.1448E+02  0.9285E+02
      1.603  0.2447E+02  0.9575E+02
      1.721  0.1615E+02  0.9766E+02
      1.839  0.1916E+02  0.9992E+02
      1.958  0.2323E+02  0.1027E+03
      2.076  0.3365E+02  0.1067E+03
      2.194  0.2267E+02  0.1093E+03
      2.313  0.2983E+02  0.1129E+03
      2.431  0.1510E+02  0.1147E+03
      2.549  0.1548E+02  0.1165E+03
      2.667  0.1890E+02  0.1187E+03
      2.786  0.6473E+01  0.1195E+03
      2.904  0.1809E+02  0.1216E+03
      3.022  0.2639E+02  0.1247E+03
      3.141  0.2831E+02  0.1281E+03
      3.259  0.3618E+02  0.1324E+03
      3.377  0.1614E+02  0.1343E+03
      3.496  0.3147E+02  0.1380E+03
      3.614  0.2203E+02  0.1406E+03
      3.732  0.2585E+02  0.1437E+03
      3.850  0.2852E+02  0.1470E+03
      3.969  0.2109E+02  0.1495E+03
      4.087  0.2770E+02  0.1528E+03
      4.205  0.9472E+01  0.1539E+03
      4.324  0.4904E+00  0.1540E+03
      4.442  0.1913E-04  0.1540E+03
      4.560  0.2892E-13  0.1540E+03
      4.679  0.0000E+00  0.1540E+03
      4.797  0.2085E-15  0.1540E+03
      4.915  0.1001E-05  0.1540E+03
      5.034  0.9332E-01  0.1540E+03
      5.152  0.3739E+01  0.1545E+03
      5.270  0.6606E+01  0.1552E+03
      5.388  0.7705E+01  0.1561E+03
      5.507  0.2260E+01  0.1564E+03
      5.625  0.4775E+01  0.1570E+03
      5.743  0.1418E+02  0.1587E+03
      5.862  0.1122E+02  0.1600E+03
      5.980  0.7559E+01  0.1609E+03
      6.098  0.8235E+01  0.1619E+03
      6.217  0.9830E+01  0.1630E+03
      6.335  0.6937E+01  0.1638E+03
      6.453  0.1804E+02  0.1660E+03
      6.572  0.2098E+02  0.1685E+03
      6.690  0.9149E+01  0.1695E+03
      6.808  0.1428E+02  0.1712E+03
      6.926  0.2676E+02  0.1744E+03
      7.045  0.1587E+02  0.1763E+03
      7.163  0.7877E+01  0.1772E+03
      7.281  0.9799E+01  0.1784E+03
      7.400  0.2621E+02  0.1815E+03
      7.518  0.3517E+02  0.1856E+03
      7.636  0.2940E+02  0.1891E+03
      7.755  0.2146E+02  0.1916E+03
      7.873  0.2670E+02  0.1948E+03
      7.991  0.2330E+02  0.1976E+03
      8.109  0.2581E+02  0.2006E+03
      8.228  0.2800E+02  0.2039E+03
      8.346  0.2728E+02  0.2071E+03
      8.464  0.3138E+02  0.2109E+03
      8.583  0.2593E+02  0.2139E+03
      8.701  0.2117E+02  0.2164E+03
      8.819  0.2277E+02  0.2191E+03
      8.938  0.1997E+02  0.2215E+03
      9.056  0.2039E+02  0.2239E+03
      9.174  0.2151E+02  0.2264E+03
      9.293  0.1854E+02  0.2286E+03
      9.411  0.1488E+02  0.2304E+03
      9.529  0.1822E+02  0.2326E+03
      9.647  0.2670E+02  0.2357E+03
      9.766  0.2437E+02  0.2386E+03
      9.884  0.3472E+02  0.2427E+03
     10.002  0.2885E+02  0.2461E+03
     10.121  0.2395E+02  0.2489E+03
     10.239  0.1835E+02  0.2511E+03
     10.357  0.3490E+02  0.2552E+03
     10.476  0.2133E+02  0.2578E+03
     10.594  0.2635E+02  0.2609E+03
     10.712  0.2150E+02  0.2634E+03
     10.831  0.1809E+02  0.2656E+03
     10.949  0.2393E+02  0.2684E+03
     11.067  0.2198E+02  0.2710E+03
     11.185  0.2247E+02  0.2737E+03
     11.304  0.2172E+02  0.2762E+03
     11.422  0.2041E+02  0.2786E+03
     11.540  0.2982E+02  0.2822E+03
     11.659  0.1988E+02  0.2845E+03
     11.777  0.1738E+02  0.2866E+03
     11.895  0.1372E+02  0.2882E+03
     12.014  0.2627E+02  0.2913E+03
     12.132  0.1771E+02  0.2934E+03
     12.250  0.1568E+02  0.2953E+03
     12.368  0.6178E+01  0.2960E+03
     12.487  0.3981E-01  0.2960E+03
     12.605  0.3389E-07  0.2960E+03
     12.723  0.0000E+00  0.2960E+03
     12.842  0.0000E+00  0.2960E+03
     12.960  0.0000E+00  0.2960E+03
     13.078  0.0000E+00  0.2960E+03
     13.197  0.0000E+00  0.2960E+03
     13.315  0.0000E+00  0.2960E+03
     13.433  0.0000E+00  0.2960E+03
     13.552  0.0000E+00  0.2960E+03
     13.670  0.0000E+00  0.2960E+03
     13.788  0.0000E+00  0.2960E+03
     13.906  0.0000E+00  0.2960E+03
