Na3Si34
1.0
      8.9842793      -5.1793382      -0.0007468
      8.9842793       5.1793382      -0.0007468
      5.9991506       0.0000000       8.4589015
  Na    Si  
  3     34  
Direct
      0.3750476       0.3750476       0.3750476
      0.6249524       0.6249524       0.6249524
      0.0000000       0.0000000       0.0000000
      0.2176401       0.2176401       0.2176401
      0.8475541       0.2177987       0.2177987
      0.2177987       0.2177987       0.8475541
      0.2177987       0.8475541       0.2177987
      0.7823599       0.7823599       0.7823599
      0.1524459       0.7822013       0.7822013
      0.7822013       0.7822013       0.1524459
      0.7822013       0.1524459       0.7822013
      0.1254018       0.1254018       0.1254018
      0.8745982       0.8745982       0.8745982
      0.3706257       0.9945351       0.3706257
      0.7629142       0.3712800       0.9948873
      0.9948873       0.3712800       0.7629142
      0.3713153       0.7632315       0.3713153
      0.3712800       0.9948873       0.7629142
      0.9945351       0.3706257       0.3706257
      0.7632315       0.3713153       0.3713153
      0.3712800       0.7629142       0.9948873
      0.7629142       0.9948873       0.3712800
      0.3713153       0.3713153       0.7632315
      0.3706257       0.3706257       0.9945351
      0.9948873       0.7629142       0.3712800
      0.6293743       0.0054649       0.6293743
      0.2370858       0.6287200       0.0051127
      0.0051127       0.6287200       0.2370858
      0.6286847       0.2367685       0.6286847
      0.6287200       0.0051127       0.2370858
      0.0054649       0.6293743       0.6293743
      0.2367685       0.6286847       0.6286847
      0.6287200       0.2370858       0.0051127
      0.2370858       0.0051127       0.6287200
      0.6286847       0.6286847       0.2367685
      0.6293743       0.6293743       0.0054649
      0.0051127       0.2370858       0.6287200
