Te4O8
1.0
      4.4072814       0.0000000       0.0000000
      0.0000000       4.8709579       0.0000000
      0.0000000       0.0000000       8.7285118
  Te    O   
  4     8   
Direct
      0.3767734       0.0298556       0.6022717
      0.8767734       0.4701444       0.3977283
      0.6232266       0.5298556       0.8977283
      0.1232266       0.9701444       0.1022717
      0.7716237       0.1424593       0.5390956
      0.2716237       0.3575407       0.4609044
      0.2283763       0.6424593       0.9609044
      0.7283763       0.8575407       0.0390956
      0.1719467       0.7573813       0.2773610
      0.6719467       0.7426187       0.7226390
      0.8280533       0.2573813       0.2226390
      0.3280533       0.2426187       0.7773610
