  14  14   0   0
  0.2197355E+02  0.6753422E-09  0.6753422E-09  0.6753422E-09  0.5000000E-15
  1.000000000000000E-004
  CAR 
 unknown system                          
     15.26395673    -32.04483212  301      5.41345237      1.00000000
    -32.045  0.0000E+00  0.0000E+00
    -31.887  0.0000E+00  0.0000E+00
    -31.729  0.0000E+00  0.0000E+00
    -31.572  0.0000E+00  0.0000E+00
    -31.414  0.0000E+00  0.0000E+00
    -31.256  0.0000E+00  0.0000E+00
    -31.099  0.0000E+00  0.0000E+00
    -30.941  0.0000E+00  0.0000E+00
    -30.783  0.0000E+00  0.0000E+00
    -30.626  0.0000E+00  0.0000E+00
    -30.468  0.0000E+00  0.0000E+00
    -30.310  0.0000E+00  0.0000E+00
    -30.152  0.4602E-12  0.7257E-13
    -29.995  0.1344E-01  0.2119E-02
    -29.837  0.1367E+02  0.2158E+01
    -29.679  0.7321E+02  0.1370E+02
    -29.522  0.4439E+01  0.1440E+02
    -29.364  0.3506E+02  0.1993E+02
    -29.206  0.5224E+02  0.2817E+02
    -29.049  0.4923E+02  0.3593E+02
    -28.891  0.4297E+00  0.3600E+02
    -28.733  0.5032E-09  0.3600E+02
    -28.576  0.0000E+00  0.3600E+02
    -28.418  0.0000E+00  0.3600E+02
    -28.260  0.0000E+00  0.3600E+02
    -28.102  0.0000E+00  0.3600E+02
    -27.945  0.0000E+00  0.3600E+02
    -27.787  0.0000E+00  0.3600E+02
    -27.629  0.0000E+00  0.3600E+02
    -27.472  0.0000E+00  0.3600E+02
    -27.314  0.0000E+00  0.3600E+02
    -27.156  0.0000E+00  0.3600E+02
    -26.999  0.0000E+00  0.3600E+02
    -26.841  0.0000E+00  0.3600E+02
    -26.683  0.0000E+00  0.3600E+02
    -26.525  0.0000E+00  0.3600E+02
    -26.368  0.0000E+00  0.3600E+02
    -26.210  0.0000E+00  0.3600E+02
    -26.052  0.0000E+00  0.3600E+02
    -25.895  0.0000E+00  0.3600E+02
    -25.737  0.0000E+00  0.3600E+02
    -25.579  0.0000E+00  0.3600E+02
    -25.422  0.0000E+00  0.3600E+02
    -25.264  0.0000E+00  0.3600E+02
    -25.106  0.0000E+00  0.3600E+02
    -24.949  0.0000E+00  0.3600E+02
    -24.791  0.0000E+00  0.3600E+02
    -24.633  0.0000E+00  0.3600E+02
    -24.475  0.0000E+00  0.3600E+02
    -24.318  0.0000E+00  0.3600E+02
    -24.160  0.0000E+00  0.3600E+02
    -24.002  0.0000E+00  0.3600E+02
    -23.845  0.0000E+00  0.3600E+02
    -23.687  0.0000E+00  0.3600E+02
    -23.529  0.0000E+00  0.3600E+02
    -23.372  0.0000E+00  0.3600E+02
    -23.214  0.0000E+00  0.3600E+02
    -23.056  0.0000E+00  0.3600E+02
    -22.898  0.0000E+00  0.3600E+02
    -22.741  0.0000E+00  0.3600E+02
    -22.583  0.0000E+00  0.3600E+02
    -22.425  0.0000E+00  0.3600E+02
    -22.268  0.0000E+00  0.3600E+02
    -22.110  0.0000E+00  0.3600E+02
    -21.952  0.0000E+00  0.3600E+02
    -21.795  0.0000E+00  0.3600E+02
    -21.637  0.0000E+00  0.3600E+02
    -21.479  0.0000E+00  0.3600E+02
    -21.322  0.0000E+00  0.3600E+02
    -21.164  0.0000E+00  0.3600E+02
    -21.006  0.0000E+00  0.3600E+02
    -20.848  0.0000E+00  0.3600E+02
    -20.691  0.0000E+00  0.3600E+02
    -20.533  0.0000E+00  0.3600E+02
    -20.375  0.0000E+00  0.3600E+02
    -20.218  0.0000E+00  0.3600E+02
    -20.060  0.0000E+00  0.3600E+02
    -19.902  0.0000E+00  0.3600E+02
    -19.745  0.0000E+00  0.3600E+02
    -19.587  0.0000E+00  0.3600E+02
    -19.429  0.0000E+00  0.3600E+02
    -19.271  0.0000E+00  0.3600E+02
    -19.114  0.0000E+00  0.3600E+02
    -18.956  0.0000E+00  0.3600E+02
    -18.798  0.0000E+00  0.3600E+02
    -18.641  0.0000E+00  0.3600E+02
    -18.483  0.0000E+00  0.3600E+02
    -18.325  0.0000E+00  0.3600E+02
    -18.168  0.0000E+00  0.3600E+02
    -18.010  0.0000E+00  0.3600E+02
    -17.852  0.0000E+00  0.3600E+02
    -17.694  0.0000E+00  0.3600E+02
    -17.537  0.0000E+00  0.3600E+02
    -17.379  0.0000E+00  0.3600E+02
    -17.221  0.0000E+00  0.3600E+02
    -17.064  0.0000E+00  0.3600E+02
    -16.906  0.0000E+00  0.3600E+02
    -16.748  0.0000E+00  0.3600E+02
    -16.591  0.0000E+00  0.3600E+02
    -16.433  0.0000E+00  0.3600E+02
    -16.275  0.0000E+00  0.3600E+02
    -16.118  0.0000E+00  0.3600E+02
    -15.960  0.0000E+00  0.3600E+02
    -15.802  0.0000E+00  0.3600E+02
    -15.644  0.0000E+00  0.3600E+02
    -15.487  0.0000E+00  0.3600E+02
    -15.329  0.0000E+00  0.3600E+02
    -15.171  0.0000E+00  0.3600E+02
    -15.014  0.0000E+00  0.3600E+02
    -14.856  0.0000E+00  0.3600E+02
    -14.698  0.0000E+00  0.3600E+02
    -14.541  0.0000E+00  0.3600E+02
    -14.383  0.0000E+00  0.3600E+02
    -14.225  0.0000E+00  0.3600E+02
    -14.067  0.0000E+00  0.3600E+02
    -13.910  0.0000E+00  0.3600E+02
    -13.752  0.0000E+00  0.3600E+02
    -13.594  0.0000E+00  0.3600E+02
    -13.437  0.0000E+00  0.3600E+02
    -13.279  0.0000E+00  0.3600E+02
    -13.121  0.0000E+00  0.3600E+02
    -12.964  0.0000E+00  0.3600E+02
    -12.806  0.0000E+00  0.3600E+02
    -12.648  0.0000E+00  0.3600E+02
    -12.491  0.0000E+00  0.3600E+02
    -12.333  0.0000E+00  0.3600E+02
    -12.175  0.0000E+00  0.3600E+02
    -12.017  0.0000E+00  0.3600E+02
    -11.860  0.0000E+00  0.3600E+02
    -11.702  0.0000E+00  0.3600E+02
    -11.544  0.0000E+00  0.3600E+02
    -11.387  0.0000E+00  0.3600E+02
    -11.229  0.0000E+00  0.3600E+02
    -11.071  0.0000E+00  0.3600E+02
    -10.914  0.0000E+00  0.3600E+02
    -10.756  0.0000E+00  0.3600E+02
    -10.598  0.0000E+00  0.3600E+02
    -10.440  0.0000E+00  0.3600E+02
    -10.283  0.0000E+00  0.3600E+02
    -10.125  0.0000E+00  0.3600E+02
     -9.967  0.0000E+00  0.3600E+02
     -9.810  0.0000E+00  0.3600E+02
     -9.652  0.0000E+00  0.3600E+02
     -9.494  0.0000E+00  0.3600E+02
     -9.337  0.0000E+00  0.3600E+02
     -9.179  0.0000E+00  0.3600E+02
     -9.021  0.0000E+00  0.3600E+02
     -8.864  0.0000E+00  0.3600E+02
     -8.706  0.6416E-10  0.3600E+02
     -8.548  0.3276E-01  0.3601E+02
     -8.390  0.1545E+01  0.3625E+02
     -8.233  0.4361E+01  0.3694E+02
     -8.075  0.3811E+01  0.3754E+02
     -7.917  0.2338E+01  0.3791E+02
     -7.760  0.7990E+01  0.3917E+02
     -7.602  0.1144E+02  0.4097E+02
     -7.444  0.2103E+02  0.4429E+02
     -7.287  0.2205E+02  0.4776E+02
     -7.129  0.2511E+01  0.4816E+02
     -6.971  0.1454E+02  0.5045E+02
     -6.813  0.9481E+01  0.5195E+02
     -6.656  0.3214E+00  0.5200E+02
     -6.498  0.1115E-06  0.5200E+02
     -6.340  0.0000E+00  0.5200E+02
     -6.183  0.0000E+00  0.5200E+02
     -6.025  0.0000E+00  0.5200E+02
     -5.867  0.0000E+00  0.5200E+02
     -5.710  0.0000E+00  0.5200E+02
     -5.552  0.0000E+00  0.5200E+02
     -5.394  0.0000E+00  0.5200E+02
     -5.237  0.0000E+00  0.5200E+02
     -5.079  0.0000E+00  0.5200E+02
     -4.921  0.0000E+00  0.5200E+02
     -4.763  0.0000E+00  0.5200E+02
     -4.606  0.0000E+00  0.5200E+02
     -4.448  0.0000E+00  0.5200E+02
     -4.290  0.0000E+00  0.5200E+02
     -4.133  0.0000E+00  0.5200E+02
     -3.975  0.0000E+00  0.5200E+02
     -3.817  0.0000E+00  0.5200E+02
     -3.660  0.0000E+00  0.5200E+02
     -3.502  0.0000E+00  0.5200E+02
     -3.344  0.0000E+00  0.5200E+02
     -3.186  0.0000E+00  0.5200E+02
     -3.029  0.0000E+00  0.5200E+02
     -2.871  0.0000E+00  0.5200E+02
     -2.713  0.0000E+00  0.5200E+02
     -2.556  0.0000E+00  0.5200E+02
     -2.398  0.0000E+00  0.5200E+02
     -2.240  0.0000E+00  0.5200E+02
     -2.083  0.0000E+00  0.5200E+02
     -1.925  0.0000E+00  0.5200E+02
     -1.767  0.0000E+00  0.5200E+02
     -1.610  0.0000E+00  0.5200E+02
     -1.452  0.0000E+00  0.5200E+02
     -1.294  0.0000E+00  0.5200E+02
     -1.136  0.0000E+00  0.5200E+02
     -0.979  0.0000E+00  0.5200E+02
     -0.821  0.0000E+00  0.5200E+02
     -0.663  0.0000E+00  0.5200E+02
     -0.506  0.0000E+00  0.5200E+02
     -0.348  0.0000E+00  0.5200E+02
     -0.190  0.1968E-06  0.5200E+02
     -0.033  0.5386E+00  0.5208E+02
      0.125  0.1201E+02  0.5398E+02
      0.283  0.1186E+02  0.5585E+02
      0.441  0.1677E+02  0.5849E+02
      0.598  0.1460E+02  0.6080E+02
      0.756  0.1042E+02  0.6244E+02
      0.914  0.1052E+02  0.6410E+02
      1.071  0.1201E+02  0.6599E+02
      1.229  0.1598E+02  0.6851E+02
      1.387  0.1303E+02  0.7057E+02
      1.544  0.1198E+02  0.7246E+02
      1.702  0.8453E+01  0.7379E+02
      1.860  0.1051E+02  0.7545E+02
      2.017  0.8809E+01  0.7684E+02
      2.175  0.1331E+02  0.7894E+02
      2.333  0.1123E+02  0.8071E+02
      2.491  0.1458E+02  0.8301E+02
      2.648  0.1363E+02  0.8515E+02
      2.806  0.1534E+02  0.8757E+02
      2.964  0.1276E+02  0.8959E+02
      3.121  0.1259E+02  0.9157E+02
      3.279  0.1307E+02  0.9363E+02
      3.437  0.9399E+01  0.9511E+02
      3.594  0.1176E+02  0.9697E+02
      3.752  0.1244E+02  0.9893E+02
      3.910  0.2044E+02  0.1022E+03
      4.068  0.1800E+02  0.1050E+03
      4.225  0.7612E+01  0.1062E+03
      4.383  0.1630E+02  0.1088E+03
      4.541  0.1331E+02  0.1109E+03
      4.698  0.1332E+02  0.1130E+03
      4.856  0.1078E+02  0.1147E+03
      5.014  0.4260E+01  0.1153E+03
      5.171  0.6837E+01  0.1164E+03
      5.329  0.1579E+02  0.1189E+03
      5.487  0.1250E+02  0.1209E+03
      5.645  0.9479E+01  0.1224E+03
      5.802  0.6959E+01  0.1235E+03
      5.960  0.2566E+01  0.1239E+03
      6.118  0.8079E+00  0.1240E+03
      6.275  0.3567E-03  0.1240E+03
      6.433  0.0000E+00  0.1240E+03
      6.591  0.1617E-07  0.1240E+03
      6.748  0.1754E+00  0.1240E+03
      6.906  0.6556E+01  0.1251E+03
      7.064  0.9699E+01  0.1266E+03
      7.221  0.1280E+02  0.1286E+03
      7.379  0.9414E+01  0.1301E+03
      7.537  0.1482E+02  0.1324E+03
      7.695  0.1749E+02  0.1352E+03
      7.852  0.1372E+02  0.1374E+03
      8.010  0.1769E+02  0.1401E+03
      8.168  0.1825E+02  0.1430E+03
      8.325  0.1575E+02  0.1455E+03
      8.483  0.1331E+02  0.1476E+03
      8.641  0.1034E+02  0.1492E+03
      8.798  0.1438E+02  0.1515E+03
      8.956  0.8799E+01  0.1529E+03
      9.114  0.1335E+02  0.1550E+03
      9.272  0.7973E+01  0.1563E+03
      9.429  0.3876E+01  0.1569E+03
      9.587  0.7087E+01  0.1580E+03
      9.745  0.4990E+01  0.1588E+03
      9.902  0.3281E+01  0.1593E+03
     10.060  0.2533E+01  0.1597E+03
     10.218  0.1863E+01  0.1600E+03
     10.375  0.1459E+00  0.1600E+03
     10.533  0.1110E+01  0.1602E+03
     10.691  0.1867E+01  0.1605E+03
     10.848  0.7063E+01  0.1616E+03
     11.006  0.3756E+01  0.1622E+03
     11.164  0.4640E+01  0.1629E+03
     11.322  0.8498E+01  0.1642E+03
     11.479  0.3783E+01  0.1648E+03
     11.637  0.3449E+01  0.1654E+03
     11.795  0.7082E+01  0.1665E+03
     11.952  0.8275E+01  0.1678E+03
     12.110  0.4395E+01  0.1685E+03
     12.268  0.6417E+01  0.1695E+03
     12.425  0.1062E+02  0.1712E+03
     12.583  0.8857E+01  0.1726E+03
     12.741  0.6392E+01  0.1736E+03
     12.899  0.8149E+01  0.1749E+03
     13.056  0.4770E+01  0.1756E+03
     13.214  0.2337E+01  0.1760E+03
     13.372  0.1906E-02  0.1760E+03
     13.529  0.0000E+00  0.1760E+03
     13.687  0.0000E+00  0.1760E+03
     13.845  0.0000E+00  0.1760E+03
     14.002  0.0000E+00  0.1760E+03
     14.160  0.0000E+00  0.1760E+03
     14.318  0.0000E+00  0.1760E+03
     14.475  0.0000E+00  0.1760E+03
     14.633  0.0000E+00  0.1760E+03
     14.791  0.0000E+00  0.1760E+03
     14.949  0.0000E+00  0.1760E+03
     15.106  0.0000E+00  0.1760E+03
     15.264  0.0000E+00  0.1760E+03
