       N       E                     dE             d eps       ncg     rms          rms(c)
DAV:   1     0.127650179142E+04    0.12765E+04   -0.62037E+04 11592   0.148E+03
DAV:   2     0.110608867170E+02   -0.12654E+04   -0.11980E+04 12144   0.389E+02
DAV:   3    -0.102047071872E+03   -0.11311E+03   -0.10737E+03 13488   0.115E+02
DAV:   4    -0.106059577068E+03   -0.40125E+01   -0.39616E+01 13072   0.209E+01
DAV:   5    -0.106118054523E+03   -0.58477E-01   -0.58376E-01 13472   0.273E+00    0.395E+01
DAV:   6    -0.101692486976E+03    0.44256E+01   -0.12498E+01 12536   0.154E+01    0.116E+01
DAV:   7    -0.101130299927E+03    0.56219E+00   -0.32203E+00 12096   0.674E+00    0.652E+00
DAV:   8    -0.100923633735E+03    0.20667E+00   -0.70574E-01 12400   0.375E+00    0.197E+00
DAV:   9    -0.100918469571E+03    0.51642E-02   -0.97045E-02 14264   0.121E+00    0.874E-01
DAV:  10    -0.100917023322E+03    0.14462E-02   -0.15714E-02 12264   0.565E-01    0.216E-01
DAV:  11    -0.100918028181E+03   -0.10049E-02   -0.41066E-03 13528   0.387E-01    0.185E-01
DAV:  12    -0.100917602004E+03    0.42618E-03   -0.21988E-03 12336   0.278E-01    0.884E-02
DAV:  13    -0.100917638062E+03   -0.36058E-04   -0.21823E-04 12592   0.689E-02    0.426E-02
DAV:  14    -0.100917688481E+03   -0.50419E-04   -0.79856E-05 13272   0.629E-02    0.276E-02
DAV:  15    -0.100917700884E+03   -0.12402E-04   -0.39416E-05 12472   0.442E-02    0.831E-03
DAV:  16    -0.100917706595E+03   -0.57110E-05   -0.80771E-06 12312   0.152E-02    0.498E-03
DAV:  17    -0.100917706959E+03   -0.36463E-06   -0.19390E-06  8400   0.109E-02
   1 F= -.10091771E+03 E0= -.10091107E+03  d E =-.132664E-01
