Mo6Se8
1.0
      4.7066240      -4.8431800       0.0000000
      4.7066240       4.8431800       0.0000000
     -0.2770730       0.0000000       6.7477360
  Mo    Se  
  6     8   
Direct
      0.4537550       0.5858690       0.7742860
      0.7742860       0.4537550       0.5858690
      0.5858690       0.7742860       0.4537550
      0.5462450       0.4141310       0.2257140
      0.2257140       0.5462450       0.4141310
      0.4141310       0.2257140       0.5462450
      0.7835860       0.7835860       0.7835860
      0.2164140       0.2164140       0.2164140
      0.2569740       0.8718030       0.6185780
      0.6185780       0.2569740       0.8718030
      0.8718030       0.6185780       0.2569740
      0.7430260       0.1281970       0.3814220
      0.3814220       0.7430260       0.1281970
      0.1281970       0.3814230       0.7430260
