unknown system                          
           1
     4.706624   -4.843180    0.000000
     4.706624    4.843180    0.000000
    -0.277073    0.000000    6.747736
   Mo   Se
     6     8
Direct configuration=     1
   0.45375500  0.58586900  0.77428600
   0.77428600  0.45375500  0.58586900
   0.58586900  0.77428600  0.45375500
   0.54624500  0.41413100  0.22571400
   0.22571400  0.54624500  0.41413100
   0.41413100  0.22571400  0.54624500
   0.78358600  0.78358600  0.78358600
   0.21641400  0.21641400  0.21641400
   0.25697400  0.87180300  0.61857800
   0.61857800  0.25697400  0.87180300
   0.87180300  0.61857800  0.25697400
   0.74302600  0.12819700  0.38142200
   0.38142200  0.74302600  0.12819700
   0.12819700  0.38142300  0.74302600
