       N       E                     dE             d eps       ncg     rms          rms(c)
DAV:   1     0.279858499491E+03    0.27986E+03   -0.19077E+04 23976   0.270E+03
DAV:   2    -0.295439339464E+01   -0.28281E+03   -0.26398E+03 22240   0.419E+02
DAV:   3    -0.140580518483E+02   -0.11104E+02   -0.10845E+02 25288   0.671E+01
DAV:   4    -0.144690911297E+02   -0.41104E+00   -0.41052E+00 29808   0.107E+01
DAV:   5    -0.144785536463E+02   -0.94625E-02   -0.94617E-02 28648   0.167E+00    0.152E+01
DAV:   6    -0.131907981521E+02    0.12878E+01   -0.28384E+00 25288   0.118E+01    0.993E+00
DAV:   7    -0.131475656497E+02    0.43233E-01   -0.90203E-02 24976   0.230E+00    0.535E+00
DAV:   8    -0.131331427413E+02    0.14423E-01   -0.12048E-02 24888   0.119E+00    0.140E-01
DAV:   9    -0.131329580730E+02    0.18467E-03   -0.17924E-03 27688   0.308E-01    0.797E-02
DAV:  10    -0.131329665956E+02   -0.85226E-05   -0.13551E-04 29720   0.760E-02    0.159E-02
DAV:  11    -0.131329690589E+02   -0.24634E-05   -0.18100E-05 25336   0.213E-02    0.753E-03
DAV:  12    -0.131329702218E+02   -0.11628E-05   -0.49922E-07 18280   0.581E-03    0.152E-03
DAV:  13    -0.131329703684E+02   -0.14660E-06   -0.86021E-08 14944   0.260E-03
   1 F= -.13132970E+02 E0= -.13130960E+02  d E =-.402103E-02
