Zn24 N16                                
   1.00000000000000     
     7.9456619799999997    0.0000000000000000   -2.8092156199999998
    -3.9728299900000001    6.8811443600000004   -2.8092156199999998
     0.0000000000000000    0.0000000000000000    8.4276458600000002
   Zn   N 
    24    16
Direct
     0.0481893799999966    0.2763928899999968    0.0240941699999979
     0.2717974899999973    0.7477012700000003    0.2236071100000032
     0.7522987299999997    0.0240952199999995    0.4759058300000021
     0.4518106200000034    0.4759047800000005    0.2282025100000027
     0.2282025100000027    0.4518106200000034    0.4759047800000005
     0.2763928899999968    0.0240941699999979    0.0481893799999966
     0.2236071100000032    0.2717974899999973    0.7477012700000003
     0.0240952199999995    0.4759058300000021    0.7522987299999997
     0.4759058300000021    0.7522987299999997    0.0240952199999995
     0.7477012700000003    0.2236071100000032    0.2717974899999973
     0.0240941699999979    0.0481893799999966    0.2763928899999968
     0.4759047800000005    0.2282025100000027    0.4518106200000034
     0.9759047800000005    0.5240941699999979    0.2477012700000003
     0.7763928899999968    0.7282025100000027    0.2522987299999997
     0.7236071100000032    0.9759058300000021    0.9518106200000034
     0.7717974899999973    0.5481893799999966    0.5240952199999995
     0.5481893799999966    0.5240952199999995    0.7717974899999973
     0.2477012700000003    0.9759047800000005    0.5240941699999979
     0.7282025100000027    0.2522987299999997    0.7763928899999968
     0.9518106200000034    0.7236071100000032    0.9759058300000021
     0.5240941699999979    0.2477012700000003    0.9759047800000005
     0.2522987299999997    0.7763928899999968    0.7282025100000027
     0.9759058300000021    0.9518106200000034    0.7236071100000032
     0.5240952199999995    0.7717974899999973    0.5481893799999966
     0.2500000000000000    0.7291215300000005    0.4791215300000005
     0.0208784699999995    0.7500000000000000    0.7708784699999995
     0.7708784699999995    0.0208784699999995    0.7500000000000000
     0.4791215300000005    0.2500000000000000    0.7291215300000005
     0.7291215300000005    0.4791215300000005    0.2500000000000000
     0.7500000000000000    0.7708784699999995    0.0208784699999995
     0.7500000000000000    0.2708784699999995    0.5208784699999995
     0.9791215300000005    0.2500000000000000    0.2291215300000005
     0.2291215300000005    0.9791215300000005    0.2500000000000000
     0.5208784699999995    0.7500000000000000    0.2708784699999995
     0.2708784699999995    0.5208784699999995    0.7500000000000000
     0.2500000000000000    0.2291215300000005    0.9791215300000005
     0.0000000000000000    0.5000000000000000    0.0000000000000000
     0.5000000000000000    0.0000000000000000    0.0000000000000000
     0.0000000000000000    0.0000000000000000    0.5000000000000000
     0.5000000000000000    0.5000000000000000    0.5000000000000000
 
  0.00000000E+00  0.00000000E+00  0.00000000E+00
  0.00000000E+00  0.00000000E+00  0.00000000E+00
  0.00000000E+00  0.00000000E+00  0.00000000E+00
  0.00000000E+00  0.00000000E+00  0.00000000E+00
  0.00000000E+00  0.00000000E+00  0.00000000E+00
  0.00000000E+00  0.00000000E+00  0.00000000E+00
  0.00000000E+00  0.00000000E+00  0.00000000E+00
  0.00000000E+00  0.00000000E+00  0.00000000E+00
  0.00000000E+00  0.00000000E+00  0.00000000E+00
  0.00000000E+00  0.00000000E+00  0.00000000E+00
  0.00000000E+00  0.00000000E+00  0.00000000E+00
  0.00000000E+00  0.00000000E+00  0.00000000E+00
  0.00000000E+00  0.00000000E+00  0.00000000E+00
  0.00000000E+00  0.00000000E+00  0.00000000E+00
  0.00000000E+00  0.00000000E+00  0.00000000E+00
  0.00000000E+00  0.00000000E+00  0.00000000E+00
  0.00000000E+00  0.00000000E+00  0.00000000E+00
  0.00000000E+00  0.00000000E+00  0.00000000E+00
  0.00000000E+00  0.00000000E+00  0.00000000E+00
  0.00000000E+00  0.00000000E+00  0.00000000E+00
  0.00000000E+00  0.00000000E+00  0.00000000E+00
  0.00000000E+00  0.00000000E+00  0.00000000E+00
  0.00000000E+00  0.00000000E+00  0.00000000E+00
  0.00000000E+00  0.00000000E+00  0.00000000E+00
  0.00000000E+00  0.00000000E+00  0.00000000E+00
  0.00000000E+00  0.00000000E+00  0.00000000E+00
  0.00000000E+00  0.00000000E+00  0.00000000E+00
  0.00000000E+00  0.00000000E+00  0.00000000E+00
  0.00000000E+00  0.00000000E+00  0.00000000E+00
  0.00000000E+00  0.00000000E+00  0.00000000E+00
  0.00000000E+00  0.00000000E+00  0.00000000E+00
  0.00000000E+00  0.00000000E+00  0.00000000E+00
  0.00000000E+00  0.00000000E+00  0.00000000E+00
  0.00000000E+00  0.00000000E+00  0.00000000E+00
  0.00000000E+00  0.00000000E+00  0.00000000E+00
  0.00000000E+00  0.00000000E+00  0.00000000E+00
  0.00000000E+00  0.00000000E+00  0.00000000E+00
  0.00000000E+00  0.00000000E+00  0.00000000E+00
  0.00000000E+00  0.00000000E+00  0.00000000E+00
  0.00000000E+00  0.00000000E+00  0.00000000E+00
