  40  40   0   0
  0.1151959E+02  0.8427647E-09  0.8427646E-09  0.8427646E-09  0.5000000E-15
  1.000000000000000E-004
  CAR 
 unknown system                          
     21.23779065    -13.95980174  301      3.07441318      1.00000000
    -13.960  0.0000E+00  0.0000E+00
    -13.842  0.0000E+00  0.0000E+00
    -13.725  0.0000E+00  0.0000E+00
    -13.608  0.0000E+00  0.0000E+00
    -13.491  0.0000E+00  0.0000E+00
    -13.373  0.0000E+00  0.0000E+00
    -13.256  0.0000E+00  0.0000E+00
    -13.139  0.0000E+00  0.0000E+00
    -13.021  0.0000E+00  0.0000E+00
    -12.904  0.0000E+00  0.0000E+00
    -12.787  0.0000E+00  0.0000E+00
    -12.669  0.0000E+00  0.0000E+00
    -12.552  0.1777E-07  0.2085E-08
    -12.435  0.1096E-01  0.1285E-02
    -12.317  0.5489E+00  0.6569E-01
    -12.200  0.2176E+01  0.3210E+00
    -12.083  0.5510E+01  0.9674E+00
    -11.965  0.3321E+01  0.1357E+01
    -11.848  0.9656E+01  0.2490E+01
    -11.731  0.8515E+01  0.3489E+01
    -11.613  0.7493E+01  0.4368E+01
    -11.496  0.1594E+02  0.6238E+01
    -11.379  0.1652E+02  0.8177E+01
    -11.261  0.1844E+02  0.1034E+02
    -11.144  0.2056E+02  0.1275E+02
    -11.027  0.3739E+02  0.1714E+02
    -10.909  0.3302E+02  0.2101E+02
    -10.792  0.5211E+02  0.2713E+02
    -10.675  0.3467E+02  0.3119E+02
    -10.557  0.6853E+01  0.3200E+02
    -10.440  0.2055E-01  0.3200E+02
    -10.323  0.3082E-07  0.3200E+02
    -10.205  0.0000E+00  0.3200E+02
    -10.088  0.0000E+00  0.3200E+02
     -9.971  0.0000E+00  0.3200E+02
     -9.853  0.0000E+00  0.3200E+02
     -9.736  0.0000E+00  0.3200E+02
     -9.619  0.0000E+00  0.3200E+02
     -9.501  0.0000E+00  0.3200E+02
     -9.384  0.0000E+00  0.3200E+02
     -9.267  0.0000E+00  0.3200E+02
     -9.149  0.0000E+00  0.3200E+02
     -9.032  0.0000E+00  0.3200E+02
     -8.915  0.0000E+00  0.3200E+02
     -8.797  0.0000E+00  0.3200E+02
     -8.680  0.0000E+00  0.3200E+02
     -8.563  0.0000E+00  0.3200E+02
     -8.446  0.0000E+00  0.3200E+02
     -8.328  0.0000E+00  0.3200E+02
     -8.211  0.0000E+00  0.3200E+02
     -8.094  0.0000E+00  0.3200E+02
     -7.976  0.0000E+00  0.3200E+02
     -7.859  0.0000E+00  0.3200E+02
     -7.742  0.0000E+00  0.3200E+02
     -7.624  0.0000E+00  0.3200E+02
     -7.507  0.0000E+00  0.3200E+02
     -7.390  0.0000E+00  0.3200E+02
     -7.272  0.0000E+00  0.3200E+02
     -7.155  0.0000E+00  0.3200E+02
     -7.038  0.0000E+00  0.3200E+02
     -6.920  0.0000E+00  0.3200E+02
     -6.803  0.0000E+00  0.3200E+02
     -6.686  0.0000E+00  0.3200E+02
     -6.568  0.0000E+00  0.3200E+02
     -6.451  0.0000E+00  0.3200E+02
     -6.334  0.0000E+00  0.3200E+02
     -6.216  0.0000E+00  0.3200E+02
     -6.099  0.0000E+00  0.3200E+02
     -5.982  0.0000E+00  0.3200E+02
     -5.864  0.0000E+00  0.3200E+02
     -5.747  0.0000E+00  0.3200E+02
     -5.630  0.0000E+00  0.3200E+02
     -5.512  0.0000E+00  0.3200E+02
     -5.395  0.0000E+00  0.3200E+02
     -5.278  0.0000E+00  0.3200E+02
     -5.160  0.0000E+00  0.3200E+02
     -5.043  0.0000E+00  0.3200E+02
     -4.926  0.4024E-08  0.3200E+02
     -4.808  0.1006E-01  0.3200E+02
     -4.691  0.2441E+01  0.3229E+02
     -4.574  0.2470E+02  0.3519E+02
     -4.456  0.3311E+02  0.3907E+02
     -4.339  0.4134E+02  0.4392E+02
     -4.222  0.4375E+02  0.4905E+02
     -4.104  0.5353E+02  0.5533E+02
     -3.987  0.4593E+02  0.6072E+02
     -3.870  0.9815E+02  0.7224E+02
     -3.752  0.1128E+03  0.8547E+02
     -3.635  0.9230E+02  0.9630E+02
     -3.518  0.1055E+03  0.1087E+03
     -3.401  0.1301E+03  0.1239E+03
     -3.283  0.1232E+03  0.1384E+03
     -3.166  0.1663E+03  0.1579E+03
     -3.049  0.1421E+03  0.1746E+03
     -2.931  0.1587E+03  0.1932E+03
     -2.814  0.2230E+03  0.2194E+03
     -2.697  0.1955E+03  0.2423E+03
     -2.579  0.1021E+03  0.2543E+03
     -2.462  0.9498E+02  0.2654E+03
     -2.345  0.4950E+02  0.2712E+03
     -2.227  0.6461E+01  0.2720E+03
     -2.110  0.1927E+01  0.2722E+03
     -1.993  0.5966E+01  0.2729E+03
     -1.875  0.2922E+02  0.2764E+03
     -1.758  0.1426E+02  0.2780E+03
     -1.641  0.4214E+01  0.2785E+03
     -1.523  0.1699E+02  0.2805E+03
     -1.406  0.1240E+02  0.2820E+03
     -1.289  0.3002E+02  0.2855E+03
     -1.171  0.1842E+02  0.2876E+03
     -1.054  0.5319E+01  0.2883E+03
     -0.937  0.1467E+02  0.2900E+03
     -0.819  0.2783E+02  0.2933E+03
     -0.702  0.2369E+02  0.2960E+03
     -0.585  0.2501E+02  0.2990E+03
     -0.467  0.1204E+02  0.3004E+03
     -0.350  0.7175E+01  0.3012E+03
     -0.233  0.1356E+02  0.3028E+03
     -0.115  0.2326E+02  0.3055E+03
      0.002  0.1061E+02  0.3068E+03
      0.119  0.1962E+02  0.3091E+03
      0.237  0.2394E+02  0.3119E+03
      0.354  0.2283E+02  0.3146E+03
      0.471  0.2841E+02  0.3179E+03
      0.589  0.2130E+02  0.3204E+03
      0.706  0.2529E+02  0.3234E+03
      0.823  0.1409E+02  0.3250E+03
      0.941  0.1422E+02  0.3267E+03
      1.058  0.1456E+02  0.3284E+03
      1.175  0.2585E+02  0.3314E+03
      1.292  0.1719E+02  0.3335E+03
      1.410  0.3068E+02  0.3371E+03
      1.527  0.2919E+02  0.3405E+03
      1.644  0.3507E+02  0.3446E+03
      1.762  0.2341E+02  0.3473E+03
      1.879  0.2337E+02  0.3501E+03
      1.996  0.1672E+02  0.3521E+03
      2.114  0.8933E+01  0.3531E+03
      2.231  0.2312E+02  0.3558E+03
      2.348  0.2927E+02  0.3592E+03
      2.466  0.1967E+02  0.3616E+03
      2.583  0.2285E+02  0.3642E+03
      2.700  0.1289E+02  0.3657E+03
      2.818  0.9678E+01  0.3669E+03
      2.935  0.1445E+01  0.3671E+03
      3.052  0.7496E+01  0.3679E+03
      3.170  0.1211E+01  0.3681E+03
      3.287  0.1461E-02  0.3681E+03
      3.404  0.8398E-10  0.3681E+03
      3.522  0.0000E+00  0.3681E+03
      3.639  0.0000E+00  0.3681E+03
      3.756  0.0000E+00  0.3681E+03
      3.874  0.0000E+00  0.3681E+03
      3.991  0.0000E+00  0.3681E+03
      4.108  0.4206E-15  0.3681E+03
      4.226  0.2625E-05  0.3681E+03
      4.343  0.3788E+00  0.3681E+03
      4.460  0.6841E+01  0.3689E+03
      4.578  0.3569E+00  0.3690E+03
      4.695  0.2263E-05  0.3690E+03
      4.812  0.7570E-14  0.3690E+03
      4.930  0.1084E-04  0.3690E+03
      5.047  0.4229E+00  0.3690E+03
      5.164  0.3365E+01  0.3694E+03
      5.282  0.2230E+01  0.3697E+03
      5.399  0.1325E+02  0.3712E+03
      5.516  0.9407E+00  0.3713E+03
      5.634  0.7605E+00  0.3714E+03
      5.751  0.4304E+01  0.3719E+03
      5.868  0.9919E+01  0.3731E+03
      5.986  0.2301E+02  0.3758E+03
      6.103  0.3898E+01  0.3762E+03
      6.220  0.5436E+01  0.3769E+03
      6.337  0.8380E+01  0.3779E+03
      6.455  0.2968E+02  0.3814E+03
      6.572  0.2555E+02  0.3843E+03
      6.689  0.4836E+01  0.3849E+03
      6.807  0.9320E+01  0.3860E+03
      6.924  0.4790E+01  0.3866E+03
      7.041  0.1516E+02  0.3884E+03
      7.159  0.1874E+02  0.3905E+03
      7.276  0.3803E+01  0.3910E+03
      7.393  0.2054E+02  0.3934E+03
      7.511  0.7347E+01  0.3943E+03
      7.628  0.1410E+02  0.3959E+03
      7.745  0.1229E+02  0.3974E+03
      7.863  0.1513E+02  0.3991E+03
      7.980  0.2886E+01  0.3995E+03
      8.097  0.3231E+01  0.3999E+03
      8.215  0.7530E+01  0.4007E+03
      8.332  0.1839E+02  0.4029E+03
      8.449  0.1920E+01  0.4031E+03
      8.567  0.1915E+02  0.4054E+03
      8.684  0.1599E+02  0.4072E+03
      8.801  0.1172E+02  0.4086E+03
      8.919  0.2245E+02  0.4113E+03
      9.036  0.1009E+02  0.4124E+03
      9.153  0.1477E+02  0.4142E+03
      9.271  0.1150E+02  0.4155E+03
      9.388  0.2070E+02  0.4180E+03
      9.505  0.1822E+02  0.4201E+03
      9.623  0.2616E+02  0.4232E+03
      9.740  0.1060E+02  0.4244E+03
      9.857  0.1315E+02  0.4259E+03
      9.975  0.2439E+02  0.4288E+03
     10.092  0.1506E+02  0.4306E+03
     10.209  0.7280E+01  0.4314E+03
     10.327  0.1145E+02  0.4328E+03
     10.444  0.1860E+02  0.4350E+03
     10.561  0.2401E+02  0.4378E+03
     10.679  0.2181E+02  0.4403E+03
     10.796  0.1336E+02  0.4419E+03
     10.913  0.1515E+02  0.4437E+03
     11.030  0.2462E+02  0.4466E+03
     11.148  0.1975E+02  0.4489E+03
     11.265  0.3700E+02  0.4532E+03
     11.382  0.2299E+02  0.4559E+03
     11.500  0.1140E+02  0.4573E+03
     11.617  0.1180E+02  0.4586E+03
     11.734  0.7785E+01  0.4596E+03
     11.852  0.5055E+01  0.4601E+03
     11.969  0.3351E+01  0.4605E+03
     12.086  0.4608E+01  0.4611E+03
     12.204  0.2179E+02  0.4636E+03
     12.321  0.3014E+02  0.4672E+03
     12.438  0.1744E+02  0.4692E+03
     12.556  0.1622E+02  0.4711E+03
     12.673  0.2490E+02  0.4740E+03
     12.790  0.3029E+02  0.4776E+03
     12.908  0.2734E+02  0.4808E+03
     13.025  0.1335E+02  0.4824E+03
     13.142  0.6663E+01  0.4832E+03
     13.260  0.1398E+02  0.4848E+03
     13.377  0.8805E+01  0.4858E+03
     13.494  0.2034E+02  0.4882E+03
     13.612  0.2594E+02  0.4913E+03
     13.729  0.2329E+02  0.4940E+03
     13.846  0.2103E+02  0.4965E+03
     13.964  0.6780E+01  0.4972E+03
     14.081  0.6836E+01  0.4981E+03
     14.198  0.1830E+02  0.5002E+03
     14.316  0.1445E+02  0.5019E+03
     14.433  0.9652E+01  0.5030E+03
     14.550  0.8404E+01  0.5040E+03
     14.668  0.1122E+02  0.5053E+03
     14.785  0.1881E+01  0.5056E+03
     14.902  0.2034E+02  0.5079E+03
     15.020  0.1590E+02  0.5098E+03
     15.137  0.2258E+02  0.5125E+03
     15.254  0.5999E+01  0.5132E+03
     15.372  0.6130E+01  0.5139E+03
     15.489  0.5913E+01  0.5146E+03
     15.606  0.7524E+01  0.5155E+03
     15.724  0.1275E+02  0.5169E+03
     15.841  0.1824E+02  0.5191E+03
     15.958  0.1915E+02  0.5213E+03
     16.075  0.5642E+01  0.5220E+03
     16.193  0.1950E+01  0.5222E+03
     16.310  0.6768E+01  0.5230E+03
     16.427  0.1462E+02  0.5247E+03
     16.545  0.6310E+01  0.5255E+03
     16.662  0.1263E+02  0.5270E+03
     16.779  0.1084E+02  0.5282E+03
     16.897  0.2244E+02  0.5309E+03
     17.014  0.1424E+02  0.5325E+03
     17.131  0.1386E+02  0.5342E+03
     17.249  0.5839E+01  0.5348E+03
     17.366  0.2159E+02  0.5374E+03
     17.483  0.1606E+02  0.5393E+03
     17.601  0.3981E+01  0.5397E+03
     17.718  0.2822E+01  0.5401E+03
     17.835  0.2765E+02  0.5433E+03
     17.953  0.1652E+02  0.5452E+03
     18.070  0.1489E+02  0.5470E+03
     18.187  0.4495E+01  0.5475E+03
     18.305  0.1984E+02  0.5498E+03
     18.422  0.8669E+01  0.5509E+03
     18.539  0.8469E+01  0.5519E+03
     18.657  0.1060E+02  0.5531E+03
     18.774  0.1059E+02  0.5543E+03
     18.891  0.9452E+01  0.5554E+03
     19.009  0.5779E+01  0.5561E+03
     19.126  0.7108E+01  0.5570E+03
     19.243  0.1451E+02  0.5587E+03
     19.361  0.7523E+01  0.5595E+03
     19.478  0.7419E-01  0.5596E+03
     19.595  0.5897E+00  0.5596E+03
     19.713  0.3156E+01  0.5600E+03
     19.830  0.4221E-01  0.5600E+03
     19.947  0.4488E-07  0.5600E+03
     20.065  0.0000E+00  0.5600E+03
     20.182  0.0000E+00  0.5600E+03
     20.299  0.0000E+00  0.5600E+03
     20.417  0.0000E+00  0.5600E+03
     20.534  0.0000E+00  0.5600E+03
     20.651  0.0000E+00  0.5600E+03
     20.768  0.0000E+00  0.5600E+03
     20.886  0.0000E+00  0.5600E+03
     21.003  0.0000E+00  0.5600E+03
     21.120  0.0000E+00  0.5600E+03
     21.238  0.0000E+00  0.5600E+03
