  32  32   0   0
  0.2745551E+02  0.9300607E-09  0.9693548E-09  0.9745081E-09  0.5000000E-15
  1.000000000000000E-004
  CAR 
 unknown system                          
      9.87494116    -19.84554333  301      3.54695467      1.00000000
    -19.846  0.0000E+00  0.0000E+00
    -19.746  0.0000E+00  0.0000E+00
    -19.647  0.0000E+00  0.0000E+00
    -19.548  0.0000E+00  0.0000E+00
    -19.449  0.0000E+00  0.0000E+00
    -19.350  0.0000E+00  0.0000E+00
    -19.251  0.0000E+00  0.0000E+00
    -19.152  0.0000E+00  0.0000E+00
    -19.053  0.0000E+00  0.0000E+00
    -18.954  0.0000E+00  0.0000E+00
    -18.855  0.0000E+00  0.0000E+00
    -18.756  0.2435E-11  0.2412E-12
    -18.657  0.9541E-04  0.9452E-05
    -18.558  0.2150E+01  0.2130E+00
    -18.459  0.6272E+02  0.6427E+01
    -18.360  0.1587E+02  0.7999E+01
    -18.260  0.1100E-01  0.8000E+01
    -18.161  0.5240E-08  0.8000E+01
    -18.062  0.0000E+00  0.8000E+01
    -17.963  0.0000E+00  0.8000E+01
    -17.864  0.0000E+00  0.8000E+01
    -17.765  0.0000E+00  0.8000E+01
    -17.666  0.0000E+00  0.8000E+01
    -17.567  0.0000E+00  0.8000E+01
    -17.468  0.0000E+00  0.8000E+01
    -17.369  0.0000E+00  0.8000E+01
    -17.270  0.0000E+00  0.8000E+01
    -17.171  0.0000E+00  0.8000E+01
    -17.072  0.0000E+00  0.8000E+01
    -16.973  0.0000E+00  0.8000E+01
    -16.873  0.0000E+00  0.8000E+01
    -16.774  0.0000E+00  0.8000E+01
    -16.675  0.0000E+00  0.8000E+01
    -16.576  0.0000E+00  0.8000E+01
    -16.477  0.0000E+00  0.8000E+01
    -16.378  0.0000E+00  0.8000E+01
    -16.279  0.0000E+00  0.8000E+01
    -16.180  0.0000E+00  0.8000E+01
    -16.081  0.0000E+00  0.8000E+01
    -15.982  0.0000E+00  0.8000E+01
    -15.883  0.0000E+00  0.8000E+01
    -15.784  0.0000E+00  0.8000E+01
    -15.685  0.0000E+00  0.8000E+01
    -15.586  0.0000E+00  0.8000E+01
    -15.487  0.0000E+00  0.8000E+01
    -15.387  0.0000E+00  0.8000E+01
    -15.288  0.0000E+00  0.8000E+01
    -15.189  0.0000E+00  0.8000E+01
    -15.090  0.0000E+00  0.8000E+01
    -14.991  0.0000E+00  0.8000E+01
    -14.892  0.0000E+00  0.8000E+01
    -14.793  0.0000E+00  0.8000E+01
    -14.694  0.0000E+00  0.8000E+01
    -14.595  0.0000E+00  0.8000E+01
    -14.496  0.0000E+00  0.8000E+01
    -14.397  0.0000E+00  0.8000E+01
    -14.298  0.0000E+00  0.8000E+01
    -14.199  0.0000E+00  0.8000E+01
    -14.100  0.0000E+00  0.8000E+01
    -14.001  0.0000E+00  0.8000E+01
    -13.901  0.0000E+00  0.8000E+01
    -13.802  0.0000E+00  0.8000E+01
    -13.703  0.0000E+00  0.8000E+01
    -13.604  0.0000E+00  0.8000E+01
    -13.505  0.0000E+00  0.8000E+01
    -13.406  0.0000E+00  0.8000E+01
    -13.307  0.0000E+00  0.8000E+01
    -13.208  0.0000E+00  0.8000E+01
    -13.109  0.0000E+00  0.8000E+01
    -13.010  0.0000E+00  0.8000E+01
    -12.911  0.0000E+00  0.8000E+01
    -12.812  0.0000E+00  0.8000E+01
    -12.713  0.0000E+00  0.8000E+01
    -12.614  0.0000E+00  0.8000E+01
    -12.514  0.0000E+00  0.8000E+01
    -12.415  0.0000E+00  0.8000E+01
    -12.316  0.0000E+00  0.8000E+01
    -12.217  0.0000E+00  0.8000E+01
    -12.118  0.0000E+00  0.8000E+01
    -12.019  0.9071E-10  0.8000E+01
    -11.920  0.4076E-03  0.8000E+01
    -11.821  0.1549E+01  0.8153E+01
    -11.722  0.1633E+02  0.9772E+01
    -11.623  0.2882E+01  0.1006E+02
    -11.524  0.2657E+02  0.1269E+02
    -11.425  0.1318E+02  0.1400E+02
    -11.326  0.9031E-01  0.1400E+02
    -11.227  0.8191E+01  0.1482E+02
    -11.128  0.1177E+02  0.1598E+02
    -11.028  0.1840E+00  0.1600E+02
    -10.929  0.5474E-05  0.1600E+02
    -10.830  0.1315E-12  0.1600E+02
    -10.731  0.0000E+00  0.1600E+02
    -10.632  0.0000E+00  0.1600E+02
    -10.533  0.0000E+00  0.1600E+02
    -10.434  0.0000E+00  0.1600E+02
    -10.335  0.0000E+00  0.1600E+02
    -10.236  0.0000E+00  0.1600E+02
    -10.137  0.0000E+00  0.1600E+02
    -10.038  0.0000E+00  0.1600E+02
     -9.939  0.3975E-09  0.1600E+02
     -9.840  0.5516E-03  0.1600E+02
     -9.741  0.1048E+01  0.1610E+02
     -9.642  0.2326E+02  0.1841E+02
     -9.542  0.5242E+02  0.2360E+02
     -9.443  0.4032E+01  0.2400E+02
     -9.344  0.1102E-02  0.2400E+02
     -9.245  0.3250E-02  0.2400E+02
     -9.146  0.3014E+01  0.2430E+02
     -9.047  0.1569E+02  0.2585E+02
     -8.948  0.1482E+01  0.2600E+02
     -8.849  0.4802E-03  0.2600E+02
     -8.750  0.9701E-03  0.2600E+02
     -8.651  0.3522E+01  0.2635E+02
     -8.552  0.3323E+02  0.2964E+02
     -8.453  0.3635E+01  0.3000E+02
     -8.354  0.3790E+01  0.3038E+02
     -8.255  0.1477E+02  0.3184E+02
     -8.155  0.2967E+01  0.3213E+02
     -8.056  0.1450E+02  0.3357E+02
     -7.957  0.5967E+01  0.3416E+02
     -7.858  0.3094E+02  0.3723E+02
     -7.759  0.7803E+01  0.3800E+02
     -7.660  0.9276E-02  0.3800E+02
     -7.561  0.1277E-07  0.3800E+02
     -7.462  0.2834E-07  0.3800E+02
     -7.363  0.1540E-01  0.3800E+02
     -7.264  0.7002E+01  0.3870E+02
     -7.165  0.1300E+02  0.3998E+02
     -7.066  0.1693E+00  0.4000E+02
     -6.967  0.2247E-05  0.4000E+02
     -6.868  0.1519E-13  0.4000E+02
     -6.769  0.0000E+00  0.4000E+02
     -6.669  0.0000E+00  0.4000E+02
     -6.570  0.0000E+00  0.4000E+02
     -6.471  0.0000E+00  0.4000E+02
     -6.372  0.0000E+00  0.4000E+02
     -6.273  0.0000E+00  0.4000E+02
     -6.174  0.2753E-07  0.4000E+02
     -6.075  0.7571E-02  0.4000E+02
     -5.976  0.1949E+01  0.4019E+02
     -5.877  0.4790E+01  0.4067E+02
     -5.778  0.9495E+01  0.4161E+02
     -5.679  0.7247E+01  0.4233E+02
     -5.580  0.4537E+02  0.4682E+02
     -5.481  0.3276E+02  0.5007E+02
     -5.382  0.5689E+02  0.5570E+02
     -5.283  0.8796E+02  0.6442E+02
     -5.183  0.5599E+02  0.6996E+02
     -5.084  0.1472E+02  0.7142E+02
     -4.985  0.5562E+01  0.7197E+02
     -4.886  0.2644E+00  0.7200E+02
     -4.787  0.4591E+00  0.7205E+02
     -4.688  0.2694E+01  0.7231E+02
     -4.589  0.7662E+01  0.7307E+02
     -4.490  0.1604E+02  0.7466E+02
     -4.391  0.6178E+02  0.8078E+02
     -4.292  0.3661E+02  0.8441E+02
     -4.193  0.1400E+02  0.8579E+02
     -4.094  0.2039E+01  0.8600E+02
     -3.995  0.3475E-01  0.8600E+02
     -3.896  0.3163E-02  0.8600E+02
     -3.796  0.3172E+01  0.8631E+02
     -3.697  0.1576E+02  0.8788E+02
     -3.598  0.1248E+01  0.8800E+02
     -3.499  0.4299E-03  0.8800E+02
     -3.400  0.1650E-09  0.8800E+02
     -3.301  0.0000E+00  0.8800E+02
     -3.202  0.0000E+00  0.8800E+02
     -3.103  0.1403E-12  0.8800E+02
     -3.004  0.3523E-05  0.8800E+02
     -2.905  0.4966E-01  0.8800E+02
     -2.806  0.2213E+01  0.8822E+02
     -2.707  0.8061E+01  0.8902E+02
     -2.608  0.8338E+01  0.8985E+02
     -2.509  0.1524E+01  0.9000E+02
     -2.410  0.2847E-02  0.9000E+02
     -2.310  0.5094E-08  0.9000E+02
     -2.211  0.2834E-10  0.9000E+02
     -2.112  0.1324E-03  0.9000E+02
     -2.013  0.4627E+00  0.9005E+02
     -1.914  0.8363E+01  0.9087E+02
     -1.815  0.2349E+02  0.9320E+02
     -1.716  0.3001E+02  0.9618E+02
     -1.617  0.1183E+02  0.9735E+02
     -1.518  0.1564E+02  0.9890E+02
     -1.419  0.1344E+02  0.1002E+03
     -1.320  0.1995E+02  0.1022E+03
     -1.221  0.7830E+01  0.1030E+03
     -1.122  0.1065E+02  0.1040E+03
     -1.023  0.4309E+02  0.1083E+03
     -0.924  0.2212E+02  0.1105E+03
     -0.824  0.7811E+01  0.1113E+03
     -0.725  0.6903E+01  0.1120E+03
     -0.626  0.3845E+01  0.1123E+03
     -0.527  0.3417E+02  0.1157E+03
     -0.428  0.2158E+02  0.1179E+03
     -0.329  0.1446E+01  0.1180E+03
     -0.230  0.3582E+00  0.1180E+03
     -0.131  0.8453E+01  0.1189E+03
     -0.032  0.9021E+01  0.1198E+03
      0.067  0.1763E+02  0.1215E+03
      0.166  0.1224E+02  0.1227E+03
      0.265  0.1819E+02  0.1245E+03
      0.364  0.1234E+02  0.1257E+03
      0.463  0.1888E+02  0.1276E+03
      0.563  0.1510E+02  0.1291E+03
      0.662  0.2265E+02  0.1314E+03
      0.761  0.5077E+02  0.1364E+03
      0.860  0.1727E+02  0.1381E+03
      0.959  0.9768E+01  0.1391E+03
      1.058  0.2856E+02  0.1419E+03
      1.157  0.2176E+02  0.1441E+03
      1.256  0.3259E+02  0.1473E+03
      1.355  0.3923E+02  0.1512E+03
      1.454  0.4185E+02  0.1553E+03
      1.553  0.2681E+02  0.1580E+03
      1.652  0.1054E+02  0.1590E+03
      1.751  0.6859E+01  0.1597E+03
      1.850  0.1267E+02  0.1610E+03
      1.949  0.2858E+02  0.1638E+03
      2.049  0.2881E+02  0.1666E+03
      2.148  0.1542E+02  0.1682E+03
      2.247  0.6689E+01  0.1688E+03
      2.346  0.4429E+01  0.1693E+03
      2.445  0.7180E+01  0.1700E+03
      2.544  0.3065E+01  0.1703E+03
      2.643  0.1059E+02  0.1713E+03
      2.742  0.2359E+02  0.1737E+03
      2.841  0.3358E+01  0.1740E+03
      2.940  0.3844E-02  0.1740E+03
      3.039  0.1044E+01  0.1741E+03
      3.138  0.8600E+01  0.1750E+03
      3.237  0.7413E+01  0.1757E+03
      3.336  0.2616E+01  0.1759E+03
      3.436  0.5123E+00  0.1760E+03
      3.535  0.1410E-02  0.1760E+03
      3.634  0.3220E-08  0.1760E+03
      3.733  0.0000E+00  0.1760E+03
      3.832  0.0000E+00  0.1760E+03
      3.931  0.0000E+00  0.1760E+03
      4.030  0.0000E+00  0.1760E+03
      4.129  0.0000E+00  0.1760E+03
      4.228  0.0000E+00  0.1760E+03
      4.327  0.0000E+00  0.1760E+03
      4.426  0.5398E-08  0.1760E+03
      4.525  0.2281E-02  0.1760E+03
      4.624  0.1044E+01  0.1761E+03
      4.723  0.5772E+01  0.1767E+03
      4.822  0.1611E+02  0.1783E+03
      4.922  0.2231E+02  0.1805E+03
      5.021  0.2872E+02  0.1833E+03
      5.120  0.6923E+01  0.1840E+03
      5.219  0.7611E+01  0.1848E+03
      5.318  0.3014E+02  0.1878E+03
      5.417  0.2962E+02  0.1907E+03
      5.516  0.2061E+02  0.1927E+03
      5.615  0.1793E+02  0.1945E+03
      5.714  0.3012E+02  0.1975E+03
      5.813  0.3329E+02  0.2008E+03
      5.912  0.2663E+02  0.2034E+03
      6.011  0.1936E+02  0.2053E+03
      6.110  0.2206E+02  0.2075E+03
      6.209  0.2748E+02  0.2103E+03
      6.308  0.3519E+02  0.2137E+03
      6.408  0.2129E+02  0.2158E+03
      6.507  0.2827E+02  0.2186E+03
      6.606  0.2651E+02  0.2213E+03
      6.705  0.3042E+02  0.2243E+03
      6.804  0.3207E+02  0.2275E+03
      6.903  0.2235E+02  0.2297E+03
      7.002  0.2139E+02  0.2318E+03
      7.101  0.1848E+02  0.2336E+03
      7.200  0.2565E+02  0.2362E+03
      7.299  0.9131E+01  0.2371E+03
      7.398  0.2183E+02  0.2392E+03
      7.497  0.1772E+02  0.2410E+03
      7.596  0.1363E+02  0.2423E+03
      7.695  0.2263E+02  0.2446E+03
      7.795  0.3407E+02  0.2480E+03
      7.894  0.2469E+02  0.2504E+03
      7.993  0.2632E+02  0.2530E+03
      8.092  0.2119E+02  0.2551E+03
      8.191  0.2435E+02  0.2575E+03
      8.290  0.3272E+02  0.2608E+03
      8.389  0.2063E+02  0.2628E+03
      8.488  0.7617E+01  0.2636E+03
      8.587  0.4294E+01  0.2640E+03
      8.686  0.1026E+00  0.2640E+03
      8.785  0.4076E-05  0.2640E+03
      8.884  0.1081E-12  0.2640E+03
      8.983  0.0000E+00  0.2640E+03
      9.082  0.0000E+00  0.2640E+03
      9.181  0.0000E+00  0.2640E+03
      9.281  0.0000E+00  0.2640E+03
      9.380  0.0000E+00  0.2640E+03
      9.479  0.0000E+00  0.2640E+03
      9.578  0.0000E+00  0.2640E+03
      9.677  0.0000E+00  0.2640E+03
      9.776  0.0000E+00  0.2640E+03
      9.875  0.0000E+00  0.2640E+03
