Cs4 P28
1.0
   9.3006068899999992    0.0000000000000000    0.0000000000000000
  -0.0000000000000000    9.6935475899999997    0.0000000000000000
   0.0000000000000000    0.0000000000000000    9.7450809599999992
Cs P
4 28
direct
   0.7868069300000000    0.2500000000000000    0.0000000000000000 Cs
   0.2131930700000000    0.7500000000000000    0.5000000000000000 Cs
   0.2131930700000000    0.7500000000000000    0.0000000000000000 Cs
   0.7868069300000000    0.2500000000000000    0.5000000000000000 Cs
   0.5638170500000000    0.8381541100000000    0.7500000000000000 P
   0.4361829500000000    0.1618458900000000    0.2500000000000000 P
   0.5638170500000000    0.6618458900000000    0.2500000000000000 P
   0.4361829500000000    0.3381541100000000    0.7500000000000000 P
   0.8338307700000001    0.6303700600000000    0.6357949400000000 P
   0.1661692300000000    0.3696299400000000    0.1357949400000000 P
   0.8338307700000001    0.8696299400000000    0.3642050600000000 P
   0.1661692300000000    0.1303700600000000    0.8642050600000000 P
   0.1661692300000000    0.3696299400000000    0.3642050600000000 P
   0.8338307700000001    0.6303700600000000    0.8642050600000000 P
   0.1661692300000000    0.1303700600000000    0.6357949400000000 P
   0.8338307700000001    0.8696299400000000    0.1357949400000000 P
   0.7486285900000000    0.9691459400000000    0.7500000000000000 P
   0.2513714100000000    0.0308540600000000    0.2500000000000000 P
   0.7486285900000000    0.5308540600000000    0.2500000000000000 P
   0.2513714100000000    0.4691459400000000    0.7500000000000000 P
   0.9124571100000000    0.8155641000000000    0.7500000000000000 P
   0.0875428900000000    0.1844359000000000    0.2500000000000000 P
   0.9124571100000000    0.6844359000000000    0.2500000000000000 P
   0.0875428900000000    0.3155641000000000    0.7500000000000000 P
   0.6077294600000001    0.6813173500000000    0.9091304500000000 P
   0.3922705400000000    0.3186826500000000    0.4091304500000000 P
   0.6077294600000001    0.8186826500000000    0.0908695500000000 P
   0.3922705400000000    0.1813173500000000    0.5908695500000000 P
   0.3922705400000000    0.3186826500000000    0.0908695500000000 P
   0.6077294600000001    0.6813173500000000    0.5908695500000000 P
   0.3922705400000000    0.1813173500000000    0.9091304500000000 P
   0.6077294600000001    0.8186826500000000    0.4091304500000000 P
