   6   6   0   0
  0.1663450E+02  0.5245995E-09  0.5246085E-09  0.4187590E-09  0.5000000E-15
  1.000000000000000E-004
  CAR 
 unknown system                          
     27.84462640    -13.21225660  301     10.19208795      1.00000000
    -13.212  0.0000E+00  0.0000E+00
    -13.075  0.0000E+00  0.0000E+00
    -12.939  0.0000E+00  0.0000E+00
    -12.802  0.0000E+00  0.0000E+00
    -12.665  0.0000E+00  0.0000E+00
    -12.528  0.0000E+00  0.0000E+00
    -12.391  0.0000E+00  0.0000E+00
    -12.254  0.0000E+00  0.0000E+00
    -12.117  0.0000E+00  0.0000E+00
    -11.981  0.0000E+00  0.0000E+00
    -11.844  0.0000E+00  0.0000E+00
    -11.707  0.0000E+00  0.0000E+00
    -11.570  0.3320E-09  0.4544E-10
    -11.433  0.4452E-01  0.6092E-02
    -11.296  0.2607E+02  0.3574E+01
    -11.159  0.6618E+02  0.1263E+02
    -11.023  0.9315E+02  0.2538E+02
    -10.886  0.3374E+02  0.3000E+02
    -10.749  0.2336E-01  0.3000E+02
    -10.612  0.9040E-10  0.3000E+02
    -10.475  0.0000E+00  0.3000E+02
    -10.338  0.0000E+00  0.3000E+02
    -10.201  0.0000E+00  0.3000E+02
    -10.065  0.0000E+00  0.3000E+02
     -9.928  0.0000E+00  0.3000E+02
     -9.791  0.0000E+00  0.3000E+02
     -9.654  0.0000E+00  0.3000E+02
     -9.517  0.0000E+00  0.3000E+02
     -9.380  0.0000E+00  0.3000E+02
     -9.243  0.0000E+00  0.3000E+02
     -9.107  0.0000E+00  0.3000E+02
     -8.970  0.0000E+00  0.3000E+02
     -8.833  0.0000E+00  0.3000E+02
     -8.696  0.0000E+00  0.3000E+02
     -8.559  0.0000E+00  0.3000E+02
     -8.422  0.0000E+00  0.3000E+02
     -8.285  0.0000E+00  0.3000E+02
     -8.149  0.0000E+00  0.3000E+02
     -8.012  0.0000E+00  0.3000E+02
     -7.875  0.0000E+00  0.3000E+02
     -7.738  0.0000E+00  0.3000E+02
     -7.601  0.0000E+00  0.3000E+02
     -7.464  0.0000E+00  0.3000E+02
     -7.327  0.0000E+00  0.3000E+02
     -7.191  0.0000E+00  0.3000E+02
     -7.054  0.0000E+00  0.3000E+02
     -6.917  0.0000E+00  0.3000E+02
     -6.780  0.0000E+00  0.3000E+02
     -6.643  0.0000E+00  0.3000E+02
     -6.506  0.0000E+00  0.3000E+02
     -6.369  0.0000E+00  0.3000E+02
     -6.233  0.0000E+00  0.3000E+02
     -6.096  0.0000E+00  0.3000E+02
     -5.959  0.0000E+00  0.3000E+02
     -5.822  0.0000E+00  0.3000E+02
     -5.685  0.0000E+00  0.3000E+02
     -5.548  0.0000E+00  0.3000E+02
     -5.411  0.0000E+00  0.3000E+02
     -5.275  0.0000E+00  0.3000E+02
     -5.138  0.0000E+00  0.3000E+02
     -5.001  0.0000E+00  0.3000E+02
     -4.864  0.0000E+00  0.3000E+02
     -4.727  0.0000E+00  0.3000E+02
     -4.590  0.0000E+00  0.3000E+02
     -4.453  0.0000E+00  0.3000E+02
     -4.317  0.0000E+00  0.3000E+02
     -4.180  0.0000E+00  0.3000E+02
     -4.043  0.0000E+00  0.3000E+02
     -3.906  0.0000E+00  0.3000E+02
     -3.769  0.0000E+00  0.3000E+02
     -3.632  0.0000E+00  0.3000E+02
     -3.495  0.0000E+00  0.3000E+02
     -3.359  0.0000E+00  0.3000E+02
     -3.222  0.0000E+00  0.3000E+02
     -3.085  0.0000E+00  0.3000E+02
     -2.948  0.0000E+00  0.3000E+02
     -2.811  0.0000E+00  0.3000E+02
     -2.674  0.0000E+00  0.3000E+02
     -2.537  0.0000E+00  0.3000E+02
     -2.401  0.0000E+00  0.3000E+02
     -2.264  0.0000E+00  0.3000E+02
     -2.127  0.0000E+00  0.3000E+02
     -1.990  0.0000E+00  0.3000E+02
     -1.853  0.0000E+00  0.3000E+02
     -1.716  0.0000E+00  0.3000E+02
     -1.579  0.3310E-13  0.3000E+02
     -1.443  0.4161E-04  0.3000E+02
     -1.306  0.5999E-01  0.3001E+02
     -1.169  0.6701E-01  0.3002E+02
     -1.032  0.3314E+00  0.3006E+02
     -0.895  0.3761E+00  0.3011E+02
     -0.758  0.9126E+00  0.3024E+02
     -0.621  0.8247E-01  0.3025E+02
     -0.485  0.1205E+00  0.3027E+02
     -0.348  0.7302E+00  0.3037E+02
     -0.211  0.1658E+01  0.3059E+02
     -0.074  0.5807E+00  0.3067E+02
      0.063  0.8657E+00  0.3079E+02
      0.200  0.3438E+00  0.3084E+02
      0.337  0.9648E+00  0.3097E+02
      0.473  0.8482E+00  0.3109E+02
      0.610  0.1651E+01  0.3131E+02
      0.747  0.9112E+00  0.3144E+02
      0.884  0.1151E+00  0.3145E+02
      1.021  0.1360E+01  0.3164E+02
      1.158  0.1606E+01  0.3186E+02
      1.295  0.1530E+01  0.3207E+02
      1.431  0.4139E+00  0.3213E+02
      1.568  0.1317E+01  0.3231E+02
      1.705  0.1717E+01  0.3254E+02
      1.842  0.1193E+01  0.3270E+02
      1.979  0.9105E+00  0.3283E+02
      2.116  0.1405E+00  0.3285E+02
      2.253  0.2187E+01  0.3315E+02
      2.389  0.2485E+01  0.3349E+02
      2.526  0.1509E+01  0.3369E+02
      2.663  0.3342E+01  0.3415E+02
      2.800  0.2766E+01  0.3453E+02
      2.937  0.1389E+01  0.3472E+02
      3.074  0.1564E+01  0.3493E+02
      3.210  0.1143E+01  0.3509E+02
      3.347  0.1138E+01  0.3525E+02
      3.484  0.1412E+01  0.3544E+02
      3.621  0.7964E-02  0.3544E+02
      3.758  0.1259E+01  0.3561E+02
      3.895  0.1719E+01  0.3585E+02
      4.032  0.5277E+00  0.3592E+02
      4.168  0.6974E-04  0.3592E+02
      4.305  0.2438E-02  0.3592E+02
      4.442  0.1602E+01  0.3614E+02
      4.579  0.5949E+00  0.3622E+02
      4.716  0.3769E+00  0.3627E+02
      4.853  0.8939E+00  0.3639E+02
      4.990  0.7461E+00  0.3650E+02
      5.126  0.9000E+00  0.3662E+02
      5.263  0.3421E+01  0.3709E+02
      5.400  0.1815E+01  0.3734E+02
      5.537  0.1330E+01  0.3752E+02
      5.674  0.3096E+01  0.3794E+02
      5.811  0.2455E+01  0.3828E+02
      5.948  0.1186E+01  0.3844E+02
      6.084  0.2071E+01  0.3872E+02
      6.221  0.2171E+01  0.3902E+02
      6.358  0.4601E+01  0.3965E+02
      6.495  0.2894E+01  0.4005E+02
      6.632  0.4268E+01  0.4063E+02
      6.769  0.2262E+01  0.4094E+02
      6.906  0.5132E+01  0.4164E+02
      7.042  0.3829E+01  0.4217E+02
      7.179  0.1234E+01  0.4234E+02
      7.316  0.3584E+01  0.4283E+02
      7.453  0.8483E+01  0.4399E+02
      7.590  0.9470E+01  0.4528E+02
      7.727  0.4697E+01  0.4593E+02
      7.864  0.4506E+01  0.4654E+02
      8.000  0.9105E+01  0.4779E+02
      8.137  0.1206E+02  0.4944E+02
      8.274  0.1155E+02  0.5102E+02
      8.411  0.1341E+02  0.5285E+02
      8.548  0.7985E+01  0.5395E+02
      8.685  0.1001E+02  0.5532E+02
      8.822  0.8830E+01  0.5653E+02
      8.958  0.7931E+01  0.5761E+02
      9.095  0.3269E+01  0.5806E+02
      9.232  0.8633E+01  0.5924E+02
      9.369  0.5672E+01  0.6002E+02
      9.506  0.5168E+01  0.6072E+02
      9.643  0.1591E+02  0.6290E+02
      9.780  0.1806E+02  0.6537E+02
      9.916  0.1402E+02  0.6729E+02
     10.053  0.9351E+01  0.6857E+02
     10.190  0.3099E+01  0.6900E+02
     10.327  0.1916E+01  0.6926E+02
     10.464  0.3902E+01  0.6979E+02
     10.601  0.3193E+01  0.7023E+02
     10.738  0.2927E+01  0.7063E+02
     10.874  0.5218E+01  0.7134E+02
     11.011  0.4324E+01  0.7194E+02
     11.148  0.4107E+01  0.7250E+02
     11.285  0.4140E+01  0.7306E+02
     11.422  0.2469E+01  0.7340E+02
     11.559  0.3485E+01  0.7388E+02
     11.696  0.3196E+01  0.7432E+02
     11.832  0.2845E+01  0.7471E+02
     11.969  0.5557E+00  0.7478E+02
     12.106  0.1619E+01  0.7500E+02
     12.243  0.1584E+01  0.7522E+02
     12.380  0.3187E+01  0.7566E+02
     12.517  0.3885E+01  0.7619E+02
     12.654  0.6734E+00  0.7628E+02
     12.790  0.1069E+01  0.7643E+02
     12.927  0.3360E+01  0.7689E+02
     13.064  0.3169E+01  0.7732E+02
     13.201  0.1330E+01  0.7750E+02
     13.338  0.1403E+01  0.7769E+02
     13.475  0.3558E+01  0.7818E+02
     13.612  0.4586E+01  0.7881E+02
     13.748  0.1943E+01  0.7907E+02
     13.885  0.2128E+01  0.7937E+02
     14.022  0.3880E+01  0.7990E+02
     14.159  0.5515E+00  0.7997E+02
     14.296  0.1553E+01  0.8018E+02
     14.433  0.4227E+01  0.8076E+02
     14.570  0.4347E+01  0.8136E+02
     14.706  0.3201E+01  0.8180E+02
     14.843  0.2635E+01  0.8216E+02
     14.980  0.1047E+01  0.8230E+02
     15.117  0.3228E+01  0.8274E+02
     15.254  0.5101E+01  0.8344E+02
     15.391  0.2372E+01  0.8376E+02
     15.528  0.2163E+01  0.8406E+02
     15.664  0.2582E+01  0.8441E+02
     15.801  0.2455E+01  0.8475E+02
     15.938  0.2452E+01  0.8509E+02
     16.075  0.1734E+01  0.8532E+02
     16.212  0.1755E+01  0.8556E+02
     16.349  0.1077E+01  0.8571E+02
     16.486  0.9682E+00  0.8584E+02
     16.622  0.6653E+01  0.8675E+02
     16.759  0.4491E+01  0.8737E+02
     16.896  0.1640E+01  0.8759E+02
     17.033  0.1149E+01  0.8775E+02
     17.170  0.2406E+01  0.8808E+02
     17.307  0.2354E+01  0.8840E+02
     17.444  0.2068E+01  0.8868E+02
     17.580  0.1147E+01  0.8884E+02
     17.717  0.2118E+01  0.8913E+02
     17.854  0.3254E+01  0.8958E+02
     17.991  0.2850E+01  0.8997E+02
     18.128  0.1167E+01  0.9013E+02
     18.265  0.1554E+01  0.9034E+02
     18.402  0.3695E+01  0.9084E+02
     18.538  0.3679E+01  0.9135E+02
     18.675  0.2228E+01  0.9165E+02
     18.812  0.3771E+00  0.9170E+02
     18.949  0.2122E+01  0.9199E+02
     19.086  0.1628E+01  0.9222E+02
     19.223  0.3712E+01  0.9273E+02
     19.360  0.3799E+01  0.9325E+02
     19.496  0.4961E+01  0.9392E+02
     19.633  0.2350E+01  0.9425E+02
     19.770  0.2956E+01  0.9465E+02
     19.907  0.2740E+01  0.9503E+02
     20.044  0.3192E+01  0.9546E+02
     20.181  0.5894E+01  0.9627E+02
     20.318  0.2966E+01  0.9668E+02
     20.454  0.2214E+01  0.9698E+02
     20.591  0.5575E+01  0.9774E+02
     20.728  0.2078E+01  0.9803E+02
     20.865  0.2364E+01  0.9835E+02
     21.002  0.3187E+01  0.9879E+02
     21.139  0.3096E+01  0.9921E+02
     21.276  0.3880E+01  0.9974E+02
     21.412  0.2103E+01  0.1000E+03
     21.549  0.3134E+01  0.1005E+03
     21.686  0.2528E+01  0.1008E+03
     21.823  0.3254E+01  0.1012E+03
     21.960  0.4851E+01  0.1019E+03
     22.097  0.3355E+01  0.1024E+03
     22.234  0.4612E+01  0.1030E+03
     22.370  0.9779E+00  0.1031E+03
     22.507  0.2886E+01  0.1035E+03
     22.644  0.3362E+01  0.1040E+03
     22.781  0.3636E+01  0.1045E+03
     22.918  0.4000E+01  0.1050E+03
     23.055  0.4327E+01  0.1056E+03
     23.192  0.3024E+01  0.1060E+03
     23.328  0.4611E+01  0.1067E+03
     23.465  0.1565E+01  0.1069E+03
     23.602  0.2316E+01  0.1072E+03
     23.739  0.3980E+01  0.1077E+03
     23.876  0.5403E+01  0.1085E+03
     24.013  0.2464E+01  0.1088E+03
     24.150  0.1765E+01  0.1091E+03
     24.286  0.1181E+01  0.1092E+03
     24.423  0.3886E+01  0.1098E+03
     24.560  0.4210E+01  0.1103E+03
     24.697  0.1645E+01  0.1106E+03
     24.834  0.3645E+01  0.1111E+03
     24.971  0.4312E+00  0.1111E+03
     25.108  0.1425E+01  0.1113E+03
     25.244  0.5154E+00  0.1114E+03
     25.381  0.2770E+01  0.1118E+03
     25.518  0.2173E+00  0.1118E+03
     25.655  0.2246E+00  0.1118E+03
     25.792  0.5592E+00  0.1119E+03
     25.929  0.2591E+00  0.1119E+03
     26.065  0.4569E+00  0.1120E+03
     26.202  0.3181E-02  0.1120E+03
     26.339  0.4974E-10  0.1120E+03
     26.476  0.0000E+00  0.1120E+03
     26.613  0.0000E+00  0.1120E+03
     26.750  0.0000E+00  0.1120E+03
     26.887  0.0000E+00  0.1120E+03
     27.023  0.0000E+00  0.1120E+03
     27.160  0.0000E+00  0.1120E+03
     27.297  0.0000E+00  0.1120E+03
     27.434  0.0000E+00  0.1120E+03
     27.571  0.0000E+00  0.1120E+03
     27.708  0.0000E+00  0.1120E+03
     27.845  0.0000E+00  0.1120E+03
