       N       E                     dE             d eps       ncg     rms          rms(c)
DAV:   1     0.764635233306E+03    0.76464E+03   -0.31483E+04 21168   0.215E+03
DAV:   2     0.105160962057E+03   -0.65947E+03   -0.61510E+03 19600   0.566E+02
DAV:   3    -0.273525709384E+02   -0.13251E+03   -0.12701E+03 20296   0.204E+02
DAV:   4    -0.355234935040E+02   -0.81709E+01   -0.81338E+01 22536   0.550E+01
DAV:   5    -0.357451905568E+02   -0.22170E+00   -0.22165E+00 26192   0.846E+00    0.146E+01
DAV:   6    -0.370616647802E+02   -0.13165E+01   -0.13644E+01 24992   0.393E+01    0.146E+01
DAV:   7    -0.334715766623E+02    0.35901E+01   -0.85273E+00 24056   0.303E+01    0.476E+00
DAV:   8    -0.332162960034E+02    0.25528E+00   -0.78168E-01 25368   0.620E+00    0.884E-01
DAV:   9    -0.332128436384E+02    0.34524E-02   -0.94117E-02 24352   0.280E+00    0.712E-01
DAV:  10    -0.332110639738E+02    0.17797E-02   -0.21737E-02 23208   0.163E+00    0.365E-01
DAV:  11    -0.332096450782E+02    0.14189E-02   -0.35264E-03 25296   0.670E-01    0.110E-01
DAV:  12    -0.332103881768E+02   -0.74310E-03   -0.24727E-03 24784   0.548E-01    0.346E-01
DAV:  13    -0.332096548804E+02    0.73330E-03   -0.20608E-03 24512   0.487E-01    0.307E-02
DAV:  14    -0.332096643550E+02   -0.94746E-05   -0.10373E-04 22992   0.803E-02    0.147E-02
DAV:  15    -0.332096643422E+02    0.12828E-07   -0.11767E-05 24464   0.278E-02    0.456E-03
DAV:  16    -0.332096642609E+02    0.81343E-07   -0.15828E-06 16992   0.121E-02
   1 F= -.33209664E+02 E0= -.33208226E+02  d E =-.287708E-02
