       N       E                     dE             d eps       ncg     rms          rms(c)
DAV:   1     0.115737391244E+03    0.11574E+03   -0.86261E+03 53020   0.172E+03
DAV:   2     0.136240114143E+01   -0.11437E+03   -0.11152E+03 54172   0.359E+02
DAV:   3    -0.388394400956E+01   -0.52463E+01   -0.52121E+01 63556   0.828E+01
DAV:   4    -0.400232495263E+01   -0.11838E+00   -0.11833E+00 64328   0.128E+01
DAV:   5    -0.400740324893E+01   -0.50783E-02   -0.50777E-02 72100   0.252E+00    0.642E-01
DAV:   6    -0.399217362085E+01    0.15230E-01   -0.20502E-02 67044   0.273E+00    0.297E-01
DAV:   7    -0.398820478927E+01    0.39688E-02   -0.81319E-03 67808   0.160E+00    0.887E-02
DAV:   8    -0.398792564624E+01    0.27914E-03   -0.41052E-04 82104   0.371E-01    0.911E-03
DAV:   9    -0.398792234146E+01    0.33048E-05   -0.66673E-06 68168   0.513E-02    0.438E-03
DAV:  10    -0.398792253551E+01   -0.19406E-06   -0.41708E-07 62752   0.666E-03    0.124E-04
DAV:  11    -0.398792250855E+01    0.26958E-07   -0.82647E-09 46796   0.134E-03    0.724E-05
DAV:  12    -0.398792250099E+01    0.75636E-08   -0.20746E-09 40180   0.729E-04
   1 F= -.44571004E+01 E0= -.44571004E+01  d E =0.000000E+00
