Tc6 Os2                                 
   1.00000000000000     
     5.4876962699999998    0.0000000000000000    0.0000000000000000
    -2.7438476299999999    4.7524832200000002    0.0000000000000000
     0.0000000000000000    0.0000000000000000    4.3511436699999999
   Tc   Os
     6     2
Direct
     0.8343324000000010    0.1656666000000016    0.7499990000000025
     0.3313332099999968    0.1656666000000016    0.7499990000000025
     0.8343324000000010    0.6686647900000011    0.7499990000000025
     0.1656666000000016    0.8343324000000010    0.2499979999999979
     0.6686677900000007    0.8343324000000010    0.2499979999999979
     0.1656666000000016    0.3313312100000019    0.2499979999999979
     0.6666650000000018    0.3333310000000012    0.2499979999999979
     0.3333330000000032    0.6666659999999993    0.7499990000000025
 
  0.00000000E+00  0.00000000E+00  0.00000000E+00
  0.00000000E+00  0.00000000E+00  0.00000000E+00
  0.00000000E+00  0.00000000E+00  0.00000000E+00
  0.00000000E+00  0.00000000E+00  0.00000000E+00
  0.00000000E+00  0.00000000E+00  0.00000000E+00
  0.00000000E+00  0.00000000E+00  0.00000000E+00
  0.00000000E+00  0.00000000E+00  0.00000000E+00
  0.00000000E+00  0.00000000E+00  0.00000000E+00
