       N       E                     dE             d eps       ncg     rms          rms(c)
DAV:   1     0.171039694868E+04    0.17104E+04   -0.63928E+04 25216   0.186E+03
DAV:   2     0.325359609080E+02   -0.16779E+04   -0.16209E+04 25200   0.588E+02
DAV:   3    -0.877283437786E+02   -0.12026E+03   -0.10971E+03 27768   0.171E+02
DAV:   4    -0.909206955888E+02   -0.31924E+01   -0.31613E+01 26680   0.288E+01
DAV:   5    -0.909583852820E+02   -0.37690E-01   -0.37675E-01 27616   0.322E+00    0.467E+01
DAV:   6    -0.858061563369E+02    0.51522E+01   -0.10278E+01 26744   0.164E+01    0.158E+01
DAV:   7    -0.853182987345E+02    0.48786E+00   -0.30724E+00 27504   0.886E+00    0.549E+00
DAV:   8    -0.850741420791E+02    0.24416E+00   -0.40251E-01 29896   0.486E+00    0.146E+00
DAV:   9    -0.850537523881E+02    0.20390E-01   -0.65814E-02 26136   0.987E-01    0.672E-01
DAV:  10    -0.850507318786E+02    0.30205E-02   -0.58085E-03 27744   0.503E-01    0.204E-01
DAV:  11    -0.850506239973E+02    0.10788E-03   -0.58539E-04 28256   0.142E-01    0.701E-02
DAV:  12    -0.850506188442E+02    0.51531E-05   -0.53934E-05 26600   0.511E-02    0.513E-02
DAV:  13    -0.850506030436E+02    0.15801E-04   -0.14992E-05 26808   0.302E-02    0.161E-02
DAV:  14    -0.850505980971E+02    0.49466E-05   -0.38286E-06 20864   0.127E-02    0.921E-03
DAV:  15    -0.850505963084E+02    0.17886E-05   -0.12247E-06 13832   0.834E-03    0.597E-03
DAV:  16    -0.850505958750E+02    0.43337E-06   -0.24306E-07 13152   0.359E-03
   1 F= -.85050596E+02 E0= -.85043791E+02  d E =-.136089E-01
