Ge6 Mo10                                
   1.00000000000000     
     4.6752762399999996    0.0000000000000000    1.6672304499999999
     2.3376376099999998    6.9639258499999999    0.8336152300000000
    -0.0014592400000000    0.0000000000000000    7.3929515700000001
   Ge   Mo
     6    10
Direct
     0.7500000000000000    0.0000000000000000    0.0000000000000000
     0.2500000000000000    0.0000000000000000    0.0000000000000000
     0.8320083699999969    0.5000000000000000    0.8359822600000015
     0.6679916300000031    0.1640177399999985    0.5000000000000000
     0.3320083699999969    0.8359822600000015    0.5000000000000000
     0.1679916300000031    0.5000000000000000    0.1640177399999985
     0.4227232300000026    0.3070413599999995    0.8475121800000025
     0.5772767699999974    0.6929586400000005    0.1524878199999975
     0.2500000000000000    0.5000000000000000    0.5000000000000000
     0.7500000000000000    0.5000000000000000    0.5000000000000000
     0.7297635899999975    0.8475121800000025    0.6929586400000005
     0.2702364100000025    0.1524878199999975    0.3070413599999995
     0.9227232300000026    0.8475121800000025    0.3070413599999995
     0.2297635899999975    0.6929586400000005    0.8475121800000025
     0.7702364100000025    0.3070413599999995    0.1524878199999975
     0.0772767699999974    0.1524878199999975    0.6929586400000005
 
  0.00000000E+00  0.00000000E+00  0.00000000E+00
  0.00000000E+00  0.00000000E+00  0.00000000E+00
  0.00000000E+00  0.00000000E+00  0.00000000E+00
  0.00000000E+00  0.00000000E+00  0.00000000E+00
  0.00000000E+00  0.00000000E+00  0.00000000E+00
  0.00000000E+00  0.00000000E+00  0.00000000E+00
  0.00000000E+00  0.00000000E+00  0.00000000E+00
  0.00000000E+00  0.00000000E+00  0.00000000E+00
  0.00000000E+00  0.00000000E+00  0.00000000E+00
  0.00000000E+00  0.00000000E+00  0.00000000E+00
  0.00000000E+00  0.00000000E+00  0.00000000E+00
  0.00000000E+00  0.00000000E+00  0.00000000E+00
  0.00000000E+00  0.00000000E+00  0.00000000E+00
  0.00000000E+00  0.00000000E+00  0.00000000E+00
  0.00000000E+00  0.00000000E+00  0.00000000E+00
  0.00000000E+00  0.00000000E+00  0.00000000E+00
