Ge6 Mo10
1.0
   4.6752762399999996   -0.0000000000000000    1.6672304499999999
   2.3376376099999998    6.9639258499999999    0.8336152300000000
  -0.0014592400000000    0.0000000000000000    7.3929515700000001
Ge Mo
6 10
direct
   0.7500000000000000   -0.0000000000000000    0.0000000000000000 Ge
   0.2500000000000000   -0.0000000000000000    0.0000000000000000 Ge
   0.8320083700000001    0.5000000000000000    0.8359822600000000 Ge
   0.6679916299999999    0.1640177400000000    0.5000000000000000 Ge
   0.3320083700000000    0.8359822600000000    0.5000000000000000 Ge
   0.1679916300000000    0.5000000000000000    0.1640177400000000 Ge
   0.4227232300000000    0.3070413600000000    0.8475121799999999 Mo
   0.5772767700000000    0.6929586400000000    0.1524878200000000 Mo
   0.2500000000000000    0.5000000000000000    0.5000000000000000 Mo
   0.7500000000000000    0.5000000000000000    0.5000000000000000 Mo
   0.7297635900000000    0.8475121799999999    0.6929586400000000 Mo
   0.2702364100000000    0.1524878200000000    0.3070413600000000 Mo
   0.9227232300000000    0.8475121799999999    0.3070413600000000 Mo
   0.2297635900000000    0.6929586400000000    0.8475121799999999 Mo
   0.7702364100000000    0.3070413600000000    0.1524878200000000 Mo
   0.0772767700000000    0.1524878200000000    0.6929586400000000 Mo
