Ge6Mo10
1.0
      4.6752762       0.0000000       1.6672304
      2.3376376       6.9639258       0.8336152
     -0.0014592       0.0000000       7.3929516
  Ge    Mo  
  6     10  
Direct
      0.7500000       0.0000000       0.0000000
      0.2500000       0.0000000       0.0000000
      0.8320084       0.5000000       0.8359823
      0.6679916       0.1640177       0.5000000
      0.3320084       0.8359823       0.5000000
      0.1679916       0.5000000       0.1640177
      0.4227232       0.3070414       0.8475122
      0.5772768       0.6929586       0.1524878
      0.2500000       0.5000000       0.5000000
      0.7500000       0.5000000       0.5000000
      0.7297636       0.8475122       0.6929586
      0.2702364       0.1524878       0.3070414
      0.9227232       0.8475122       0.3070414
      0.2297636       0.6929586       0.8475122
      0.7702364       0.3070414       0.1524878
      0.0772768       0.1524878       0.6929586
