unknown system                          
           1
     4.675276    0.000000    1.667230
     2.337638    6.963926    0.833615
    -0.001459    0.000000    7.392952
   Ge   Mo
     6    10
Direct configuration=     1
   0.75000000  0.00000000  0.00000000
   0.25000000  0.00000000  0.00000000
   0.83200837  0.50000000  0.83598226
   0.66799163  0.16401774  0.50000000
   0.33200837  0.83598226  0.50000000
   0.16799163  0.50000000  0.16401774
   0.42272323  0.30704136  0.84751218
   0.57727677  0.69295864  0.15248782
   0.25000000  0.50000000  0.50000000
   0.75000000  0.50000000  0.50000000
   0.72976359  0.84751218  0.69295864
   0.27023641  0.15248782  0.30704136
   0.92272323  0.84751218  0.30704136
   0.22976359  0.69295864  0.84751218
   0.77023641  0.30704136  0.15248782
   0.07727677  0.15248782  0.69295864
