       N       E                     dE             d eps       ncg     rms          rms(c)
DAV:   1     0.362941253873E+03    0.36294E+03   -0.22075E+04  4032   0.163E+03
DAV:   2    -0.132303612478E+02   -0.37617E+03   -0.36839E+03  6704   0.284E+02
DAV:   3    -0.426137558624E+02   -0.29383E+02   -0.29168E+02  4724   0.867E+01
DAV:   4    -0.434552702529E+02   -0.84151E+00   -0.84088E+00  5920   0.130E+01
DAV:   5    -0.434669130295E+02   -0.11643E-01   -0.11639E-01  4684   0.160E+00    0.107E+01
DAV:   6    -0.410515834126E+02    0.24153E+01   -0.33212E+00  4496   0.640E+00    0.568E+00
DAV:   7    -0.405453516943E+02    0.50623E+00   -0.32206E+00  4348   0.644E+00    0.138E+00
DAV:   8    -0.405912144400E+02   -0.45863E-01   -0.23974E-01  4544   0.207E+00    0.361E-01
DAV:   9    -0.405943831625E+02   -0.31687E-02   -0.40627E-02  4460   0.789E-01    0.199E-01
DAV:  10    -0.405954013247E+02   -0.10182E-02   -0.72988E-03  4512   0.341E-01    0.572E-02
DAV:  11    -0.405955871952E+02   -0.18587E-03   -0.56999E-04  4724   0.117E-01    0.268E-02
DAV:  12    -0.405955870098E+02    0.18541E-06   -0.58113E-05  5160   0.291E-02    0.636E-03
DAV:  13    -0.405955881615E+02   -0.11517E-05   -0.61608E-06  3340   0.114E-02    0.532E-03
DAV:  14    -0.405955884577E+02   -0.29624E-06   -0.55958E-07  2664   0.524E-03
   1 F= -.40595588E+02 E0= -.40595588E+02  d E =-.210351E-14
