Ba4 H8
1.0
   4.1782928000000004    0.0000000000000000    0.0000000000000000
   0.0000000000000000    6.8427980200000000    0.0000000000000000
   0.0000000000000000    0.0000000000000000    7.8907574299999999
Ba H
4 8
direct
   0.2500000000000000    0.7605195900000000    0.6128862899999999 Ba
   0.7500000000000000    0.2394804100000000    0.3871137100000000 Ba
   0.2500000000000000    0.2605195900000000    0.8871137100000001 Ba
   0.7500000000000000    0.7394804100000000    0.1128862900000000 Ba
   0.2500000000000000    0.5281610900000000    0.3191772200000000 H
   0.7500000000000000    0.4718389100000000    0.6808227800000000 H
   0.2500000000000000    0.0281610900000000    0.1808227800000000 H
   0.7500000000000000    0.9718389100000000    0.8191772200000000 H
   0.7500000000000000    0.3549160500000000    0.0715695300000000 H
   0.2500000000000000    0.6450839500000000    0.9284304700000000 H
   0.7500000000000000    0.8549160500000000    0.4284304700000000 H
   0.2500000000000000    0.1450839500000000    0.5715695300000000 H
