Ba4H8
1.0
      4.1782928       0.0000000       0.0000000
      0.0000000       6.8427980       0.0000000
      0.0000000       0.0000000       7.8907574
  Ba    H   
  4     8   
Direct
      0.2500000       0.7605196       0.6128863
      0.7500000       0.2394804       0.3871137
      0.2500000       0.2605196       0.8871137
      0.7500000       0.7394804       0.1128863
      0.2500000       0.5281611       0.3191772
      0.7500000       0.4718389       0.6808228
      0.2500000       0.0281611       0.1808228
      0.7500000       0.9718389       0.8191772
      0.7500000       0.3549160       0.0715695
      0.2500000       0.6450840       0.9284305
      0.7500000       0.8549160       0.4284305
      0.2500000       0.1450840       0.5715695
