unknown system                          
           1
     4.178293    0.000000    0.000000
     0.000000    6.842798    0.000000
     0.000000    0.000000    7.890757
   Ba   H 
     4     8
Direct configuration=     1
   0.25000000  0.76051959  0.61288629
   0.75000000  0.23948041  0.38711371
   0.25000000  0.26051959  0.88711371
   0.75000000  0.73948041  0.11288629
   0.25000000  0.52816109  0.31917722
   0.75000000  0.47183891  0.68082278
   0.25000000  0.02816109  0.18082278
   0.75000000  0.97183891  0.81917722
   0.75000000  0.35491605  0.07156953
   0.25000000  0.64508395  0.92843047
   0.75000000  0.85491605  0.42843047
   0.25000000  0.14508395  0.57156953
