C16                                     
   1.00000000000000     
     0.0000000000000000    2.5104907399999998    0.0000000000000000
     0.0000000000000000    0.0000000000000000    4.1315489799999998
     9.0283239999999996    0.0000000000000000    0.0000000000000000
   C 
    16
Direct
     0.7500000000000000    0.4250372600000034    0.6950667799999977
     0.7500000000000000    0.0749627399999966    0.1950667799999977
     0.2500000000000000    0.5749627399999966    0.3049332200000023
     0.2500000000000000    0.9250372600000034    0.8049332200000023
     0.2500000000000000    0.1995977500000023    0.6894329400000032
     0.2500000000000000    0.3004022499999977    0.1894329400000032
     0.7500000000000000    0.8004022499999977    0.3105670599999968
     0.7500000000000000    0.6995977500000023    0.8105670599999968
     0.2500000000000000    0.4084080700000001    0.0206465099999988
     0.2500000000000000    0.0915919299999999    0.5206465099999988
     0.7500000000000000    0.5915919299999999    0.9793534900000012
     0.7500000000000000    0.9084080700000001    0.4793534900000012
     0.2500000000000000    0.0685412600000035    0.9634039700000017
     0.2500000000000000    0.4314587399999965    0.4634039700000017
     0.7500000000000000    0.9314587399999965    0.0365960299999983
     0.7500000000000000    0.5685412600000035    0.5365960299999983
 
  0.00000000E+00  0.00000000E+00  0.00000000E+00
  0.00000000E+00  0.00000000E+00  0.00000000E+00
  0.00000000E+00  0.00000000E+00  0.00000000E+00
  0.00000000E+00  0.00000000E+00  0.00000000E+00
  0.00000000E+00  0.00000000E+00  0.00000000E+00
  0.00000000E+00  0.00000000E+00  0.00000000E+00
  0.00000000E+00  0.00000000E+00  0.00000000E+00
  0.00000000E+00  0.00000000E+00  0.00000000E+00
  0.00000000E+00  0.00000000E+00  0.00000000E+00
  0.00000000E+00  0.00000000E+00  0.00000000E+00
  0.00000000E+00  0.00000000E+00  0.00000000E+00
  0.00000000E+00  0.00000000E+00  0.00000000E+00
  0.00000000E+00  0.00000000E+00  0.00000000E+00
  0.00000000E+00  0.00000000E+00  0.00000000E+00
  0.00000000E+00  0.00000000E+00  0.00000000E+00
  0.00000000E+00  0.00000000E+00  0.00000000E+00
