C16
1.0
      0.0000000       2.5104907       0.0000000
      0.0000000       0.0000000       4.1315490
      9.0283240       0.0000000       0.0000000
  C   
  16  
Direct
      0.7500000       0.4250373       0.6950668
      0.7500000       0.0749627       0.1950668
      0.2500000       0.5749627       0.3049332
      0.2500000       0.9250373       0.8049332
      0.2500000       0.1995978       0.6894329
      0.2500000       0.3004022       0.1894329
      0.7500000       0.8004022       0.3105671
      0.7500000       0.6995978       0.8105671
      0.2500000       0.4084081       0.0206465
      0.2500000       0.0915919       0.5206465
      0.7500000       0.5915919       0.9793535
      0.7500000       0.9084081       0.4793535
      0.2500000       0.0685413       0.9634040
      0.2500000       0.4314587       0.4634040
      0.7500000       0.9314587       0.0365960
      0.7500000       0.5685413       0.5365960
