C16
1.0
   0.0000000000000000    2.5104907399999998    0.0000000000000000
   0.0000000000000000    0.0000000000000000    4.1315489799999998
   9.0283239999999996    0.0000000000000000    0.0000000000000000
C
16
direct
   0.7500000000000000    0.4250372600000000    0.6950667800000000 C
   0.7500000000000000    0.0749627400000000    0.1950667800000000 C
   0.2500000000000000    0.5749627400000000    0.3049332200000000 C
   0.2500000000000000    0.9250372600000000    0.8049332200000000 C
   0.2500000000000000    0.1995977500000000    0.6894329400000000 C
   0.2500000000000000    0.3004022500000000    0.1894329400000000 C
   0.7500000000000000    0.8004022500000000    0.3105670600000000 C
   0.7500000000000000    0.6995977500000000    0.8105670600000000 C
   0.2500000000000000    0.4084080700000000    0.0206465100000000 C
   0.2500000000000000    0.0915919300000000    0.5206465100000000 C
   0.7500000000000000    0.5915919300000000    0.9793534900000000 C
   0.7500000000000000    0.9084080700000000    0.4793534900000000 C
   0.2500000000000000    0.0685412600000000    0.9634039700000000 C
   0.2500000000000000    0.4314587400000000    0.4634039700000000 C
   0.7500000000000000    0.9314587400000000    0.0365960300000000 C
   0.7500000000000000    0.5685412600000000    0.5365960300000000 C
