As4 F12                                 
   1.00000000000000     
     5.0684782700000000    0.0000000000000000    0.0000000000000000
     0.0000000000000000    6.7629341299999997    0.0000000000000000
     0.0000000000000000    0.0000000000000000    7.1507122900000004
   As   F 
     4    12
Direct
     0.4602972100000002    0.2091962000000009    0.2441282999999999
     0.5397027899999998    0.7908037999999991    0.7441282999999999
     0.0397027899999998    0.7091962000000009    0.2441282999999999
     0.9602972100000002    0.2908037999999991    0.7441282999999999
     0.1873184800000018    0.3194931499999996    0.3551952199999988
     0.8126815199999982    0.6805068500000004    0.8551952199999988
     0.3126815199999982    0.8194931499999996    0.3551952199999988
     0.6873184800000018    0.1805068500000004    0.8551952199999988
     0.0984877200000014    0.0606591499999993    0.6888649500000028
     0.9015122799999986    0.9393408500000007    0.1888649500000028
     0.4015122799999986    0.5606591499999993    0.6888649500000028
     0.5984877200000014    0.4393408500000007    0.1888649500000028
     0.1314539700000026    0.3096562100000000    0.9570095300000006
     0.8685460299999974    0.6903437900000000    0.4570095300000006
     0.3685460299999974    0.8096562100000000    0.9570095300000006
     0.6314539700000026    0.1903437900000000    0.4570095300000006
 
  0.00000000E+00  0.00000000E+00  0.00000000E+00
  0.00000000E+00  0.00000000E+00  0.00000000E+00
  0.00000000E+00  0.00000000E+00  0.00000000E+00
  0.00000000E+00  0.00000000E+00  0.00000000E+00
  0.00000000E+00  0.00000000E+00  0.00000000E+00
  0.00000000E+00  0.00000000E+00  0.00000000E+00
  0.00000000E+00  0.00000000E+00  0.00000000E+00
  0.00000000E+00  0.00000000E+00  0.00000000E+00
  0.00000000E+00  0.00000000E+00  0.00000000E+00
  0.00000000E+00  0.00000000E+00  0.00000000E+00
  0.00000000E+00  0.00000000E+00  0.00000000E+00
  0.00000000E+00  0.00000000E+00  0.00000000E+00
  0.00000000E+00  0.00000000E+00  0.00000000E+00
  0.00000000E+00  0.00000000E+00  0.00000000E+00
  0.00000000E+00  0.00000000E+00  0.00000000E+00
  0.00000000E+00  0.00000000E+00  0.00000000E+00
