       N       E                     dE             d eps       ncg     rms          rms(c)
DAV:   1     0.817558659372E+03    0.81756E+03   -0.61577E+04 10320   0.169E+03
DAV:   2    -0.242100492861E+02   -0.84177E+03   -0.82515E+03 12408   0.373E+02
DAV:   3    -0.824020855412E+02   -0.58192E+02   -0.57680E+02 11552   0.101E+02
DAV:   4    -0.832503894222E+02   -0.84830E+00   -0.84428E+00 11824   0.129E+01
DAV:   5    -0.832597858004E+02   -0.93964E-02   -0.93942E-02 11392   0.134E+00    0.207E+01
DAV:   6    -0.745599101507E+02    0.86999E+01   -0.32870E+01 10952   0.274E+01    0.101E+01
DAV:   7    -0.744489731053E+02    0.11094E+00   -0.21727E+00 11368   0.590E+00    0.481E+00
DAV:   8    -0.743808748443E+02    0.68098E-01   -0.19358E-01 11856   0.250E+00    0.153E+00
DAV:   9    -0.743845829978E+02   -0.37082E-02   -0.38535E-02 11968   0.932E-01    0.206E-01
DAV:  10    -0.743851943029E+02   -0.61131E-03   -0.65544E-03 11160   0.398E-01    0.911E-02
DAV:  11    -0.743854357069E+02   -0.24140E-03   -0.56492E-04 10472   0.123E-01    0.428E-02
DAV:  12    -0.743854655775E+02   -0.29871E-04   -0.48320E-05 11240   0.339E-02    0.178E-02
DAV:  13    -0.743854712800E+02   -0.57024E-05   -0.12466E-05 10368   0.305E-02    0.711E-03
DAV:  14    -0.743854714358E+02   -0.15580E-06   -0.30262E-06  8944   0.924E-03
   1 F= -.74385471E+02 E0= -.74385471E+02  d E =-.643742E-12
