unknown system                          
           1
     5.068478    0.000000    0.000000
     0.000000    6.762934    0.000000
     0.000000    0.000000    7.150712
   As   F 
     4    12
Direct configuration=     1
   0.46029721  0.20919620  0.24412830
   0.53970279  0.79080380  0.74412830
   0.03970279  0.70919620  0.24412830
   0.96029721  0.29080380  0.74412830
   0.18731848  0.31949315  0.35519522
   0.81268152  0.68050685  0.85519522
   0.31268152  0.81949315  0.35519522
   0.68731848  0.18050685  0.85519522
   0.09848772  0.06065915  0.68886495
   0.90151228  0.93934085  0.18886495
   0.40151228  0.56065915  0.68886495
   0.59848772  0.43934085  0.18886495
   0.13145397  0.30965621  0.95700953
   0.86854603  0.69034379  0.45700953
   0.36854603  0.80965621  0.95700953
   0.63145397  0.19034379  0.45700953
