K1 I1                                   
   1.00000000000000     
     4.3385801900000001    0.0000000000000000    2.5048793499999999
     1.4461940700000000    4.0904518000000003    2.5048793499999999
    -0.0000000100000000   -0.0000000100000000    5.0097607200000001
   K    I 
     1     1
Direct
     0.0000000000000000    0.0000000000000000    0.0000000000000000
     0.5000000000000000    0.5000000000000000    0.5000000000000000
 
  0.00000000E+00  0.00000000E+00  0.00000000E+00
  0.00000000E+00  0.00000000E+00  0.00000000E+00
