       N       E                     dE             d eps       ncg     rms          rms(c)
DAV:   1     0.101776093421E+03    0.10178E+03   -0.71188E+03  5184   0.126E+03
DAV:   2     0.122534290313E+01   -0.10055E+03   -0.94371E+02  6176   0.262E+02
DAV:   3    -0.529428195652E+01   -0.65196E+01   -0.64877E+01  6808   0.612E+01
DAV:   4    -0.563995844387E+01   -0.34568E+00   -0.34530E+00  9688   0.120E+01
DAV:   5    -0.564125563239E+01   -0.12972E-02   -0.12972E-02  6736   0.767E-01    0.299E+00
DAV:   6    -0.555734120470E+01    0.83914E-01   -0.12278E-01  6372   0.221E+00    0.216E+00
DAV:   7    -0.555295537905E+01    0.43858E-02   -0.13361E-01  6588   0.209E+00    0.803E-01
DAV:   8    -0.555843741700E+01   -0.54820E-02   -0.14719E-02  6832   0.905E-01    0.109E-01
DAV:   9    -0.555890705058E+01   -0.46963E-03   -0.96491E-04  6672   0.205E-01    0.682E-02
DAV:  10    -0.555912052437E+01   -0.21347E-03   -0.21435E-04  6316   0.104E-01    0.207E-02
DAV:  11    -0.555913782746E+01   -0.17303E-04   -0.35703E-05  6568   0.380E-02    0.119E-02
DAV:  12    -0.555913912391E+01   -0.12964E-05   -0.46572E-06  6292   0.179E-02    0.114E-02
DAV:  13    -0.555913952973E+01   -0.40582E-06   -0.10330E-06  5016   0.691E-03
   1 F= -.55591395E+01 E0= -.55591395E+01  d E =-.142513E-14
