Co4 B4                                  
   1.00000000000000     
     3.0472235200000002    0.0000000000000000    0.0000000000000000
     0.0000000000000000    3.8877829400000001    0.0000000000000000
     0.0000000000000000    0.0000000000000000    5.1088514500000004
   Co   B 
     4     4
Direct
     0.2500000000000000    0.3719089300000036    0.6768287499999985
     0.7500000000000000    0.6280910699999964    0.3231712500000015
     0.7500000000000000    0.8719089300000036    0.8231712500000015
     0.2500000000000000    0.1280910700000035    0.1768287499999985
     0.2500000000000000    0.8745487099999991    0.5320660900000007
     0.7500000000000000    0.1254512900000009    0.4679339099999993
     0.7500000000000000    0.3745487099999991    0.9679339099999993
     0.2500000000000000    0.6254512900000009    0.0320660900000007
 
  0.00000000E+00  0.00000000E+00  0.00000000E+00
  0.00000000E+00  0.00000000E+00  0.00000000E+00
  0.00000000E+00  0.00000000E+00  0.00000000E+00
  0.00000000E+00  0.00000000E+00  0.00000000E+00
  0.00000000E+00  0.00000000E+00  0.00000000E+00
  0.00000000E+00  0.00000000E+00  0.00000000E+00
  0.00000000E+00  0.00000000E+00  0.00000000E+00
  0.00000000E+00  0.00000000E+00  0.00000000E+00
