       N       E                     dE             d eps       ncg     rms          rms(c)
DAV:   1     0.387358260513E+03    0.38736E+03   -0.20045E+04 33192   0.130E+03
DAV:   2    -0.218324590818E+02   -0.40919E+03   -0.36152E+03 32768   0.310E+02
DAV:   3    -0.687169557488E+02   -0.46884E+02   -0.40593E+02 35564   0.110E+02
DAV:   4    -0.702585830295E+02   -0.15416E+01   -0.15232E+01 37736   0.206E+01
DAV:   5    -0.702935987569E+02   -0.35016E-01   -0.35001E-01 47664   0.245E+00    0.372E+01
DAV:   6    -0.717107254727E+02   -0.14171E+01   -0.40316E+01 41700   0.107E+02    0.293E+01
DAV:   7    -0.585328230164E+02    0.13178E+02   -0.24926E+01 39168   0.739E+01    0.709E+00
DAV:   8    -0.582009629940E+02    0.33186E+00   -0.78821E-01 47936   0.720E+00    0.208E+00
DAV:   9    -0.581696108216E+02    0.31352E-01   -0.73170E-02 50740   0.207E+00    0.462E-01
DAV:  10    -0.581733543594E+02   -0.37435E-02   -0.93428E-03 38632   0.192E+00    0.790E-01
DAV:  11    -0.581691016600E+02    0.42527E-02   -0.30745E-03 38196   0.158E+00    0.916E-02
DAV:  12    -0.581692945537E+02   -0.19289E-03   -0.48267E-04 47432   0.406E-01    0.180E-01
DAV:  13    -0.581690797887E+02    0.21476E-03   -0.16605E-04 40768   0.366E-01    0.454E-02
DAV:  14    -0.581690604389E+02    0.19350E-04   -0.34991E-05 44884   0.959E-02    0.376E-02
DAV:  15    -0.581690508625E+02    0.95764E-05   -0.10084E-05 41432   0.821E-02    0.137E-02
DAV:  16    -0.581690492858E+02    0.15767E-05   -0.26959E-06 27640   0.207E-02    0.354E-03
DAV:  17    -0.581690491316E+02    0.15418E-06   -0.57771E-07 17708   0.692E-03
   1 F= -.58169049E+02 E0= -.58168688E+02  d E =-.721444E-03
