Co4B4
1.0
      3.0472235       0.0000000       0.0000000
      0.0000000       3.8877829       0.0000000
      0.0000000       0.0000000       5.1088515
  Co    B   
  4     4   
Direct
      0.2500000       0.3719089       0.6768287
      0.7500000       0.6280911       0.3231713
      0.7500000       0.8719089       0.8231713
      0.2500000       0.1280911       0.1768287
      0.2500000       0.8745487       0.5320661
      0.7500000       0.1254513       0.4679339
      0.7500000       0.3745487       0.9679339
      0.2500000       0.6254513       0.0320661
