Ba3 N2                                  
   1.00000000000000     
     5.3690619999999996    0.0000000000000000    0.0000000000000000
     0.0000000000000000    5.3690619999999996    0.0000000000000000
     0.0000000000000000    0.0000000000000000    5.3690619999999996
   Ba   N 
     3     2
Direct
     0.0000000000000000    0.5000000000000000    0.5000000000000000
     0.5000000000000000    0.0000000000000000    0.5000000000000000
     0.5000000000000000    0.5000000000000000    0.0000000000000000
     0.0000000000000000    0.0000000000000000    0.0000000000000000
     0.5000000000000000    0.5000000000000000    0.5000000000000000
 
  0.00000000E+00  0.00000000E+00  0.00000000E+00
  0.00000000E+00  0.00000000E+00  0.00000000E+00
  0.00000000E+00  0.00000000E+00  0.00000000E+00
  0.00000000E+00  0.00000000E+00  0.00000000E+00
  0.00000000E+00  0.00000000E+00  0.00000000E+00
