   5   5   0   0
  0.3095460E+02  0.5369062E-09  0.5369062E-09  0.5369062E-09  0.5000000E-15
  1.000000000000000E-004
  CAR 
 unknown system                          
      6.28205007    -27.42340570  301      2.41659029      1.00000000
    -27.423  0.0000E+00  0.0000E+00
    -27.311  0.0000E+00  0.0000E+00
    -27.199  0.0000E+00  0.0000E+00
    -27.086  0.0000E+00  0.0000E+00
    -26.974  0.0000E+00  0.0000E+00
    -26.862  0.0000E+00  0.0000E+00
    -26.749  0.0000E+00  0.0000E+00
    -26.637  0.0000E+00  0.0000E+00
    -26.525  0.0000E+00  0.0000E+00
    -26.412  0.0000E+00  0.0000E+00
    -26.300  0.0000E+00  0.0000E+00
    -26.188  0.0000E+00  0.0000E+00
    -26.075  0.1589E-07  0.1785E-08
    -25.963  0.6649E-02  0.7470E-03
    -25.850  0.2003E+01  0.2258E+00
    -25.738  0.1221E+02  0.1597E+01
    -25.626  0.2838E+02  0.4786E+01
    -25.513  0.1077E+02  0.5995E+01
    -25.401  0.4044E-01  0.6000E+01
    -25.289  0.4825E-07  0.6000E+01
    -25.176  0.0000E+00  0.6000E+01
    -25.064  0.0000E+00  0.6000E+01
    -24.952  0.0000E+00  0.6000E+01
    -24.839  0.0000E+00  0.6000E+01
    -24.727  0.0000E+00  0.6000E+01
    -24.615  0.0000E+00  0.6000E+01
    -24.502  0.0000E+00  0.6000E+01
    -24.390  0.0000E+00  0.6000E+01
    -24.278  0.0000E+00  0.6000E+01
    -24.165  0.0000E+00  0.6000E+01
    -24.053  0.0000E+00  0.6000E+01
    -23.941  0.0000E+00  0.6000E+01
    -23.828  0.0000E+00  0.6000E+01
    -23.716  0.0000E+00  0.6000E+01
    -23.603  0.0000E+00  0.6000E+01
    -23.491  0.0000E+00  0.6000E+01
    -23.379  0.0000E+00  0.6000E+01
    -23.266  0.0000E+00  0.6000E+01
    -23.154  0.0000E+00  0.6000E+01
    -23.042  0.0000E+00  0.6000E+01
    -22.929  0.0000E+00  0.6000E+01
    -22.817  0.0000E+00  0.6000E+01
    -22.705  0.0000E+00  0.6000E+01
    -22.592  0.0000E+00  0.6000E+01
    -22.480  0.0000E+00  0.6000E+01
    -22.368  0.0000E+00  0.6000E+01
    -22.255  0.0000E+00  0.6000E+01
    -22.143  0.0000E+00  0.6000E+01
    -22.031  0.0000E+00  0.6000E+01
    -21.918  0.0000E+00  0.6000E+01
    -21.806  0.0000E+00  0.6000E+01
    -21.693  0.0000E+00  0.6000E+01
    -21.581  0.0000E+00  0.6000E+01
    -21.469  0.0000E+00  0.6000E+01
    -21.356  0.0000E+00  0.6000E+01
    -21.244  0.0000E+00  0.6000E+01
    -21.132  0.0000E+00  0.6000E+01
    -21.019  0.0000E+00  0.6000E+01
    -20.907  0.0000E+00  0.6000E+01
    -20.795  0.0000E+00  0.6000E+01
    -20.682  0.0000E+00  0.6000E+01
    -20.570  0.0000E+00  0.6000E+01
    -20.458  0.0000E+00  0.6000E+01
    -20.345  0.0000E+00  0.6000E+01
    -20.233  0.0000E+00  0.6000E+01
    -20.121  0.0000E+00  0.6000E+01
    -20.008  0.0000E+00  0.6000E+01
    -19.896  0.0000E+00  0.6000E+01
    -19.784  0.0000E+00  0.6000E+01
    -19.671  0.0000E+00  0.6000E+01
    -19.559  0.0000E+00  0.6000E+01
    -19.446  0.0000E+00  0.6000E+01
    -19.334  0.0000E+00  0.6000E+01
    -19.222  0.0000E+00  0.6000E+01
    -19.109  0.0000E+00  0.6000E+01
    -18.997  0.0000E+00  0.6000E+01
    -18.885  0.0000E+00  0.6000E+01
    -18.772  0.0000E+00  0.6000E+01
    -18.660  0.0000E+00  0.6000E+01
    -18.548  0.0000E+00  0.6000E+01
    -18.435  0.0000E+00  0.6000E+01
    -18.323  0.0000E+00  0.6000E+01
    -18.211  0.0000E+00  0.6000E+01
    -18.098  0.0000E+00  0.6000E+01
    -17.986  0.0000E+00  0.6000E+01
    -17.874  0.0000E+00  0.6000E+01
    -17.761  0.0000E+00  0.6000E+01
    -17.649  0.0000E+00  0.6000E+01
    -17.536  0.0000E+00  0.6000E+01
    -17.424  0.0000E+00  0.6000E+01
    -17.312  0.0000E+00  0.6000E+01
    -17.199  0.0000E+00  0.6000E+01
    -17.087  0.0000E+00  0.6000E+01
    -16.975  0.0000E+00  0.6000E+01
    -16.862  0.0000E+00  0.6000E+01
    -16.750  0.0000E+00  0.6000E+01
    -16.638  0.0000E+00  0.6000E+01
    -16.525  0.0000E+00  0.6000E+01
    -16.413  0.0000E+00  0.6000E+01
    -16.301  0.0000E+00  0.6000E+01
    -16.188  0.0000E+00  0.6000E+01
    -16.076  0.0000E+00  0.6000E+01
    -15.964  0.0000E+00  0.6000E+01
    -15.851  0.0000E+00  0.6000E+01
    -15.739  0.0000E+00  0.6000E+01
    -15.626  0.0000E+00  0.6000E+01
    -15.514  0.0000E+00  0.6000E+01
    -15.402  0.0000E+00  0.6000E+01
    -15.289  0.0000E+00  0.6000E+01
    -15.177  0.0000E+00  0.6000E+01
    -15.065  0.0000E+00  0.6000E+01
    -14.952  0.0000E+00  0.6000E+01
    -14.840  0.0000E+00  0.6000E+01
    -14.728  0.0000E+00  0.6000E+01
    -14.615  0.0000E+00  0.6000E+01
    -14.503  0.0000E+00  0.6000E+01
    -14.391  0.0000E+00  0.6000E+01
    -14.278  0.0000E+00  0.6000E+01
    -14.166  0.0000E+00  0.6000E+01
    -14.054  0.0000E+00  0.6000E+01
    -13.941  0.0000E+00  0.6000E+01
    -13.829  0.0000E+00  0.6000E+01
    -13.717  0.0000E+00  0.6000E+01
    -13.604  0.0000E+00  0.6000E+01
    -13.492  0.0000E+00  0.6000E+01
    -13.379  0.0000E+00  0.6000E+01
    -13.267  0.6324E-16  0.6000E+01
    -13.155  0.1910E-06  0.6000E+01
    -13.042  0.3091E-01  0.6003E+01
    -12.930  0.9886E+00  0.6115E+01
    -12.818  0.1200E+00  0.6128E+01
    -12.705  0.9123E+00  0.6231E+01
    -12.593  0.2487E+01  0.6510E+01
    -12.481  0.1617E+00  0.6528E+01
    -12.368  0.4139E+01  0.6993E+01
    -12.256  0.8474E+00  0.7088E+01
    -12.144  0.1600E+01  0.7268E+01
    -12.031  0.2936E+01  0.7598E+01
    -11.919  0.9242E+00  0.7702E+01
    -11.807  0.8795E+00  0.7801E+01
    -11.694  0.1216E+01  0.7937E+01
    -11.582  0.4426E+01  0.8434E+01
    -11.469  0.9498E+01  0.9502E+01
    -11.357  0.1928E+02  0.1167E+02
    -11.245  0.1109E+02  0.1291E+02
    -11.132  0.8498E+01  0.1387E+02
    -11.020  0.1579E+02  0.1564E+02
    -10.908  0.9873E+01  0.1675E+02
    -10.795  0.1289E+02  0.1820E+02
    -10.683  0.8935E+01  0.1920E+02
    -10.571  0.1107E+02  0.2045E+02
    -10.458  0.1182E+02  0.2178E+02
    -10.346  0.1227E+02  0.2315E+02
    -10.234  0.7094E+01  0.2395E+02
    -10.121  0.4325E+00  0.2400E+02
    -10.009  0.9477E-05  0.2400E+02
     -9.897  0.5244E-03  0.2400E+02
     -9.784  0.9784E-01  0.2401E+02
     -9.672  0.4403E-01  0.2402E+02
     -9.560  0.1689E-04  0.2402E+02
     -9.447  0.5138E-12  0.2402E+02
     -9.335  0.5409E-06  0.2402E+02
     -9.222  0.4079E-01  0.2402E+02
     -9.110  0.7577E+00  0.2411E+02
     -8.998  0.5593E-01  0.2411E+02
     -8.885  0.9851E-01  0.2412E+02
     -8.773  0.1567E+01  0.2430E+02
     -8.661  0.9234E+01  0.2534E+02
     -8.548  0.9118E+01  0.2636E+02
     -8.436  0.1383E+01  0.2652E+02
     -8.324  0.3281E+00  0.2655E+02
     -8.211  0.3032E+01  0.2689E+02
     -8.099  0.1425E+01  0.2705E+02
     -7.987  0.2148E+01  0.2730E+02
     -7.874  0.8878E+00  0.2740E+02
     -7.762  0.1363E+01  0.2755E+02
     -7.650  0.2831E+01  0.2787E+02
     -7.537  0.5168E-01  0.2787E+02
     -7.425  0.5311E+00  0.2793E+02
     -7.312  0.6065E+00  0.2800E+02
     -7.200  0.1124E-02  0.2800E+02
     -7.088  0.2030E-09  0.2800E+02
     -6.975  0.0000E+00  0.2800E+02
     -6.863  0.0000E+00  0.2800E+02
     -6.751  0.0000E+00  0.2800E+02
     -6.638  0.0000E+00  0.2800E+02
     -6.526  0.0000E+00  0.2800E+02
     -6.414  0.0000E+00  0.2800E+02
     -6.301  0.0000E+00  0.2800E+02
     -6.189  0.0000E+00  0.2800E+02
     -6.077  0.0000E+00  0.2800E+02
     -5.964  0.0000E+00  0.2800E+02
     -5.852  0.0000E+00  0.2800E+02
     -5.740  0.0000E+00  0.2800E+02
     -5.627  0.0000E+00  0.2800E+02
     -5.515  0.0000E+00  0.2800E+02
     -5.403  0.0000E+00  0.2800E+02
     -5.290  0.0000E+00  0.2800E+02
     -5.178  0.0000E+00  0.2800E+02
     -5.065  0.0000E+00  0.2800E+02
     -4.953  0.0000E+00  0.2800E+02
     -4.841  0.0000E+00  0.2800E+02
     -4.728  0.0000E+00  0.2800E+02
     -4.616  0.0000E+00  0.2800E+02
     -4.504  0.0000E+00  0.2800E+02
     -4.391  0.0000E+00  0.2800E+02
     -4.279  0.0000E+00  0.2800E+02
     -4.167  0.0000E+00  0.2800E+02
     -4.054  0.0000E+00  0.2800E+02
     -3.942  0.0000E+00  0.2800E+02
     -3.830  0.0000E+00  0.2800E+02
     -3.717  0.0000E+00  0.2800E+02
     -3.605  0.0000E+00  0.2800E+02
     -3.493  0.0000E+00  0.2800E+02
     -3.380  0.0000E+00  0.2800E+02
     -3.268  0.0000E+00  0.2800E+02
     -3.155  0.0000E+00  0.2800E+02
     -3.043  0.0000E+00  0.2800E+02
     -2.931  0.0000E+00  0.2800E+02
     -2.818  0.0000E+00  0.2800E+02
     -2.706  0.0000E+00  0.2800E+02
     -2.594  0.0000E+00  0.2800E+02
     -2.481  0.0000E+00  0.2800E+02
     -2.369  0.0000E+00  0.2800E+02
     -2.257  0.0000E+00  0.2800E+02
     -2.144  0.0000E+00  0.2800E+02
     -2.032  0.0000E+00  0.2800E+02
     -1.920  0.0000E+00  0.2800E+02
     -1.807  0.0000E+00  0.2800E+02
     -1.695  0.0000E+00  0.2800E+02
     -1.583  0.0000E+00  0.2800E+02
     -1.470  0.0000E+00  0.2800E+02
     -1.358  0.0000E+00  0.2800E+02
     -1.246  0.0000E+00  0.2800E+02
     -1.133  0.0000E+00  0.2800E+02
     -1.021  0.0000E+00  0.2800E+02
     -0.908  0.0000E+00  0.2800E+02
     -0.796  0.0000E+00  0.2800E+02
     -0.684  0.0000E+00  0.2800E+02
     -0.571  0.0000E+00  0.2800E+02
     -0.459  0.0000E+00  0.2800E+02
     -0.347  0.1269E-12  0.2800E+02
     -0.234  0.1853E-04  0.2800E+02
     -0.122  0.2249E+00  0.2803E+02
     -0.010  0.2845E+01  0.2834E+02
      0.103  0.2356E+01  0.2861E+02
      0.215  0.5424E+01  0.2922E+02
      0.327  0.5139E+01  0.2980E+02
      0.440  0.2903E+01  0.3012E+02
      0.552  0.1915E+01  0.3034E+02
      0.664  0.5523E+00  0.3040E+02
      0.777  0.2708E-02  0.3040E+02
      0.889  0.4232E+00  0.3045E+02
      1.002  0.5830E+01  0.3110E+02
      1.114  0.5998E+01  0.3178E+02
      1.226  0.3249E+01  0.3214E+02
      1.339  0.5066E+01  0.3271E+02
      1.451  0.1229E+02  0.3409E+02
      1.563  0.1070E+02  0.3529E+02
      1.676  0.1230E+02  0.3668E+02
      1.788  0.1142E+02  0.3796E+02
      1.900  0.7687E+01  0.3882E+02
      2.013  0.4631E+01  0.3934E+02
      2.125  0.3233E+01  0.3971E+02
      2.237  0.1754E+01  0.3990E+02
      2.350  0.6024E+00  0.3997E+02
      2.462  0.3783E+00  0.4001E+02
      2.574  0.8419E-01  0.4002E+02
      2.687  0.9694E+00  0.4013E+02
      2.799  0.1119E+00  0.4014E+02
      2.912  0.2078E+00  0.4017E+02
      3.024  0.1502E+01  0.4034E+02
      3.136  0.1272E+01  0.4048E+02
      3.249  0.3608E+01  0.4089E+02
      3.361  0.3337E+01  0.4126E+02
      3.473  0.4578E+01  0.4177E+02
      3.586  0.1277E+01  0.4192E+02
      3.698  0.1409E+01  0.4208E+02
      3.810  0.5262E+01  0.4267E+02
      3.923  0.1251E+02  0.4407E+02
      4.035  0.6287E+01  0.4478E+02
      4.147  0.4161E+01  0.4525E+02
      4.260  0.1553E+01  0.4542E+02
      4.372  0.7353E+01  0.4625E+02
      4.484  0.6705E+01  0.4700E+02
      4.597  0.3538E+01  0.4740E+02
      4.709  0.3136E+01  0.4775E+02
      4.821  0.2188E+01  0.4800E+02
      4.934  0.3638E-01  0.4800E+02
      5.046  0.1640E-06  0.4800E+02
      5.159  0.0000E+00  0.4800E+02
      5.271  0.0000E+00  0.4800E+02
      5.383  0.0000E+00  0.4800E+02
      5.496  0.0000E+00  0.4800E+02
      5.608  0.0000E+00  0.4800E+02
      5.720  0.0000E+00  0.4800E+02
      5.833  0.0000E+00  0.4800E+02
      5.945  0.0000E+00  0.4800E+02
      6.057  0.0000E+00  0.4800E+02
      6.170  0.0000E+00  0.4800E+02
      6.282  0.0000E+00  0.4800E+02
