   2   2   0   0
  0.1513531E+03  0.7810315E-09  0.7810315E-09  0.5266954E-09  0.5000000E-15
  1.000000000000000E-004
  CAR 
 unknown system                          
      2.46311131    -28.65081479  301     -4.51262449      1.00000000
    -28.651  0.0000E+00  0.0000E+00
    -28.547  0.0000E+00  0.0000E+00
    -28.443  0.0000E+00  0.0000E+00
    -28.340  0.0000E+00  0.0000E+00
    -28.236  0.0000E+00  0.0000E+00
    -28.132  0.0000E+00  0.0000E+00
    -28.029  0.0000E+00  0.0000E+00
    -27.925  0.0000E+00  0.0000E+00
    -27.821  0.0000E+00  0.0000E+00
    -27.717  0.0000E+00  0.0000E+00
    -27.614  0.0000E+00  0.0000E+00
    -27.510  0.2000E-12  0.2074E-13
    -27.406  0.3042E-04  0.3155E-05
    -27.303  0.1192E+01  0.1236E+00
    -27.199  0.3197E+02  0.3440E+01
    -27.095  0.1830E+02  0.5338E+01
    -26.991  0.6376E+01  0.5999E+01
    -26.888  0.7263E-02  0.6000E+01
    -26.784  0.2842E-08  0.6000E+01
    -26.680  0.0000E+00  0.6000E+01
    -26.577  0.0000E+00  0.6000E+01
    -26.473  0.0000E+00  0.6000E+01
    -26.369  0.0000E+00  0.6000E+01
    -26.265  0.0000E+00  0.6000E+01
    -26.162  0.0000E+00  0.6000E+01
    -26.058  0.0000E+00  0.6000E+01
    -25.954  0.0000E+00  0.6000E+01
    -25.851  0.0000E+00  0.6000E+01
    -25.747  0.0000E+00  0.6000E+01
    -25.643  0.0000E+00  0.6000E+01
    -25.539  0.0000E+00  0.6000E+01
    -25.436  0.0000E+00  0.6000E+01
    -25.332  0.0000E+00  0.6000E+01
    -25.228  0.0000E+00  0.6000E+01
    -25.125  0.0000E+00  0.6000E+01
    -25.021  0.0000E+00  0.6000E+01
    -24.917  0.0000E+00  0.6000E+01
    -24.813  0.0000E+00  0.6000E+01
    -24.710  0.0000E+00  0.6000E+01
    -24.606  0.0000E+00  0.6000E+01
    -24.502  0.0000E+00  0.6000E+01
    -24.399  0.0000E+00  0.6000E+01
    -24.295  0.0000E+00  0.6000E+01
    -24.191  0.0000E+00  0.6000E+01
    -24.087  0.0000E+00  0.6000E+01
    -23.984  0.0000E+00  0.6000E+01
    -23.880  0.0000E+00  0.6000E+01
    -23.776  0.0000E+00  0.6000E+01
    -23.673  0.0000E+00  0.6000E+01
    -23.569  0.0000E+00  0.6000E+01
    -23.465  0.0000E+00  0.6000E+01
    -23.361  0.0000E+00  0.6000E+01
    -23.258  0.0000E+00  0.6000E+01
    -23.154  0.0000E+00  0.6000E+01
    -23.050  0.0000E+00  0.6000E+01
    -22.947  0.0000E+00  0.6000E+01
    -22.843  0.0000E+00  0.6000E+01
    -22.739  0.0000E+00  0.6000E+01
    -22.635  0.0000E+00  0.6000E+01
    -22.532  0.0000E+00  0.6000E+01
    -22.428  0.0000E+00  0.6000E+01
    -22.324  0.0000E+00  0.6000E+01
    -22.221  0.0000E+00  0.6000E+01
    -22.117  0.0000E+00  0.6000E+01
    -22.013  0.0000E+00  0.6000E+01
    -21.909  0.0000E+00  0.6000E+01
    -21.806  0.0000E+00  0.6000E+01
    -21.702  0.0000E+00  0.6000E+01
    -21.598  0.0000E+00  0.6000E+01
    -21.495  0.0000E+00  0.6000E+01
    -21.391  0.0000E+00  0.6000E+01
    -21.287  0.0000E+00  0.6000E+01
    -21.183  0.0000E+00  0.6000E+01
    -21.080  0.0000E+00  0.6000E+01
    -20.976  0.0000E+00  0.6000E+01
    -20.872  0.0000E+00  0.6000E+01
    -20.769  0.0000E+00  0.6000E+01
    -20.665  0.0000E+00  0.6000E+01
    -20.561  0.0000E+00  0.6000E+01
    -20.457  0.0000E+00  0.6000E+01
    -20.354  0.0000E+00  0.6000E+01
    -20.250  0.0000E+00  0.6000E+01
    -20.146  0.0000E+00  0.6000E+01
    -20.043  0.0000E+00  0.6000E+01
    -19.939  0.0000E+00  0.6000E+01
    -19.835  0.0000E+00  0.6000E+01
    -19.731  0.0000E+00  0.6000E+01
    -19.628  0.0000E+00  0.6000E+01
    -19.524  0.0000E+00  0.6000E+01
    -19.420  0.0000E+00  0.6000E+01
    -19.317  0.0000E+00  0.6000E+01
    -19.213  0.0000E+00  0.6000E+01
    -19.109  0.0000E+00  0.6000E+01
    -19.005  0.0000E+00  0.6000E+01
    -18.902  0.0000E+00  0.6000E+01
    -18.798  0.0000E+00  0.6000E+01
    -18.694  0.0000E+00  0.6000E+01
    -18.591  0.0000E+00  0.6000E+01
    -18.487  0.0000E+00  0.6000E+01
    -18.383  0.0000E+00  0.6000E+01
    -18.280  0.0000E+00  0.6000E+01
    -18.176  0.0000E+00  0.6000E+01
    -18.072  0.0000E+00  0.6000E+01
    -17.968  0.0000E+00  0.6000E+01
    -17.865  0.0000E+00  0.6000E+01
    -17.761  0.0000E+00  0.6000E+01
    -17.657  0.0000E+00  0.6000E+01
    -17.554  0.0000E+00  0.6000E+01
    -17.450  0.0000E+00  0.6000E+01
    -17.346  0.0000E+00  0.6000E+01
    -17.242  0.0000E+00  0.6000E+01
    -17.139  0.0000E+00  0.6000E+01
    -17.035  0.0000E+00  0.6000E+01
    -16.931  0.0000E+00  0.6000E+01
    -16.828  0.0000E+00  0.6000E+01
    -16.724  0.0000E+00  0.6000E+01
    -16.620  0.0000E+00  0.6000E+01
    -16.516  0.0000E+00  0.6000E+01
    -16.413  0.0000E+00  0.6000E+01
    -16.309  0.0000E+00  0.6000E+01
    -16.205  0.0000E+00  0.6000E+01
    -16.102  0.0000E+00  0.6000E+01
    -15.998  0.0000E+00  0.6000E+01
    -15.894  0.0000E+00  0.6000E+01
    -15.790  0.0000E+00  0.6000E+01
    -15.687  0.0000E+00  0.6000E+01
    -15.583  0.0000E+00  0.6000E+01
    -15.479  0.0000E+00  0.6000E+01
    -15.376  0.0000E+00  0.6000E+01
    -15.272  0.0000E+00  0.6000E+01
    -15.168  0.0000E+00  0.6000E+01
    -15.064  0.0000E+00  0.6000E+01
    -14.961  0.0000E+00  0.6000E+01
    -14.857  0.0000E+00  0.6000E+01
    -14.753  0.8492E-14  0.6000E+01
    -14.650  0.1916E-05  0.6000E+01
    -14.546  0.1346E+00  0.6014E+01
    -14.442  0.1017E+02  0.7069E+01
    -14.338  0.8898E+01  0.7992E+01
    -14.235  0.7827E-01  0.8000E+01
    -14.131  0.5185E-06  0.8000E+01
    -14.027  0.8564E-15  0.8000E+01
    -13.924  0.0000E+00  0.8000E+01
    -13.820  0.0000E+00  0.8000E+01
    -13.716  0.0000E+00  0.8000E+01
    -13.612  0.0000E+00  0.8000E+01
    -13.509  0.0000E+00  0.8000E+01
    -13.405  0.0000E+00  0.8000E+01
    -13.301  0.0000E+00  0.8000E+01
    -13.198  0.0000E+00  0.8000E+01
    -13.094  0.0000E+00  0.8000E+01
    -12.990  0.0000E+00  0.8000E+01
    -12.886  0.0000E+00  0.8000E+01
    -12.783  0.0000E+00  0.8000E+01
    -12.679  0.0000E+00  0.8000E+01
    -12.575  0.0000E+00  0.8000E+01
    -12.472  0.0000E+00  0.8000E+01
    -12.368  0.0000E+00  0.8000E+01
    -12.264  0.0000E+00  0.8000E+01
    -12.160  0.0000E+00  0.8000E+01
    -12.057  0.0000E+00  0.8000E+01
    -11.953  0.0000E+00  0.8000E+01
    -11.849  0.0000E+00  0.8000E+01
    -11.746  0.0000E+00  0.8000E+01
    -11.642  0.0000E+00  0.8000E+01
    -11.538  0.0000E+00  0.8000E+01
    -11.434  0.0000E+00  0.8000E+01
    -11.331  0.0000E+00  0.8000E+01
    -11.227  0.0000E+00  0.8000E+01
    -11.123  0.0000E+00  0.8000E+01
    -11.020  0.0000E+00  0.8000E+01
    -10.916  0.0000E+00  0.8000E+01
    -10.812  0.0000E+00  0.8000E+01
    -10.708  0.0000E+00  0.8000E+01
    -10.605  0.0000E+00  0.8000E+01
    -10.501  0.0000E+00  0.8000E+01
    -10.397  0.0000E+00  0.8000E+01
    -10.294  0.0000E+00  0.8000E+01
    -10.190  0.0000E+00  0.8000E+01
    -10.086  0.0000E+00  0.8000E+01
     -9.982  0.0000E+00  0.8000E+01
     -9.879  0.0000E+00  0.8000E+01
     -9.775  0.0000E+00  0.8000E+01
     -9.671  0.0000E+00  0.8000E+01
     -9.568  0.0000E+00  0.8000E+01
     -9.464  0.0000E+00  0.8000E+01
     -9.360  0.0000E+00  0.8000E+01
     -9.256  0.0000E+00  0.8000E+01
     -9.153  0.0000E+00  0.8000E+01
     -9.049  0.0000E+00  0.8000E+01
     -8.945  0.0000E+00  0.8000E+01
     -8.842  0.0000E+00  0.8000E+01
     -8.738  0.0000E+00  0.8000E+01
     -8.634  0.0000E+00  0.8000E+01
     -8.530  0.0000E+00  0.8000E+01
     -8.427  0.0000E+00  0.8000E+01
     -8.323  0.0000E+00  0.8000E+01
     -8.219  0.0000E+00  0.8000E+01
     -8.116  0.0000E+00  0.8000E+01
     -8.012  0.0000E+00  0.8000E+01
     -7.908  0.0000E+00  0.8000E+01
     -7.804  0.0000E+00  0.8000E+01
     -7.701  0.0000E+00  0.8000E+01
     -7.597  0.0000E+00  0.8000E+01
     -7.493  0.0000E+00  0.8000E+01
     -7.390  0.0000E+00  0.8000E+01
     -7.286  0.0000E+00  0.8000E+01
     -7.182  0.0000E+00  0.8000E+01
     -7.078  0.0000E+00  0.8000E+01
     -6.975  0.0000E+00  0.8000E+01
     -6.871  0.0000E+00  0.8000E+01
     -6.767  0.0000E+00  0.8000E+01
     -6.664  0.0000E+00  0.8000E+01
     -6.560  0.0000E+00  0.8000E+01
     -6.456  0.0000E+00  0.8000E+01
     -6.353  0.0000E+00  0.8000E+01
     -6.249  0.0000E+00  0.8000E+01
     -6.145  0.0000E+00  0.8000E+01
     -6.041  0.0000E+00  0.8000E+01
     -5.938  0.0000E+00  0.8000E+01
     -5.834  0.0000E+00  0.8000E+01
     -5.730  0.0000E+00  0.8000E+01
     -5.627  0.0000E+00  0.8000E+01
     -5.523  0.1337E-13  0.8000E+01
     -5.419  0.3012E-05  0.8000E+01
     -5.315  0.1725E+00  0.8018E+01
     -5.212  0.6173E+01  0.8658E+01
     -5.108  0.1368E+01  0.8800E+01
     -5.004  0.1302E+01  0.8935E+01
     -4.901  0.6226E+01  0.9581E+01
     -4.797  0.1374E+01  0.9723E+01
     -4.693  0.2642E+01  0.9997E+01
     -4.589  0.4293E+01  0.1044E+02
     -4.486  0.3089E+02  0.1365E+02
     -4.382  0.3415E+01  0.1400E+02
     -4.278  0.9047E-03  0.1400E+02
     -4.175  0.9133E-10  0.1400E+02
     -4.071  0.0000E+00  0.1400E+02
     -3.967  0.0000E+00  0.1400E+02
     -3.863  0.0000E+00  0.1400E+02
     -3.760  0.0000E+00  0.1400E+02
     -3.656  0.0000E+00  0.1400E+02
     -3.552  0.0000E+00  0.1400E+02
     -3.449  0.0000E+00  0.1400E+02
     -3.345  0.0000E+00  0.1400E+02
     -3.241  0.0000E+00  0.1400E+02
     -3.137  0.0000E+00  0.1400E+02
     -3.034  0.0000E+00  0.1400E+02
     -2.930  0.0000E+00  0.1400E+02
     -2.826  0.0000E+00  0.1400E+02
     -2.723  0.0000E+00  0.1400E+02
     -2.619  0.0000E+00  0.1400E+02
     -2.515  0.0000E+00  0.1400E+02
     -2.411  0.0000E+00  0.1400E+02
     -2.308  0.0000E+00  0.1400E+02
     -2.204  0.0000E+00  0.1400E+02
     -2.100  0.0000E+00  0.1400E+02
     -1.997  0.0000E+00  0.1400E+02
     -1.893  0.0000E+00  0.1400E+02
     -1.789  0.0000E+00  0.1400E+02
     -1.685  0.0000E+00  0.1400E+02
     -1.582  0.0000E+00  0.1400E+02
     -1.478  0.0000E+00  0.1400E+02
     -1.374  0.0000E+00  0.1400E+02
     -1.271  0.0000E+00  0.1400E+02
     -1.167  0.0000E+00  0.1400E+02
     -1.063  0.2072E-09  0.1400E+02
     -0.959  0.3141E-03  0.1400E+02
     -0.856  0.1720E+00  0.1402E+02
     -0.752  0.2547E+00  0.1404E+02
     -0.648  0.1235E+00  0.1406E+02
     -0.545  0.1504E+01  0.1421E+02
     -0.441  0.8960E+00  0.1431E+02
     -0.337  0.1807E+01  0.1449E+02
     -0.233  0.1666E+01  0.1467E+02
     -0.130  0.1398E+01  0.1481E+02
     -0.026  0.1924E+01  0.1501E+02
      0.078  0.9627E+00  0.1511E+02
      0.181  0.2172E+00  0.1513E+02
      0.285  0.6350E+00  0.1520E+02
      0.389  0.6978E+00  0.1527E+02
      0.493  0.2145E+01  0.1549E+02
      0.596  0.5899E+00  0.1556E+02
      0.700  0.4948E-01  0.1556E+02
      0.804  0.2563E+01  0.1583E+02
      0.907  0.8195E+00  0.1591E+02
      1.011  0.1230E+00  0.1592E+02
      1.115  0.7079E+00  0.1600E+02
      1.219  0.2654E-01  0.1600E+02
      1.322  0.6792E-06  0.1600E+02
      1.426  0.4472E-14  0.1600E+02
      1.530  0.0000E+00  0.1600E+02
      1.633  0.0000E+00  0.1600E+02
      1.737  0.0000E+00  0.1600E+02
      1.841  0.0000E+00  0.1600E+02
      1.945  0.0000E+00  0.1600E+02
      2.048  0.0000E+00  0.1600E+02
      2.152  0.0000E+00  0.1600E+02
      2.256  0.0000E+00  0.1600E+02
      2.359  0.0000E+00  0.1600E+02
      2.463  0.0000E+00  0.1600E+02
