   8   8   0   0
  0.1636436E+02  0.5565935E-09  0.5565933E-09  0.5565934E-09  0.5000000E-15
  1.000000000000000E-004
  CAR 
 unknown system                          
     11.89122352    -30.48550496  301      0.18465228      1.00000000
    -30.486  0.0000E+00  0.0000E+00
    -30.344  0.0000E+00  0.0000E+00
    -30.203  0.0000E+00  0.0000E+00
    -30.062  0.0000E+00  0.0000E+00
    -29.920  0.0000E+00  0.0000E+00
    -29.779  0.0000E+00  0.0000E+00
    -29.638  0.0000E+00  0.0000E+00
    -29.497  0.0000E+00  0.0000E+00
    -29.355  0.0000E+00  0.0000E+00
    -29.214  0.0000E+00  0.0000E+00
    -29.073  0.0000E+00  0.0000E+00
    -28.932  0.0000E+00  0.0000E+00
    -28.790  0.5608E-10  0.7922E-11
    -28.649  0.2658E-01  0.3754E-02
    -28.508  0.1955E+02  0.2765E+01
    -28.367  0.8740E+01  0.4000E+01
    -28.225  0.4133E-03  0.4000E+01
    -28.084  0.0000E+00  0.4000E+01
    -27.943  0.0000E+00  0.4000E+01
    -27.802  0.0000E+00  0.4000E+01
    -27.660  0.0000E+00  0.4000E+01
    -27.519  0.0000E+00  0.4000E+01
    -27.378  0.0000E+00  0.4000E+01
    -27.237  0.0000E+00  0.4000E+01
    -27.095  0.0000E+00  0.4000E+01
    -26.954  0.0000E+00  0.4000E+01
    -26.813  0.0000E+00  0.4000E+01
    -26.672  0.0000E+00  0.4000E+01
    -26.530  0.0000E+00  0.4000E+01
    -26.389  0.0000E+00  0.4000E+01
    -26.248  0.0000E+00  0.4000E+01
    -26.107  0.0000E+00  0.4000E+01
    -25.965  0.0000E+00  0.4000E+01
    -25.824  0.0000E+00  0.4000E+01
    -25.683  0.0000E+00  0.4000E+01
    -25.542  0.0000E+00  0.4000E+01
    -25.400  0.0000E+00  0.4000E+01
    -25.259  0.0000E+00  0.4000E+01
    -25.118  0.0000E+00  0.4000E+01
    -24.977  0.0000E+00  0.4000E+01
    -24.835  0.0000E+00  0.4000E+01
    -24.694  0.0000E+00  0.4000E+01
    -24.553  0.0000E+00  0.4000E+01
    -24.412  0.0000E+00  0.4000E+01
    -24.270  0.0000E+00  0.4000E+01
    -24.129  0.0000E+00  0.4000E+01
    -23.988  0.0000E+00  0.4000E+01
    -23.846  0.0000E+00  0.4000E+01
    -23.705  0.0000E+00  0.4000E+01
    -23.564  0.0000E+00  0.4000E+01
    -23.423  0.0000E+00  0.4000E+01
    -23.281  0.0000E+00  0.4000E+01
    -23.140  0.0000E+00  0.4000E+01
    -22.999  0.0000E+00  0.4000E+01
    -22.858  0.0000E+00  0.4000E+01
    -22.716  0.0000E+00  0.4000E+01
    -22.575  0.9247E-10  0.4000E+01
    -22.434  0.2462E-01  0.4003E+01
    -22.293  0.1736E+02  0.6456E+01
    -22.151  0.1093E+02  0.8000E+01
    -22.010  0.2880E-02  0.8000E+01
    -21.869  0.1435E-11  0.8000E+01
    -21.728  0.0000E+00  0.8000E+01
    -21.586  0.0000E+00  0.8000E+01
    -21.445  0.0000E+00  0.8000E+01
    -21.304  0.0000E+00  0.8000E+01
    -21.163  0.0000E+00  0.8000E+01
    -21.021  0.0000E+00  0.8000E+01
    -20.880  0.0000E+00  0.8000E+01
    -20.739  0.0000E+00  0.8000E+01
    -20.598  0.0000E+00  0.8000E+01
    -20.456  0.0000E+00  0.8000E+01
    -20.315  0.0000E+00  0.8000E+01
    -20.174  0.0000E+00  0.8000E+01
    -20.033  0.0000E+00  0.8000E+01
    -19.891  0.0000E+00  0.8000E+01
    -19.750  0.0000E+00  0.8000E+01
    -19.609  0.0000E+00  0.8000E+01
    -19.468  0.0000E+00  0.8000E+01
    -19.326  0.0000E+00  0.8000E+01
    -19.185  0.0000E+00  0.8000E+01
    -19.044  0.0000E+00  0.8000E+01
    -18.903  0.0000E+00  0.8000E+01
    -18.761  0.0000E+00  0.8000E+01
    -18.620  0.0000E+00  0.8000E+01
    -18.479  0.0000E+00  0.8000E+01
    -18.338  0.0000E+00  0.8000E+01
    -18.196  0.1443E-04  0.8000E+01
    -18.055  0.5088E+01  0.8719E+01
    -17.914  0.2320E+02  0.1200E+02
    -17.772  0.3165E-01  0.1200E+02
    -17.631  0.2849E-10  0.1200E+02
    -17.490  0.0000E+00  0.1200E+02
    -17.349  0.0000E+00  0.1200E+02
    -17.207  0.0000E+00  0.1200E+02
    -17.066  0.0000E+00  0.1200E+02
    -16.925  0.0000E+00  0.1200E+02
    -16.784  0.0000E+00  0.1200E+02
    -16.642  0.0000E+00  0.1200E+02
    -16.501  0.0000E+00  0.1200E+02
    -16.360  0.0000E+00  0.1200E+02
    -16.219  0.0000E+00  0.1200E+02
    -16.077  0.0000E+00  0.1200E+02
    -15.936  0.0000E+00  0.1200E+02
    -15.795  0.0000E+00  0.1200E+02
    -15.654  0.0000E+00  0.1200E+02
    -15.512  0.0000E+00  0.1200E+02
    -15.371  0.0000E+00  0.1200E+02
    -15.230  0.0000E+00  0.1200E+02
    -15.089  0.0000E+00  0.1200E+02
    -14.947  0.0000E+00  0.1200E+02
    -14.806  0.0000E+00  0.1200E+02
    -14.665  0.0000E+00  0.1200E+02
    -14.524  0.0000E+00  0.1200E+02
    -14.382  0.0000E+00  0.1200E+02
    -14.241  0.0000E+00  0.1200E+02
    -14.100  0.0000E+00  0.1200E+02
    -13.959  0.0000E+00  0.1200E+02
    -13.817  0.0000E+00  0.1200E+02
    -13.676  0.0000E+00  0.1200E+02
    -13.535  0.0000E+00  0.1200E+02
    -13.394  0.0000E+00  0.1200E+02
    -13.252  0.0000E+00  0.1200E+02
    -13.111  0.0000E+00  0.1200E+02
    -12.970  0.0000E+00  0.1200E+02
    -12.829  0.0000E+00  0.1200E+02
    -12.687  0.0000E+00  0.1200E+02
    -12.546  0.3366E-06  0.1200E+02
    -12.405  0.2735E+00  0.1204E+02
    -12.264  0.7646E+01  0.1312E+02
    -12.122  0.1284E+02  0.1493E+02
    -11.981  0.4832E+02  0.2176E+02
    -11.840  0.1391E+02  0.2372E+02
    -11.698  0.1965E+01  0.2400E+02
    -11.557  0.1591E-03  0.2400E+02
    -11.416  0.0000E+00  0.2400E+02
    -11.275  0.0000E+00  0.2400E+02
    -11.133  0.0000E+00  0.2400E+02
    -10.992  0.0000E+00  0.2400E+02
    -10.851  0.0000E+00  0.2400E+02
    -10.710  0.0000E+00  0.2400E+02
    -10.568  0.0000E+00  0.2400E+02
    -10.427  0.0000E+00  0.2400E+02
    -10.286  0.0000E+00  0.2400E+02
    -10.145  0.0000E+00  0.2400E+02
    -10.003  0.0000E+00  0.2400E+02
     -9.862  0.0000E+00  0.2400E+02
     -9.721  0.0000E+00  0.2400E+02
     -9.580  0.0000E+00  0.2400E+02
     -9.438  0.0000E+00  0.2400E+02
     -9.297  0.0000E+00  0.2400E+02
     -9.156  0.0000E+00  0.2400E+02
     -9.015  0.0000E+00  0.2400E+02
     -8.873  0.0000E+00  0.2400E+02
     -8.732  0.0000E+00  0.2400E+02
     -8.591  0.0000E+00  0.2400E+02
     -8.450  0.0000E+00  0.2400E+02
     -8.308  0.0000E+00  0.2400E+02
     -8.167  0.0000E+00  0.2400E+02
     -8.026  0.0000E+00  0.2400E+02
     -7.885  0.0000E+00  0.2400E+02
     -7.743  0.0000E+00  0.2400E+02
     -7.602  0.0000E+00  0.2400E+02
     -7.461  0.0000E+00  0.2400E+02
     -7.320  0.0000E+00  0.2400E+02
     -7.178  0.2038E-11  0.2400E+02
     -7.037  0.1122E-02  0.2400E+02
     -6.896  0.7028E+00  0.2410E+02
     -6.755  0.9817E+01  0.2549E+02
     -6.613  0.1995E+02  0.2830E+02
     -6.472  0.1273E+02  0.3010E+02
     -6.331  0.5054E+01  0.3082E+02
     -6.190  0.6849E+01  0.3178E+02
     -6.048  0.2051E+01  0.3207E+02
     -5.907  0.4389E+01  0.3269E+02
     -5.766  0.1121E+02  0.3428E+02
     -5.624  0.1146E+02  0.3590E+02
     -5.483  0.7286E+00  0.3600E+02
     -5.342  0.2710E-05  0.3600E+02
     -5.201  0.0000E+00  0.3600E+02
     -5.059  0.0000E+00  0.3600E+02
     -4.918  0.1006E-15  0.3600E+02
     -4.777  0.1433E-04  0.3600E+02
     -4.636  0.1029E+01  0.3615E+02
     -4.494  0.1206E+02  0.3785E+02
     -4.353  0.1445E+02  0.3989E+02
     -4.212  0.7855E+00  0.4000E+02
     -4.071  0.9822E-04  0.4000E+02
     -3.929  0.0000E+00  0.4000E+02
     -3.788  0.0000E+00  0.4000E+02
     -3.647  0.0000E+00  0.4000E+02
     -3.506  0.0000E+00  0.4000E+02
     -3.364  0.0000E+00  0.4000E+02
     -3.223  0.0000E+00  0.4000E+02
     -3.082  0.0000E+00  0.4000E+02
     -2.941  0.0000E+00  0.4000E+02
     -2.799  0.0000E+00  0.4000E+02
     -2.658  0.0000E+00  0.4000E+02
     -2.517  0.0000E+00  0.4000E+02
     -2.376  0.0000E+00  0.4000E+02
     -2.234  0.0000E+00  0.4000E+02
     -2.093  0.0000E+00  0.4000E+02
     -1.952  0.0000E+00  0.4000E+02
     -1.811  0.0000E+00  0.4000E+02
     -1.669  0.0000E+00  0.4000E+02
     -1.528  0.5145E-08  0.4000E+02
     -1.387  0.1595E-01  0.4000E+02
     -1.246  0.4035E+00  0.4006E+02
     -1.104  0.7207E+00  0.4016E+02
     -0.963  0.1636E+01  0.4039E+02
     -0.822  0.3949E+01  0.4095E+02
     -0.681  0.1054E+02  0.4244E+02
     -0.539  0.1690E+02  0.4482E+02
     -0.398  0.1705E+02  0.4723E+02
     -0.257  0.3382E+01  0.4771E+02
     -0.116  0.1862E+01  0.4797E+02
      0.026  0.1794E+00  0.4800E+02
      0.167  0.8010E-04  0.4800E+02
      0.308  0.0000E+00  0.4800E+02
      0.450  0.0000E+00  0.4800E+02
      0.591  0.0000E+00  0.4800E+02
      0.732  0.0000E+00  0.4800E+02
      0.873  0.0000E+00  0.4800E+02
      1.015  0.0000E+00  0.4800E+02
      1.156  0.0000E+00  0.4800E+02
      1.297  0.0000E+00  0.4800E+02
      1.438  0.0000E+00  0.4800E+02
      1.580  0.0000E+00  0.4800E+02
      1.721  0.0000E+00  0.4800E+02
      1.862  0.0000E+00  0.4800E+02
      2.003  0.0000E+00  0.4800E+02
      2.145  0.0000E+00  0.4800E+02
      2.286  0.0000E+00  0.4800E+02
      2.427  0.0000E+00  0.4800E+02
      2.568  0.0000E+00  0.4800E+02
      2.710  0.0000E+00  0.4800E+02
      2.851  0.0000E+00  0.4800E+02
      2.992  0.0000E+00  0.4800E+02
      3.133  0.0000E+00  0.4800E+02
      3.275  0.0000E+00  0.4800E+02
      3.416  0.0000E+00  0.4800E+02
      3.557  0.0000E+00  0.4800E+02
      3.698  0.0000E+00  0.4800E+02
      3.840  0.0000E+00  0.4800E+02
      3.981  0.1075E-11  0.4800E+02
      4.122  0.5461E-03  0.4800E+02
      4.263  0.2183E+00  0.4803E+02
      4.405  0.6305E+00  0.4812E+02
      4.546  0.2968E+01  0.4854E+02
      4.687  0.4881E+01  0.4923E+02
      4.828  0.1048E+02  0.5071E+02
      4.970  0.8049E+01  0.5185E+02
      5.111  0.1082E+02  0.5337E+02
      5.252  0.1310E+02  0.5522E+02
      5.393  0.4688E+01  0.5589E+02
      5.535  0.1128E+01  0.5605E+02
      5.676  0.4782E+00  0.5611E+02
      5.817  0.4297E+00  0.5617E+02
      5.958  0.6922E+00  0.5627E+02
      6.100  0.1624E+01  0.5650E+02
      6.241  0.1958E+01  0.5678E+02
      6.382  0.1959E+01  0.5705E+02
      6.524  0.1355E+01  0.5725E+02
      6.665  0.1716E+01  0.5749E+02
      6.806  0.7045E+00  0.5759E+02
      6.947  0.2971E+01  0.5801E+02
      7.089  0.2688E+00  0.5805E+02
      7.230  0.2220E+01  0.5836E+02
      7.371  0.2072E+01  0.5865E+02
      7.512  0.1258E+01  0.5883E+02
      7.654  0.4897E+01  0.5952E+02
      7.795  0.5840E+01  0.6035E+02
      7.936  0.6123E+01  0.6121E+02
      8.077  0.5502E+01  0.6199E+02
      8.219  0.5032E+01  0.6270E+02
      8.360  0.5144E+01  0.6343E+02
      8.501  0.6088E+01  0.6429E+02
      8.642  0.6495E+01  0.6520E+02
      8.784  0.3678E+01  0.6572E+02
      8.925  0.8373E+01  0.6691E+02
      9.066  0.9552E+01  0.6826E+02
      9.207  0.8082E+01  0.6940E+02
      9.349  0.6094E+01  0.7026E+02
      9.490  0.4234E+01  0.7086E+02
      9.631  0.4484E+01  0.7149E+02
      9.772  0.2736E+01  0.7188E+02
      9.914  0.7231E+00  0.7198E+02
     10.055  0.1582E+00  0.7200E+02
     10.196  0.6262E-03  0.7200E+02
     10.337  0.3536E-11  0.7200E+02
     10.479  0.0000E+00  0.7200E+02
     10.620  0.0000E+00  0.7200E+02
     10.761  0.0000E+00  0.7200E+02
     10.902  0.0000E+00  0.7200E+02
     11.044  0.0000E+00  0.7200E+02
     11.185  0.0000E+00  0.7200E+02
     11.326  0.0000E+00  0.7200E+02
     11.467  0.0000E+00  0.7200E+02
     11.609  0.0000E+00  0.7200E+02
     11.750  0.0000E+00  0.7200E+02
     11.891  0.0000E+00  0.7200E+02
