K2N6
1.0
      5.1058870      -0.0096236      -2.2157283
     -2.9050652       4.6101188      -1.1344645
     -0.0060641       0.0096236       5.5659221
  K     N   
  2     6   
Direct
      0.0000000       0.7500000       0.7500000
      0.0000000       0.2500000       0.2500000
      0.5000000       0.0000000       0.5000000
      0.5000000       0.5000000       0.0000000
      0.7738876       0.6369428       0.1369428
      0.5000000       0.1369428       0.3630572
      0.5000000       0.8630572       0.6369428
      0.2261124       0.3630572       0.8630572
