unknown system                          
           1
     5.105887   -0.009624   -2.215728
    -2.905065    4.610119   -1.134464
    -0.006064    0.009624    5.565922
   K    N 
     2     6
Direct configuration=     1
   0.00000000  0.75000000  0.75000000
   0.00000000  0.25000000  0.25000000
   0.50000000  0.00000000  0.50000000
   0.50000000  0.50000000  0.00000000
   0.77388763  0.63694281  0.13694281
   0.50000000  0.13694281  0.36305719
   0.50000000  0.86305719  0.63694281
   0.22611237  0.36305719  0.86305719
