Be24 P16                                
   1.00000000000000     
     8.3236945299999991    0.0000000000000000   -2.9428697599999998
    -4.1618472600000000    7.2085307600000004   -2.9428697599999998
     0.0000000000000000    0.0000000000000000    8.8286102999999994
   Be   P 
    24    16
Direct
     0.5045791000000008    0.2484709499999980    0.9954021200000014
     0.7530698400000020    0.5091779799999969    0.5045978799999986
     0.9908220200000031    0.7438918499999971    0.9954208999999992
     0.7469301599999980    0.2515290500000020    0.7561081500000029
     0.0045791000000008    0.0091779799999969    0.2561081500000029
     0.5045978799999986    0.7530698400000020    0.5091779799999969
     0.2438918499999971    0.2530698400000020    0.7484709499999980
     0.4908220200000031    0.4954021200000014    0.2469301599999980
     0.7561081500000029    0.7469301599999980    0.2515290500000020
     0.7515290500000020    0.0045978799999986    0.4954208999999992
     0.0091779799999969    0.2561081500000029    0.0045791000000008
     0.0045978799999986    0.4954208999999992    0.7515290500000020
     0.2530698400000020    0.7484709499999980    0.2438918499999971
     0.2484709499999980    0.9954021200000014    0.5045791000000008
     0.2515290500000020    0.7561081500000029    0.7469301599999980
     0.7484709499999980    0.2438918499999971    0.2530698400000020
     0.4954208999999992    0.7515290500000020    0.0045978799999986
     0.7438918499999971    0.9954208999999992    0.9908220200000031
     0.9954208999999992    0.9908220200000031    0.7438918499999971
     0.9954021200000014    0.5045791000000008    0.2484709499999980
     0.5091779799999969    0.5045978799999986    0.7530698400000020
     0.4954021200000014    0.2469301599999980    0.4908220200000031
     0.2469301599999980    0.4908220200000031    0.4954021200000014
     0.2561081500000029    0.0045791000000008    0.0091779799999969
     0.2436423600000026    0.9936423600000026    0.2500000000000000
     0.7436423600000026    0.4936423600000026    0.2500000000000000
     0.4936423600000026    0.2500000000000000    0.7436423600000026
     0.7563576399999974    0.0063576399999974    0.7500000000000000
     0.2500000000000000    0.7436423600000026    0.4936423600000026
     0.9936423600000026    0.2500000000000000    0.2436423600000026
     0.2500000000000000    0.2436423600000026    0.9936423600000026
     0.5063576399999974    0.7500000000000000    0.2563576399999974
     0.7500000000000000    0.7563576399999974    0.0063576399999974
     0.5000000000000000    0.5000000000000000    0.5000000000000000
     0.0063576399999974    0.7500000000000000    0.7563576399999974
     0.0000000000000000    0.0000000000000000    0.5000000000000000
     0.7500000000000000    0.2563576399999974    0.5063576399999974
     0.2563576399999974    0.5063576399999974    0.7500000000000000
     0.0000000000000000    0.5000000000000000    0.0000000000000000
     0.5000000000000000    0.0000000000000000    0.0000000000000000
 
  0.00000000E+00  0.00000000E+00  0.00000000E+00
  0.00000000E+00  0.00000000E+00  0.00000000E+00
  0.00000000E+00  0.00000000E+00  0.00000000E+00
  0.00000000E+00  0.00000000E+00  0.00000000E+00
  0.00000000E+00  0.00000000E+00  0.00000000E+00
  0.00000000E+00  0.00000000E+00  0.00000000E+00
  0.00000000E+00  0.00000000E+00  0.00000000E+00
  0.00000000E+00  0.00000000E+00  0.00000000E+00
  0.00000000E+00  0.00000000E+00  0.00000000E+00
  0.00000000E+00  0.00000000E+00  0.00000000E+00
  0.00000000E+00  0.00000000E+00  0.00000000E+00
  0.00000000E+00  0.00000000E+00  0.00000000E+00
  0.00000000E+00  0.00000000E+00  0.00000000E+00
  0.00000000E+00  0.00000000E+00  0.00000000E+00
  0.00000000E+00  0.00000000E+00  0.00000000E+00
  0.00000000E+00  0.00000000E+00  0.00000000E+00
  0.00000000E+00  0.00000000E+00  0.00000000E+00
  0.00000000E+00  0.00000000E+00  0.00000000E+00
  0.00000000E+00  0.00000000E+00  0.00000000E+00
  0.00000000E+00  0.00000000E+00  0.00000000E+00
  0.00000000E+00  0.00000000E+00  0.00000000E+00
  0.00000000E+00  0.00000000E+00  0.00000000E+00
  0.00000000E+00  0.00000000E+00  0.00000000E+00
  0.00000000E+00  0.00000000E+00  0.00000000E+00
  0.00000000E+00  0.00000000E+00  0.00000000E+00
  0.00000000E+00  0.00000000E+00  0.00000000E+00
  0.00000000E+00  0.00000000E+00  0.00000000E+00
  0.00000000E+00  0.00000000E+00  0.00000000E+00
  0.00000000E+00  0.00000000E+00  0.00000000E+00
  0.00000000E+00  0.00000000E+00  0.00000000E+00
  0.00000000E+00  0.00000000E+00  0.00000000E+00
  0.00000000E+00  0.00000000E+00  0.00000000E+00
  0.00000000E+00  0.00000000E+00  0.00000000E+00
  0.00000000E+00  0.00000000E+00  0.00000000E+00
  0.00000000E+00  0.00000000E+00  0.00000000E+00
  0.00000000E+00  0.00000000E+00  0.00000000E+00
  0.00000000E+00  0.00000000E+00  0.00000000E+00
  0.00000000E+00  0.00000000E+00  0.00000000E+00
  0.00000000E+00  0.00000000E+00  0.00000000E+00
  0.00000000E+00  0.00000000E+00  0.00000000E+00
