  40  40   0   0
  0.1324327E+02  0.8828611E-09  0.8828611E-09  0.8828610E-09  0.5000000E-15
  1.000000000000000E-004
  CAR 
 unknown system                          
     22.72680947   -101.39013224  301      5.45386842      1.00000000
   -101.390  0.0000E+00  0.0000E+00
   -100.976  0.0000E+00  0.0000E+00
   -100.563  0.0000E+00  0.0000E+00
   -100.149  0.0000E+00  0.0000E+00
    -99.735  0.0000E+00  0.0000E+00
    -99.322  0.0000E+00  0.0000E+00
    -98.908  0.0000E+00  0.0000E+00
    -98.494  0.0000E+00  0.0000E+00
    -98.080  0.0000E+00  0.0000E+00
    -97.667  0.0000E+00  0.0000E+00
    -97.253  0.0000E+00  0.0000E+00
    -96.839  0.0000E+00  0.0000E+00
    -96.425  0.0000E+00  0.0000E+00
    -96.012  0.4479E-11  0.1853E-11
    -95.598  0.1160E+03  0.4800E+02
    -95.184  0.0000E+00  0.4800E+02
    -94.771  0.0000E+00  0.4800E+02
    -94.357  0.0000E+00  0.4800E+02
    -93.943  0.0000E+00  0.4800E+02
    -93.529  0.0000E+00  0.4800E+02
    -93.116  0.0000E+00  0.4800E+02
    -92.702  0.0000E+00  0.4800E+02
    -92.288  0.0000E+00  0.4800E+02
    -91.875  0.0000E+00  0.4800E+02
    -91.461  0.0000E+00  0.4800E+02
    -91.047  0.0000E+00  0.4800E+02
    -90.633  0.0000E+00  0.4800E+02
    -90.220  0.0000E+00  0.4800E+02
    -89.806  0.0000E+00  0.4800E+02
    -89.392  0.0000E+00  0.4800E+02
    -88.978  0.0000E+00  0.4800E+02
    -88.565  0.0000E+00  0.4800E+02
    -88.151  0.0000E+00  0.4800E+02
    -87.737  0.0000E+00  0.4800E+02
    -87.324  0.0000E+00  0.4800E+02
    -86.910  0.0000E+00  0.4800E+02
    -86.496  0.0000E+00  0.4800E+02
    -86.082  0.0000E+00  0.4800E+02
    -85.669  0.0000E+00  0.4800E+02
    -85.255  0.0000E+00  0.4800E+02
    -84.841  0.0000E+00  0.4800E+02
    -84.427  0.0000E+00  0.4800E+02
    -84.014  0.0000E+00  0.4800E+02
    -83.600  0.0000E+00  0.4800E+02
    -83.186  0.0000E+00  0.4800E+02
    -82.773  0.0000E+00  0.4800E+02
    -82.359  0.0000E+00  0.4800E+02
    -81.945  0.0000E+00  0.4800E+02
    -81.531  0.0000E+00  0.4800E+02
    -81.118  0.0000E+00  0.4800E+02
    -80.704  0.0000E+00  0.4800E+02
    -80.290  0.0000E+00  0.4800E+02
    -79.877  0.0000E+00  0.4800E+02
    -79.463  0.0000E+00  0.4800E+02
    -79.049  0.0000E+00  0.4800E+02
    -78.635  0.0000E+00  0.4800E+02
    -78.222  0.0000E+00  0.4800E+02
    -77.808  0.0000E+00  0.4800E+02
    -77.394  0.0000E+00  0.4800E+02
    -76.980  0.0000E+00  0.4800E+02
    -76.567  0.0000E+00  0.4800E+02
    -76.153  0.0000E+00  0.4800E+02
    -75.739  0.0000E+00  0.4800E+02
    -75.326  0.0000E+00  0.4800E+02
    -74.912  0.0000E+00  0.4800E+02
    -74.498  0.0000E+00  0.4800E+02
    -74.084  0.0000E+00  0.4800E+02
    -73.671  0.0000E+00  0.4800E+02
    -73.257  0.0000E+00  0.4800E+02
    -72.843  0.0000E+00  0.4800E+02
    -72.430  0.0000E+00  0.4800E+02
    -72.016  0.0000E+00  0.4800E+02
    -71.602  0.0000E+00  0.4800E+02
    -71.188  0.0000E+00  0.4800E+02
    -70.775  0.0000E+00  0.4800E+02
    -70.361  0.0000E+00  0.4800E+02
    -69.947  0.0000E+00  0.4800E+02
    -69.533  0.0000E+00  0.4800E+02
    -69.120  0.0000E+00  0.4800E+02
    -68.706  0.0000E+00  0.4800E+02
    -68.292  0.0000E+00  0.4800E+02
    -67.879  0.0000E+00  0.4800E+02
    -67.465  0.0000E+00  0.4800E+02
    -67.051  0.0000E+00  0.4800E+02
    -66.637  0.0000E+00  0.4800E+02
    -66.224  0.0000E+00  0.4800E+02
    -65.810  0.0000E+00  0.4800E+02
    -65.396  0.0000E+00  0.4800E+02
    -64.982  0.0000E+00  0.4800E+02
    -64.569  0.0000E+00  0.4800E+02
    -64.155  0.0000E+00  0.4800E+02
    -63.741  0.0000E+00  0.4800E+02
    -63.328  0.0000E+00  0.4800E+02
    -62.914  0.0000E+00  0.4800E+02
    -62.500  0.0000E+00  0.4800E+02
    -62.086  0.0000E+00  0.4800E+02
    -61.673  0.0000E+00  0.4800E+02
    -61.259  0.0000E+00  0.4800E+02
    -60.845  0.0000E+00  0.4800E+02
    -60.432  0.0000E+00  0.4800E+02
    -60.018  0.0000E+00  0.4800E+02
    -59.604  0.0000E+00  0.4800E+02
    -59.190  0.0000E+00  0.4800E+02
    -58.777  0.0000E+00  0.4800E+02
    -58.363  0.0000E+00  0.4800E+02
    -57.949  0.0000E+00  0.4800E+02
    -57.535  0.0000E+00  0.4800E+02
    -57.122  0.0000E+00  0.4800E+02
    -56.708  0.0000E+00  0.4800E+02
    -56.294  0.0000E+00  0.4800E+02
    -55.881  0.0000E+00  0.4800E+02
    -55.467  0.0000E+00  0.4800E+02
    -55.053  0.0000E+00  0.4800E+02
    -54.639  0.0000E+00  0.4800E+02
    -54.226  0.0000E+00  0.4800E+02
    -53.812  0.0000E+00  0.4800E+02
    -53.398  0.0000E+00  0.4800E+02
    -52.985  0.0000E+00  0.4800E+02
    -52.571  0.0000E+00  0.4800E+02
    -52.157  0.0000E+00  0.4800E+02
    -51.743  0.0000E+00  0.4800E+02
    -51.330  0.0000E+00  0.4800E+02
    -50.916  0.0000E+00  0.4800E+02
    -50.502  0.0000E+00  0.4800E+02
    -50.088  0.0000E+00  0.4800E+02
    -49.675  0.0000E+00  0.4800E+02
    -49.261  0.0000E+00  0.4800E+02
    -48.847  0.0000E+00  0.4800E+02
    -48.434  0.0000E+00  0.4800E+02
    -48.020  0.0000E+00  0.4800E+02
    -47.606  0.0000E+00  0.4800E+02
    -47.192  0.0000E+00  0.4800E+02
    -46.779  0.0000E+00  0.4800E+02
    -46.365  0.0000E+00  0.4800E+02
    -45.951  0.0000E+00  0.4800E+02
    -45.538  0.0000E+00  0.4800E+02
    -45.124  0.0000E+00  0.4800E+02
    -44.710  0.0000E+00  0.4800E+02
    -44.296  0.0000E+00  0.4800E+02
    -43.883  0.0000E+00  0.4800E+02
    -43.469  0.0000E+00  0.4800E+02
    -43.055  0.0000E+00  0.4800E+02
    -42.641  0.0000E+00  0.4800E+02
    -42.228  0.0000E+00  0.4800E+02
    -41.814  0.0000E+00  0.4800E+02
    -41.400  0.0000E+00  0.4800E+02
    -40.987  0.0000E+00  0.4800E+02
    -40.573  0.0000E+00  0.4800E+02
    -40.159  0.0000E+00  0.4800E+02
    -39.745  0.0000E+00  0.4800E+02
    -39.332  0.0000E+00  0.4800E+02
    -38.918  0.0000E+00  0.4800E+02
    -38.504  0.0000E+00  0.4800E+02
    -38.090  0.0000E+00  0.4800E+02
    -37.677  0.0000E+00  0.4800E+02
    -37.263  0.0000E+00  0.4800E+02
    -36.849  0.0000E+00  0.4800E+02
    -36.436  0.0000E+00  0.4800E+02
    -36.022  0.0000E+00  0.4800E+02
    -35.608  0.0000E+00  0.4800E+02
    -35.194  0.0000E+00  0.4800E+02
    -34.781  0.0000E+00  0.4800E+02
    -34.367  0.0000E+00  0.4800E+02
    -33.953  0.0000E+00  0.4800E+02
    -33.540  0.0000E+00  0.4800E+02
    -33.126  0.0000E+00  0.4800E+02
    -32.712  0.0000E+00  0.4800E+02
    -32.298  0.0000E+00  0.4800E+02
    -31.885  0.0000E+00  0.4800E+02
    -31.471  0.0000E+00  0.4800E+02
    -31.057  0.0000E+00  0.4800E+02
    -30.643  0.0000E+00  0.4800E+02
    -30.230  0.0000E+00  0.4800E+02
    -29.816  0.0000E+00  0.4800E+02
    -29.402  0.0000E+00  0.4800E+02
    -28.989  0.0000E+00  0.4800E+02
    -28.575  0.0000E+00  0.4800E+02
    -28.161  0.0000E+00  0.4800E+02
    -27.747  0.0000E+00  0.4800E+02
    -27.334  0.0000E+00  0.4800E+02
    -26.920  0.0000E+00  0.4800E+02
    -26.506  0.0000E+00  0.4800E+02
    -26.093  0.0000E+00  0.4800E+02
    -25.679  0.0000E+00  0.4800E+02
    -25.265  0.0000E+00  0.4800E+02
    -24.851  0.0000E+00  0.4800E+02
    -24.438  0.0000E+00  0.4800E+02
    -24.024  0.0000E+00  0.4800E+02
    -23.610  0.0000E+00  0.4800E+02
    -23.196  0.0000E+00  0.4800E+02
    -22.783  0.0000E+00  0.4800E+02
    -22.369  0.0000E+00  0.4800E+02
    -21.955  0.0000E+00  0.4800E+02
    -21.542  0.0000E+00  0.4800E+02
    -21.128  0.0000E+00  0.4800E+02
    -20.714  0.0000E+00  0.4800E+02
    -20.300  0.0000E+00  0.4800E+02
    -19.887  0.0000E+00  0.4800E+02
    -19.473  0.0000E+00  0.4800E+02
    -19.059  0.0000E+00  0.4800E+02
    -18.646  0.0000E+00  0.4800E+02
    -18.232  0.0000E+00  0.4800E+02
    -17.818  0.0000E+00  0.4800E+02
    -17.404  0.0000E+00  0.4800E+02
    -16.991  0.0000E+00  0.4800E+02
    -16.577  0.0000E+00  0.4800E+02
    -16.163  0.0000E+00  0.4800E+02
    -15.749  0.0000E+00  0.4800E+02
    -15.336  0.0000E+00  0.4800E+02
    -14.922  0.0000E+00  0.4800E+02
    -14.508  0.0000E+00  0.4800E+02
    -14.095  0.0000E+00  0.4800E+02
    -13.681  0.0000E+00  0.4800E+02
    -13.267  0.0000E+00  0.4800E+02
    -12.853  0.0000E+00  0.4800E+02
    -12.440  0.0000E+00  0.4800E+02
    -12.026  0.0000E+00  0.4800E+02
    -11.612  0.0000E+00  0.4800E+02
    -11.198  0.0000E+00  0.4800E+02
    -10.785  0.0000E+00  0.4800E+02
    -10.371  0.0000E+00  0.4800E+02
     -9.957  0.0000E+00  0.4800E+02
     -9.544  0.0000E+00  0.4800E+02
     -9.130  0.0000E+00  0.4800E+02
     -8.716  0.0000E+00  0.4800E+02
     -8.302  0.0000E+00  0.4800E+02
     -7.889  0.1803E+00  0.4807E+02
     -7.475  0.3210E+01  0.4940E+02
     -7.061  0.6438E+01  0.5207E+02
     -6.648  0.9747E+01  0.5611E+02
     -6.234  0.8309E+01  0.5966E+02
     -5.820  0.1506E+02  0.6628E+02
     -5.406  0.1699E+02  0.7429E+02
     -4.993  0.1353E+02  0.8000E+02
     -4.579  0.0000E+00  0.8000E+02
     -4.165  0.0000E+00  0.8000E+02
     -3.751  0.0000E+00  0.8000E+02
     -3.338  0.0000E+00  0.8000E+02
     -2.924  0.0000E+00  0.8000E+02
     -2.510  0.0000E+00  0.8000E+02
     -2.097  0.7884E-13  0.8000E+02
     -1.683  0.3299E+01  0.8136E+02
     -1.269  0.1208E+02  0.8678E+02
     -0.855  0.1357E+02  0.9295E+02
     -0.442  0.1744E+02  0.1003E+03
     -0.028  0.9658E+01  0.1048E+03
      0.386  0.9749E+01  0.1093E+03
      0.799  0.1253E+02  0.1145E+03
      1.213  0.1875E+02  0.1223E+03
      1.627  0.2630E+02  0.1334E+03
      2.041  0.1272E+02  0.1390E+03
      2.454  0.1742E+02  0.1462E+03
      2.868  0.1555E+02  0.1538E+03
      3.282  0.1576E+02  0.1606E+03
      3.696  0.1281E+02  0.1660E+03
      4.109  0.1393E+02  0.1718E+03
      4.523  0.7472E+01  0.1749E+03
      4.937  0.1993E+01  0.1757E+03
      5.350  0.5356E+00  0.1760E+03
      5.764  0.6822E-07  0.1760E+03
      6.178  0.5371E+00  0.1762E+03
      6.592  0.2687E+01  0.1773E+03
      7.005  0.1728E+02  0.1845E+03
      7.419  0.1186E+02  0.1897E+03
      7.833  0.2054E+02  0.1984E+03
      8.246  0.2280E+02  0.2081E+03
      8.660  0.2242E+02  0.2183E+03
      9.074  0.1983E+02  0.2272E+03
      9.488  0.2022E+02  0.2360E+03
      9.901  0.1286E+02  0.2415E+03
     10.315  0.1475E+02  0.2484E+03
     10.729  0.2151E+02  0.2576E+03
     11.143  0.1564E+02  0.2645E+03
     11.556  0.1948E+02  0.2732E+03
     11.970  0.1065E+02  0.2779E+03
     12.384  0.1478E+02  0.2846E+03
     12.797  0.1486E+02  0.2908E+03
     13.211  0.1297E+02  0.2965E+03
     13.625  0.1937E+02  0.3047E+03
     14.039  0.1695E+02  0.3120E+03
     14.452  0.1948E+02  0.3201E+03
     14.866  0.1852E+02  0.3283E+03
     15.280  0.2028E+02  0.3369E+03
     15.694  0.1574E+02  0.3438E+03
     16.107  0.2152E+02  0.3531E+03
     16.521  0.1798E+02  0.3625E+03
     16.935  0.7757E+01  0.3661E+03
     17.348  0.4259E+01  0.3680E+03
     17.762  0.0000E+00  0.3680E+03
     18.176  0.0000E+00  0.3680E+03
     18.590  0.0000E+00  0.3680E+03
     19.003  0.0000E+00  0.3680E+03
     19.417  0.0000E+00  0.3680E+03
     19.831  0.0000E+00  0.3680E+03
     20.244  0.0000E+00  0.3680E+03
     20.658  0.0000E+00  0.3680E+03
     21.072  0.0000E+00  0.3680E+03
     21.486  0.0000E+00  0.3680E+03
     21.899  0.0000E+00  0.3680E+03
     22.313  0.0000E+00  0.3680E+03
     22.727  0.0000E+00  0.3680E+03
