W4O8
1.0
      4.9179237       0.0000000       0.0000000
      0.0000000       4.8976685      -2.6766847
      0.0000000       0.0071496       5.5668096
  W     O   
  4     8   
Direct
      0.5071615       0.4853050       0.7142236
      0.0071615       0.0146950       0.7857764
      0.4928355       0.5146885       0.2857736
      0.9928355       0.9853115       0.2142264
      0.3000004       0.2992361       0.9083491
      0.8000004       0.2007639       0.5916509
      0.7000002       0.7007640       0.0916515
      0.2000002       0.7992360       0.4083485
      0.2772922       0.2660573       0.3790368
      0.2227113       0.7660544       0.8790348
      0.7772922       0.2339427       0.1209632
      0.7227113       0.7339456       0.6209652
