W4 O8
1.0
   4.9179237499999999    0.0000000000000000    0.0000000000000000
   0.0000000000000000    4.8976685299999998   -2.6766846900000001
   0.0000000000000000    0.0071495900000000    5.5668096399999998
W O
4 8
direct
   0.5071614900000000    0.4853050000000000    0.7142236000000000 W
   0.0071614900000000    0.0146950000000000    0.7857764000000000 W
   0.4928354500000000    0.5146885300000000    0.2857735800000000 W
   0.9928354500000000    0.9853114700000000    0.2142264200000000 W
   0.3000003700000000    0.2992361100000000    0.9083491100000000 O
   0.8000003700000000    0.2007638900000000    0.5916508900000000 O
   0.7000002400000001    0.7007640400000000    0.0916515200000000 O
   0.2000002400000000    0.7992359600000000    0.4083484800000000 O
   0.2772921800000000    0.2660573200000000    0.3790367700000000 O
   0.2227112700000000    0.7660543900000000    0.8790347800000000 O
   0.7772921800000000    0.2339426800000000    0.1209632300000000 O
   0.7227112700000000    0.7339456100000000    0.6209652200000000 O
