   3   3   0   0
  0.3007493E+02  0.7102204E-09  0.7102204E-09  0.7102204E-09  0.5000000E-15
  1.000000000000000E-004
  CAR 
 unknown system                          
      6.10200659    -24.87896348  301      1.60520038      1.00000000
    -24.879  0.0000E+00  0.0000E+00
    -24.776  0.0000E+00  0.0000E+00
    -24.672  0.0000E+00  0.0000E+00
    -24.569  0.0000E+00  0.0000E+00
    -24.466  0.0000E+00  0.0000E+00
    -24.363  0.0000E+00  0.0000E+00
    -24.259  0.0000E+00  0.0000E+00
    -24.156  0.0000E+00  0.0000E+00
    -24.053  0.0000E+00  0.0000E+00
    -23.950  0.0000E+00  0.0000E+00
    -23.846  0.0000E+00  0.0000E+00
    -23.743  0.6910E-13  0.7136E-14
    -23.640  0.1561E-04  0.1612E-05
    -23.536  0.1193E+01  0.1232E+00
    -23.433  0.7751E+02  0.8128E+01
    -23.330  0.3742E+02  0.1199E+02
    -23.227  0.7371E-01  0.1200E+02
    -23.123  0.9178E-07  0.1200E+02
    -23.020  0.0000E+00  0.1200E+02
    -22.917  0.0000E+00  0.1200E+02
    -22.814  0.0000E+00  0.1200E+02
    -22.710  0.0000E+00  0.1200E+02
    -22.607  0.0000E+00  0.1200E+02
    -22.504  0.0000E+00  0.1200E+02
    -22.400  0.0000E+00  0.1200E+02
    -22.297  0.0000E+00  0.1200E+02
    -22.194  0.0000E+00  0.1200E+02
    -22.091  0.0000E+00  0.1200E+02
    -21.987  0.0000E+00  0.1200E+02
    -21.884  0.0000E+00  0.1200E+02
    -21.781  0.0000E+00  0.1200E+02
    -21.678  0.0000E+00  0.1200E+02
    -21.574  0.0000E+00  0.1200E+02
    -21.471  0.0000E+00  0.1200E+02
    -21.368  0.0000E+00  0.1200E+02
    -21.265  0.0000E+00  0.1200E+02
    -21.161  0.0000E+00  0.1200E+02
    -21.058  0.0000E+00  0.1200E+02
    -20.955  0.0000E+00  0.1200E+02
    -20.851  0.0000E+00  0.1200E+02
    -20.748  0.0000E+00  0.1200E+02
    -20.645  0.0000E+00  0.1200E+02
    -20.542  0.0000E+00  0.1200E+02
    -20.438  0.0000E+00  0.1200E+02
    -20.335  0.0000E+00  0.1200E+02
    -20.232  0.0000E+00  0.1200E+02
    -20.129  0.0000E+00  0.1200E+02
    -20.025  0.0000E+00  0.1200E+02
    -19.922  0.0000E+00  0.1200E+02
    -19.819  0.0000E+00  0.1200E+02
    -19.715  0.0000E+00  0.1200E+02
    -19.612  0.0000E+00  0.1200E+02
    -19.509  0.0000E+00  0.1200E+02
    -19.406  0.0000E+00  0.1200E+02
    -19.302  0.0000E+00  0.1200E+02
    -19.199  0.0000E+00  0.1200E+02
    -19.096  0.0000E+00  0.1200E+02
    -18.993  0.0000E+00  0.1200E+02
    -18.889  0.0000E+00  0.1200E+02
    -18.786  0.0000E+00  0.1200E+02
    -18.683  0.0000E+00  0.1200E+02
    -18.579  0.0000E+00  0.1200E+02
    -18.476  0.0000E+00  0.1200E+02
    -18.373  0.0000E+00  0.1200E+02
    -18.270  0.0000E+00  0.1200E+02
    -18.166  0.0000E+00  0.1200E+02
    -18.063  0.0000E+00  0.1200E+02
    -17.960  0.0000E+00  0.1200E+02
    -17.857  0.0000E+00  0.1200E+02
    -17.753  0.0000E+00  0.1200E+02
    -17.650  0.0000E+00  0.1200E+02
    -17.547  0.0000E+00  0.1200E+02
    -17.444  0.0000E+00  0.1200E+02
    -17.340  0.0000E+00  0.1200E+02
    -17.237  0.0000E+00  0.1200E+02
    -17.134  0.0000E+00  0.1200E+02
    -17.030  0.0000E+00  0.1200E+02
    -16.927  0.0000E+00  0.1200E+02
    -16.824  0.0000E+00  0.1200E+02
    -16.721  0.0000E+00  0.1200E+02
    -16.617  0.0000E+00  0.1200E+02
    -16.514  0.0000E+00  0.1200E+02
    -16.411  0.0000E+00  0.1200E+02
    -16.308  0.0000E+00  0.1200E+02
    -16.204  0.0000E+00  0.1200E+02
    -16.101  0.0000E+00  0.1200E+02
    -15.998  0.0000E+00  0.1200E+02
    -15.894  0.0000E+00  0.1200E+02
    -15.791  0.0000E+00  0.1200E+02
    -15.688  0.0000E+00  0.1200E+02
    -15.585  0.0000E+00  0.1200E+02
    -15.481  0.0000E+00  0.1200E+02
    -15.378  0.0000E+00  0.1200E+02
    -15.275  0.6570E-12  0.1200E+02
    -15.172  0.1186E-04  0.1200E+02
    -15.068  0.7862E-01  0.1201E+02
    -14.965  0.2476E+01  0.1226E+02
    -14.862  0.6234E+01  0.1291E+02
    -14.759  0.9740E+01  0.1391E+02
    -14.655  0.8375E+00  0.1400E+02
    -14.552  0.2126E-03  0.1400E+02
    -14.449  0.3727E-10  0.1400E+02
    -14.345  0.0000E+00  0.1400E+02
    -14.242  0.0000E+00  0.1400E+02
    -14.139  0.0000E+00  0.1400E+02
    -14.036  0.0000E+00  0.1400E+02
    -13.932  0.0000E+00  0.1400E+02
    -13.829  0.0000E+00  0.1400E+02
    -13.726  0.0000E+00  0.1400E+02
    -13.623  0.0000E+00  0.1400E+02
    -13.519  0.0000E+00  0.1400E+02
    -13.416  0.0000E+00  0.1400E+02
    -13.313  0.0000E+00  0.1400E+02
    -13.209  0.0000E+00  0.1400E+02
    -13.106  0.0000E+00  0.1400E+02
    -13.003  0.0000E+00  0.1400E+02
    -12.900  0.0000E+00  0.1400E+02
    -12.796  0.0000E+00  0.1400E+02
    -12.693  0.0000E+00  0.1400E+02
    -12.590  0.0000E+00  0.1400E+02
    -12.487  0.0000E+00  0.1400E+02
    -12.383  0.0000E+00  0.1400E+02
    -12.280  0.0000E+00  0.1400E+02
    -12.177  0.0000E+00  0.1400E+02
    -12.073  0.0000E+00  0.1400E+02
    -11.970  0.0000E+00  0.1400E+02
    -11.867  0.0000E+00  0.1400E+02
    -11.764  0.0000E+00  0.1400E+02
    -11.660  0.0000E+00  0.1400E+02
    -11.557  0.0000E+00  0.1400E+02
    -11.454  0.0000E+00  0.1400E+02
    -11.351  0.0000E+00  0.1400E+02
    -11.247  0.0000E+00  0.1400E+02
    -11.144  0.0000E+00  0.1400E+02
    -11.041  0.0000E+00  0.1400E+02
    -10.938  0.0000E+00  0.1400E+02
    -10.834  0.0000E+00  0.1400E+02
    -10.731  0.0000E+00  0.1400E+02
    -10.628  0.0000E+00  0.1400E+02
    -10.524  0.0000E+00  0.1400E+02
    -10.421  0.0000E+00  0.1400E+02
    -10.318  0.0000E+00  0.1400E+02
    -10.215  0.0000E+00  0.1400E+02
    -10.111  0.0000E+00  0.1400E+02
    -10.008  0.0000E+00  0.1400E+02
     -9.905  0.0000E+00  0.1400E+02
     -9.802  0.0000E+00  0.1400E+02
     -9.698  0.0000E+00  0.1400E+02
     -9.595  0.0000E+00  0.1400E+02
     -9.492  0.0000E+00  0.1400E+02
     -9.388  0.0000E+00  0.1400E+02
     -9.285  0.0000E+00  0.1400E+02
     -9.182  0.0000E+00  0.1400E+02
     -9.079  0.0000E+00  0.1400E+02
     -8.975  0.0000E+00  0.1400E+02
     -8.872  0.0000E+00  0.1400E+02
     -8.769  0.0000E+00  0.1400E+02
     -8.666  0.0000E+00  0.1400E+02
     -8.562  0.0000E+00  0.1400E+02
     -8.459  0.0000E+00  0.1400E+02
     -8.356  0.0000E+00  0.1400E+02
     -8.253  0.0000E+00  0.1400E+02
     -8.149  0.0000E+00  0.1400E+02
     -8.046  0.0000E+00  0.1400E+02
     -7.943  0.0000E+00  0.1400E+02
     -7.839  0.0000E+00  0.1400E+02
     -7.736  0.0000E+00  0.1400E+02
     -7.633  0.0000E+00  0.1400E+02
     -7.530  0.0000E+00  0.1400E+02
     -7.426  0.0000E+00  0.1400E+02
     -7.323  0.0000E+00  0.1400E+02
     -7.220  0.0000E+00  0.1400E+02
     -7.117  0.0000E+00  0.1400E+02
     -7.013  0.0000E+00  0.1400E+02
     -6.910  0.0000E+00  0.1400E+02
     -6.807  0.0000E+00  0.1400E+02
     -6.703  0.0000E+00  0.1400E+02
     -6.600  0.0000E+00  0.1400E+02
     -6.497  0.0000E+00  0.1400E+02
     -6.394  0.0000E+00  0.1400E+02
     -6.290  0.0000E+00  0.1400E+02
     -6.187  0.0000E+00  0.1400E+02
     -6.084  0.0000E+00  0.1400E+02
     -5.981  0.0000E+00  0.1400E+02
     -5.877  0.0000E+00  0.1400E+02
     -5.774  0.0000E+00  0.1400E+02
     -5.671  0.0000E+00  0.1400E+02
     -5.567  0.0000E+00  0.1400E+02
     -5.464  0.0000E+00  0.1400E+02
     -5.361  0.0000E+00  0.1400E+02
     -5.258  0.0000E+00  0.1400E+02
     -5.154  0.0000E+00  0.1400E+02
     -5.051  0.0000E+00  0.1400E+02
     -4.948  0.0000E+00  0.1400E+02
     -4.845  0.0000E+00  0.1400E+02
     -4.741  0.0000E+00  0.1400E+02
     -4.638  0.0000E+00  0.1400E+02
     -4.535  0.0000E+00  0.1400E+02
     -4.432  0.0000E+00  0.1400E+02
     -4.328  0.9353E-08  0.1400E+02
     -4.225  0.4303E-02  0.1400E+02
     -4.122  0.8881E+00  0.1409E+02
     -4.018  0.8912E+00  0.1418E+02
     -3.915  0.5258E+01  0.1473E+02
     -3.812  0.2679E+01  0.1500E+02
     -3.709  0.4029E+01  0.1542E+02
     -3.605  0.3727E+01  0.1580E+02
     -3.502  0.5235E+01  0.1635E+02
     -3.399  0.4160E+01  0.1677E+02
     -3.296  0.6921E+01  0.1749E+02
     -3.192  0.2827E+01  0.1778E+02
     -3.089  0.5903E+01  0.1839E+02
     -2.986  0.3079E+01  0.1871E+02
     -2.882  0.2706E+01  0.1899E+02
     -2.779  0.5041E+01  0.1951E+02
     -2.676  0.1388E+01  0.1965E+02
     -2.573  0.2776E+01  0.1994E+02
     -2.469  0.5848E+00  0.2000E+02
     -2.366  0.2183E-02  0.2000E+02
     -2.263  0.3686E-08  0.2000E+02
     -2.160  0.0000E+00  0.2000E+02
     -2.056  0.0000E+00  0.2000E+02
     -1.953  0.0000E+00  0.2000E+02
     -1.850  0.0000E+00  0.2000E+02
     -1.747  0.0000E+00  0.2000E+02
     -1.643  0.0000E+00  0.2000E+02
     -1.540  0.0000E+00  0.2000E+02
     -1.437  0.0000E+00  0.2000E+02
     -1.333  0.0000E+00  0.2000E+02
     -1.230  0.0000E+00  0.2000E+02
     -1.127  0.0000E+00  0.2000E+02
     -1.024  0.0000E+00  0.2000E+02
     -0.920  0.0000E+00  0.2000E+02
     -0.817  0.0000E+00  0.2000E+02
     -0.714  0.0000E+00  0.2000E+02
     -0.611  0.0000E+00  0.2000E+02
     -0.507  0.4977E-16  0.2000E+02
     -0.404  0.1919E-07  0.2000E+02
     -0.301  0.2104E-02  0.2000E+02
     -0.197  0.1313E+00  0.2001E+02
     -0.094  0.4591E-01  0.2002E+02
      0.009  0.2472E-02  0.2002E+02
      0.112  0.1537E+00  0.2003E+02
      0.216  0.5289E+00  0.2009E+02
      0.319  0.6119E+00  0.2015E+02
      0.422  0.4828E+00  0.2020E+02
      0.525  0.1892E+00  0.2022E+02
      0.629  0.5269E+00  0.2028E+02
      0.732  0.4901E+00  0.2033E+02
      0.835  0.3198E+00  0.2036E+02
      0.939  0.5906E+00  0.2042E+02
      1.042  0.7617E+00  0.2050E+02
      1.145  0.6876E+00  0.2057E+02
      1.248  0.4730E+00  0.2062E+02
      1.352  0.1545E+01  0.2078E+02
      1.455  0.1090E+01  0.2089E+02
      1.558  0.6582E+00  0.2096E+02
      1.661  0.8043E+00  0.2104E+02
      1.765  0.1251E+00  0.2106E+02
      1.868  0.6383E-04  0.2106E+02
      1.971  0.1131E-10  0.2106E+02
      2.074  0.8589E-13  0.2106E+02
      2.178  0.4680E-05  0.2106E+02
      2.281  0.9090E-01  0.2106E+02
      2.384  0.2693E+01  0.2134E+02
      2.488  0.3251E+01  0.2168E+02
      2.591  0.6095E+00  0.2174E+02
      2.694  0.4213E+00  0.2179E+02
      2.797  0.1296E+00  0.2180E+02
      2.901  0.6334E+00  0.2186E+02
      3.004  0.9059E+00  0.2196E+02
      3.107  0.1446E+00  0.2197E+02
      3.210  0.1336E+01  0.2211E+02
      3.314  0.3692E+00  0.2215E+02
      3.417  0.4488E+00  0.2219E+02
      3.520  0.5999E+00  0.2226E+02
      3.624  0.3286E-01  0.2226E+02
      3.727  0.7633E+00  0.2234E+02
      3.830  0.3208E+00  0.2237E+02
      3.933  0.1178E+01  0.2249E+02
      4.037  0.1403E+01  0.2264E+02
      4.140  0.1423E+01  0.2279E+02
      4.243  0.2942E+01  0.2309E+02
      4.346  0.3473E+01  0.2345E+02
      4.450  0.2149E+01  0.2367E+02
      4.553  0.5089E+00  0.2372E+02
      4.656  0.1247E+01  0.2385E+02
      4.759  0.1402E+01  0.2400E+02
      4.863  0.3497E-01  0.2400E+02
      4.966  0.9458E-06  0.2400E+02
      5.069  0.7287E-14  0.2400E+02
      5.173  0.0000E+00  0.2400E+02
      5.276  0.0000E+00  0.2400E+02
      5.379  0.0000E+00  0.2400E+02
      5.482  0.0000E+00  0.2400E+02
      5.586  0.0000E+00  0.2400E+02
      5.689  0.0000E+00  0.2400E+02
      5.792  0.0000E+00  0.2400E+02
      5.895  0.0000E+00  0.2400E+02
      5.999  0.0000E+00  0.2400E+02
      6.102  0.0000E+00  0.2400E+02
