       N       E                     dE             d eps       ncg     rms          rms(c)
DAV:   1     0.169408279557E+03    0.16941E+03   -0.11161E+04  5184   0.182E+03
DAV:   2     0.144639104090E+02   -0.15494E+03   -0.15305E+03  5624   0.414E+02
DAV:   3    -0.693397277829E+01   -0.21398E+02   -0.20899E+02  6220   0.131E+02
DAV:   4    -0.805906410496E+01   -0.11251E+01   -0.11242E+01  5776   0.248E+01
DAV:   5    -0.808329681170E+01   -0.24233E-01   -0.24228E-01  6640   0.422E+00    0.309E+00
DAV:   6    -0.782914035954E+01    0.25416E+00   -0.62911E-01  5976   0.448E+00    0.207E+00
DAV:   7    -0.780209108133E+01    0.27049E-01   -0.19659E-01  7588   0.245E+00    0.109E+00
DAV:   8    -0.780387463386E+01   -0.17836E-02   -0.10682E-02  6240   0.847E-01    0.213E-01
DAV:   9    -0.780421108355E+01   -0.33645E-03   -0.56009E-03  6956   0.517E-01    0.933E-02
DAV:  10    -0.780451646230E+01   -0.30538E-03   -0.57914E-04  5728   0.180E-01    0.242E-02
DAV:  11    -0.780454138283E+01   -0.24921E-04   -0.52335E-05  6200   0.569E-02    0.730E-03
DAV:  12    -0.780454249217E+01   -0.11093E-05   -0.43133E-06  5520   0.192E-02    0.445E-03
DAV:  13    -0.780454205063E+01    0.44154E-06   -0.22612E-06  4824   0.924E-03
   1 F= -.78045421E+01 E0= -.78039850E+01  d E =-.111401E-02
