Co4 Se8
1.0
   0.0000000000000000    4.8540531500000004    4.8540531500000004
   4.8540531500000004   -0.0000000000000000    4.8540531500000004
   4.8540531500000004    4.8540531500000004   -0.0000000000000000
Co Se
4 8
direct
   0.6250000000000000    0.6250000000000000    0.6250000000000000 Co
   0.1250000000000000    0.6250000000000000    0.6250000000000000 Co
   0.6250000000000000    0.1250000000000000    0.6250000000000000 Co
   0.6250000000000000    0.6250000000000000    0.1250000000000000 Co
   0.8675381599999999    0.3973855300000000    0.8675381599999999 Se
   0.3824618400000000    0.3824618400000000    0.8526144700000000 Se
   0.8526144700000000    0.3824618400000000    0.3824618400000000 Se
   0.3824618400000000    0.3824618400000000    0.3824618400000000 Se
   0.3973855300000000    0.8675381599999999    0.8675381599999999 Se
   0.8675381599999999    0.8675381599999999    0.8675381599999999 Se
   0.8675381599999999    0.8675381599999999    0.3973855300000000 Se
   0.3824618400000000    0.8526144700000000    0.3824618400000000 Se
