unknown system                          
           1
     0.000000    4.854053    4.854053
     4.854053    0.000000    4.854053
     4.854053    4.854053    0.000000
   Co   Se
     4     8
Direct configuration=     1
   0.62500000  0.62500000  0.62500000
   0.12500000  0.62500000  0.62500000
   0.62500000  0.12500000  0.62500000
   0.62500000  0.62500000  0.12500000
   0.86753816  0.39738553  0.86753816
   0.38246184  0.38246184  0.85261447
   0.85261447  0.38246184  0.38246184
   0.38246184  0.38246184  0.38246184
   0.39738553  0.86753816  0.86753816
   0.86753816  0.86753816  0.86753816
   0.86753816  0.86753816  0.39738553
   0.38246184  0.85261447  0.38246184
