   8   8   0   0
  0.1795582E+02  0.4442775E-09  0.4674879E-09  0.6993554E-09  0.5000000E-15
  1.000000000000000E-004
  CAR 
 unknown system                          
      8.92178796    -27.30287140  301     -2.05601974      1.00000000
    -27.303  0.0000E+00  0.0000E+00
    -27.182  0.0000E+00  0.0000E+00
    -27.061  0.0000E+00  0.0000E+00
    -26.941  0.0000E+00  0.0000E+00
    -26.820  0.0000E+00  0.0000E+00
    -26.699  0.0000E+00  0.0000E+00
    -26.578  0.0000E+00  0.0000E+00
    -26.458  0.0000E+00  0.0000E+00
    -26.337  0.0000E+00  0.0000E+00
    -26.216  0.0000E+00  0.0000E+00
    -26.095  0.0000E+00  0.0000E+00
    -25.975  0.0000E+00  0.0000E+00
    -25.854  0.7867E-08  0.9499E-09
    -25.733  0.1341E-01  0.1620E-02
    -25.612  0.3125E+01  0.3790E+00
    -25.492  0.2139E+02  0.2962E+01
    -25.371  0.8588E+01  0.3999E+01
    -25.250  0.5160E-02  0.4000E+01
    -25.129  0.1242E-09  0.4000E+01
    -25.009  0.0000E+00  0.4000E+01
    -24.888  0.0000E+00  0.4000E+01
    -24.767  0.0000E+00  0.4000E+01
    -24.646  0.0000E+00  0.4000E+01
    -24.526  0.0000E+00  0.4000E+01
    -24.405  0.0000E+00  0.4000E+01
    -24.284  0.0000E+00  0.4000E+01
    -24.163  0.0000E+00  0.4000E+01
    -24.043  0.0000E+00  0.4000E+01
    -23.922  0.0000E+00  0.4000E+01
    -23.801  0.0000E+00  0.4000E+01
    -23.680  0.0000E+00  0.4000E+01
    -23.560  0.0000E+00  0.4000E+01
    -23.439  0.0000E+00  0.4000E+01
    -23.318  0.0000E+00  0.4000E+01
    -23.197  0.1890E-14  0.4000E+01
    -23.077  0.6653E-05  0.4000E+01
    -22.956  0.5231E+00  0.4063E+01
    -22.835  0.1557E+02  0.5943E+01
    -22.714  0.1684E+02  0.7976E+01
    -22.594  0.1974E+00  0.8000E+01
    -22.473  0.2064E-06  0.8000E+01
    -22.352  0.0000E+00  0.8000E+01
    -22.231  0.0000E+00  0.8000E+01
    -22.111  0.7808E-11  0.8000E+01
    -21.990  0.7526E-03  0.8000E+01
    -21.869  0.2380E+01  0.8288E+01
    -21.748  0.1819E+02  0.1048E+02
    -21.628  0.1232E+02  0.1197E+02
    -21.507  0.1746E+01  0.1218E+02
    -21.386  0.2604E+02  0.1533E+02
    -21.265  0.5570E+01  0.1600E+02
    -21.145  0.2482E-02  0.1600E+02
    -21.024  0.7225E-10  0.1600E+02
    -20.903  0.0000E+00  0.1600E+02
    -20.782  0.0000E+00  0.1600E+02
    -20.662  0.0000E+00  0.1600E+02
    -20.541  0.0000E+00  0.1600E+02
    -20.420  0.0000E+00  0.1600E+02
    -20.299  0.0000E+00  0.1600E+02
    -20.179  0.0000E+00  0.1600E+02
    -20.058  0.0000E+00  0.1600E+02
    -19.937  0.0000E+00  0.1600E+02
    -19.816  0.0000E+00  0.1600E+02
    -19.696  0.0000E+00  0.1600E+02
    -19.575  0.0000E+00  0.1600E+02
    -19.454  0.0000E+00  0.1600E+02
    -19.333  0.0000E+00  0.1600E+02
    -19.213  0.0000E+00  0.1600E+02
    -19.092  0.0000E+00  0.1600E+02
    -18.971  0.0000E+00  0.1600E+02
    -18.850  0.0000E+00  0.1600E+02
    -18.730  0.0000E+00  0.1600E+02
    -18.609  0.0000E+00  0.1600E+02
    -18.488  0.0000E+00  0.1600E+02
    -18.367  0.0000E+00  0.1600E+02
    -18.247  0.0000E+00  0.1600E+02
    -18.126  0.0000E+00  0.1600E+02
    -18.005  0.0000E+00  0.1600E+02
    -17.884  0.0000E+00  0.1600E+02
    -17.764  0.0000E+00  0.1600E+02
    -17.643  0.0000E+00  0.1600E+02
    -17.522  0.0000E+00  0.1600E+02
    -17.401  0.0000E+00  0.1600E+02
    -17.281  0.0000E+00  0.1600E+02
    -17.160  0.0000E+00  0.1600E+02
    -17.039  0.0000E+00  0.1600E+02
    -16.918  0.0000E+00  0.1600E+02
    -16.798  0.0000E+00  0.1600E+02
    -16.677  0.0000E+00  0.1600E+02
    -16.556  0.0000E+00  0.1600E+02
    -16.435  0.0000E+00  0.1600E+02
    -16.315  0.0000E+00  0.1600E+02
    -16.194  0.0000E+00  0.1600E+02
    -16.073  0.0000E+00  0.1600E+02
    -15.952  0.0000E+00  0.1600E+02
    -15.832  0.0000E+00  0.1600E+02
    -15.711  0.0000E+00  0.1600E+02
    -15.590  0.0000E+00  0.1600E+02
    -15.469  0.0000E+00  0.1600E+02
    -15.349  0.0000E+00  0.1600E+02
    -15.228  0.0000E+00  0.1600E+02
    -15.107  0.0000E+00  0.1600E+02
    -14.986  0.0000E+00  0.1600E+02
    -14.866  0.0000E+00  0.1600E+02
    -14.745  0.0000E+00  0.1600E+02
    -14.624  0.0000E+00  0.1600E+02
    -14.503  0.0000E+00  0.1600E+02
    -14.383  0.0000E+00  0.1600E+02
    -14.262  0.0000E+00  0.1600E+02
    -14.141  0.0000E+00  0.1600E+02
    -14.020  0.0000E+00  0.1600E+02
    -13.900  0.0000E+00  0.1600E+02
    -13.779  0.0000E+00  0.1600E+02
    -13.658  0.0000E+00  0.1600E+02
    -13.538  0.0000E+00  0.1600E+02
    -13.417  0.0000E+00  0.1600E+02
    -13.296  0.0000E+00  0.1600E+02
    -13.175  0.0000E+00  0.1600E+02
    -13.055  0.0000E+00  0.1600E+02
    -12.934  0.0000E+00  0.1600E+02
    -12.813  0.0000E+00  0.1600E+02
    -12.692  0.0000E+00  0.1600E+02
    -12.572  0.0000E+00  0.1600E+02
    -12.451  0.0000E+00  0.1600E+02
    -12.330  0.0000E+00  0.1600E+02
    -12.209  0.0000E+00  0.1600E+02
    -12.089  0.0000E+00  0.1600E+02
    -11.968  0.0000E+00  0.1600E+02
    -11.847  0.0000E+00  0.1600E+02
    -11.726  0.0000E+00  0.1600E+02
    -11.606  0.0000E+00  0.1600E+02
    -11.485  0.0000E+00  0.1600E+02
    -11.364  0.0000E+00  0.1600E+02
    -11.243  0.0000E+00  0.1600E+02
    -11.123  0.1380E-08  0.1600E+02
    -11.002  0.5837E-02  0.1600E+02
    -10.881  0.4739E+01  0.1657E+02
    -10.760  0.2763E+02  0.1991E+02
    -10.640  0.3870E+02  0.2458E+02
    -10.519  0.2686E+02  0.2783E+02
    -10.398  0.1432E+01  0.2800E+02
    -10.277  0.3116E-03  0.2800E+02
    -10.157  0.4884E-11  0.2800E+02
    -10.036  0.0000E+00  0.2800E+02
     -9.915  0.0000E+00  0.2800E+02
     -9.794  0.0000E+00  0.2800E+02
     -9.674  0.0000E+00  0.2800E+02
     -9.553  0.0000E+00  0.2800E+02
     -9.432  0.0000E+00  0.2800E+02
     -9.311  0.0000E+00  0.2800E+02
     -9.191  0.0000E+00  0.2800E+02
     -9.070  0.0000E+00  0.2800E+02
     -8.949  0.0000E+00  0.2800E+02
     -8.828  0.0000E+00  0.2800E+02
     -8.708  0.0000E+00  0.2800E+02
     -8.587  0.0000E+00  0.2800E+02
     -8.466  0.0000E+00  0.2800E+02
     -8.345  0.0000E+00  0.2800E+02
     -8.225  0.0000E+00  0.2800E+02
     -8.104  0.0000E+00  0.2800E+02
     -7.983  0.0000E+00  0.2800E+02
     -7.862  0.0000E+00  0.2800E+02
     -7.742  0.0000E+00  0.2800E+02
     -7.621  0.0000E+00  0.2800E+02
     -7.500  0.0000E+00  0.2800E+02
     -7.379  0.0000E+00  0.2800E+02
     -7.259  0.0000E+00  0.2800E+02
     -7.138  0.0000E+00  0.2800E+02
     -7.017  0.0000E+00  0.2800E+02
     -6.896  0.0000E+00  0.2800E+02
     -6.776  0.0000E+00  0.2800E+02
     -6.655  0.0000E+00  0.2800E+02
     -6.534  0.0000E+00  0.2800E+02
     -6.413  0.0000E+00  0.2800E+02
     -6.293  0.0000E+00  0.2800E+02
     -6.172  0.0000E+00  0.2800E+02
     -6.051  0.0000E+00  0.2800E+02
     -5.930  0.0000E+00  0.2800E+02
     -5.810  0.2068E-08  0.2800E+02
     -5.689  0.1060E-01  0.2800E+02
     -5.568  0.3002E+01  0.2836E+02
     -5.447  0.6735E+01  0.2918E+02
     -5.327  0.4671E+01  0.2974E+02
     -5.206  0.7337E+01  0.3063E+02
     -5.085  0.9842E+00  0.3075E+02
     -4.964  0.9322E+01  0.3187E+02
     -4.844  0.1065E+01  0.3200E+02
     -4.723  0.3030E-04  0.3200E+02
     -4.602  0.8424E-06  0.3200E+02
     -4.481  0.9632E-01  0.3201E+02
     -4.361  0.3958E+01  0.3249E+02
     -4.240  0.1363E+02  0.3413E+02
     -4.119  0.1252E+02  0.3565E+02
     -3.998  0.8863E+01  0.3672E+02
     -3.878  0.1572E+02  0.3861E+02
     -3.757  0.8980E+01  0.3970E+02
     -3.636  0.2472E+01  0.4000E+02
     -3.515  0.2442E+00  0.4003E+02
     -3.395  0.1003E+02  0.4124E+02
     -3.274  0.1970E+02  0.4362E+02
     -3.153  0.1877E+02  0.4588E+02
     -3.032  0.2037E+02  0.4834E+02
     -2.912  0.2529E+02  0.5140E+02
     -2.791  0.1898E+02  0.5369E+02
     -2.670  0.2121E+02  0.5625E+02
     -2.549  0.2679E+02  0.5949E+02
     -2.429  0.4536E+01  0.6003E+02
     -2.308  0.8497E+01  0.6106E+02
     -2.187  0.2294E+01  0.6134E+02
     -2.066  0.4524E+01  0.6188E+02
     -1.946  0.6442E+01  0.6266E+02
     -1.825  0.1870E+01  0.6289E+02
     -1.704  0.8517E+01  0.6391E+02
     -1.583  0.7085E+00  0.6400E+02
     -1.463  0.2812E-04  0.6400E+02
     -1.342  0.2345E-13  0.6400E+02
     -1.221  0.0000E+00  0.6400E+02
     -1.100  0.0000E+00  0.6400E+02
     -0.980  0.0000E+00  0.6400E+02
     -0.859  0.0000E+00  0.6400E+02
     -0.738  0.0000E+00  0.6400E+02
     -0.617  0.0000E+00  0.6400E+02
     -0.497  0.0000E+00  0.6400E+02
     -0.376  0.0000E+00  0.6400E+02
     -0.255  0.0000E+00  0.6400E+02
     -0.134  0.0000E+00  0.6400E+02
     -0.014  0.0000E+00  0.6400E+02
      0.107  0.0000E+00  0.6400E+02
      0.228  0.0000E+00  0.6400E+02
      0.349  0.0000E+00  0.6400E+02
      0.469  0.0000E+00  0.6400E+02
      0.590  0.0000E+00  0.6400E+02
      0.711  0.0000E+00  0.6400E+02
      0.832  0.0000E+00  0.6400E+02
      0.952  0.0000E+00  0.6400E+02
      1.073  0.0000E+00  0.6400E+02
      1.194  0.0000E+00  0.6400E+02
      1.315  0.0000E+00  0.6400E+02
      1.435  0.0000E+00  0.6400E+02
      1.556  0.0000E+00  0.6400E+02
      1.677  0.0000E+00  0.6400E+02
      1.798  0.0000E+00  0.6400E+02
      1.918  0.0000E+00  0.6400E+02
      2.039  0.0000E+00  0.6400E+02
      2.160  0.0000E+00  0.6400E+02
      2.281  0.0000E+00  0.6400E+02
      2.401  0.0000E+00  0.6400E+02
      2.522  0.0000E+00  0.6400E+02
      2.643  0.0000E+00  0.6400E+02
      2.764  0.0000E+00  0.6400E+02
      2.884  0.0000E+00  0.6400E+02
      3.005  0.0000E+00  0.6400E+02
      3.126  0.0000E+00  0.6400E+02
      3.247  0.0000E+00  0.6400E+02
      3.367  0.0000E+00  0.6400E+02
      3.488  0.0000E+00  0.6400E+02
      3.609  0.0000E+00  0.6400E+02
      3.730  0.0000E+00  0.6400E+02
      3.850  0.0000E+00  0.6400E+02
      3.971  0.0000E+00  0.6400E+02
      4.092  0.0000E+00  0.6400E+02
      4.213  0.0000E+00  0.6400E+02
      4.333  0.0000E+00  0.6400E+02
      4.454  0.0000E+00  0.6400E+02
      4.575  0.0000E+00  0.6400E+02
      4.696  0.0000E+00  0.6400E+02
      4.816  0.0000E+00  0.6400E+02
      4.937  0.0000E+00  0.6400E+02
      5.058  0.1408E-12  0.6400E+02
      5.179  0.3573E-04  0.6400E+02
      5.299  0.1731E+00  0.6402E+02
      5.420  0.7060E+00  0.6411E+02
      5.541  0.4111E-01  0.6411E+02
      5.662  0.3032E-04  0.6411E+02
      5.782  0.1948E+00  0.6413E+02
      5.903  0.1818E+01  0.6435E+02
      6.024  0.3254E+01  0.6475E+02
      6.145  0.5418E+01  0.6540E+02
      6.265  0.7711E+01  0.6633E+02
      6.386  0.5269E+01  0.6697E+02
      6.507  0.9803E+01  0.6815E+02
      6.628  0.7259E+01  0.6903E+02
      6.748  0.7437E+01  0.6993E+02
      6.869  0.7609E+01  0.7085E+02
      6.990  0.5063E+01  0.7146E+02
      7.111  0.2999E+01  0.7182E+02
      7.231  0.1113E+01  0.7195E+02
      7.352  0.3848E+00  0.7200E+02
      7.473  0.2370E-02  0.7200E+02
      7.594  0.1371E-08  0.7200E+02
      7.714  0.0000E+00  0.7200E+02
      7.835  0.0000E+00  0.7200E+02
      7.956  0.0000E+00  0.7200E+02
      8.077  0.0000E+00  0.7200E+02
      8.197  0.0000E+00  0.7200E+02
      8.318  0.0000E+00  0.7200E+02
      8.439  0.0000E+00  0.7200E+02
      8.560  0.0000E+00  0.7200E+02
      8.680  0.0000E+00  0.7200E+02
      8.801  0.0000E+00  0.7200E+02
      8.922  0.0000E+00  0.7200E+02
