Ba2F6
1.0
      4.4427750       0.0000000       0.0000000
      0.0000000       4.6748790       0.0000000
      0.0000000       1.0369840       6.9162460
  Ba    F   
  2     6   
Direct
      0.7500000       0.2088540       0.7111760
      0.2500000       0.7911460       0.2888240
      0.7500000       0.7518860       0.5236200
      0.2500000       0.2481140       0.4763800
      0.7500000       0.1043630       0.1119920
      0.2500000       0.8956370       0.8880080
      0.7500000       0.5092910       0.1652500
      0.2500000       0.4907090       0.8347500
