Li2 S8                                  
   1.00000000000000     
    12.5507324199999992   -0.6568193600000000   -0.6090736500000000
    -0.6427961000000000   11.7529735899999999    0.3226480000000000
    -0.6799730000000000    0.3831860000000000   13.0416985499999996
   Li   S 
     2     8
Selective dynamics
Direct
     0.6650895100000014    0.6320528299999992    0.5683185199999983   T   T   T
     0.5236121299999965    0.5176447899999985    0.4374471499999970   T   T   T
     0.7087202299999973    0.4765490099999994    0.4817081799999983   T   T   T
     0.6573516200000000    0.4201027599999989    0.6211289199999968   T   T   T
     0.5379698799999986    0.2880858600000025    0.5997093800000002   T   T   T
     0.4065477799999968    0.3434831400000036    0.5126624399999997   T   T   T
     0.3162708699999968    0.4203241700000007    0.6104894599999966   T   T   T
     0.2937155199999992    0.5810118099999997    0.5481370999999982   T   T   T
     0.4188660299999967    0.6962306100000006    0.5925290099999998   T   T   T
     0.5218564299999997    0.7111170200000032    0.4778718499999997   T   T   T
 
  0.00000000E+00  0.00000000E+00  0.00000000E+00
  0.00000000E+00  0.00000000E+00  0.00000000E+00
  0.00000000E+00  0.00000000E+00  0.00000000E+00
  0.00000000E+00  0.00000000E+00  0.00000000E+00
  0.00000000E+00  0.00000000E+00  0.00000000E+00
  0.00000000E+00  0.00000000E+00  0.00000000E+00
  0.00000000E+00  0.00000000E+00  0.00000000E+00
  0.00000000E+00  0.00000000E+00  0.00000000E+00
  0.00000000E+00  0.00000000E+00  0.00000000E+00
  0.00000000E+00  0.00000000E+00  0.00000000E+00
