unknown system                          
           1
    12.550732   -0.656819   -0.609074
    -0.642796   11.752974    0.322648
    -0.679973    0.383186   13.041699
   Li   S 
     2     8
Direct configuration=     1
   0.66508951  0.63205283  0.56831852
   0.52361213  0.51764479  0.43744715
   0.70872023  0.47654901  0.48170818
   0.65735162  0.42010276  0.62112892
   0.53796988  0.28808586  0.59970938
   0.40654778  0.34348314  0.51266244
   0.31627087  0.42032417  0.61048946
   0.29371552  0.58101181  0.54813710
   0.41886603  0.69623061  0.59252901
   0.52185643  0.71111702  0.47787185
