   4   4   0   0
  0.1703617E+02  0.3693494E-09  0.4295337E-09  0.4295337E-09  0.5000000E-15
  1.000000000000000E-004
  CAR 
 unknown system                          
     25.50312851     -4.60708569  301      6.18558903      1.00000000
     -4.607  0.0000E+00  0.0000E+00
     -4.507  0.0000E+00  0.0000E+00
     -4.406  0.0000E+00  0.0000E+00
     -4.306  0.0000E+00  0.0000E+00
     -4.206  0.0000E+00  0.0000E+00
     -4.105  0.0000E+00  0.0000E+00
     -4.005  0.0000E+00  0.0000E+00
     -3.905  0.0000E+00  0.0000E+00
     -3.804  0.0000E+00  0.0000E+00
     -3.704  0.0000E+00  0.0000E+00
     -3.603  0.0000E+00  0.0000E+00
     -3.503  0.2858E-14  0.2868E-15
     -3.403  0.1373E-06  0.1378E-07
     -3.302  0.3492E-02  0.3505E-03
     -3.202  0.2635E+00  0.2680E-01
     -3.102  0.2102E+01  0.2378E+00
     -3.001  0.5272E+01  0.7669E+00
     -2.901  0.1014E+02  0.1785E+01
     -2.800  0.1681E+02  0.3472E+01
     -2.700  0.1597E+02  0.5075E+01
     -2.600  0.2250E+02  0.7333E+01
     -2.499  0.1697E+02  0.9036E+01
     -2.399  0.2322E+02  0.1137E+02
     -2.299  0.2018E+02  0.1339E+02
     -2.198  0.2291E+02  0.1569E+02
     -2.098  0.1854E+02  0.1755E+02
     -1.998  0.1256E+02  0.1881E+02
     -1.897  0.5443E+01  0.1936E+02
     -1.797  0.3377E+01  0.1970E+02
     -1.696  0.2507E+01  0.1995E+02
     -1.596  0.1466E+01  0.2010E+02
     -1.496  0.7028E+00  0.2017E+02
     -1.395  0.4651E+00  0.2021E+02
     -1.295  0.1638E-01  0.2022E+02
     -1.195  0.3335E+00  0.2025E+02
     -1.094  0.1320E+00  0.2026E+02
     -0.994  0.6230E+00  0.2032E+02
     -0.893  0.1153E+01  0.2044E+02
     -0.793  0.1784E+00  0.2046E+02
     -0.693  0.1267E+01  0.2059E+02
     -0.592  0.5659E+00  0.2064E+02
     -0.492  0.4809E-02  0.2064E+02
     -0.392  0.6828E-03  0.2064E+02
     -0.291  0.3428E+00  0.2068E+02
     -0.191  0.5992E+00  0.2074E+02
     -0.091  0.7244E-01  0.2074E+02
      0.010  0.1564E+01  0.2090E+02
      0.110  0.7268E+00  0.2097E+02
      0.211  0.6425E+00  0.2104E+02
      0.311  0.1077E+01  0.2115E+02
      0.411  0.7562E+00  0.2122E+02
      0.512  0.1326E+01  0.2136E+02
      0.612  0.8860E+00  0.2145E+02
      0.712  0.1010E+01  0.2155E+02
      0.813  0.1391E+01  0.2169E+02
      0.913  0.1667E+01  0.2185E+02
      1.013  0.1615E+00  0.2187E+02
      1.114  0.1864E+01  0.2206E+02
      1.214  0.1336E+01  0.2219E+02
      1.315  0.5601E+00  0.2225E+02
      1.415  0.1498E+01  0.2240E+02
      1.515  0.2724E+01  0.2267E+02
      1.616  0.1220E+01  0.2279E+02
      1.716  0.4733E+01  0.2327E+02
      1.816  0.1511E+01  0.2342E+02
      1.917  0.9994E+00  0.2352E+02
      2.017  0.2237E+01  0.2374E+02
      2.118  0.2918E+01  0.2404E+02
      2.218  0.1826E+01  0.2422E+02
      2.318  0.2249E+01  0.2445E+02
      2.419  0.1742E+01  0.2462E+02
      2.519  0.1720E+01  0.2479E+02
      2.619  0.3537E+01  0.2515E+02
      2.720  0.8234E+01  0.2598E+02
      2.820  0.8095E+01  0.2679E+02
      2.920  0.7568E+01  0.2755E+02
      3.021  0.8353E+01  0.2839E+02
      3.121  0.9102E+01  0.2930E+02
      3.222  0.9025E+01  0.3021E+02
      3.322  0.7746E+01  0.3098E+02
      3.422  0.8874E+01  0.3187E+02
      3.523  0.7956E+01  0.3267E+02
      3.623  0.5151E+01  0.3319E+02
      3.723  0.7029E+01  0.3389E+02
      3.824  0.7028E+01  0.3460E+02
      3.924  0.5858E+01  0.3519E+02
      4.025  0.6440E+01  0.3583E+02
      4.125  0.1020E+02  0.3686E+02
      4.225  0.1182E+02  0.3804E+02
      4.326  0.1354E+02  0.3940E+02
      4.426  0.1060E+02  0.4047E+02
      4.526  0.6598E+01  0.4113E+02
      4.627  0.6480E+01  0.4178E+02
      4.727  0.2828E+01  0.4206E+02
      4.827  0.1569E+01  0.4222E+02
      4.928  0.2002E+01  0.4242E+02
      5.028  0.2273E+01  0.4265E+02
      5.129  0.2018E+01  0.4285E+02
      5.229  0.1711E+01  0.4303E+02
      5.329  0.8505E+00  0.4311E+02
      5.430  0.1233E+01  0.4323E+02
      5.530  0.2298E+01  0.4347E+02
      5.630  0.7843E+00  0.4354E+02
      5.731  0.1254E+01  0.4367E+02
      5.831  0.2721E+00  0.4370E+02
      5.931  0.7225E+00  0.4377E+02
      6.032  0.4822E+00  0.4382E+02
      6.132  0.6370E+00  0.4388E+02
      6.233  0.2027E+01  0.4409E+02
      6.333  0.4170E+00  0.4413E+02
      6.433  0.6667E+00  0.4419E+02
      6.534  0.2236E+01  0.4442E+02
      6.634  0.2728E+01  0.4469E+02
      6.734  0.1571E+01  0.4485E+02
      6.835  0.1188E+01  0.4497E+02
      6.935  0.1930E+01  0.4516E+02
      7.036  0.1450E+01  0.4531E+02
      7.136  0.5891E+00  0.4537E+02
      7.236  0.1267E+01  0.4549E+02
      7.337  0.8026E+00  0.4558E+02
      7.437  0.1137E+01  0.4569E+02
      7.537  0.1490E+01  0.4584E+02
      7.638  0.1429E+01  0.4598E+02
      7.738  0.7419E+00  0.4606E+02
      7.838  0.3041E+00  0.4609E+02
      7.939  0.1846E+00  0.4611E+02
      8.039  0.2946E+00  0.4614E+02
      8.140  0.1592E+01  0.4630E+02
      8.240  0.9663E+00  0.4639E+02
      8.340  0.1704E+01  0.4656E+02
      8.441  0.1180E+01  0.4668E+02
      8.541  0.1123E+01  0.4679E+02
      8.641  0.1478E+01  0.4694E+02
      8.742  0.1976E+01  0.4714E+02
      8.842  0.1033E+01  0.4724E+02
      8.943  0.1740E+00  0.4726E+02
      9.043  0.2983E+00  0.4729E+02
      9.143  0.4317E+00  0.4734E+02
      9.244  0.5202E+00  0.4739E+02
      9.344  0.9328E-01  0.4740E+02
      9.444  0.7643E-01  0.4740E+02
      9.545  0.1277E+01  0.4753E+02
      9.645  0.1514E+01  0.4768E+02
      9.745  0.1703E+01  0.4786E+02
      9.846  0.2065E+01  0.4806E+02
      9.946  0.1413E+01  0.4820E+02
     10.047  0.8993E+00  0.4829E+02
     10.147  0.1807E+01  0.4848E+02
     10.247  0.2110E+01  0.4869E+02
     10.348  0.1961E+01  0.4888E+02
     10.448  0.3653E+00  0.4892E+02
     10.548  0.8355E+00  0.4901E+02
     10.649  0.1097E+01  0.4912E+02
     10.749  0.1008E+01  0.4922E+02
     10.849  0.3730E+00  0.4925E+02
     10.950  0.2551E+01  0.4951E+02
     11.050  0.2721E+01  0.4978E+02
     11.151  0.2106E+01  0.4999E+02
     11.251  0.2016E+01  0.5020E+02
     11.351  0.1139E+01  0.5031E+02
     11.452  0.1510E+01  0.5046E+02
     11.552  0.3839E+00  0.5050E+02
     11.652  0.2370E+01  0.5074E+02
     11.753  0.1794E+01  0.5092E+02
     11.853  0.1434E+01  0.5106E+02
     11.954  0.6488E+00  0.5113E+02
     12.054  0.1624E+01  0.5129E+02
     12.154  0.2596E+00  0.5132E+02
     12.255  0.7024E+00  0.5139E+02
     12.355  0.1366E+01  0.5152E+02
     12.455  0.1610E+01  0.5169E+02
     12.556  0.1544E+01  0.5184E+02
     12.656  0.8680E+00  0.5193E+02
     12.756  0.1666E+01  0.5210E+02
     12.857  0.2923E+01  0.5239E+02
     12.957  0.2105E+01  0.5260E+02
     13.058  0.2028E+01  0.5280E+02
     13.158  0.9794E+00  0.5290E+02
     13.258  0.1850E+00  0.5292E+02
     13.359  0.1792E+01  0.5310E+02
     13.459  0.2245E+01  0.5333E+02
     13.559  0.1832E+01  0.5351E+02
     13.660  0.2052E+01  0.5372E+02
     13.760  0.2079E+01  0.5392E+02
     13.861  0.1144E+01  0.5404E+02
     13.961  0.2172E+00  0.5406E+02
     14.061  0.9739E+00  0.5416E+02
     14.162  0.3303E+01  0.5449E+02
     14.262  0.6604E+00  0.5456E+02
     14.362  0.5580E+00  0.5461E+02
     14.463  0.2552E+01  0.5487E+02
     14.563  0.2488E+01  0.5512E+02
     14.663  0.1868E+01  0.5531E+02
     14.764  0.1067E+01  0.5541E+02
     14.864  0.2369E+01  0.5565E+02
     14.965  0.2280E+01  0.5588E+02
     15.065  0.1015E+01  0.5598E+02
     15.165  0.1958E+01  0.5618E+02
     15.266  0.2886E+01  0.5647E+02
     15.366  0.2459E+01  0.5671E+02
     15.466  0.7807E+00  0.5679E+02
     15.567  0.1563E+01  0.5695E+02
     15.667  0.1979E+01  0.5715E+02
     15.767  0.2027E+01  0.5735E+02
     15.868  0.1299E+01  0.5748E+02
     15.968  0.1376E+01  0.5762E+02
     16.069  0.8536E+00  0.5771E+02
     16.169  0.1044E+01  0.5781E+02
     16.269  0.1212E+01  0.5793E+02
     16.370  0.2507E+01  0.5818E+02
     16.470  0.9973E+00  0.5828E+02
     16.570  0.2939E+01  0.5858E+02
     16.671  0.3305E+01  0.5891E+02
     16.771  0.2468E+01  0.5916E+02
     16.872  0.2139E+01  0.5937E+02
     16.972  0.3324E+01  0.5971E+02
     17.072  0.2902E+01  0.6000E+02
     17.173  0.1207E+01  0.6012E+02
     17.273  0.9509E+00  0.6021E+02
     17.373  0.1951E+01  0.6041E+02
     17.474  0.3914E+01  0.6080E+02
     17.574  0.1521E+01  0.6096E+02
     17.674  0.1306E+01  0.6109E+02
     17.775  0.2663E+01  0.6135E+02
     17.875  0.1903E+01  0.6155E+02
     17.976  0.1519E+01  0.6170E+02
     18.076  0.2591E+01  0.6196E+02
     18.176  0.2497E+01  0.6221E+02
     18.277  0.1491E+01  0.6236E+02
     18.377  0.1148E+01  0.6247E+02
     18.477  0.1971E+01  0.6267E+02
     18.578  0.1796E+01  0.6285E+02
     18.678  0.3655E+01  0.6322E+02
     18.779  0.3405E+01  0.6356E+02
     18.879  0.2344E+01  0.6380E+02
     18.979  0.5467E+00  0.6385E+02
     19.080  0.7238E+00  0.6392E+02
     19.180  0.3819E+00  0.6396E+02
     19.280  0.5303E+00  0.6401E+02
     19.381  0.1405E+01  0.6416E+02
     19.481  0.2015E+01  0.6436E+02
     19.581  0.2062E+00  0.6438E+02
     19.682  0.1622E+01  0.6454E+02
     19.782  0.3191E+01  0.6486E+02
     19.883  0.1647E+01  0.6503E+02
     19.983  0.7353E+00  0.6510E+02
     20.083  0.2112E+01  0.6531E+02
     20.184  0.4976E+01  0.6581E+02
     20.284  0.3466E+01  0.6616E+02
     20.384  0.1197E+01  0.6628E+02
     20.485  0.2163E+01  0.6650E+02
     20.585  0.2974E+01  0.6680E+02
     20.685  0.5825E+01  0.6738E+02
     20.786  0.4315E+01  0.6781E+02
     20.886  0.1745E+01  0.6799E+02
     20.987  0.2172E+01  0.6821E+02
     21.087  0.1374E+01  0.6834E+02
     21.187  0.3027E+01  0.6865E+02
     21.288  0.1769E+01  0.6883E+02
     21.388  0.1217E+01  0.6895E+02
     21.488  0.1045E+01  0.6905E+02
     21.589  0.8051E+00  0.6913E+02
     21.689  0.2685E+01  0.6940E+02
     21.790  0.2593E+01  0.6966E+02
     21.890  0.1318E+01  0.6980E+02
     21.990  0.1661E+01  0.6996E+02
     22.091  0.1188E+01  0.7008E+02
     22.191  0.2238E+01  0.7031E+02
     22.291  0.2481E+01  0.7056E+02
     22.392  0.1266E+01  0.7068E+02
     22.492  0.1720E+01  0.7085E+02
     22.592  0.2959E+01  0.7115E+02
     22.693  0.1818E+01  0.7133E+02
     22.793  0.5622E+00  0.7139E+02
     22.894  0.4009E+00  0.7143E+02
     22.994  0.6211E+00  0.7149E+02
     23.094  0.8398E+00  0.7158E+02
     23.195  0.1414E+01  0.7172E+02
     23.295  0.8853E+00  0.7181E+02
     23.395  0.1265E-01  0.7181E+02
     23.496  0.1828E-01  0.7181E+02
     23.596  0.5047E+00  0.7186E+02
     23.697  0.1096E+00  0.7187E+02
     23.797  0.1334E+00  0.7189E+02
     23.897  0.4791E+00  0.7193E+02
     23.998  0.2009E-01  0.7194E+02
     24.098  0.9668E-01  0.7195E+02
     24.198  0.5139E+00  0.7200E+02
     24.299  0.2201E-01  0.7200E+02
     24.399  0.1033E-05  0.7200E+02
     24.499  0.2140E-13  0.7200E+02
     24.600  0.0000E+00  0.7200E+02
     24.700  0.0000E+00  0.7200E+02
     24.801  0.0000E+00  0.7200E+02
     24.901  0.0000E+00  0.7200E+02
     25.001  0.0000E+00  0.7200E+02
     25.102  0.0000E+00  0.7200E+02
     25.202  0.0000E+00  0.7200E+02
     25.302  0.0000E+00  0.7200E+02
     25.403  0.0000E+00  0.7200E+02
     25.503  0.0000E+00  0.7200E+02
