Li13 Sn5                                
   1.00000000000000     
     4.6642860099999996    0.0000000000000000    0.0000000000000000
    -2.3321424999999998    4.0393897699999997    0.0000000000000000
     0.0000000000000000    0.0000000000000000   16.9948908000000003
   Li   Sn
    13     5
Direct
     0.0000000000000000    0.0000000000000000    0.5000000000000000
     0.0000000000000000    0.0000000000000000    0.6717442500000033
     0.0000000000000000    0.0000000000000000    0.3282557499999967
     0.0000000000000000    0.0000000000000000    0.8385065900000015
     0.0000000000000000    0.0000000000000000    0.1614934099999985
     0.3333330000000032    0.6666669999999968    0.9461456000000013
     0.6666669999999968    0.3333330000000032    0.0538543999999987
     0.3333330000000032    0.6666669999999968    0.4464673100000027
     0.6666669999999968    0.3333330000000032    0.5535326899999973
     0.3333330000000032    0.6666669999999968    0.2830581099999989
     0.6666669999999968    0.3333330000000032    0.7169418900000011
     0.3333330000000032    0.6666669999999968    0.1121690599999994
     0.6666669999999968    0.3333330000000032    0.8878309400000006
     0.0000000000000000    0.0000000000000000    0.0000000000000000
     0.3333330000000032    0.6666669999999968    0.7778074699999991
     0.6666669999999968    0.3333330000000032    0.2221925300000009
     0.3333330000000032    0.6666669999999968    0.6090133599999987
     0.6666669999999968    0.3333330000000032    0.3909866400000013
 
  0.00000000E+00  0.00000000E+00  0.00000000E+00
  0.00000000E+00  0.00000000E+00  0.00000000E+00
  0.00000000E+00  0.00000000E+00  0.00000000E+00
  0.00000000E+00  0.00000000E+00  0.00000000E+00
  0.00000000E+00  0.00000000E+00  0.00000000E+00
  0.00000000E+00  0.00000000E+00  0.00000000E+00
  0.00000000E+00  0.00000000E+00  0.00000000E+00
  0.00000000E+00  0.00000000E+00  0.00000000E+00
  0.00000000E+00  0.00000000E+00  0.00000000E+00
  0.00000000E+00  0.00000000E+00  0.00000000E+00
  0.00000000E+00  0.00000000E+00  0.00000000E+00
  0.00000000E+00  0.00000000E+00  0.00000000E+00
  0.00000000E+00  0.00000000E+00  0.00000000E+00
  0.00000000E+00  0.00000000E+00  0.00000000E+00
  0.00000000E+00  0.00000000E+00  0.00000000E+00
  0.00000000E+00  0.00000000E+00  0.00000000E+00
  0.00000000E+00  0.00000000E+00  0.00000000E+00
  0.00000000E+00  0.00000000E+00  0.00000000E+00
