Li13Sn5
1.0
      4.6642860       0.0000000       0.0000000
     -2.3321425       4.0393898       0.0000000
      0.0000000       0.0000000      16.9948908
  Li    Sn  
  13    5   
Direct
      0.0000000       0.0000000       0.5000000
      0.0000000       0.0000000       0.6717443
      0.0000000       0.0000000       0.3282557
      0.0000000       0.0000000       0.8385066
      0.0000000       0.0000000       0.1614934
      0.3333330       0.6666670       0.9461456
      0.6666670       0.3333330       0.0538544
      0.3333330       0.6666670       0.4464673
      0.6666670       0.3333330       0.5535327
      0.3333330       0.6666670       0.2830581
      0.6666670       0.3333330       0.7169419
      0.3333330       0.6666670       0.1121691
      0.6666670       0.3333330       0.8878309
      0.0000000       0.0000000       0.0000000
      0.3333330       0.6666670       0.7778075
      0.6666670       0.3333330       0.2221925
      0.3333330       0.6666670       0.6090134
      0.6666670       0.3333330       0.3909866
