Ni3 S3                                  
   1.00000000000000     
     4.9941752700000004   -0.0002279100000000   -2.5008996600000000
    -4.0492740300000003    2.9232247000000000   -2.5009573500000002
    -0.0000575400000000   -0.0002866400000000    5.5853964899999999
   Ni   S 
     3     3
Direct
     0.6596595199999982    0.3968786100000017    0.3968786100000017
     0.3968780800000005    0.3968597399999965    0.6596311600000035
     0.3968780800000005    0.6596311600000035    0.3968597399999965
     0.7835119900000009    0.1192566300000024    0.1192566300000024
     0.1192376699999969    0.1192466400000001    0.7835292099999975
     0.1192376699999969    0.7835292099999975    0.1192466400000001
 
  0.00000000E+00  0.00000000E+00  0.00000000E+00
  0.00000000E+00  0.00000000E+00  0.00000000E+00
  0.00000000E+00  0.00000000E+00  0.00000000E+00
  0.00000000E+00  0.00000000E+00  0.00000000E+00
  0.00000000E+00  0.00000000E+00  0.00000000E+00
  0.00000000E+00  0.00000000E+00  0.00000000E+00
