       N       E                     dE             d eps       ncg     rms          rms(c)
DAV:   1     0.871665992421E+03    0.87167E+03   -0.44698E+04 20376   0.217E+03
DAV:   2     0.384413081067E+02   -0.83322E+03   -0.80739E+03 17584   0.616E+02
DAV:   3    -0.317437015545E+02   -0.70185E+02   -0.66385E+02 20784   0.187E+02
DAV:   4    -0.348298418143E+02   -0.30861E+01   -0.30687E+01 20288   0.370E+01
DAV:   5    -0.349274859893E+02   -0.97644E-01   -0.97601E-01 21584   0.729E+00    0.251E+01
DAV:   6    -0.392912488946E+02   -0.43638E+01   -0.77268E+01 21320   0.107E+02    0.380E+01
DAV:   7    -0.308390050114E+02    0.84522E+01   -0.22158E+01 19216   0.745E+01    0.908E+00
DAV:   8    -0.311015750216E+02   -0.26257E+00   -0.46315E+00 23224   0.137E+01    0.426E+00
DAV:   9    -0.310239872629E+02    0.77588E-01   -0.24403E-01 22816   0.601E+00    0.145E+00
DAV:  10    -0.310233235450E+02    0.66372E-03   -0.31624E-02 23832   0.194E+00    0.847E-01
DAV:  11    -0.310245940356E+02   -0.12705E-02   -0.21106E-02 23000   0.330E+00    0.870E-01
DAV:  12    -0.310212262749E+02    0.33678E-02   -0.80473E-03 23992   0.192E+00    0.156E-01
DAV:  13    -0.310213246484E+02   -0.98374E-04   -0.10983E-03 23464   0.395E-01    0.103E-01
DAV:  14    -0.310212850049E+02    0.39643E-04   -0.20199E-04 20992   0.333E-01    0.365E-02
DAV:  15    -0.310212781471E+02    0.68578E-05   -0.32614E-05 22920   0.930E-02    0.185E-02
DAV:  16    -0.310212796152E+02   -0.14680E-05   -0.66080E-06 18056   0.189E-02    0.837E-03
DAV:  17    -0.310212795157E+02    0.99495E-07   -0.86758E-07 11880   0.166E-02
   1 F= -.31021280E+02 E0= -.31019140E+02  d E =-.427959E-02
