Ba1 Sn5
1.0
   5.3873455799999999   -0.0000000100000000   -0.0000000000000000
  -2.6936738099999999    4.6655792600000003    0.0000000000000000
   0.0000000000000000    0.0000000000000000    7.3130572599999999
Ba Sn
1 5
direct
  -0.0000000000000000   -0.0000000000000000    0.5000000000000000 Ba
   0.6666670000000000    0.3333330000000000    0.7959949600000000 Sn
  -0.0000000000000000   -0.0000000000000000   -0.0000000000000000 Sn
   0.6666670000000000    0.3333330000000000    0.2040050400000000 Sn
   0.3333330000000000    0.6666670000000000    0.2040050400000000 Sn
   0.3333330000000000    0.6666670000000000    0.7959949600000000 Sn
