       N       E                     dE             d eps       ncg     rms          rms(c)
DAV:   1     0.507310018156E+02    0.50731E+02   -0.59477E+03 23344   0.890E+02
DAV:   2    -0.110084644956E+02   -0.61739E+02   -0.58581E+02 31536   0.209E+02
DAV:   3    -0.160422541333E+02   -0.50338E+01   -0.49975E+01 36936   0.436E+01
DAV:   4    -0.161219354029E+02   -0.79681E-01   -0.79666E-01 26464   0.674E+00
DAV:   5    -0.161227673616E+02   -0.83196E-03   -0.83195E-03 32248   0.519E-01    0.747E+00
DAV:   6    -0.143892245844E+02    0.17335E+01   -0.74668E+00 26208   0.124E+01    0.286E+00
DAV:   7    -0.143524847999E+02    0.36740E-01   -0.17441E-01 30560   0.240E+00    0.152E+00
DAV:   8    -0.143517928029E+02    0.69200E-03   -0.79507E-02 33416   0.222E+00    0.534E-01
DAV:   9    -0.143489280371E+02    0.28648E-02   -0.57377E-03 27472   0.536E-01    0.184E-01
DAV:  10    -0.143491196735E+02   -0.19164E-03   -0.10548E-03 28472   0.226E-01    0.607E-02
DAV:  11    -0.143490851148E+02    0.34559E-04   -0.59706E-05 29296   0.708E-02    0.157E-02
DAV:  12    -0.143490887953E+02   -0.36805E-05   -0.78114E-06 30008   0.253E-02    0.951E-03
DAV:  13    -0.143490878275E+02    0.96784E-06   -0.56129E-06 26704   0.172E-02
   1 F= -.14349088E+02 E0= -.14349088E+02  d E =-.180928E-28
