  13  13   0   0
  0.8417163E+01  0.4203346E-09  0.5518413E-09  0.5518415E-09  0.5000000E-15
  1.000000000000000E-004
  CAR 
 unknown system                          
     33.50091644   -100.25800607  301      5.76286841      1.00000000
   -100.258  0.0000E+00  0.0000E+00
    -99.812  0.0000E+00  0.0000E+00
    -99.366  0.0000E+00  0.0000E+00
    -98.920  0.0000E+00  0.0000E+00
    -98.475  0.0000E+00  0.0000E+00
    -98.029  0.0000E+00  0.0000E+00
    -97.583  0.0000E+00  0.0000E+00
    -97.137  0.0000E+00  0.0000E+00
    -96.691  0.0000E+00  0.0000E+00
    -96.245  0.0000E+00  0.0000E+00
    -95.799  0.0000E+00  0.0000E+00
    -95.354  0.0000E+00  0.0000E+00
    -94.908  0.0000E+00  0.0000E+00
    -94.462  0.3631E-14  0.1619E-14
    -94.016  0.1794E+02  0.8000E+01
    -93.570  0.1581E+02  0.1505E+02
    -93.124  0.1722E+02  0.2400E+02
    -92.678  0.0000E+00  0.2400E+02
    -92.232  0.0000E+00  0.2400E+02
    -91.787  0.0000E+00  0.2400E+02
    -91.341  0.0000E+00  0.2400E+02
    -90.895  0.0000E+00  0.2400E+02
    -90.449  0.0000E+00  0.2400E+02
    -90.003  0.0000E+00  0.2400E+02
    -89.557  0.0000E+00  0.2400E+02
    -89.111  0.0000E+00  0.2400E+02
    -88.666  0.0000E+00  0.2400E+02
    -88.220  0.0000E+00  0.2400E+02
    -87.774  0.0000E+00  0.2400E+02
    -87.328  0.0000E+00  0.2400E+02
    -86.882  0.0000E+00  0.2400E+02
    -86.436  0.0000E+00  0.2400E+02
    -85.990  0.0000E+00  0.2400E+02
    -85.545  0.0000E+00  0.2400E+02
    -85.099  0.0000E+00  0.2400E+02
    -84.653  0.0000E+00  0.2400E+02
    -84.207  0.0000E+00  0.2400E+02
    -83.761  0.0000E+00  0.2400E+02
    -83.315  0.0000E+00  0.2400E+02
    -82.869  0.0000E+00  0.2400E+02
    -82.423  0.0000E+00  0.2400E+02
    -81.978  0.0000E+00  0.2400E+02
    -81.532  0.0000E+00  0.2400E+02
    -81.086  0.0000E+00  0.2400E+02
    -80.640  0.0000E+00  0.2400E+02
    -80.194  0.0000E+00  0.2400E+02
    -79.748  0.0000E+00  0.2400E+02
    -79.302  0.0000E+00  0.2400E+02
    -78.857  0.0000E+00  0.2400E+02
    -78.411  0.0000E+00  0.2400E+02
    -77.965  0.0000E+00  0.2400E+02
    -77.519  0.0000E+00  0.2400E+02
    -77.073  0.0000E+00  0.2400E+02
    -76.627  0.0000E+00  0.2400E+02
    -76.181  0.0000E+00  0.2400E+02
    -75.736  0.0000E+00  0.2400E+02
    -75.290  0.0000E+00  0.2400E+02
    -74.844  0.0000E+00  0.2400E+02
    -74.398  0.0000E+00  0.2400E+02
    -73.952  0.0000E+00  0.2400E+02
    -73.506  0.0000E+00  0.2400E+02
    -73.060  0.0000E+00  0.2400E+02
    -72.614  0.0000E+00  0.2400E+02
    -72.169  0.0000E+00  0.2400E+02
    -71.723  0.0000E+00  0.2400E+02
    -71.277  0.0000E+00  0.2400E+02
    -70.831  0.0000E+00  0.2400E+02
    -70.385  0.0000E+00  0.2400E+02
    -69.939  0.0000E+00  0.2400E+02
    -69.493  0.0000E+00  0.2400E+02
    -69.048  0.0000E+00  0.2400E+02
    -68.602  0.0000E+00  0.2400E+02
    -68.156  0.0000E+00  0.2400E+02
    -67.710  0.0000E+00  0.2400E+02
    -67.264  0.0000E+00  0.2400E+02
    -66.818  0.0000E+00  0.2400E+02
    -66.372  0.0000E+00  0.2400E+02
    -65.927  0.0000E+00  0.2400E+02
    -65.481  0.0000E+00  0.2400E+02
    -65.035  0.0000E+00  0.2400E+02
    -64.589  0.0000E+00  0.2400E+02
    -64.143  0.0000E+00  0.2400E+02
    -63.697  0.0000E+00  0.2400E+02
    -63.251  0.0000E+00  0.2400E+02
    -62.806  0.0000E+00  0.2400E+02
    -62.360  0.0000E+00  0.2400E+02
    -61.914  0.0000E+00  0.2400E+02
    -61.468  0.0000E+00  0.2400E+02
    -61.022  0.0000E+00  0.2400E+02
    -60.576  0.0000E+00  0.2400E+02
    -60.130  0.0000E+00  0.2400E+02
    -59.684  0.0000E+00  0.2400E+02
    -59.239  0.0000E+00  0.2400E+02
    -58.793  0.0000E+00  0.2400E+02
    -58.347  0.0000E+00  0.2400E+02
    -57.901  0.0000E+00  0.2400E+02
    -57.455  0.0000E+00  0.2400E+02
    -57.009  0.0000E+00  0.2400E+02
    -56.563  0.0000E+00  0.2400E+02
    -56.118  0.0000E+00  0.2400E+02
    -55.672  0.0000E+00  0.2400E+02
    -55.226  0.0000E+00  0.2400E+02
    -54.780  0.0000E+00  0.2400E+02
    -54.334  0.0000E+00  0.2400E+02
    -53.888  0.0000E+00  0.2400E+02
    -53.442  0.0000E+00  0.2400E+02
    -52.997  0.0000E+00  0.2400E+02
    -52.551  0.0000E+00  0.2400E+02
    -52.105  0.0000E+00  0.2400E+02
    -51.659  0.0000E+00  0.2400E+02
    -51.213  0.0000E+00  0.2400E+02
    -50.767  0.0000E+00  0.2400E+02
    -50.321  0.0000E+00  0.2400E+02
    -49.875  0.0000E+00  0.2400E+02
    -49.430  0.0000E+00  0.2400E+02
    -48.984  0.0000E+00  0.2400E+02
    -48.538  0.0000E+00  0.2400E+02
    -48.092  0.0000E+00  0.2400E+02
    -47.646  0.0000E+00  0.2400E+02
    -47.200  0.0000E+00  0.2400E+02
    -46.754  0.0000E+00  0.2400E+02
    -46.309  0.0000E+00  0.2400E+02
    -45.863  0.0000E+00  0.2400E+02
    -45.417  0.0000E+00  0.2400E+02
    -44.971  0.0000E+00  0.2400E+02
    -44.525  0.0000E+00  0.2400E+02
    -44.079  0.0000E+00  0.2400E+02
    -43.633  0.0000E+00  0.2400E+02
    -43.188  0.0000E+00  0.2400E+02
    -42.742  0.0000E+00  0.2400E+02
    -42.296  0.0000E+00  0.2400E+02
    -41.850  0.0000E+00  0.2400E+02
    -41.404  0.0000E+00  0.2400E+02
    -40.958  0.0000E+00  0.2400E+02
    -40.512  0.0000E+00  0.2400E+02
    -40.066  0.0000E+00  0.2400E+02
    -39.621  0.0000E+00  0.2400E+02
    -39.175  0.0000E+00  0.2400E+02
    -38.729  0.0000E+00  0.2400E+02
    -38.283  0.0000E+00  0.2400E+02
    -37.837  0.0000E+00  0.2400E+02
    -37.391  0.0000E+00  0.2400E+02
    -36.945  0.0000E+00  0.2400E+02
    -36.500  0.0000E+00  0.2400E+02
    -36.054  0.0000E+00  0.2400E+02
    -35.608  0.0000E+00  0.2400E+02
    -35.162  0.0000E+00  0.2400E+02
    -34.716  0.0000E+00  0.2400E+02
    -34.270  0.0000E+00  0.2400E+02
    -33.824  0.0000E+00  0.2400E+02
    -33.379  0.0000E+00  0.2400E+02
    -32.933  0.0000E+00  0.2400E+02
    -32.487  0.0000E+00  0.2400E+02
    -32.041  0.0000E+00  0.2400E+02
    -31.595  0.0000E+00  0.2400E+02
    -31.149  0.0000E+00  0.2400E+02
    -30.703  0.0000E+00  0.2400E+02
    -30.258  0.0000E+00  0.2400E+02
    -29.812  0.0000E+00  0.2400E+02
    -29.366  0.4877E+00  0.2422E+02
    -28.920  0.1297E+02  0.3000E+02
    -28.474  0.0000E+00  0.3000E+02
    -28.028  0.0000E+00  0.3000E+02
    -27.582  0.0000E+00  0.3000E+02
    -27.136  0.0000E+00  0.3000E+02
    -26.691  0.0000E+00  0.3000E+02
    -26.245  0.0000E+00  0.3000E+02
    -25.799  0.0000E+00  0.3000E+02
    -25.353  0.0000E+00  0.3000E+02
    -24.907  0.0000E+00  0.3000E+02
    -24.461  0.0000E+00  0.3000E+02
    -24.015  0.0000E+00  0.3000E+02
    -23.570  0.0000E+00  0.3000E+02
    -23.124  0.0000E+00  0.3000E+02
    -22.678  0.0000E+00  0.3000E+02
    -22.232  0.0000E+00  0.3000E+02
    -21.786  0.0000E+00  0.3000E+02
    -21.340  0.0000E+00  0.3000E+02
    -20.894  0.0000E+00  0.3000E+02
    -20.449  0.0000E+00  0.3000E+02
    -20.003  0.0000E+00  0.3000E+02
    -19.557  0.0000E+00  0.3000E+02
    -19.111  0.0000E+00  0.3000E+02
    -18.665  0.0000E+00  0.3000E+02
    -18.219  0.0000E+00  0.3000E+02
    -17.773  0.0000E+00  0.3000E+02
    -17.327  0.0000E+00  0.3000E+02
    -16.882  0.0000E+00  0.3000E+02
    -16.436  0.0000E+00  0.3000E+02
    -15.990  0.0000E+00  0.3000E+02
    -15.544  0.0000E+00  0.3000E+02
    -15.098  0.0000E+00  0.3000E+02
    -14.652  0.0000E+00  0.3000E+02
    -14.206  0.0000E+00  0.3000E+02
    -13.761  0.0000E+00  0.3000E+02
    -13.315  0.0000E+00  0.3000E+02
    -12.869  0.0000E+00  0.3000E+02
    -12.423  0.0000E+00  0.3000E+02
    -11.977  0.0000E+00  0.3000E+02
    -11.531  0.0000E+00  0.3000E+02
    -11.085  0.0000E+00  0.3000E+02
    -10.640  0.0000E+00  0.3000E+02
    -10.194  0.0000E+00  0.3000E+02
     -9.748  0.0000E+00  0.3000E+02
     -9.302  0.0000E+00  0.3000E+02
     -8.856  0.0000E+00  0.3000E+02
     -8.410  0.0000E+00  0.3000E+02
     -7.964  0.0000E+00  0.3000E+02
     -7.518  0.0000E+00  0.3000E+02
     -7.073  0.0000E+00  0.3000E+02
     -6.627  0.0000E+00  0.3000E+02
     -6.181  0.0000E+00  0.3000E+02
     -5.735  0.0000E+00  0.3000E+02
     -5.289  0.0000E+00  0.3000E+02
     -4.843  0.8957E-02  0.3000E+02
     -4.397  0.4147E+00  0.3020E+02
     -3.952  0.9725E+00  0.3063E+02
     -3.506  0.7656E+00  0.3106E+02
     -3.060  0.1486E+01  0.3178E+02
     -2.614  0.1580E+01  0.3257E+02
     -2.168  0.1835E+01  0.3344E+02
     -1.722  0.1838E+01  0.3438E+02
     -1.276  0.2161E+01  0.3546E+02
     -0.831  0.1804E+01  0.3634E+02
     -0.385  0.2168E+01  0.3744E+02
      0.061  0.2730E+01  0.3892E+02
      0.507  0.1851E+01  0.3991E+02
      0.953  0.3351E+01  0.4143E+02
      1.399  0.3508E+01  0.4326E+02
      1.845  0.2996E+01  0.4468E+02
      2.291  0.3963E+01  0.4662E+02
      2.736  0.4689E+01  0.4896E+02
      3.182  0.5251E+01  0.5177E+02
      3.628  0.4265E+01  0.5408E+02
      4.074  0.3601E+01  0.5595E+02
      4.520  0.1302E+01  0.5660E+02
      4.966  0.3572E+01  0.5826E+02
      5.412  0.2423E+01  0.5953E+02
      5.857  0.1245E+01  0.6021E+02
      6.303  0.2897E+01  0.6165E+02
      6.749  0.2209E+01  0.6284E+02
      7.195  0.1230E+01  0.6369E+02
      7.641  0.1858E+01  0.6458E+02
      8.087  0.2224E+01  0.6572E+02
      8.533  0.3230E+01  0.6734E+02
      8.978  0.2882E+01  0.6877E+02
      9.424  0.3312E+01  0.7034E+02
      9.870  0.3601E+01  0.7209E+02
     10.316  0.3539E+01  0.7385E+02
     10.762  0.3555E+01  0.7564E+02
     11.208  0.3817E+01  0.7761E+02
     11.654  0.4619E+01  0.7994E+02
     12.099  0.3766E+01  0.8197E+02
     12.545  0.3841E+01  0.8404E+02
     12.991  0.3526E+01  0.8593E+02
     13.437  0.3118E+01  0.8756E+02
     13.883  0.2618E+01  0.8880E+02
     14.329  0.2396E+01  0.8998E+02
     14.775  0.5312E+01  0.9255E+02
     15.221  0.3046E+01  0.9424E+02
     15.666  0.3406E+01  0.9589E+02
     16.112  0.4007E+01  0.9785E+02
     16.558  0.3993E+01  0.9976E+02
     17.004  0.4729E+01  0.1022E+03
     17.450  0.4053E+01  0.1042E+03
     17.896  0.4498E+01  0.1065E+03
     18.342  0.4470E+01  0.1086E+03
     18.787  0.5861E+01  0.1113E+03
     19.233  0.6037E+01  0.1144E+03
     19.679  0.5650E+01  0.1172E+03
     20.125  0.4877E+01  0.1196E+03
     20.571  0.5364E+01  0.1223E+03
     21.017  0.6090E+01  0.1254E+03
     21.463  0.4373E+01  0.1277E+03
     21.908  0.5614E+01  0.1305E+03
     22.354  0.4241E+01  0.1326E+03
     22.800  0.4092E+01  0.1345E+03
     23.246  0.4320E+01  0.1367E+03
     23.692  0.2930E+01  0.1382E+03
     24.138  0.2103E+01  0.1393E+03
     24.584  0.1738E+01  0.1401E+03
     25.030  0.1311E+01  0.1408E+03
     25.475  0.1898E+01  0.1418E+03
     25.921  0.1310E+01  0.1424E+03
     26.367  0.2143E+01  0.1434E+03
     26.813  0.1097E+01  0.1439E+03
     27.259  0.9796E-01  0.1440E+03
     27.705  0.2563E-01  0.1440E+03
     28.151  0.0000E+00  0.1440E+03
     28.596  0.0000E+00  0.1440E+03
     29.042  0.0000E+00  0.1440E+03
     29.488  0.0000E+00  0.1440E+03
     29.934  0.0000E+00  0.1440E+03
     30.380  0.0000E+00  0.1440E+03
     30.826  0.0000E+00  0.1440E+03
     31.272  0.0000E+00  0.1440E+03
     31.717  0.0000E+00  0.1440E+03
     32.163  0.0000E+00  0.1440E+03
     32.609  0.0000E+00  0.1440E+03
     33.055  0.0000E+00  0.1440E+03
     33.501  0.0000E+00  0.1440E+03
