Be12Mo1
1.0
      3.8866033       0.0003882       1.6007593
      1.9439643       5.1023874       0.7997014
      0.0010003      -0.0006862       5.5184153
  Be    Mo  
  12    1   
Direct
      0.5000000       0.0000000       0.5000000
      0.0000000       0.5000000       0.0000000
      0.5000000       0.5000000       0.0000000
      0.0000000       0.0000000       0.5000000
      0.3485065       0.6495542       0.6495542
      0.0000000       0.3501472       0.6498528
      0.0000000       0.6498528       0.3501472
      0.6514935       0.3504458       0.3504458
      0.2887044       0.2118814       0.2118814
      0.5000000       0.7901361       0.2098639
      0.5000000       0.2098639       0.7901361
      0.7112956       0.7881186       0.7881186
      0.0000000       0.0000000       0.0000000
