   1   1   0   0
  0.1812997E+02  0.2866418E-09  0.2866419E-09  0.2866418E-09  0.5000000E-15
  1.000000000000000E-004
  CAR 
 unknown system                          
     26.86362566    -31.43138072  301      5.41633495      1.00000000
    -31.431  0.0000E+00  0.0000E+00
    -31.237  0.0000E+00  0.0000E+00
    -31.043  0.0000E+00  0.0000E+00
    -30.848  0.0000E+00  0.0000E+00
    -30.654  0.0000E+00  0.0000E+00
    -30.460  0.0000E+00  0.0000E+00
    -30.265  0.0000E+00  0.0000E+00
    -30.071  0.0000E+00  0.0000E+00
    -29.877  0.0000E+00  0.0000E+00
    -29.683  0.0000E+00  0.0000E+00
    -29.488  0.0000E+00  0.0000E+00
    -29.294  0.0000E+00  0.0000E+00
    -29.100  0.0000E+00  0.0000E+00
    -28.905  0.4180E-04  0.8123E-05
    -28.711  0.8867E+00  0.1723E+00
    -28.517  0.5349E+01  0.1212E+01
    -28.322  0.3790E+01  0.1948E+01
    -28.128  0.4686E+01  0.2859E+01
    -27.934  0.5892E+01  0.4004E+01
    -27.739  0.6875E+01  0.5340E+01
    -27.545  0.3398E+01  0.6000E+01
    -27.351  0.3954E-03  0.6000E+01
    -27.156  0.0000E+00  0.6000E+01
    -26.962  0.0000E+00  0.6000E+01
    -26.768  0.0000E+00  0.6000E+01
    -26.573  0.0000E+00  0.6000E+01
    -26.379  0.0000E+00  0.6000E+01
    -26.185  0.0000E+00  0.6000E+01
    -25.991  0.0000E+00  0.6000E+01
    -25.796  0.0000E+00  0.6000E+01
    -25.602  0.0000E+00  0.6000E+01
    -25.408  0.0000E+00  0.6000E+01
    -25.213  0.0000E+00  0.6000E+01
    -25.019  0.0000E+00  0.6000E+01
    -24.825  0.0000E+00  0.6000E+01
    -24.630  0.0000E+00  0.6000E+01
    -24.436  0.0000E+00  0.6000E+01
    -24.242  0.0000E+00  0.6000E+01
    -24.047  0.0000E+00  0.6000E+01
    -23.853  0.0000E+00  0.6000E+01
    -23.659  0.0000E+00  0.6000E+01
    -23.464  0.0000E+00  0.6000E+01
    -23.270  0.0000E+00  0.6000E+01
    -23.076  0.0000E+00  0.6000E+01
    -22.881  0.0000E+00  0.6000E+01
    -22.687  0.0000E+00  0.6000E+01
    -22.493  0.0000E+00  0.6000E+01
    -22.298  0.0000E+00  0.6000E+01
    -22.104  0.0000E+00  0.6000E+01
    -21.910  0.0000E+00  0.6000E+01
    -21.716  0.0000E+00  0.6000E+01
    -21.521  0.0000E+00  0.6000E+01
    -21.327  0.0000E+00  0.6000E+01
    -21.133  0.0000E+00  0.6000E+01
    -20.938  0.0000E+00  0.6000E+01
    -20.744  0.0000E+00  0.6000E+01
    -20.550  0.0000E+00  0.6000E+01
    -20.355  0.0000E+00  0.6000E+01
    -20.161  0.0000E+00  0.6000E+01
    -19.967  0.0000E+00  0.6000E+01
    -19.772  0.0000E+00  0.6000E+01
    -19.578  0.0000E+00  0.6000E+01
    -19.384  0.0000E+00  0.6000E+01
    -19.189  0.0000E+00  0.6000E+01
    -18.995  0.0000E+00  0.6000E+01
    -18.801  0.0000E+00  0.6000E+01
    -18.606  0.0000E+00  0.6000E+01
    -18.412  0.0000E+00  0.6000E+01
    -18.218  0.0000E+00  0.6000E+01
    -18.024  0.0000E+00  0.6000E+01
    -17.829  0.0000E+00  0.6000E+01
    -17.635  0.0000E+00  0.6000E+01
    -17.441  0.0000E+00  0.6000E+01
    -17.246  0.0000E+00  0.6000E+01
    -17.052  0.0000E+00  0.6000E+01
    -16.858  0.0000E+00  0.6000E+01
    -16.663  0.0000E+00  0.6000E+01
    -16.469  0.0000E+00  0.6000E+01
    -16.275  0.0000E+00  0.6000E+01
    -16.080  0.0000E+00  0.6000E+01
    -15.886  0.0000E+00  0.6000E+01
    -15.692  0.0000E+00  0.6000E+01
    -15.497  0.0000E+00  0.6000E+01
    -15.303  0.0000E+00  0.6000E+01
    -15.109  0.0000E+00  0.6000E+01
    -14.914  0.0000E+00  0.6000E+01
    -14.720  0.0000E+00  0.6000E+01
    -14.526  0.0000E+00  0.6000E+01
    -14.332  0.0000E+00  0.6000E+01
    -14.137  0.0000E+00  0.6000E+01
    -13.943  0.0000E+00  0.6000E+01
    -13.749  0.0000E+00  0.6000E+01
    -13.554  0.0000E+00  0.6000E+01
    -13.360  0.0000E+00  0.6000E+01
    -13.166  0.0000E+00  0.6000E+01
    -12.971  0.0000E+00  0.6000E+01
    -12.777  0.0000E+00  0.6000E+01
    -12.583  0.0000E+00  0.6000E+01
    -12.388  0.0000E+00  0.6000E+01
    -12.194  0.0000E+00  0.6000E+01
    -12.000  0.0000E+00  0.6000E+01
    -11.805  0.0000E+00  0.6000E+01
    -11.611  0.0000E+00  0.6000E+01
    -11.417  0.0000E+00  0.6000E+01
    -11.222  0.0000E+00  0.6000E+01
    -11.028  0.0000E+00  0.6000E+01
    -10.834  0.0000E+00  0.6000E+01
    -10.639  0.0000E+00  0.6000E+01
    -10.445  0.0000E+00  0.6000E+01
    -10.251  0.0000E+00  0.6000E+01
    -10.057  0.0000E+00  0.6000E+01
     -9.862  0.0000E+00  0.6000E+01
     -9.668  0.0000E+00  0.6000E+01
     -9.474  0.0000E+00  0.6000E+01
     -9.279  0.0000E+00  0.6000E+01
     -9.085  0.0000E+00  0.6000E+01
     -8.891  0.0000E+00  0.6000E+01
     -8.696  0.0000E+00  0.6000E+01
     -8.502  0.0000E+00  0.6000E+01
     -8.308  0.0000E+00  0.6000E+01
     -8.113  0.0000E+00  0.6000E+01
     -7.919  0.0000E+00  0.6000E+01
     -7.725  0.0000E+00  0.6000E+01
     -7.530  0.0000E+00  0.6000E+01
     -7.336  0.0000E+00  0.6000E+01
     -7.142  0.0000E+00  0.6000E+01
     -6.947  0.0000E+00  0.6000E+01
     -6.753  0.0000E+00  0.6000E+01
     -6.559  0.0000E+00  0.6000E+01
     -6.365  0.0000E+00  0.6000E+01
     -6.170  0.0000E+00  0.6000E+01
     -5.976  0.0000E+00  0.6000E+01
     -5.782  0.0000E+00  0.6000E+01
     -5.587  0.0000E+00  0.6000E+01
     -5.393  0.0000E+00  0.6000E+01
     -5.199  0.0000E+00  0.6000E+01
     -5.004  0.0000E+00  0.6000E+01
     -4.810  0.0000E+00  0.6000E+01
     -4.616  0.0000E+00  0.6000E+01
     -4.421  0.0000E+00  0.6000E+01
     -4.227  0.0000E+00  0.6000E+01
     -4.033  0.0000E+00  0.6000E+01
     -3.838  0.0000E+00  0.6000E+01
     -3.644  0.0000E+00  0.6000E+01
     -3.450  0.0000E+00  0.6000E+01
     -3.255  0.0000E+00  0.6000E+01
     -3.061  0.0000E+00  0.6000E+01
     -2.867  0.0000E+00  0.6000E+01
     -2.673  0.5030E-11  0.6000E+01
     -2.478  0.2196E-02  0.6000E+01
     -2.284  0.5537E-02  0.6002E+01
     -2.090  0.5249E-01  0.6012E+01
     -1.895  0.4031E-01  0.6020E+01
     -1.701  0.4043E-01  0.6027E+01
     -1.507  0.6977E-02  0.6029E+01
     -1.312  0.1843E+00  0.6065E+01
     -1.118  0.4108E-01  0.6073E+01
     -0.924  0.5201E-01  0.6083E+01
     -0.729  0.1709E+00  0.6116E+01
     -0.535  0.2632E-01  0.6121E+01
     -0.341  0.5346E-01  0.6131E+01
     -0.146  0.3676E+00  0.6203E+01
      0.048  0.3340E-02  0.6203E+01
      0.242  0.1402E+00  0.6231E+01
      0.437  0.2688E+00  0.6283E+01
      0.631  0.9857E-01  0.6302E+01
      0.825  0.2273E+00  0.6346E+01
      1.020  0.6103E+00  0.6465E+01
      1.214  0.1404E+00  0.6492E+01
      1.408  0.1084E+01  0.6703E+01
      1.602  0.3698E+00  0.6775E+01
      1.797  0.3061E+00  0.6834E+01
      1.991  0.1213E+01  0.7070E+01
      2.185  0.1048E+01  0.7274E+01
      2.380  0.5633E+00  0.7383E+01
      2.574  0.5752E+00  0.7495E+01
      2.768  0.2020E+01  0.7887E+01
      2.963  0.5496E+00  0.7994E+01
      3.157  0.1922E+00  0.8031E+01
      3.351  0.7718E+00  0.8181E+01
      3.546  0.1977E+00  0.8220E+01
      3.740  0.4713E+00  0.8311E+01
      3.934  0.1232E+01  0.8551E+01
      4.129  0.2457E+01  0.9028E+01
      4.323  0.1375E+01  0.9295E+01
      4.517  0.1373E+01  0.9562E+01
      4.712  0.1226E+01  0.9800E+01
      4.906  0.1849E+01  0.1016E+02
      5.100  0.1523E+01  0.1046E+02
      5.294  0.2046E+01  0.1085E+02
      5.489  0.1011E+01  0.1105E+02
      5.683  0.1128E+01  0.1127E+02
      5.877  0.1122E+01  0.1149E+02
      6.072  0.8143E+00  0.1165E+02
      6.266  0.4716E+00  0.1174E+02
      6.460  0.9441E-02  0.1174E+02
      6.655  0.3169E+00  0.1180E+02
      6.849  0.2802E+00  0.1185E+02
      7.043  0.5390E+00  0.1196E+02
      7.238  0.3169E+00  0.1202E+02
      7.432  0.9138E+00  0.1220E+02
      7.626  0.7275E+00  0.1234E+02
      7.821  0.4379E+00  0.1242E+02
      8.015  0.8198E+00  0.1258E+02
      8.209  0.3282E+00  0.1265E+02
      8.404  0.4681E+00  0.1274E+02
      8.598  0.1068E+01  0.1295E+02
      8.792  0.1292E+01  0.1320E+02
      8.986  0.1130E+01  0.1342E+02
      9.181  0.1286E+01  0.1367E+02
      9.375  0.1507E+01  0.1396E+02
      9.569  0.8794E+00  0.1413E+02
      9.764  0.8273E+00  0.1429E+02
      9.958  0.1043E+01  0.1449E+02
     10.152  0.1889E+01  0.1486E+02
     10.347  0.2338E+01  0.1532E+02
     10.541  0.2754E+01  0.1585E+02
     10.735  0.1649E+01  0.1617E+02
     10.930  0.1025E+01  0.1637E+02
     11.124  0.3938E+00  0.1645E+02
     11.318  0.3406E+00  0.1651E+02
     11.513  0.3020E+00  0.1657E+02
     11.707  0.2335E+00  0.1662E+02
     11.901  0.2805E-02  0.1662E+02
     12.096  0.2300E+00  0.1666E+02
     12.290  0.3023E+00  0.1672E+02
     12.484  0.2666E+00  0.1677E+02
     12.679  0.1493E+01  0.1706E+02
     12.873  0.1182E+01  0.1729E+02
     13.067  0.2527E+00  0.1734E+02
     13.261  0.7293E-03  0.1734E+02
     13.456  0.5159E-01  0.1735E+02
     13.650  0.2972E+00  0.1741E+02
     13.844  0.4128E+00  0.1749E+02
     14.039  0.8433E-01  0.1751E+02
     14.233  0.1604E+00  0.1754E+02
     14.427  0.6172E+00  0.1766E+02
     14.622  0.6582E+00  0.1779E+02
     14.816  0.3355E+00  0.1785E+02
     15.010  0.5105E+00  0.1795E+02
     15.205  0.3034E+00  0.1801E+02
     15.399  0.1702E+00  0.1804E+02
     15.593  0.2816E+00  0.1810E+02
     15.788  0.8126E+00  0.1825E+02
     15.982  0.7568E+00  0.1840E+02
     16.176  0.4935E+00  0.1850E+02
     16.371  0.4786E+00  0.1859E+02
     16.565  0.3863E+00  0.1867E+02
     16.759  0.1953E+00  0.1870E+02
     16.953  0.1094E+00  0.1872E+02
     17.148  0.3252E+00  0.1879E+02
     17.342  0.3051E+00  0.1885E+02
     17.536  0.6871E+00  0.1898E+02
     17.731  0.8328E+00  0.1914E+02
     17.925  0.1081E+01  0.1935E+02
     18.119  0.6569E-01  0.1937E+02
     18.314  0.3503E+00  0.1943E+02
     18.508  0.6753E+00  0.1956E+02
     18.702  0.7378E+00  0.1971E+02
     18.897  0.5567E+00  0.1982E+02
     19.091  0.5415E+00  0.1992E+02
     19.285  0.1098E+01  0.2013E+02
     19.480  0.1302E+01  0.2039E+02
     19.674  0.5917E+00  0.2050E+02
     19.868  0.8843E+00  0.2067E+02
     20.063  0.6585E+00  0.2080E+02
     20.257  0.9635E+01  0.2267E+02
     20.451  0.4281E+00  0.2276E+02
     20.645  0.1074E+01  0.2297E+02
     20.840  0.3566E+00  0.2304E+02
     21.034  0.7399E+00  0.2318E+02
     21.228  0.6433E+00  0.2330E+02
     21.423  0.4384E+00  0.2339E+02
     21.617  0.3498E+00  0.2346E+02
     21.811  0.1449E+00  0.2349E+02
     22.006  0.1897E+00  0.2352E+02
     22.200  0.3532E+00  0.2359E+02
     22.394  0.9705E+00  0.2378E+02
     22.589  0.1895E+00  0.2382E+02
     22.783  0.5514E-01  0.2383E+02
     22.977  0.2383E+00  0.2387E+02
     23.172  0.3022E+00  0.2393E+02
     23.366  0.6924E-01  0.2395E+02
     23.560  0.1049E-11  0.2395E+02
     23.755  0.6399E-02  0.2395E+02
     23.949  0.8145E-01  0.2396E+02
     24.143  0.9187E-02  0.2396E+02
     24.338  0.1813E+00  0.2400E+02
     24.532  0.4357E-04  0.2400E+02
     24.726  0.0000E+00  0.2400E+02
     24.920  0.0000E+00  0.2400E+02
     25.115  0.0000E+00  0.2400E+02
     25.309  0.0000E+00  0.2400E+02
     25.503  0.0000E+00  0.2400E+02
     25.698  0.0000E+00  0.2400E+02
     25.892  0.0000E+00  0.2400E+02
     26.086  0.0000E+00  0.2400E+02
     26.281  0.0000E+00  0.2400E+02
     26.475  0.0000E+00  0.2400E+02
     26.669  0.0000E+00  0.2400E+02
     26.864  0.0000E+00  0.2400E+02
