       N       E                     dE             d eps       ncg     rms          rms(c)
DAV:   1     0.665322425387E+02    0.66532E+02   -0.65781E+03 31992   0.974E+02
DAV:   2    -0.111236786146E+02   -0.77656E+02   -0.75716E+02 35636   0.262E+02
DAV:   3    -0.122752779049E+02   -0.11516E+01   -0.11381E+01 38328   0.294E+01
DAV:   4    -0.122784771769E+02   -0.31993E-02   -0.31989E-02 35468   0.173E+00
DAV:   5    -0.122784877568E+02   -0.10580E-04   -0.10580E-04 38208   0.961E-02    0.133E+01
DAV:   6    -0.119232235559E+02    0.35526E+00   -0.28891E-01 37792   0.580E+00    0.644E+00
DAV:   7    -0.118175932090E+02    0.10563E+00   -0.24549E-01 37608   0.503E+00    0.389E-01
DAV:   8    -0.118170423027E+02    0.55091E-03   -0.95116E-03 34920   0.708E-01    0.117E-01
DAV:   9    -0.118170560575E+02   -0.13755E-04   -0.65691E-05 37916   0.854E-02    0.258E-02
DAV:  10    -0.118170484940E+02    0.75634E-05   -0.40195E-06 34576   0.221E-02    0.439E-03
DAV:  11    -0.118170485251E+02   -0.31049E-07   -0.34853E-07 19008   0.654E-03
   1 F= -.11817049E+02 E0= -.11816583E+02  d E =-.931608E-03
