Si6 W10                                 
   1.00000000000000     
     4.6421041100000000   -0.0001384400000000    1.6921716499999999
     2.3208015099999999    6.8099932399999998    0.8462119900000000
    -0.0116090800000000    0.0001349400000000    7.2442045600000000
   Si   W 
     6    10
Direct
     0.7500005099999996    0.0000891899999971    0.9999079899999970
     0.2500014100000030    0.9999060700000015    0.0000937699999994
     0.8323202400000014    0.4999613700000012    0.8354520199999982
     0.6676790599999975    0.1645493299999998    0.5000424199999998
     0.3323217299999968    0.8354512599999993    0.4999578299999996
     0.1676751600000017    0.5000447999999977    0.1645515299999971
     0.4236895200000035    0.2993441400000023    0.8524635599999968
     0.5763025700000028    0.7006635299999999    0.1475438699999998
     0.2499985400000000    0.5000719700000005    0.4999209100000002
     0.7500012599999977    0.4999152400000000    0.5000702800000028
     0.7237292300000036    0.8523255500000033    0.7006218799999999
     0.2762722100000019    0.1476693999999981    0.2993752000000001
     0.9236967100000015    0.8524568099999996    0.2993374799999984
     0.2237268700000001    0.7006257500000004    0.8523308700000030
     0.7762699600000005    0.2993816899999970    0.1476731300000012
     0.0763130200000006    0.1475418899999994    0.7006572599999998
 
  0.00000000E+00  0.00000000E+00  0.00000000E+00
  0.00000000E+00  0.00000000E+00  0.00000000E+00
  0.00000000E+00  0.00000000E+00  0.00000000E+00
  0.00000000E+00  0.00000000E+00  0.00000000E+00
  0.00000000E+00  0.00000000E+00  0.00000000E+00
  0.00000000E+00  0.00000000E+00  0.00000000E+00
  0.00000000E+00  0.00000000E+00  0.00000000E+00
  0.00000000E+00  0.00000000E+00  0.00000000E+00
  0.00000000E+00  0.00000000E+00  0.00000000E+00
  0.00000000E+00  0.00000000E+00  0.00000000E+00
  0.00000000E+00  0.00000000E+00  0.00000000E+00
  0.00000000E+00  0.00000000E+00  0.00000000E+00
  0.00000000E+00  0.00000000E+00  0.00000000E+00
  0.00000000E+00  0.00000000E+00  0.00000000E+00
  0.00000000E+00  0.00000000E+00  0.00000000E+00
  0.00000000E+00  0.00000000E+00  0.00000000E+00
