  16  16   0   0
  0.1432156E+02  0.4940908E-09  0.7244184E-09  0.7244214E-09  0.5000000E-15
  1.000000000000000E-004
  CAR 
 unknown system                          
     28.17980603     -4.70744857  301      9.53876711      1.00000000
     -4.707  0.0000E+00  0.0000E+00
     -4.598  0.0000E+00  0.0000E+00
     -4.488  0.0000E+00  0.0000E+00
     -4.379  0.0000E+00  0.0000E+00
     -4.269  0.0000E+00  0.0000E+00
     -4.159  0.0000E+00  0.0000E+00
     -4.050  0.0000E+00  0.0000E+00
     -3.940  0.0000E+00  0.0000E+00
     -3.830  0.0000E+00  0.0000E+00
     -3.721  0.0000E+00  0.0000E+00
     -3.611  0.0000E+00  0.0000E+00
     -3.502  0.6330E-16  0.6939E-17
     -3.392  0.7412E-07  0.8125E-08
     -3.282  0.9244E-02  0.1013E-02
     -3.173  0.4740E+00  0.5297E-01
     -3.063  0.8876E+00  0.1503E+00
     -2.953  0.1969E+00  0.1719E+00
     -2.844  0.1300E+01  0.3144E+00
     -2.734  0.1496E+01  0.4784E+00
     -2.625  0.2251E+01  0.7252E+00
     -2.515  0.1433E+01  0.8823E+00
     -2.405  0.1645E+01  0.1063E+01
     -2.296  0.7481E+00  0.1145E+01
     -2.186  0.1304E+01  0.1288E+01
     -2.076  0.6957E+00  0.1364E+01
     -1.967  0.1140E+01  0.1489E+01
     -1.857  0.5489E+00  0.1549E+01
     -1.748  0.1801E+01  0.1746E+01
     -1.638  0.2086E+01  0.1975E+01
     -1.528  0.1808E+01  0.2173E+01
     -1.419  0.2055E+01  0.2399E+01
     -1.309  0.1295E+01  0.2541E+01
     -1.199  0.2313E+01  0.2794E+01
     -1.090  0.3033E+01  0.3127E+01
     -0.980  0.3734E+01  0.3536E+01
     -0.871  0.2627E+01  0.3824E+01
     -0.761  0.3002E+01  0.4153E+01
     -0.651  0.5353E+01  0.4740E+01
     -0.542  0.4467E+01  0.5229E+01
     -0.432  0.3210E+01  0.5581E+01
     -0.322  0.2456E+01  0.5851E+01
     -0.213  0.5635E+01  0.6468E+01
     -0.103  0.5344E+01  0.7054E+01
      0.006  0.4565E+01  0.7555E+01
      0.116  0.3977E+01  0.7991E+01
      0.226  0.1128E+02  0.9227E+01
      0.335  0.1447E+02  0.1081E+02
      0.445  0.3589E+01  0.1121E+02
      0.555  0.1152E+01  0.1133E+02
      0.664  0.1809E-02  0.1133E+02
      0.774  0.5961E-09  0.1133E+02
      0.883  0.0000E+00  0.1133E+02
      0.993  0.0000E+00  0.1133E+02
      1.103  0.2321E-15  0.1133E+02
      1.212  0.1923E-06  0.1133E+02
      1.322  0.2053E-01  0.1134E+02
      1.432  0.1275E+01  0.1148E+02
      1.541  0.3161E+01  0.1182E+02
      1.651  0.1546E+01  0.1199E+02
      1.760  0.7879E-01  0.1200E+02
      1.870  0.1252E-01  0.1200E+02
      1.980  0.9968E+00  0.1211E+02
      2.089  0.3117E+01  0.1245E+02
      2.199  0.8206E+01  0.1335E+02
      2.308  0.6186E+01  0.1403E+02
      2.418  0.9565E+01  0.1508E+02
      2.528  0.8502E+01  0.1601E+02
      2.637  0.5457E+01  0.1661E+02
      2.747  0.4581E+01  0.1711E+02
      2.857  0.6778E+01  0.1785E+02
      2.966  0.3084E+01  0.1819E+02
      3.076  0.2229E+01  0.1844E+02
      3.185  0.3777E+01  0.1885E+02
      3.295  0.7053E+01  0.1962E+02
      3.405  0.2816E+01  0.1993E+02
      3.514  0.3873E+01  0.2036E+02
      3.624  0.6563E+01  0.2108E+02
      3.734  0.8107E+01  0.2197E+02
      3.843  0.4384E+01  0.2245E+02
      3.953  0.6263E+01  0.2313E+02
      4.062  0.7070E+01  0.2391E+02
      4.172  0.7981E+01  0.2478E+02
      4.282  0.7843E+01  0.2564E+02
      4.391  0.1054E+02  0.2680E+02
      4.501  0.1250E+02  0.2817E+02
      4.611  0.1166E+02  0.2945E+02
      4.720  0.1462E+02  0.3105E+02
      4.830  0.7582E+01  0.3188E+02
      4.939  0.1248E+02  0.3325E+02
      5.049  0.2006E+02  0.3545E+02
      5.159  0.1710E+02  0.3732E+02
      5.268  0.1281E+02  0.3873E+02
      5.378  0.1119E+02  0.3995E+02
      5.488  0.1652E+02  0.4176E+02
      5.597  0.1263E+02  0.4315E+02
      5.707  0.1594E+02  0.4489E+02
      5.816  0.1448E+02  0.4648E+02
      5.926  0.1241E+02  0.4784E+02
      6.036  0.1610E+02  0.4961E+02
      6.145  0.1252E+02  0.5098E+02
      6.255  0.9604E+01  0.5203E+02
      6.365  0.1435E+02  0.5361E+02
      6.474  0.1379E+02  0.5512E+02
      6.584  0.1382E+02  0.5663E+02
      6.693  0.1063E+02  0.5780E+02
      6.803  0.1423E+02  0.5936E+02
      6.913  0.1804E+02  0.6133E+02
      7.022  0.1182E+02  0.6263E+02
      7.132  0.7600E+01  0.6346E+02
      7.242  0.1123E+02  0.6470E+02
      7.351  0.1187E+02  0.6600E+02
      7.461  0.1058E+02  0.6716E+02
      7.570  0.1301E+02  0.6858E+02
      7.680  0.6292E+01  0.6927E+02
      7.790  0.8662E+01  0.7022E+02
      7.899  0.1501E+02  0.7187E+02
      8.009  0.1009E+02  0.7297E+02
      8.119  0.5013E+01  0.7352E+02
      8.228  0.6034E+01  0.7418E+02
      8.338  0.4850E+01  0.7472E+02
      8.447  0.9047E+01  0.7571E+02
      8.557  0.5149E+01  0.7627E+02
      8.667  0.8125E+01  0.7716E+02
      8.776  0.1115E+02  0.7839E+02
      8.886  0.8012E+01  0.7926E+02
      8.996  0.5472E+01  0.7986E+02
      9.105  0.7104E+01  0.8064E+02
      9.215  0.1248E+02  0.8201E+02
      9.324  0.5300E+01  0.8259E+02
      9.434  0.5272E+01  0.8317E+02
      9.544  0.7989E+01  0.8405E+02
      9.653  0.7343E+01  0.8485E+02
      9.763  0.1001E+02  0.8595E+02
      9.873  0.1500E+02  0.8759E+02
      9.982  0.1391E+02  0.8912E+02
     10.092  0.1315E+02  0.9056E+02
     10.201  0.1242E+02  0.9192E+02
     10.311  0.9431E+01  0.9295E+02
     10.421  0.9207E+01  0.9396E+02
     10.530  0.1180E+02  0.9526E+02
     10.640  0.1175E+02  0.9655E+02
     10.750  0.9409E+01  0.9758E+02
     10.859  0.1087E+02  0.9877E+02
     10.969  0.5463E+01  0.9937E+02
     11.078  0.9429E+01  0.1004E+03
     11.188  0.7352E+01  0.1012E+03
     11.298  0.8246E+01  0.1021E+03
     11.407  0.7120E+01  0.1029E+03
     11.517  0.1023E+02  0.1040E+03
     11.627  0.8061E+01  0.1049E+03
     11.736  0.7924E+01  0.1058E+03
     11.846  0.1097E+02  0.1070E+03
     11.955  0.1519E+02  0.1086E+03
     12.065  0.1246E+02  0.1100E+03
     12.175  0.1426E+02  0.1116E+03
     12.284  0.1742E+02  0.1135E+03
     12.394  0.1649E+02  0.1153E+03
     12.504  0.1139E+02  0.1165E+03
     12.613  0.1182E+02  0.1178E+03
     12.723  0.1307E+02  0.1193E+03
     12.832  0.1349E+02  0.1207E+03
     12.942  0.1069E+02  0.1219E+03
     13.052  0.1054E+02  0.1231E+03
     13.161  0.9734E+01  0.1241E+03
     13.271  0.8814E+01  0.1251E+03
     13.381  0.1162E+02  0.1264E+03
     13.490  0.1256E+02  0.1278E+03
     13.600  0.1483E+02  0.1294E+03
     13.709  0.8141E+01  0.1303E+03
     13.819  0.8216E+01  0.1312E+03
     13.929  0.7469E+01  0.1320E+03
     14.038  0.9608E+01  0.1330E+03
     14.148  0.9410E+01  0.1341E+03
     14.258  0.8965E+01  0.1351E+03
     14.367  0.1054E+02  0.1362E+03
     14.477  0.1096E+02  0.1374E+03
     14.586  0.9380E+01  0.1384E+03
     14.696  0.4979E+01  0.1390E+03
     14.806  0.6468E+01  0.1397E+03
     14.915  0.5011E+01  0.1402E+03
     15.025  0.6489E+01  0.1410E+03
     15.135  0.8707E+01  0.1419E+03
     15.244  0.1585E+02  0.1436E+03
     15.354  0.1061E+02  0.1448E+03
     15.463  0.6370E+01  0.1455E+03
     15.573  0.9057E+01  0.1465E+03
     15.683  0.6444E+01  0.1472E+03
     15.792  0.8842E+01  0.1482E+03
     15.902  0.1028E+02  0.1493E+03
     16.012  0.6258E+01  0.1500E+03
     16.121  0.9105E+01  0.1510E+03
     16.231  0.8403E+01  0.1519E+03
     16.340  0.8323E+01  0.1528E+03
     16.450  0.5927E+01  0.1535E+03
     16.560  0.7504E+01  0.1543E+03
     16.669  0.8803E+01  0.1553E+03
     16.779  0.6906E+01  0.1560E+03
     16.889  0.7257E+01  0.1568E+03
     16.998  0.6149E+01  0.1575E+03
     17.108  0.5877E+01  0.1581E+03
     17.217  0.6196E+01  0.1588E+03
     17.327  0.5890E+01  0.1595E+03
     17.437  0.7994E+01  0.1603E+03
     17.546  0.9653E+01  0.1614E+03
     17.656  0.8199E+01  0.1623E+03
     17.766  0.8092E+01  0.1632E+03
     17.875  0.9793E+01  0.1642E+03
     17.985  0.7404E+01  0.1651E+03
     18.094  0.8129E+01  0.1660E+03
     18.204  0.1208E+02  0.1673E+03
     18.314  0.7310E+01  0.1681E+03
     18.423  0.5620E+01  0.1687E+03
     18.533  0.6112E+01  0.1694E+03
     18.643  0.9711E+01  0.1704E+03
     18.752  0.8521E+01  0.1714E+03
     18.862  0.1008E+02  0.1725E+03
     18.971  0.8642E+01  0.1734E+03
     19.081  0.1035E+02  0.1745E+03
     19.191  0.1245E+02  0.1759E+03
     19.300  0.7714E+01  0.1768E+03
     19.410  0.6624E+01  0.1775E+03
     19.519  0.6474E+01  0.1782E+03
     19.629  0.1049E+02  0.1793E+03
     19.739  0.8220E+01  0.1802E+03
     19.848  0.9375E+01  0.1813E+03
     19.958  0.5488E+01  0.1819E+03
     20.068  0.8755E+01  0.1828E+03
     20.177  0.1076E+02  0.1840E+03
     20.287  0.9144E+01  0.1850E+03
     20.396  0.5275E+01  0.1856E+03
     20.506  0.8278E+01  0.1865E+03
     20.616  0.1024E+02  0.1876E+03
     20.725  0.8922E+01  0.1886E+03
     20.835  0.1060E+02  0.1898E+03
     20.945  0.7529E+01  0.1906E+03
     21.054  0.8294E+01  0.1915E+03
     21.164  0.4371E+01  0.1920E+03
     21.273  0.6423E+01  0.1927E+03
     21.383  0.9213E+01  0.1937E+03
     21.493  0.7638E+01  0.1945E+03
     21.602  0.8086E+01  0.1954E+03
     21.712  0.7686E+01  0.1963E+03
     21.822  0.5247E+01  0.1968E+03
     21.931  0.6619E+01  0.1976E+03
     22.041  0.1068E+02  0.1987E+03
     22.150  0.8314E+01  0.1996E+03
     22.260  0.7506E+01  0.2005E+03
     22.370  0.8345E+01  0.2014E+03
     22.479  0.7358E+01  0.2022E+03
     22.589  0.5233E+01  0.2028E+03
     22.699  0.6166E+01  0.2034E+03
     22.808  0.5170E+01  0.2040E+03
     22.918  0.8608E+01  0.2049E+03
     23.027  0.6975E+01  0.2057E+03
     23.137  0.6063E+01  0.2064E+03
     23.247  0.4839E+01  0.2069E+03
     23.356  0.5984E+01  0.2076E+03
     23.466  0.5359E+01  0.2082E+03
     23.576  0.9096E+01  0.2091E+03
     23.685  0.7707E+01  0.2100E+03
     23.795  0.1084E+02  0.2112E+03
     23.904  0.1040E+02  0.2123E+03
     24.014  0.7220E+01  0.2131E+03
     24.124  0.7747E+01  0.2140E+03
     24.233  0.1019E+02  0.2151E+03
     24.343  0.6101E+01  0.2157E+03
     24.453  0.7339E+01  0.2166E+03
     24.562  0.7418E+01  0.2174E+03
     24.672  0.4200E+01  0.2178E+03
     24.781  0.6554E+01  0.2185E+03
     24.891  0.8035E+01  0.2194E+03
     25.001  0.6936E+01  0.2202E+03
     25.110  0.7047E+01  0.2210E+03
     25.220  0.8956E+01  0.2219E+03
     25.330  0.6818E+01  0.2227E+03
     25.439  0.1059E+02  0.2238E+03
     25.549  0.1018E+02  0.2250E+03
     25.658  0.9600E+01  0.2260E+03
     25.768  0.6335E+01  0.2267E+03
     25.878  0.9211E+01  0.2277E+03
     25.987  0.9618E+01  0.2288E+03
     26.097  0.7430E+01  0.2296E+03
     26.207  0.6503E+01  0.2303E+03
     26.316  0.3915E+01  0.2307E+03
     26.426  0.6309E+01  0.2314E+03
     26.535  0.3384E+01  0.2318E+03
     26.645  0.1250E+01  0.2319E+03
     26.755  0.6170E+00  0.2320E+03
     26.864  0.1272E-01  0.2320E+03
     26.974  0.8007E-07  0.2320E+03
     27.084  0.4220E-16  0.2320E+03
     27.193  0.0000E+00  0.2320E+03
     27.303  0.0000E+00  0.2320E+03
     27.412  0.0000E+00  0.2320E+03
     27.522  0.0000E+00  0.2320E+03
     27.632  0.0000E+00  0.2320E+03
     27.741  0.0000E+00  0.2320E+03
     27.851  0.0000E+00  0.2320E+03
     27.961  0.0000E+00  0.2320E+03
     28.070  0.0000E+00  0.2320E+03
     28.180  0.0000E+00  0.2320E+03
