       N       E                     dE             d eps       ncg     rms          rms(c)
DAV:   1     0.303082662437E+03    0.30308E+03   -0.36435E+04 22272   0.730E+02
DAV:   2    -0.150908627376E+03   -0.45399E+03   -0.40551E+03 24728   0.192E+02
DAV:   3    -0.174675409546E+03   -0.23767E+02   -0.22872E+02 27200   0.378E+01
DAV:   4    -0.174929250443E+03   -0.25384E+00   -0.25311E+00 25816   0.420E+00
DAV:   5    -0.174931468235E+03   -0.22178E-02   -0.22174E-02 26288   0.404E-01    0.723E+01
DAV:   6    -0.166834539627E+03    0.80969E+01   -0.47159E+00 29412   0.719E+00    0.298E+01
DAV:   7    -0.165857515856E+03    0.97702E+00   -0.26182E+00 30296   0.466E+00    0.948E+00
DAV:   8    -0.165508790286E+03    0.34873E+00   -0.71869E-01 29964   0.327E+00    0.510E+00
DAV:   9    -0.165439603992E+03    0.69186E-01   -0.11716E-01 28232   0.109E+00    0.143E+00
DAV:  10    -0.165436248382E+03    0.33556E-02   -0.19045E-02 26528   0.399E-01    0.609E-01
DAV:  11    -0.165436061043E+03    0.18734E-03   -0.13961E-03 25496   0.871E-02    0.317E-01
DAV:  12    -0.165436102784E+03   -0.41741E-04   -0.42174E-04 30488   0.740E-02    0.982E-02
DAV:  13    -0.165436007565E+03    0.95219E-04   -0.11390E-04 30264   0.472E-02    0.211E-02
DAV:  14    -0.165436000425E+03    0.71403E-05   -0.18444E-05 25660   0.132E-02    0.183E-02
DAV:  15    -0.165435999112E+03    0.13134E-05   -0.14369E-06 16672   0.334E-03    0.149E-02
DAV:  16    -0.165435997065E+03    0.20468E-05   -0.26878E-07 13864   0.160E-03    0.438E-03
DAV:  17    -0.165435996887E+03    0.17737E-06   -0.87498E-08 12856   0.103E-03
   1 F= -.16543600E+03 E0= -.16543019E+03  d E =-.116122E-01
