unknown system                          
           1
     4.642104   -0.000138    1.692172
     2.320802    6.809993    0.846212
    -0.011609    0.000135    7.244205
   Si   W 
     6    10
Direct configuration=     1
   0.75000051  0.00008919  0.99990799
   0.25000141  0.99990607  0.00009377
   0.83232024  0.49996137  0.83545202
   0.66767906  0.16454933  0.50004242
   0.33232173  0.83545126  0.49995783
   0.16767516  0.50004480  0.16455153
   0.42368952  0.29934414  0.85246356
   0.57630257  0.70066353  0.14754387
   0.24999854  0.50007197  0.49992091
   0.75000126  0.49991524  0.50007028
   0.72372923  0.85232555  0.70062188
   0.27627221  0.14766940  0.29937520
   0.92369671  0.85245681  0.29933748
   0.22372687  0.70062575  0.85233087
   0.77626996  0.29938169  0.14767313
   0.07631302  0.14754189  0.70065726
