Hf1 Mo1                                 
   1.00000000000000     
     1.6712030000000000   -2.4724670000000000    0.0000000000000000
     1.6712039999999999    2.4724670000000000    0.0000000000000000
     0.0000000000000000    0.0000000000000000    4.4470109999999998
   Hf   Mo
     1     1
Direct
     0.0000000000000000    0.0000000000000000    0.0000000000000000
     0.5000000000000000    0.5000000000000000    0.5000000000000000
 
  0.00000000E+00  0.00000000E+00  0.00000000E+00
  0.00000000E+00  0.00000000E+00  0.00000000E+00
