       N       E                     dE             d eps       ncg     rms          rms(c)
DAV:   1     0.813653897318E+02    0.81365E+02   -0.79684E+03 17828   0.186E+03
DAV:   2     0.173022878768E+01   -0.79635E+02   -0.77501E+02 18152   0.360E+02
DAV:   3    -0.368071043315E+01   -0.54109E+01   -0.53816E+01 20360   0.781E+01
DAV:   4    -0.379650909623E+01   -0.11580E+00   -0.11576E+00 21048   0.123E+01
DAV:   5    -0.380067879454E+01   -0.41697E-02   -0.41696E-02 22776   0.225E+00    0.118E+00
DAV:   6    -0.379284479495E+01    0.78340E-02   -0.96247E-03 22096   0.169E+00    0.655E-01
DAV:   7    -0.379032229280E+01    0.25225E-02   -0.63984E-03 21820   0.133E+00    0.858E-02
DAV:   8    -0.379023064316E+01    0.91650E-04   -0.62115E-04 20980   0.446E-01    0.212E-02
DAV:   9    -0.379023019398E+01    0.44918E-06   -0.11680E-05 22968   0.466E-02    0.143E-02
DAV:  10    -0.379023079198E+01   -0.59801E-06   -0.26636E-06 20868   0.227E-02
   1 F= -.37902308E+01 E0= -.37899378E+01  d E =-.586053E-03
