   1   1   0   0
  0.1378278E+02  0.2691228E-09  0.2691229E-09  0.2691229E-09  0.5000000E-15
  1.000000000000000E-004
  CAR 
 unknown system                          
     36.73196835    -38.69256856  301     11.89401950      1.00000000
    -38.693  0.0000E+00  0.0000E+00
    -38.441  0.0000E+00  0.0000E+00
    -38.190  0.0000E+00  0.0000E+00
    -37.938  0.0000E+00  0.0000E+00
    -37.687  0.0000E+00  0.0000E+00
    -37.435  0.0000E+00  0.0000E+00
    -37.184  0.0000E+00  0.0000E+00
    -36.933  0.0000E+00  0.0000E+00
    -36.681  0.0000E+00  0.0000E+00
    -36.430  0.0000E+00  0.0000E+00
    -36.178  0.0000E+00  0.0000E+00
    -35.927  0.0000E+00  0.0000E+00
    -35.676  0.0000E+00  0.0000E+00
    -35.424  0.7557E-07  0.1900E-07
    -35.173  0.1312E+01  0.3299E+00
    -34.921  0.6804E+01  0.2041E+01
    -34.670  0.1083E+02  0.4764E+01
    -34.419  0.4915E+01  0.6000E+01
    -34.167  0.2631E-04  0.6000E+01
    -33.916  0.0000E+00  0.6000E+01
    -33.664  0.0000E+00  0.6000E+01
    -33.413  0.0000E+00  0.6000E+01
    -33.161  0.0000E+00  0.6000E+01
    -32.910  0.0000E+00  0.6000E+01
    -32.659  0.0000E+00  0.6000E+01
    -32.407  0.0000E+00  0.6000E+01
    -32.156  0.0000E+00  0.6000E+01
    -31.904  0.0000E+00  0.6000E+01
    -31.653  0.0000E+00  0.6000E+01
    -31.402  0.0000E+00  0.6000E+01
    -31.150  0.0000E+00  0.6000E+01
    -30.899  0.0000E+00  0.6000E+01
    -30.647  0.0000E+00  0.6000E+01
    -30.396  0.0000E+00  0.6000E+01
    -30.144  0.0000E+00  0.6000E+01
    -29.893  0.0000E+00  0.6000E+01
    -29.642  0.0000E+00  0.6000E+01
    -29.390  0.0000E+00  0.6000E+01
    -29.139  0.0000E+00  0.6000E+01
    -28.887  0.0000E+00  0.6000E+01
    -28.636  0.0000E+00  0.6000E+01
    -28.385  0.0000E+00  0.6000E+01
    -28.133  0.0000E+00  0.6000E+01
    -27.882  0.0000E+00  0.6000E+01
    -27.630  0.0000E+00  0.6000E+01
    -27.379  0.0000E+00  0.6000E+01
    -27.127  0.0000E+00  0.6000E+01
    -26.876  0.0000E+00  0.6000E+01
    -26.625  0.0000E+00  0.6000E+01
    -26.373  0.0000E+00  0.6000E+01
    -26.122  0.0000E+00  0.6000E+01
    -25.870  0.0000E+00  0.6000E+01
    -25.619  0.0000E+00  0.6000E+01
    -25.368  0.0000E+00  0.6000E+01
    -25.116  0.0000E+00  0.6000E+01
    -24.865  0.0000E+00  0.6000E+01
    -24.613  0.0000E+00  0.6000E+01
    -24.362  0.0000E+00  0.6000E+01
    -24.110  0.0000E+00  0.6000E+01
    -23.859  0.0000E+00  0.6000E+01
    -23.608  0.0000E+00  0.6000E+01
    -23.356  0.0000E+00  0.6000E+01
    -23.105  0.0000E+00  0.6000E+01
    -22.853  0.0000E+00  0.6000E+01
    -22.602  0.0000E+00  0.6000E+01
    -22.351  0.0000E+00  0.6000E+01
    -22.099  0.0000E+00  0.6000E+01
    -21.848  0.0000E+00  0.6000E+01
    -21.596  0.0000E+00  0.6000E+01
    -21.345  0.0000E+00  0.6000E+01
    -21.094  0.0000E+00  0.6000E+01
    -20.842  0.0000E+00  0.6000E+01
    -20.591  0.0000E+00  0.6000E+01
    -20.339  0.0000E+00  0.6000E+01
    -20.088  0.0000E+00  0.6000E+01
    -19.836  0.0000E+00  0.6000E+01
    -19.585  0.0000E+00  0.6000E+01
    -19.334  0.0000E+00  0.6000E+01
    -19.082  0.0000E+00  0.6000E+01
    -18.831  0.0000E+00  0.6000E+01
    -18.579  0.0000E+00  0.6000E+01
    -18.328  0.0000E+00  0.6000E+01
    -18.077  0.0000E+00  0.6000E+01
    -17.825  0.0000E+00  0.6000E+01
    -17.574  0.0000E+00  0.6000E+01
    -17.322  0.0000E+00  0.6000E+01
    -17.071  0.0000E+00  0.6000E+01
    -16.819  0.0000E+00  0.6000E+01
    -16.568  0.0000E+00  0.6000E+01
    -16.317  0.0000E+00  0.6000E+01
    -16.065  0.0000E+00  0.6000E+01
    -15.814  0.0000E+00  0.6000E+01
    -15.562  0.0000E+00  0.6000E+01
    -15.311  0.0000E+00  0.6000E+01
    -15.060  0.0000E+00  0.6000E+01
    -14.808  0.0000E+00  0.6000E+01
    -14.557  0.0000E+00  0.6000E+01
    -14.305  0.0000E+00  0.6000E+01
    -14.054  0.0000E+00  0.6000E+01
    -13.802  0.0000E+00  0.6000E+01
    -13.551  0.0000E+00  0.6000E+01
    -13.300  0.0000E+00  0.6000E+01
    -13.048  0.0000E+00  0.6000E+01
    -12.797  0.0000E+00  0.6000E+01
    -12.545  0.0000E+00  0.6000E+01
    -12.294  0.0000E+00  0.6000E+01
    -12.043  0.0000E+00  0.6000E+01
    -11.791  0.0000E+00  0.6000E+01
    -11.540  0.0000E+00  0.6000E+01
    -11.288  0.0000E+00  0.6000E+01
    -11.037  0.0000E+00  0.6000E+01
    -10.785  0.0000E+00  0.6000E+01
    -10.534  0.0000E+00  0.6000E+01
    -10.283  0.0000E+00  0.6000E+01
    -10.031  0.0000E+00  0.6000E+01
     -9.780  0.0000E+00  0.6000E+01
     -9.528  0.0000E+00  0.6000E+01
     -9.277  0.0000E+00  0.6000E+01
     -9.026  0.0000E+00  0.6000E+01
     -8.774  0.0000E+00  0.6000E+01
     -8.523  0.0000E+00  0.6000E+01
     -8.271  0.0000E+00  0.6000E+01
     -8.020  0.0000E+00  0.6000E+01
     -7.769  0.0000E+00  0.6000E+01
     -7.517  0.0000E+00  0.6000E+01
     -7.266  0.0000E+00  0.6000E+01
     -7.014  0.0000E+00  0.6000E+01
     -6.763  0.0000E+00  0.6000E+01
     -6.511  0.0000E+00  0.6000E+01
     -6.260  0.0000E+00  0.6000E+01
     -6.009  0.0000E+00  0.6000E+01
     -5.757  0.0000E+00  0.6000E+01
     -5.506  0.0000E+00  0.6000E+01
     -5.254  0.0000E+00  0.6000E+01
     -5.003  0.0000E+00  0.6000E+01
     -4.752  0.0000E+00  0.6000E+01
     -4.500  0.0000E+00  0.6000E+01
     -4.249  0.0000E+00  0.6000E+01
     -3.997  0.0000E+00  0.6000E+01
     -3.746  0.0000E+00  0.6000E+01
     -3.494  0.0000E+00  0.6000E+01
     -3.243  0.0000E+00  0.6000E+01
     -2.992  0.0000E+00  0.6000E+01
     -2.740  0.0000E+00  0.6000E+01
     -2.489  0.0000E+00  0.6000E+01
     -2.237  0.0000E+00  0.6000E+01
     -1.986  0.0000E+00  0.6000E+01
     -1.735  0.0000E+00  0.6000E+01
     -1.483  0.0000E+00  0.6000E+01
     -1.232  0.0000E+00  0.6000E+01
     -0.980  0.0000E+00  0.6000E+01
     -0.729  0.0000E+00  0.6000E+01
     -0.477  0.0000E+00  0.6000E+01
     -0.226  0.0000E+00  0.6000E+01
      0.025  0.0000E+00  0.6000E+01
      0.277  0.0000E+00  0.6000E+01
      0.528  0.0000E+00  0.6000E+01
      0.780  0.0000E+00  0.6000E+01
      1.031  0.0000E+00  0.6000E+01
      1.282  0.0000E+00  0.6000E+01
      1.534  0.0000E+00  0.6000E+01
      1.785  0.0000E+00  0.6000E+01
      2.037  0.0000E+00  0.6000E+01
      2.288  0.0000E+00  0.6000E+01
      2.540  0.0000E+00  0.6000E+01
      2.791  0.0000E+00  0.6000E+01
      3.042  0.0000E+00  0.6000E+01
      3.294  0.0000E+00  0.6000E+01
      3.545  0.0000E+00  0.6000E+01
      3.797  0.1415E-05  0.6000E+01
      4.048  0.4602E-02  0.6001E+01
      4.299  0.5455E-01  0.6015E+01
      4.551  0.1055E-01  0.6018E+01
      4.802  0.5644E-01  0.6032E+01
      5.054  0.1455E+00  0.6068E+01
      5.305  0.2333E-01  0.6074E+01
      5.556  0.1823E+00  0.6120E+01
      5.808  0.3940E+00  0.6219E+01
      6.059  0.7505E+00  0.6408E+01
      6.311  0.1220E+01  0.6714E+01
      6.562  0.2381E+01  0.7313E+01
      6.814  0.1753E+01  0.7754E+01
      7.065  0.1337E+01  0.8090E+01
      7.316  0.1598E+01  0.8491E+01
      7.568  0.1164E+01  0.8784E+01
      7.819  0.1292E+01  0.9109E+01
      8.071  0.1086E+01  0.9382E+01
      8.322  0.1590E+01  0.9782E+01
      8.573  0.1133E+01  0.1007E+02
      8.825  0.1947E+01  0.1056E+02
      9.076  0.1813E+01  0.1101E+02
      9.328  0.2482E+01  0.1164E+02
      9.579  0.1419E+01  0.1199E+02
      9.831  0.1420E+01  0.1235E+02
     10.082  0.1241E+01  0.1266E+02
     10.333  0.1004E+01  0.1291E+02
     10.585  0.1826E+01  0.1337E+02
     10.836  0.1669E+01  0.1379E+02
     11.088  0.1069E+01  0.1406E+02
     11.339  0.1058E+01  0.1433E+02
     11.590  0.1838E+01  0.1479E+02
     11.842  0.6899E+00  0.1496E+02
     12.093  0.1843E+01  0.1543E+02
     12.345  0.1786E+01  0.1587E+02
     12.596  0.1550E+01  0.1626E+02
     12.848  0.7507E+00  0.1645E+02
     13.099  0.1828E+00  0.1650E+02
     13.350  0.6546E+00  0.1666E+02
     13.602  0.2265E+00  0.1672E+02
     13.853  0.2473E+00  0.1678E+02
     14.105  0.1885E+00  0.1683E+02
     14.356  0.2605E-01  0.1684E+02
     14.607  0.1320E+00  0.1687E+02
     14.859  0.2182E+00  0.1692E+02
     15.110  0.3694E+00  0.1702E+02
     15.362  0.4078E+00  0.1712E+02
     15.613  0.3611E+00  0.1721E+02
     15.865  0.1276E+00  0.1724E+02
     16.116  0.1211E+00  0.1727E+02
     16.367  0.2101E+00  0.1733E+02
     16.619  0.1591E+00  0.1737E+02
     16.870  0.3380E+00  0.1745E+02
     17.122  0.2706E+00  0.1752E+02
     17.373  0.1814E+00  0.1757E+02
     17.624  0.1597E+00  0.1761E+02
     17.876  0.3495E+00  0.1769E+02
     18.127  0.1989E+00  0.1774E+02
     18.379  0.7150E-04  0.1774E+02
     18.630  0.7719E-01  0.1776E+02
     18.881  0.1999E+00  0.1781E+02
     19.133  0.2699E+00  0.1788E+02
     19.384  0.1158E+00  0.1791E+02
     19.636  0.8713E-05  0.1791E+02
     19.887  0.2538E+00  0.1797E+02
     20.139  0.7771E-01  0.1799E+02
     20.390  0.2650E+00  0.1806E+02
     20.641  0.5382E+00  0.1819E+02
     20.893  0.2101E+00  0.1825E+02
     21.144  0.4403E+00  0.1836E+02
     21.396  0.3661E+00  0.1845E+02
     21.647  0.3548E+00  0.1854E+02
     21.898  0.4067E+00  0.1864E+02
     22.150  0.3680E-01  0.1865E+02
     22.401  0.1021E+00  0.1868E+02
     22.653  0.4719E+00  0.1880E+02
     22.904  0.4075E+00  0.1890E+02
     23.156  0.2584E+00  0.1896E+02
     23.407  0.1046E+00  0.1899E+02
     23.658  0.2614E+00  0.1906E+02
     23.910  0.4074E+00  0.1916E+02
     24.161  0.5410E+00  0.1929E+02
     24.413  0.7041E+00  0.1947E+02
     24.664  0.6319E+00  0.1963E+02
     24.915  0.5285E+00  0.1976E+02
     25.167  0.1785E+00  0.1981E+02
     25.418  0.2959E+00  0.1988E+02
     25.670  0.4391E+00  0.1999E+02
     25.921  0.1066E+01  0.2026E+02
     26.173  0.7094E+00  0.2044E+02
     26.424  0.2974E+00  0.2051E+02
     26.675  0.3759E+00  0.2061E+02
     26.927  0.2989E+00  0.2068E+02
     27.178  0.7362E+00  0.2087E+02
     27.430  0.9563E+00  0.2111E+02
     27.681  0.4149E+00  0.2121E+02
     27.932  0.9750E+00  0.2146E+02
     28.184  0.4387E+00  0.2157E+02
     28.435  0.9420E+00  0.2180E+02
     28.687  0.8059E+00  0.2201E+02
     28.938  0.5433E+00  0.2214E+02
     29.190  0.9414E+00  0.2238E+02
     29.441  0.5277E+00  0.2251E+02
     29.692  0.8539E+00  0.2273E+02
     29.944  0.4768E+00  0.2285E+02
     30.195  0.3375E+00  0.2293E+02
     30.447  0.3294E+00  0.2302E+02
     30.698  0.3458E+00  0.2310E+02
     30.949  0.6143E+00  0.2326E+02
     31.201  0.2977E+00  0.2333E+02
     31.452  0.2662E+00  0.2340E+02
     31.704  0.4052E+00  0.2350E+02
     31.955  0.1411E+00  0.2354E+02
     32.206  0.2077E+00  0.2359E+02
     32.458  0.1629E+01  0.2400E+02
     32.709  0.4462E-02  0.2400E+02
     32.961  0.0000E+00  0.2400E+02
     33.212  0.2236E-04  0.2400E+02
     33.464  0.4581E-02  0.2400E+02
     33.715  0.0000E+00  0.2400E+02
     33.966  0.0000E+00  0.2400E+02
     34.218  0.0000E+00  0.2400E+02
     34.469  0.0000E+00  0.2400E+02
     34.721  0.0000E+00  0.2400E+02
     34.972  0.0000E+00  0.2400E+02
     35.223  0.0000E+00  0.2400E+02
     35.475  0.0000E+00  0.2400E+02
     35.726  0.0000E+00  0.2400E+02
     35.978  0.0000E+00  0.2400E+02
     36.229  0.0000E+00  0.2400E+02
     36.481  0.0000E+00  0.2400E+02
     36.732  0.0000E+00  0.2400E+02
