  14  14   0   0
  0.2926219E+02  0.1174423E-08  0.9525367E-09  0.8090232E-09  0.5000000E-15
  1.000000000000000E-004
  CAR 
 unknown system                          
      9.10278260    -34.18174152  301      3.06098444      1.00000000
    -34.182  0.0000E+00  0.0000E+00
    -34.037  0.0000E+00  0.0000E+00
    -33.893  0.0000E+00  0.0000E+00
    -33.749  0.0000E+00  0.0000E+00
    -33.605  0.0000E+00  0.0000E+00
    -33.460  0.0000E+00  0.0000E+00
    -33.316  0.0000E+00  0.0000E+00
    -33.172  0.0000E+00  0.0000E+00
    -33.027  0.0000E+00  0.0000E+00
    -32.883  0.0000E+00  0.0000E+00
    -32.739  0.0000E+00  0.0000E+00
    -32.595  0.0000E+00  0.0000E+00
    -32.450  0.2178E-09  0.3142E-10
    -32.306  0.1078E+00  0.1555E-01
    -32.162  0.4501E+02  0.6510E+01
    -32.018  0.3790E+02  0.1198E+02
    -31.873  0.1499E+00  0.1200E+02
    -31.729  0.1177E-08  0.1200E+02
    -31.585  0.0000E+00  0.1200E+02
    -31.440  0.0000E+00  0.1200E+02
    -31.296  0.0000E+00  0.1200E+02
    -31.152  0.0000E+00  0.1200E+02
    -31.008  0.0000E+00  0.1200E+02
    -30.863  0.0000E+00  0.1200E+02
    -30.719  0.0000E+00  0.1200E+02
    -30.575  0.0000E+00  0.1200E+02
    -30.430  0.0000E+00  0.1200E+02
    -30.286  0.0000E+00  0.1200E+02
    -30.142  0.0000E+00  0.1200E+02
    -29.998  0.0000E+00  0.1200E+02
    -29.853  0.0000E+00  0.1200E+02
    -29.709  0.0000E+00  0.1200E+02
    -29.565  0.0000E+00  0.1200E+02
    -29.420  0.0000E+00  0.1200E+02
    -29.276  0.0000E+00  0.1200E+02
    -29.132  0.0000E+00  0.1200E+02
    -28.988  0.0000E+00  0.1200E+02
    -28.843  0.0000E+00  0.1200E+02
    -28.699  0.0000E+00  0.1200E+02
    -28.555  0.0000E+00  0.1200E+02
    -28.410  0.0000E+00  0.1200E+02
    -28.266  0.0000E+00  0.1200E+02
    -28.122  0.0000E+00  0.1200E+02
    -27.978  0.0000E+00  0.1200E+02
    -27.833  0.0000E+00  0.1200E+02
    -27.689  0.0000E+00  0.1200E+02
    -27.545  0.0000E+00  0.1200E+02
    -27.400  0.0000E+00  0.1200E+02
    -27.256  0.0000E+00  0.1200E+02
    -27.112  0.0000E+00  0.1200E+02
    -26.968  0.0000E+00  0.1200E+02
    -26.823  0.0000E+00  0.1200E+02
    -26.679  0.0000E+00  0.1200E+02
    -26.535  0.0000E+00  0.1200E+02
    -26.391  0.0000E+00  0.1200E+02
    -26.246  0.0000E+00  0.1200E+02
    -26.102  0.0000E+00  0.1200E+02
    -25.958  0.0000E+00  0.1200E+02
    -25.813  0.0000E+00  0.1200E+02
    -25.669  0.0000E+00  0.1200E+02
    -25.525  0.0000E+00  0.1200E+02
    -25.381  0.0000E+00  0.1200E+02
    -25.236  0.0000E+00  0.1200E+02
    -25.092  0.0000E+00  0.1200E+02
    -24.948  0.0000E+00  0.1200E+02
    -24.803  0.0000E+00  0.1200E+02
    -24.659  0.0000E+00  0.1200E+02
    -24.515  0.0000E+00  0.1200E+02
    -24.371  0.0000E+00  0.1200E+02
    -24.226  0.0000E+00  0.1200E+02
    -24.082  0.0000E+00  0.1200E+02
    -23.938  0.0000E+00  0.1200E+02
    -23.793  0.0000E+00  0.1200E+02
    -23.649  0.0000E+00  0.1200E+02
    -23.505  0.0000E+00  0.1200E+02
    -23.361  0.0000E+00  0.1200E+02
    -23.216  0.0000E+00  0.1200E+02
    -23.072  0.0000E+00  0.1200E+02
    -22.928  0.0000E+00  0.1200E+02
    -22.783  0.0000E+00  0.1200E+02
    -22.639  0.0000E+00  0.1200E+02
    -22.495  0.0000E+00  0.1200E+02
    -22.351  0.0000E+00  0.1200E+02
    -22.206  0.0000E+00  0.1200E+02
    -22.062  0.0000E+00  0.1200E+02
    -21.918  0.0000E+00  0.1200E+02
    -21.774  0.0000E+00  0.1200E+02
    -21.629  0.0000E+00  0.1200E+02
    -21.485  0.0000E+00  0.1200E+02
    -21.341  0.0000E+00  0.1200E+02
    -21.196  0.0000E+00  0.1200E+02
    -21.052  0.0000E+00  0.1200E+02
    -20.908  0.0000E+00  0.1200E+02
    -20.764  0.0000E+00  0.1200E+02
    -20.619  0.0000E+00  0.1200E+02
    -20.475  0.0000E+00  0.1200E+02
    -20.331  0.0000E+00  0.1200E+02
    -20.186  0.0000E+00  0.1200E+02
    -20.042  0.0000E+00  0.1200E+02
    -19.898  0.0000E+00  0.1200E+02
    -19.754  0.0000E+00  0.1200E+02
    -19.609  0.0000E+00  0.1200E+02
    -19.465  0.0000E+00  0.1200E+02
    -19.321  0.0000E+00  0.1200E+02
    -19.176  0.0000E+00  0.1200E+02
    -19.032  0.0000E+00  0.1200E+02
    -18.888  0.0000E+00  0.1200E+02
    -18.744  0.0000E+00  0.1200E+02
    -18.599  0.0000E+00  0.1200E+02
    -18.455  0.0000E+00  0.1200E+02
    -18.311  0.0000E+00  0.1200E+02
    -18.166  0.0000E+00  0.1200E+02
    -18.022  0.0000E+00  0.1200E+02
    -17.878  0.0000E+00  0.1200E+02
    -17.734  0.0000E+00  0.1200E+02
    -17.589  0.0000E+00  0.1200E+02
    -17.445  0.0000E+00  0.1200E+02
    -17.301  0.0000E+00  0.1200E+02
    -17.156  0.0000E+00  0.1200E+02
    -17.012  0.0000E+00  0.1200E+02
    -16.868  0.0000E+00  0.1200E+02
    -16.724  0.0000E+00  0.1200E+02
    -16.579  0.0000E+00  0.1200E+02
    -16.435  0.0000E+00  0.1200E+02
    -16.291  0.0000E+00  0.1200E+02
    -16.147  0.0000E+00  0.1200E+02
    -16.002  0.0000E+00  0.1200E+02
    -15.858  0.0000E+00  0.1200E+02
    -15.714  0.0000E+00  0.1200E+02
    -15.569  0.0000E+00  0.1200E+02
    -15.425  0.0000E+00  0.1200E+02
    -15.281  0.0000E+00  0.1200E+02
    -15.137  0.0000E+00  0.1200E+02
    -14.992  0.0000E+00  0.1200E+02
    -14.848  0.0000E+00  0.1200E+02
    -14.704  0.1603E-14  0.1200E+02
    -14.559  0.1580E-03  0.1200E+02
    -14.415  0.5869E+01  0.1285E+02
    -14.271  0.8244E+02  0.2474E+02
    -14.127  0.1371E+03  0.4453E+02
    -13.982  0.2408E+02  0.4800E+02
    -13.838  0.1090E-02  0.4800E+02
    -13.694  0.0000E+00  0.4800E+02
    -13.549  0.0000E+00  0.4800E+02
    -13.405  0.0000E+00  0.4800E+02
    -13.261  0.0000E+00  0.4800E+02
    -13.117  0.0000E+00  0.4800E+02
    -12.972  0.0000E+00  0.4800E+02
    -12.828  0.0000E+00  0.4800E+02
    -12.684  0.0000E+00  0.4800E+02
    -12.539  0.0000E+00  0.4800E+02
    -12.395  0.0000E+00  0.4800E+02
    -12.251  0.0000E+00  0.4800E+02
    -12.107  0.0000E+00  0.4800E+02
    -11.962  0.0000E+00  0.4800E+02
    -11.818  0.0000E+00  0.4800E+02
    -11.674  0.0000E+00  0.4800E+02
    -11.530  0.0000E+00  0.4800E+02
    -11.385  0.0000E+00  0.4800E+02
    -11.241  0.0000E+00  0.4800E+02
    -11.097  0.0000E+00  0.4800E+02
    -10.952  0.0000E+00  0.4800E+02
    -10.808  0.0000E+00  0.4800E+02
    -10.664  0.0000E+00  0.4800E+02
    -10.520  0.0000E+00  0.4800E+02
    -10.375  0.0000E+00  0.4800E+02
    -10.231  0.0000E+00  0.4800E+02
    -10.087  0.0000E+00  0.4800E+02
     -9.942  0.0000E+00  0.4800E+02
     -9.798  0.0000E+00  0.4800E+02
     -9.654  0.0000E+00  0.4800E+02
     -9.510  0.0000E+00  0.4800E+02
     -9.365  0.1002E-11  0.4800E+02
     -9.221  0.9280E-03  0.4800E+02
     -9.077  0.5166E+00  0.4807E+02
     -8.932  0.4880E+01  0.4878E+02
     -8.788  0.9780E+01  0.5019E+02
     -8.644  0.1097E+02  0.5177E+02
     -8.500  0.1574E+01  0.5200E+02
     -8.355  0.2466E-04  0.5200E+02
     -8.211  0.0000E+00  0.5200E+02
     -8.067  0.6569E-06  0.5200E+02
     -7.922  0.5669E+00  0.5208E+02
     -7.778  0.1900E+02  0.5482E+02
     -7.634  0.8139E+01  0.5600E+02
     -7.490  0.1990E-01  0.5600E+02
     -7.345  0.5440E-09  0.5600E+02
     -7.201  0.0000E+00  0.5600E+02
     -7.057  0.0000E+00  0.5600E+02
     -6.912  0.0000E+00  0.5600E+02
     -6.768  0.0000E+00  0.5600E+02
     -6.624  0.6241E-14  0.5600E+02
     -6.480  0.1966E-03  0.5600E+02
     -6.335  0.4463E+01  0.5664E+02
     -6.191  0.2130E+02  0.5972E+02
     -6.047  0.1956E+01  0.6000E+02
     -5.903  0.4432E-05  0.6000E+02
     -5.758  0.0000E+00  0.6000E+02
     -5.614  0.1070E-05  0.6000E+02
     -5.470  0.1450E+00  0.6002E+02
     -5.325  0.5187E+01  0.6077E+02
     -5.181  0.1513E+02  0.6295E+02
     -5.037  0.7220E+01  0.6399E+02
     -4.893  0.3958E-01  0.6400E+02
     -4.748  0.7574E-09  0.6400E+02
     -4.604  0.0000E+00  0.6400E+02
     -4.460  0.0000E+00  0.6400E+02
     -4.315  0.0000E+00  0.6400E+02
     -4.171  0.0000E+00  0.6400E+02
     -4.027  0.0000E+00  0.6400E+02
     -3.883  0.0000E+00  0.6400E+02
     -3.738  0.0000E+00  0.6400E+02
     -3.594  0.0000E+00  0.6400E+02
     -3.450  0.0000E+00  0.6400E+02
     -3.305  0.0000E+00  0.6400E+02
     -3.161  0.0000E+00  0.6400E+02
     -3.017  0.0000E+00  0.6400E+02
     -2.873  0.0000E+00  0.6400E+02
     -2.728  0.0000E+00  0.6400E+02
     -2.584  0.0000E+00  0.6400E+02
     -2.440  0.0000E+00  0.6400E+02
     -2.295  0.0000E+00  0.6400E+02
     -2.151  0.0000E+00  0.6400E+02
     -2.007  0.0000E+00  0.6400E+02
     -1.863  0.0000E+00  0.6400E+02
     -1.718  0.0000E+00  0.6400E+02
     -1.574  0.0000E+00  0.6400E+02
     -1.430  0.0000E+00  0.6400E+02
     -1.286  0.7600E-11  0.6400E+02
     -1.141  0.3354E-02  0.6400E+02
     -0.997  0.2068E+01  0.6430E+02
     -0.853  0.1111E+02  0.6590E+02
     -0.708  0.1219E+02  0.6766E+02
     -0.564  0.4044E+01  0.6824E+02
     -0.420  0.5073E+01  0.6898E+02
     -0.276  0.1092E+02  0.7055E+02
     -0.131  0.1045E+02  0.7206E+02
      0.013  0.9246E+01  0.7339E+02
      0.157  0.1205E+02  0.7513E+02
      0.302  0.4531E+01  0.7579E+02
      0.446  0.2281E+01  0.7612E+02
      0.590  0.9527E+01  0.7749E+02
      0.734  0.1397E+02  0.7951E+02
      0.879  0.1127E+02  0.8113E+02
      1.023  0.8213E+01  0.8232E+02
      1.167  0.9627E+01  0.8371E+02
      1.312  0.2820E+01  0.8411E+02
      1.456  0.1176E+02  0.8581E+02
      1.600  0.8333E+01  0.8701E+02
      1.744  0.7216E+01  0.8805E+02
      1.889  0.6140E+01  0.8894E+02
      2.033  0.1076E+02  0.9049E+02
      2.177  0.1831E+02  0.9313E+02
      2.322  0.1500E+02  0.9530E+02
      2.466  0.1484E+02  0.9744E+02
      2.610  0.1113E+02  0.9904E+02
      2.754  0.6176E+01  0.9993E+02
      2.899  0.4598E+00  0.1000E+03
      3.043  0.1259E-05  0.1000E+03
      3.187  0.1551E-07  0.1000E+03
      3.332  0.5010E-01  0.1000E+03
      3.476  0.7181E+00  0.1001E+03
      3.620  0.1211E+01  0.1003E+03
      3.764  0.4070E+01  0.1009E+03
      3.909  0.5762E+01  0.1017E+03
      4.053  0.8189E+01  0.1029E+03
      4.197  0.6579E+01  0.1038E+03
      4.341  0.5562E+01  0.1046E+03
      4.486  0.9100E+01  0.1060E+03
      4.630  0.9883E+01  0.1074E+03
      4.774  0.4996E+01  0.1081E+03
      4.919  0.5458E+01  0.1089E+03
      5.063  0.8177E+01  0.1101E+03
      5.207  0.8831E+01  0.1113E+03
      5.351  0.8730E+01  0.1126E+03
      5.496  0.7561E+01  0.1137E+03
      5.640  0.8812E+01  0.1150E+03
      5.784  0.7284E+01  0.1160E+03
      5.929  0.1133E+02  0.1176E+03
      6.073  0.8859E+01  0.1189E+03
      6.217  0.8546E+01  0.1202E+03
      6.361  0.8916E+01  0.1214E+03
      6.506  0.1189E+02  0.1232E+03
      6.650  0.1228E+02  0.1249E+03
      6.794  0.8240E+01  0.1261E+03
      6.939  0.7140E+01  0.1272E+03
      7.083  0.4432E+01  0.1278E+03
      7.227  0.1455E+01  0.1280E+03
      7.371  0.4217E-02  0.1280E+03
      7.516  0.7371E-11  0.1280E+03
      7.660  0.0000E+00  0.1280E+03
      7.804  0.0000E+00  0.1280E+03
      7.949  0.0000E+00  0.1280E+03
      8.093  0.0000E+00  0.1280E+03
      8.237  0.0000E+00  0.1280E+03
      8.381  0.0000E+00  0.1280E+03
      8.526  0.0000E+00  0.1280E+03
      8.670  0.0000E+00  0.1280E+03
      8.814  0.0000E+00  0.1280E+03
      8.959  0.0000E+00  0.1280E+03
      9.103  0.0000E+00  0.1280E+03
