Sr6As8
1.0
      0.0000000       7.5048690       9.0334840
      3.0213880       0.0000000       9.0334840
      3.0213880       7.5048690       0.0000000
  Sr    As  
  6     8   
Direct
      0.8937890       0.4449140       0.1007350
      0.5550510       0.1140060       0.4528430
      0.1363270       0.6926640       0.3677870
      0.8071290       0.3569760       0.6840410
      0.5127260       0.9880470       0.9913070
      0.2521140       0.7426070       0.7463940
      0.9244570       0.5844200       0.4001970
      0.0876500       0.4051400       0.5907700
      0.8461940       0.1553380       0.3261410
      0.6663240       0.3338610       0.1629650
      0.9688810       0.6869190       0.8617140
      0.4878340       0.8510450       0.6771550
      0.5660650       0.2786570       0.7663010
      0.3877840       0.7713010       0.2809640
