Sr6 As8
1.0
   0.0000000000000000    7.5048690000000002    9.0334839999999996
   3.0213880000000000    0.0000000000000000    9.0334839999999996
   3.0213880000000000    7.5048690000000002    0.0000000000000000
Sr As
6 8
direct
   0.8937889999999999    0.4449140000000000    0.1007350000000000 Sr
   0.5550510000000000    0.1140060000000000    0.4528430000000000 Sr
   0.1363270000000000    0.6926639999999999    0.3677870000000000 Sr
   0.8071290000000000    0.3569760000000000    0.6840410000000000 Sr
   0.5127260000000000    0.9880470000000000    0.9913070000000000 Sr
   0.2521140000000000    0.7426070000000000    0.7463940000000000 Sr
   0.9244570000000000    0.5844200000000001    0.4001970000000000 As
   0.0876500000000000    0.4051400000000000    0.5907700000000000 As
   0.8461940000000000    0.1553380000000000    0.3261410000000000 As
   0.6663240000000000    0.3338610000000000    0.1629650000000000 As
   0.9688810000000000    0.6869189999999999    0.8617140000000000 As
   0.4878340000000000    0.8510450000000001    0.6771550000000000 As
   0.5660650000000000    0.2786570000000000    0.7663010000000000 As
   0.3877840000000000    0.7713010000000000    0.2809640000000000 As
