Ca2 Sn2                                 
   1.00000000000000     
     4.5085147000000001    0.0000000000000000   -1.7257518700000001
     0.0000000000000000    4.3832095700000000    0.0000000000000000
    -0.1974265200000000    0.0000000000000000    6.2363249500000002
   Ca   Sn
     2     2
Direct
     0.1333128899999991    0.7500000000000000    0.2666267899999966
     0.8666871100000009    0.2500000000000000    0.7333732100000034
     0.4156531000000001    0.7500000000000000    0.8313061899999994
     0.5843468999999999    0.2500000000000000    0.1686938100000006
 
  0.00000000E+00  0.00000000E+00  0.00000000E+00
  0.00000000E+00  0.00000000E+00  0.00000000E+00
  0.00000000E+00  0.00000000E+00  0.00000000E+00
  0.00000000E+00  0.00000000E+00  0.00000000E+00
