Mg2Tl6
1.0
      7.0217901      -0.0000000       0.0000000
     -3.5108966       6.0810498       0.0000000
      0.0000000       0.0000000       5.2033930
  Mg    Tl  
  2     6   
Direct
      0.6666680       0.3333340       0.2500000
      0.3333340       0.6666670       0.7499990
      0.1714681       0.3429372       0.2500000
      0.6570638       0.8285319       0.2500000
      0.1714681       0.8285319       0.2500000
      0.8285319       0.1714691       0.7499990
      0.3429382       0.1714691       0.7499990
      0.8285309       0.6570628       0.7499990
