Mg2 Tl6
1.0
   7.0217901200000004   -0.0000000200000000    0.0000000000000000
  -3.5108965900000002    6.0810497999999997   -0.0000000000000000
  -0.0000000000000000   -0.0000000000000000    5.2033930100000001
Mg Tl
2 6
direct
   0.6666680000000000    0.3333340000000000    0.2500000000000000 Mg
   0.3333340000000000    0.6666670000000000    0.7499990000000000 Mg
   0.1714680900000000    0.3429371900000000    0.2500000000000000 Tl
   0.6570638100000000    0.8285319100000000    0.2500000000000000 Tl
   0.1714680900000000    0.8285319100000000    0.2500000000000000 Tl
   0.8285319100000000    0.1714690900000000    0.7499990000000000 Tl
   0.3429381900000000    0.1714690900000000    0.7499990000000000 Tl
   0.8285309100000000    0.6570628100000000    0.7499990000000000 Tl
