unknown system                          
           1
     7.021790   -0.000000    0.000000
    -3.510897    6.081050    0.000000
     0.000000    0.000000    5.203393
   Mg   Tl
     2     6
Direct configuration=     1
   0.66666800  0.33333400  0.25000000
   0.33333400  0.66666700  0.74999900
   0.17146809  0.34293719  0.25000000
   0.65706381  0.82853191  0.25000000
   0.17146809  0.82853191  0.25000000
   0.82853191  0.17146909  0.74999900
   0.34293819  0.17146909  0.74999900
   0.82853091  0.65706281  0.74999900
