   4   4   0   0
  0.1524393E+02  0.4417983E-09  0.4417983E-09  0.4417983E-09  0.5000000E-15
  1.000000000000000E-004
  CAR 
 unknown system                          
     27.64061098    -40.75528984  301     10.76908424      1.00000000
    -40.755  0.0000E+00  0.0000E+00
    -40.527  0.0000E+00  0.0000E+00
    -40.299  0.0000E+00  0.0000E+00
    -40.071  0.0000E+00  0.0000E+00
    -39.843  0.0000E+00  0.0000E+00
    -39.615  0.0000E+00  0.0000E+00
    -39.387  0.0000E+00  0.0000E+00
    -39.159  0.0000E+00  0.0000E+00
    -38.931  0.0000E+00  0.0000E+00
    -38.703  0.0000E+00  0.0000E+00
    -38.475  0.0000E+00  0.0000E+00
    -38.247  0.0000E+00  0.0000E+00
    -38.019  0.0000E+00  0.0000E+00
    -37.791  0.1523E-03  0.3471E-04
    -37.563  0.8679E+01  0.1979E+01
    -37.335  0.9311E-01  0.2000E+01
    -37.108  0.0000E+00  0.2000E+01
    -36.880  0.0000E+00  0.2000E+01
    -36.652  0.0000E+00  0.2000E+01
    -36.424  0.0000E+00  0.2000E+01
    -36.196  0.0000E+00  0.2000E+01
    -35.968  0.0000E+00  0.2000E+01
    -35.740  0.0000E+00  0.2000E+01
    -35.512  0.0000E+00  0.2000E+01
    -35.284  0.0000E+00  0.2000E+01
    -35.056  0.0000E+00  0.2000E+01
    -34.828  0.0000E+00  0.2000E+01
    -34.600  0.0000E+00  0.2000E+01
    -34.372  0.0000E+00  0.2000E+01
    -34.144  0.0000E+00  0.2000E+01
    -33.916  0.0000E+00  0.2000E+01
    -33.688  0.0000E+00  0.2000E+01
    -33.460  0.0000E+00  0.2000E+01
    -33.232  0.0000E+00  0.2000E+01
    -33.004  0.0000E+00  0.2000E+01
    -32.776  0.0000E+00  0.2000E+01
    -32.548  0.0000E+00  0.2000E+01
    -32.320  0.0000E+00  0.2000E+01
    -32.092  0.0000E+00  0.2000E+01
    -31.864  0.0000E+00  0.2000E+01
    -31.636  0.0000E+00  0.2000E+01
    -31.408  0.0000E+00  0.2000E+01
    -31.180  0.0000E+00  0.2000E+01
    -30.952  0.0000E+00  0.2000E+01
    -30.724  0.0000E+00  0.2000E+01
    -30.496  0.0000E+00  0.2000E+01
    -30.268  0.0000E+00  0.2000E+01
    -30.040  0.0000E+00  0.2000E+01
    -29.812  0.0000E+00  0.2000E+01
    -29.584  0.0000E+00  0.2000E+01
    -29.356  0.0000E+00  0.2000E+01
    -29.128  0.1852E-06  0.2000E+01
    -28.900  0.1018E+02  0.4321E+01
    -28.672  0.1614E+02  0.8000E+01
    -28.444  0.1704E-03  0.8000E+01
    -28.216  0.1531E+00  0.8035E+01
    -27.988  0.3008E+02  0.1489E+02
    -27.760  0.2240E+02  0.2000E+02
    -27.532  0.1582E-04  0.2000E+02
    -27.304  0.0000E+00  0.2000E+02
    -27.076  0.0000E+00  0.2000E+02
    -26.848  0.0000E+00  0.2000E+02
    -26.620  0.0000E+00  0.2000E+02
    -26.392  0.0000E+00  0.2000E+02
    -26.164  0.0000E+00  0.2000E+02
    -25.936  0.0000E+00  0.2000E+02
    -25.708  0.0000E+00  0.2000E+02
    -25.480  0.0000E+00  0.2000E+02
    -25.252  0.0000E+00  0.2000E+02
    -25.024  0.0000E+00  0.2000E+02
    -24.796  0.0000E+00  0.2000E+02
    -24.568  0.0000E+00  0.2000E+02
    -24.340  0.0000E+00  0.2000E+02
    -24.112  0.0000E+00  0.2000E+02
    -23.884  0.0000E+00  0.2000E+02
    -23.656  0.0000E+00  0.2000E+02
    -23.428  0.0000E+00  0.2000E+02
    -23.200  0.0000E+00  0.2000E+02
    -22.972  0.0000E+00  0.2000E+02
    -22.744  0.0000E+00  0.2000E+02
    -22.516  0.0000E+00  0.2000E+02
    -22.288  0.0000E+00  0.2000E+02
    -22.060  0.0000E+00  0.2000E+02
    -21.832  0.0000E+00  0.2000E+02
    -21.604  0.0000E+00  0.2000E+02
    -21.376  0.0000E+00  0.2000E+02
    -21.148  0.0000E+00  0.2000E+02
    -20.920  0.0000E+00  0.2000E+02
    -20.692  0.0000E+00  0.2000E+02
    -20.465  0.0000E+00  0.2000E+02
    -20.237  0.0000E+00  0.2000E+02
    -20.009  0.0000E+00  0.2000E+02
    -19.781  0.0000E+00  0.2000E+02
    -19.553  0.0000E+00  0.2000E+02
    -19.325  0.0000E+00  0.2000E+02
    -19.097  0.0000E+00  0.2000E+02
    -18.869  0.0000E+00  0.2000E+02
    -18.641  0.0000E+00  0.2000E+02
    -18.413  0.0000E+00  0.2000E+02
    -18.185  0.0000E+00  0.2000E+02
    -17.957  0.0000E+00  0.2000E+02
    -17.729  0.0000E+00  0.2000E+02
    -17.501  0.0000E+00  0.2000E+02
    -17.273  0.0000E+00  0.2000E+02
    -17.045  0.0000E+00  0.2000E+02
    -16.817  0.0000E+00  0.2000E+02
    -16.589  0.9945E-06  0.2000E+02
    -16.361  0.2121E+02  0.2483E+02
    -16.133  0.5112E+01  0.2600E+02
    -15.905  0.0000E+00  0.2600E+02
    -15.677  0.0000E+00  0.2600E+02
    -15.449  0.0000E+00  0.2600E+02
    -15.221  0.0000E+00  0.2600E+02
    -14.993  0.0000E+00  0.2600E+02
    -14.765  0.0000E+00  0.2600E+02
    -14.537  0.0000E+00  0.2600E+02
    -14.309  0.0000E+00  0.2600E+02
    -14.081  0.0000E+00  0.2600E+02
    -13.853  0.0000E+00  0.2600E+02
    -13.625  0.0000E+00  0.2600E+02
    -13.397  0.0000E+00  0.2600E+02
    -13.169  0.0000E+00  0.2600E+02
    -12.941  0.0000E+00  0.2600E+02
    -12.713  0.0000E+00  0.2600E+02
    -12.485  0.0000E+00  0.2600E+02
    -12.257  0.0000E+00  0.2600E+02
    -12.029  0.0000E+00  0.2600E+02
    -11.801  0.0000E+00  0.2600E+02
    -11.573  0.0000E+00  0.2600E+02
    -11.345  0.0000E+00  0.2600E+02
    -11.117  0.0000E+00  0.2600E+02
    -10.889  0.0000E+00  0.2600E+02
    -10.661  0.0000E+00  0.2600E+02
    -10.433  0.0000E+00  0.2600E+02
    -10.205  0.0000E+00  0.2600E+02
     -9.977  0.0000E+00  0.2600E+02
     -9.749  0.0000E+00  0.2600E+02
     -9.521  0.0000E+00  0.2600E+02
     -9.293  0.0000E+00  0.2600E+02
     -9.065  0.0000E+00  0.2600E+02
     -8.837  0.0000E+00  0.2600E+02
     -8.609  0.0000E+00  0.2600E+02
     -8.381  0.0000E+00  0.2600E+02
     -8.153  0.0000E+00  0.2600E+02
     -7.925  0.0000E+00  0.2600E+02
     -7.697  0.0000E+00  0.2600E+02
     -7.469  0.0000E+00  0.2600E+02
     -7.241  0.0000E+00  0.2600E+02
     -7.013  0.0000E+00  0.2600E+02
     -6.785  0.0000E+00  0.2600E+02
     -6.557  0.0000E+00  0.2600E+02
     -6.329  0.0000E+00  0.2600E+02
     -6.101  0.0000E+00  0.2600E+02
     -5.873  0.0000E+00  0.2600E+02
     -5.645  0.0000E+00  0.2600E+02
     -5.417  0.0000E+00  0.2600E+02
     -5.189  0.0000E+00  0.2600E+02
     -4.961  0.0000E+00  0.2600E+02
     -4.733  0.0000E+00  0.2600E+02
     -4.505  0.0000E+00  0.2600E+02
     -4.277  0.0000E+00  0.2600E+02
     -4.049  0.0000E+00  0.2600E+02
     -3.822  0.0000E+00  0.2600E+02
     -3.594  0.0000E+00  0.2600E+02
     -3.366  0.0000E+00  0.2600E+02
     -3.138  0.0000E+00  0.2600E+02
     -2.910  0.0000E+00  0.2600E+02
     -2.682  0.0000E+00  0.2600E+02
     -2.454  0.0000E+00  0.2600E+02
     -2.226  0.0000E+00  0.2600E+02
     -1.998  0.0000E+00  0.2600E+02
     -1.770  0.0000E+00  0.2600E+02
     -1.542  0.0000E+00  0.2600E+02
     -1.314  0.0000E+00  0.2600E+02
     -1.086  0.0000E+00  0.2600E+02
     -0.858  0.0000E+00  0.2600E+02
     -0.630  0.0000E+00  0.2600E+02
     -0.402  0.0000E+00  0.2600E+02
     -0.174  0.0000E+00  0.2600E+02
      0.054  0.0000E+00  0.2600E+02
      0.282  0.0000E+00  0.2600E+02
      0.510  0.0000E+00  0.2600E+02
      0.738  0.0000E+00  0.2600E+02
      0.966  0.0000E+00  0.2600E+02
      1.194  0.0000E+00  0.2600E+02
      1.422  0.0000E+00  0.2600E+02
      1.650  0.0000E+00  0.2600E+02
      1.878  0.0000E+00  0.2600E+02
      2.106  0.0000E+00  0.2600E+02
      2.334  0.0000E+00  0.2600E+02
      2.562  0.0000E+00  0.2600E+02
      2.790  0.0000E+00  0.2600E+02
      3.018  0.0000E+00  0.2600E+02
      3.246  0.0000E+00  0.2600E+02
      3.474  0.1519E-14  0.2600E+02
      3.702  0.4248E-02  0.2600E+02
      3.930  0.2136E-01  0.2601E+02
      4.158  0.2707E+00  0.2607E+02
      4.386  0.8728E-01  0.2609E+02
      4.614  0.2967E+00  0.2616E+02
      4.842  0.3782E+00  0.2624E+02
      5.070  0.4504E+00  0.2634E+02
      5.298  0.9456E-01  0.2637E+02
      5.526  0.1059E+01  0.2661E+02
      5.754  0.3726E+00  0.2669E+02
      5.982  0.2689E+01  0.2731E+02
      6.210  0.5030E+01  0.2845E+02
      6.438  0.4663E+01  0.2951E+02
      6.666  0.6278E+01  0.3095E+02
      6.894  0.5911E+01  0.3229E+02
      7.122  0.6510E+01  0.3378E+02
      7.350  0.6068E+01  0.3516E+02
      7.578  0.8615E+01  0.3713E+02
      7.806  0.5701E+01  0.3843E+02
      8.034  0.2148E+01  0.3891E+02
      8.262  0.4088E+01  0.3985E+02
      8.490  0.3177E+01  0.4057E+02
      8.718  0.5258E+01  0.4177E+02
      8.946  0.5070E+01  0.4293E+02
      9.174  0.5688E+01  0.4422E+02
      9.402  0.5906E+01  0.4557E+02
      9.630  0.4459E+01  0.4659E+02
      9.858  0.4257E+01  0.4756E+02
     10.086  0.2799E+01  0.4819E+02
     10.314  0.4675E+01  0.4926E+02
     10.542  0.1871E+01  0.4969E+02
     10.770  0.1379E+01  0.5000E+02
     10.998  0.3131E+01  0.5072E+02
     11.226  0.4700E+01  0.5179E+02
     11.454  0.7113E+01  0.5341E+02
     11.682  0.6218E+01  0.5483E+02
     11.910  0.6147E+01  0.5623E+02
     12.138  0.6308E+01  0.5767E+02
     12.366  0.5631E+01  0.5895E+02
     12.594  0.2674E+01  0.5956E+02
     12.821  0.1139E+01  0.5982E+02
     13.049  0.1514E+01  0.6016E+02
     13.277  0.2209E+01  0.6067E+02
     13.505  0.3090E+01  0.6137E+02
     13.733  0.3838E+01  0.6225E+02
     13.961  0.3545E+01  0.6306E+02
     14.189  0.2350E+01  0.6359E+02
     14.417  0.1972E+01  0.6404E+02
     14.645  0.4722E+01  0.6512E+02
     14.873  0.7485E+01  0.6682E+02
     15.101  0.4758E+01  0.6791E+02
     15.329  0.1899E+01  0.6834E+02
     15.557  0.2663E+01  0.6895E+02
     15.785  0.2109E+01  0.6943E+02
     16.013  0.1631E+01  0.6980E+02
     16.241  0.1896E+01  0.7023E+02
     16.469  0.9737E+00  0.7045E+02
     16.697  0.3484E-01  0.7046E+02
     16.925  0.2250E+01  0.7098E+02
     17.153  0.2189E+01  0.7147E+02
     17.381  0.1229E+01  0.7176E+02
     17.609  0.1096E+01  0.7200E+02
     17.837  0.3366E+00  0.7208E+02
     18.065  0.5038E+00  0.7220E+02
     18.293  0.3384E+00  0.7227E+02
     18.521  0.2095E+01  0.7275E+02
     18.749  0.7465E+00  0.7292E+02
     18.977  0.1665E+01  0.7330E+02
     19.205  0.9428E+00  0.7352E+02
     19.433  0.1148E-02  0.7352E+02
     19.661  0.4882E+00  0.7363E+02
     19.889  0.3277E+00  0.7370E+02
     20.117  0.7342E-01  0.7372E+02
     20.345  0.3469E+00  0.7380E+02
     20.573  0.7391E+00  0.7397E+02
     20.801  0.1339E+01  0.7427E+02
     21.029  0.2594E+01  0.7486E+02
     21.257  0.1523E+01  0.7521E+02
     21.485  0.1769E+01  0.7561E+02
     21.713  0.6338E+00  0.7576E+02
     21.941  0.1411E+01  0.7608E+02
     22.169  0.3306E+01  0.7683E+02
     22.397  0.2293E+01  0.7736E+02
     22.625  0.2807E+01  0.7800E+02
     22.853  0.1419E+01  0.7832E+02
     23.081  0.2854E+00  0.7839E+02
     23.309  0.1001E+01  0.7861E+02
     23.537  0.2509E+00  0.7867E+02
     23.765  0.3092E+00  0.7874E+02
     23.993  0.2507E+01  0.7931E+02
     24.221  0.1928E+01  0.7975E+02
     24.449  0.5436E+00  0.7988E+02
     24.677  0.5436E+00  0.8000E+02
     24.905  0.9848E-06  0.8000E+02
     25.133  0.0000E+00  0.8000E+02
     25.361  0.0000E+00  0.8000E+02
     25.589  0.0000E+00  0.8000E+02
     25.817  0.0000E+00  0.8000E+02
     26.045  0.0000E+00  0.8000E+02
     26.273  0.0000E+00  0.8000E+02
     26.501  0.0000E+00  0.8000E+02
     26.729  0.0000E+00  0.8000E+02
     26.957  0.0000E+00  0.8000E+02
     27.185  0.0000E+00  0.8000E+02
     27.413  0.0000E+00  0.8000E+02
     27.641  0.0000E+00  0.8000E+02
