       N       E                     dE             d eps       ncg     rms          rms(c)
DAV:   1     0.774387143056E+03    0.77439E+03   -0.28253E+04 27816   0.153E+03
DAV:   2     0.177615153658E+01   -0.77261E+03   -0.74480E+03 27616   0.491E+02
DAV:   3    -0.395241927803E+02   -0.41300E+02   -0.38829E+02 31928   0.132E+02
DAV:   4    -0.405785285928E+02   -0.10543E+01   -0.10490E+01 36904   0.243E+01
DAV:   5    -0.406031495235E+02   -0.24621E-01   -0.24618E-01 33256   0.329E+00    0.288E+01
DAV:   6    -0.387957724390E+02    0.18074E+01   -0.60036E+00 31936   0.229E+01    0.115E+01
DAV:   7    -0.387005524093E+02    0.95220E-01   -0.37813E+00 33936   0.178E+01    0.922E+00
DAV:   8    -0.376908277741E+02    0.10097E+01   -0.94090E-01 33256   0.102E+01    0.215E+00
DAV:   9    -0.376685099806E+02    0.22318E-01   -0.13136E-01 37904   0.276E+00    0.880E-01
DAV:  10    -0.376635209639E+02    0.49890E-02   -0.78524E-03 33752   0.624E-01    0.261E-01
DAV:  11    -0.376633805129E+02    0.14045E-03   -0.78601E-04 37784   0.254E-01    0.813E-02
DAV:  12    -0.376633465385E+02    0.33974E-04   -0.75663E-05 33264   0.720E-02    0.124E-02
DAV:  13    -0.376633422604E+02    0.42781E-05   -0.45606E-06 33488   0.204E-02    0.467E-03
DAV:  14    -0.376633419728E+02    0.28761E-06   -0.46598E-07 20296   0.763E-03
   1 F= -.37663342E+02 E0= -.37661946E+02  d E =-.279190E-02
