Sc1 Tc3
1.0
   0.0000000000000000    3.1239854500000002    3.1239854500000002
   3.1239854500000002   -0.0000000000000000    3.1239854500000002
   3.1239854500000002    3.1239854500000002    0.0000000000000000
Sc Tc
1 3
direct
   0.7500010000000000    0.7500010000000000    0.7500010000000000 Sc
  -0.0000000000000000   -0.0000000000000000   -0.0000000000000000 Tc
   0.5000000000000000    0.5000000000000000    0.5000000000000000 Tc
   0.2500010000000000    0.2500010000000000    0.2500010000000000 Tc
