  12  12   0   0
  0.1462314E+02  0.5020878E-09  0.5020878E-09  0.8037706E-09  0.5000000E-15
  1.000000000000000E-004
  CAR 
 unknown system                          
     18.56458863    -37.93167645  301      7.80513099      1.00000000
    -37.932  0.0000E+00  0.0000E+00
    -37.743  0.0000E+00  0.0000E+00
    -37.555  0.0000E+00  0.0000E+00
    -37.367  0.0000E+00  0.0000E+00
    -37.178  0.0000E+00  0.0000E+00
    -36.990  0.0000E+00  0.0000E+00
    -36.802  0.0000E+00  0.0000E+00
    -36.613  0.0000E+00  0.0000E+00
    -36.425  0.0000E+00  0.0000E+00
    -36.237  0.0000E+00  0.0000E+00
    -36.048  0.0000E+00  0.0000E+00
    -35.860  0.0000E+00  0.0000E+00
    -35.672  0.0000E+00  0.0000E+00
    -35.484  0.4837E-04  0.9109E-05
    -35.295  0.2349E+01  0.4423E+00
    -35.107  0.1916E+02  0.4050E+01
    -34.919  0.5136E+02  0.1372E+02
    -34.730  0.7437E+02  0.2773E+02
    -34.542  0.8335E+02  0.4342E+02
    -34.354  0.2431E+02  0.4800E+02
    -34.165  0.4647E-04  0.4800E+02
    -33.977  0.0000E+00  0.4800E+02
    -33.789  0.0000E+00  0.4800E+02
    -33.600  0.0000E+00  0.4800E+02
    -33.412  0.0000E+00  0.4800E+02
    -33.224  0.0000E+00  0.4800E+02
    -33.035  0.0000E+00  0.4800E+02
    -32.847  0.0000E+00  0.4800E+02
    -32.659  0.0000E+00  0.4800E+02
    -32.470  0.0000E+00  0.4800E+02
    -32.282  0.0000E+00  0.4800E+02
    -32.094  0.0000E+00  0.4800E+02
    -31.905  0.0000E+00  0.4800E+02
    -31.717  0.0000E+00  0.4800E+02
    -31.529  0.0000E+00  0.4800E+02
    -31.340  0.0000E+00  0.4800E+02
    -31.152  0.0000E+00  0.4800E+02
    -30.964  0.0000E+00  0.4800E+02
    -30.775  0.0000E+00  0.4800E+02
    -30.587  0.0000E+00  0.4800E+02
    -30.399  0.0000E+00  0.4800E+02
    -30.211  0.0000E+00  0.4800E+02
    -30.022  0.0000E+00  0.4800E+02
    -29.834  0.0000E+00  0.4800E+02
    -29.646  0.0000E+00  0.4800E+02
    -29.457  0.0000E+00  0.4800E+02
    -29.269  0.0000E+00  0.4800E+02
    -29.081  0.0000E+00  0.4800E+02
    -28.892  0.0000E+00  0.4800E+02
    -28.704  0.0000E+00  0.4800E+02
    -28.516  0.0000E+00  0.4800E+02
    -28.327  0.0000E+00  0.4800E+02
    -28.139  0.0000E+00  0.4800E+02
    -27.951  0.0000E+00  0.4800E+02
    -27.762  0.0000E+00  0.4800E+02
    -27.574  0.0000E+00  0.4800E+02
    -27.386  0.0000E+00  0.4800E+02
    -27.197  0.0000E+00  0.4800E+02
    -27.009  0.0000E+00  0.4800E+02
    -26.821  0.0000E+00  0.4800E+02
    -26.632  0.0000E+00  0.4800E+02
    -26.444  0.0000E+00  0.4800E+02
    -26.256  0.0000E+00  0.4800E+02
    -26.067  0.0000E+00  0.4800E+02
    -25.879  0.0000E+00  0.4800E+02
    -25.691  0.0000E+00  0.4800E+02
    -25.502  0.0000E+00  0.4800E+02
    -25.314  0.0000E+00  0.4800E+02
    -25.126  0.0000E+00  0.4800E+02
    -24.938  0.0000E+00  0.4800E+02
    -24.749  0.0000E+00  0.4800E+02
    -24.561  0.0000E+00  0.4800E+02
    -24.373  0.0000E+00  0.4800E+02
    -24.184  0.0000E+00  0.4800E+02
    -23.996  0.0000E+00  0.4800E+02
    -23.808  0.0000E+00  0.4800E+02
    -23.619  0.0000E+00  0.4800E+02
    -23.431  0.0000E+00  0.4800E+02
    -23.243  0.0000E+00  0.4800E+02
    -23.054  0.0000E+00  0.4800E+02
    -22.866  0.0000E+00  0.4800E+02
    -22.678  0.0000E+00  0.4800E+02
    -22.489  0.0000E+00  0.4800E+02
    -22.301  0.3141E-06  0.4800E+02
    -22.113  0.8610E+01  0.4962E+02
    -21.924  0.5122E+02  0.5927E+02
    -21.736  0.2400E+02  0.6379E+02
    -21.548  0.4357E+02  0.7199E+02
    -21.359  0.4945E-01  0.7200E+02
    -21.171  0.0000E+00  0.7200E+02
    -20.983  0.0000E+00  0.7200E+02
    -20.794  0.0000E+00  0.7200E+02
    -20.606  0.0000E+00  0.7200E+02
    -20.418  0.0000E+00  0.7200E+02
    -20.230  0.0000E+00  0.7200E+02
    -20.041  0.0000E+00  0.7200E+02
    -19.853  0.0000E+00  0.7200E+02
    -19.665  0.0000E+00  0.7200E+02
    -19.476  0.0000E+00  0.7200E+02
    -19.288  0.0000E+00  0.7200E+02
    -19.100  0.0000E+00  0.7200E+02
    -18.911  0.0000E+00  0.7200E+02
    -18.723  0.0000E+00  0.7200E+02
    -18.535  0.0000E+00  0.7200E+02
    -18.346  0.0000E+00  0.7200E+02
    -18.158  0.0000E+00  0.7200E+02
    -17.970  0.0000E+00  0.7200E+02
    -17.781  0.0000E+00  0.7200E+02
    -17.593  0.0000E+00  0.7200E+02
    -17.405  0.0000E+00  0.7200E+02
    -17.216  0.0000E+00  0.7200E+02
    -17.028  0.0000E+00  0.7200E+02
    -16.840  0.0000E+00  0.7200E+02
    -16.651  0.0000E+00  0.7200E+02
    -16.463  0.0000E+00  0.7200E+02
    -16.275  0.0000E+00  0.7200E+02
    -16.086  0.0000E+00  0.7200E+02
    -15.898  0.0000E+00  0.7200E+02
    -15.710  0.0000E+00  0.7200E+02
    -15.521  0.0000E+00  0.7200E+02
    -15.333  0.0000E+00  0.7200E+02
    -15.145  0.0000E+00  0.7200E+02
    -14.957  0.0000E+00  0.7200E+02
    -14.768  0.0000E+00  0.7200E+02
    -14.580  0.0000E+00  0.7200E+02
    -14.392  0.0000E+00  0.7200E+02
    -14.203  0.0000E+00  0.7200E+02
    -14.015  0.0000E+00  0.7200E+02
    -13.827  0.0000E+00  0.7200E+02
    -13.638  0.0000E+00  0.7200E+02
    -13.450  0.0000E+00  0.7200E+02
    -13.262  0.0000E+00  0.7200E+02
    -13.073  0.0000E+00  0.7200E+02
    -12.885  0.0000E+00  0.7200E+02
    -12.697  0.0000E+00  0.7200E+02
    -12.508  0.0000E+00  0.7200E+02
    -12.320  0.0000E+00  0.7200E+02
    -12.132  0.0000E+00  0.7200E+02
    -11.943  0.0000E+00  0.7200E+02
    -11.755  0.0000E+00  0.7200E+02
    -11.567  0.0000E+00  0.7200E+02
    -11.378  0.0000E+00  0.7200E+02
    -11.190  0.0000E+00  0.7200E+02
    -11.002  0.0000E+00  0.7200E+02
    -10.813  0.0000E+00  0.7200E+02
    -10.625  0.0000E+00  0.7200E+02
    -10.437  0.0000E+00  0.7200E+02
    -10.249  0.0000E+00  0.7200E+02
    -10.060  0.0000E+00  0.7200E+02
     -9.872  0.0000E+00  0.7200E+02
     -9.684  0.0000E+00  0.7200E+02
     -9.495  0.0000E+00  0.7200E+02
     -9.307  0.0000E+00  0.7200E+02
     -9.119  0.0000E+00  0.7200E+02
     -8.930  0.0000E+00  0.7200E+02
     -8.742  0.0000E+00  0.7200E+02
     -8.554  0.0000E+00  0.7200E+02
     -8.365  0.0000E+00  0.7200E+02
     -8.177  0.0000E+00  0.7200E+02
     -7.989  0.0000E+00  0.7200E+02
     -7.800  0.0000E+00  0.7200E+02
     -7.612  0.0000E+00  0.7200E+02
     -7.424  0.0000E+00  0.7200E+02
     -7.235  0.0000E+00  0.7200E+02
     -7.047  0.0000E+00  0.7200E+02
     -6.859  0.0000E+00  0.7200E+02
     -6.670  0.0000E+00  0.7200E+02
     -6.482  0.0000E+00  0.7200E+02
     -6.294  0.0000E+00  0.7200E+02
     -6.105  0.0000E+00  0.7200E+02
     -5.917  0.0000E+00  0.7200E+02
     -5.729  0.0000E+00  0.7200E+02
     -5.540  0.0000E+00  0.7200E+02
     -5.352  0.0000E+00  0.7200E+02
     -5.164  0.0000E+00  0.7200E+02
     -4.976  0.0000E+00  0.7200E+02
     -4.787  0.0000E+00  0.7200E+02
     -4.599  0.0000E+00  0.7200E+02
     -4.411  0.0000E+00  0.7200E+02
     -4.222  0.0000E+00  0.7200E+02
     -4.034  0.0000E+00  0.7200E+02
     -3.846  0.0000E+00  0.7200E+02
     -3.657  0.0000E+00  0.7200E+02
     -3.469  0.0000E+00  0.7200E+02
     -3.281  0.0000E+00  0.7200E+02
     -3.092  0.0000E+00  0.7200E+02
     -2.904  0.0000E+00  0.7200E+02
     -2.716  0.0000E+00  0.7200E+02
     -2.527  0.0000E+00  0.7200E+02
     -2.339  0.0000E+00  0.7200E+02
     -2.151  0.0000E+00  0.7200E+02
     -1.962  0.0000E+00  0.7200E+02
     -1.774  0.0000E+00  0.7200E+02
     -1.586  0.0000E+00  0.7200E+02
     -1.397  0.0000E+00  0.7200E+02
     -1.209  0.0000E+00  0.7200E+02
     -1.021  0.0000E+00  0.7200E+02
     -0.832  0.0000E+00  0.7200E+02
     -0.644  0.0000E+00  0.7200E+02
     -0.456  0.0000E+00  0.7200E+02
     -0.267  0.0000E+00  0.7200E+02
     -0.079  0.0000E+00  0.7200E+02
      0.109  0.0000E+00  0.7200E+02
      0.297  0.1169E-13  0.7200E+02
      0.486  0.2241E-02  0.7200E+02
      0.674  0.9605E-01  0.7202E+02
      0.862  0.3477E+00  0.7208E+02
      1.051  0.4390E+00  0.7217E+02
      1.239  0.1028E+01  0.7236E+02
      1.427  0.4474E+00  0.7244E+02
      1.616  0.3016E+00  0.7250E+02
      1.804  0.1701E+01  0.7282E+02
      1.992  0.6668E+00  0.7295E+02
      2.181  0.1850E+01  0.7330E+02
      2.369  0.1339E+00  0.7332E+02
      2.557  0.1220E+01  0.7355E+02
      2.746  0.3114E+01  0.7414E+02
      2.934  0.1856E+01  0.7449E+02
      3.122  0.9487E+00  0.7467E+02
      3.311  0.1193E+01  0.7489E+02
      3.499  0.3343E+01  0.7552E+02
      3.687  0.3124E+01  0.7611E+02
      3.876  0.5141E+01  0.7708E+02
      4.064  0.1718E+01  0.7740E+02
      4.252  0.9838E+01  0.7925E+02
      4.441  0.1026E+02  0.8118E+02
      4.629  0.1303E+02  0.8364E+02
      4.817  0.1406E+02  0.8629E+02
      5.005  0.1023E+02  0.8821E+02
      5.194  0.5564E+01  0.8926E+02
      5.382  0.8396E+01  0.9084E+02
      5.570  0.9104E+01  0.9256E+02
      5.759  0.6817E+01  0.9384E+02
      5.947  0.1150E+02  0.9600E+02
      6.135  0.1893E+02  0.9957E+02
      6.324  0.2496E+02  0.1043E+03
      6.512  0.2214E+02  0.1084E+03
      6.700  0.3014E+02  0.1141E+03
      6.889  0.3532E+02  0.1208E+03
      7.077  0.2149E+02  0.1248E+03
      7.265  0.1887E+02  0.1284E+03
      7.454  0.1940E+02  0.1320E+03
      7.642  0.1275E+02  0.1344E+03
      7.830  0.9851E+01  0.1363E+03
      8.019  0.8121E+01  0.1378E+03
      8.207  0.6904E+01  0.1391E+03
      8.395  0.9884E+01  0.1410E+03
      8.584  0.1435E+02  0.1437E+03
      8.772  0.1959E+02  0.1474E+03
      8.960  0.2106E+02  0.1513E+03
      9.149  0.1851E+02  0.1548E+03
      9.337  0.1157E+02  0.1570E+03
      9.525  0.1396E+02  0.1596E+03
      9.714  0.2601E+02  0.1645E+03
      9.902  0.1367E+02  0.1671E+03
     10.090  0.9056E+01  0.1688E+03
     10.278  0.1385E+02  0.1714E+03
     10.467  0.1497E+02  0.1742E+03
     10.655  0.1897E+02  0.1778E+03
     10.843  0.1292E+02  0.1802E+03
     11.032  0.8641E+01  0.1819E+03
     11.220  0.1267E+02  0.1842E+03
     11.408  0.8086E+01  0.1858E+03
     11.597  0.8550E+01  0.1874E+03
     11.785  0.4863E+01  0.1883E+03
     11.973  0.4832E+01  0.1892E+03
     12.162  0.3311E+01  0.1898E+03
     12.350  0.4540E+01  0.1907E+03
     12.538  0.6978E+01  0.1920E+03
     12.727  0.5264E+01  0.1930E+03
     12.915  0.8651E+01  0.1946E+03
     13.103  0.7379E+01  0.1960E+03
     13.292  0.1112E+02  0.1981E+03
     13.480  0.7944E+01  0.1996E+03
     13.668  0.7213E+01  0.2010E+03
     13.857  0.9308E+01  0.2027E+03
     14.045  0.1087E+02  0.2048E+03
     14.233  0.2866E+01  0.2053E+03
     14.422  0.3870E+01  0.2060E+03
     14.610  0.3345E+01  0.2067E+03
     14.798  0.1289E+01  0.2069E+03
     14.986  0.5977E+01  0.2080E+03
     15.175  0.3194E+01  0.2086E+03
     15.363  0.4756E+01  0.2095E+03
     15.551  0.3188E+02  0.2155E+03
     15.740  0.1500E+01  0.2158E+03
     15.928  0.6697E+00  0.2159E+03
     16.116  0.3542E+00  0.2160E+03
     16.305  0.5803E-04  0.2160E+03
     16.493  0.0000E+00  0.2160E+03
     16.681  0.0000E+00  0.2160E+03
     16.870  0.0000E+00  0.2160E+03
     17.058  0.0000E+00  0.2160E+03
     17.246  0.0000E+00  0.2160E+03
     17.435  0.0000E+00  0.2160E+03
     17.623  0.0000E+00  0.2160E+03
     17.811  0.0000E+00  0.2160E+03
     18.000  0.0000E+00  0.2160E+03
     18.188  0.0000E+00  0.2160E+03
     18.376  0.0000E+00  0.2160E+03
     18.565  0.0000E+00  0.2160E+03
