Hf4 Cr8
1.0
   5.0208777700000002    0.0000000000000000    0.0000000000000000
  -2.5104383800000001    4.3482076899999997    0.0000000000000000
  -0.0000000000000000   -0.0000000000000000    8.0377056600000003
Hf Cr
4 8
direct
   0.3333330000000000    0.6666670000000000    0.4397793800000000 Hf
   0.6666670000000000    0.3333330000000000    0.5602206199999999 Hf
   0.6666670000000000    0.3333330000000000    0.9397793800000001 Hf
   0.3333330000000000    0.6666670000000000    0.0602206200000000 Hf
   0.1684613800000000    0.3369217600000000    0.7500000000000000 Cr
   0.1684613800000000    0.8315386200000000    0.7500000000000000 Cr
   0.3369217600000000    0.1684613800000000    0.2500000000000000 Cr
   0.8315386200000000    0.6630782400000000    0.2500000000000000 Cr
   0.6630782400000000    0.8315386200000000    0.7500000000000000 Cr
   0.0000000000000000   -0.0000000000000000   -0.0000000000000000 Cr
   0.8315386200000000    0.1684613800000000    0.2500000000000000 Cr
   0.0000000000000000   -0.0000000000000000    0.5000000000000000 Cr
