Hf4Cr8
1.0
      5.0208778       0.0000000       0.0000000
     -2.5104384       4.3482077       0.0000000
      0.0000000       0.0000000       8.0377057
  Hf    Cr  
  4     8   
Direct
      0.3333330       0.6666670       0.4397794
      0.6666670       0.3333330       0.5602206
      0.6666670       0.3333330       0.9397794
      0.3333330       0.6666670       0.0602206
      0.1684614       0.3369218       0.7500000
      0.1684614       0.8315386       0.7500000
      0.3369218       0.1684614       0.2500000
      0.8315386       0.6630782       0.2500000
      0.6630782       0.8315386       0.7500000
      0.0000000       0.0000000       0.0000000
      0.8315386       0.1684614       0.2500000
      0.0000000       0.0000000       0.5000000
