unknown system                          
           1
     5.020878    0.000000    0.000000
    -2.510438    4.348208    0.000000
     0.000000    0.000000    8.037706
   Hf   Cr
     4     8
Direct configuration=     1
   0.33333300  0.66666700  0.43977938
   0.66666700  0.33333300  0.56022062
   0.66666700  0.33333300  0.93977938
   0.33333300  0.66666700  0.06022062
   0.16846138  0.33692176  0.75000000
   0.16846138  0.83153862  0.75000000
   0.33692176  0.16846138  0.25000000
   0.83153862  0.66307824  0.25000000
   0.66307824  0.83153862  0.75000000
   0.00000000  0.00000000  0.00000000
   0.83153862  0.16846138  0.25000000
   0.00000000  0.00000000  0.50000000
