S4 N4                                   
   1.00000000000000     
     5.0317569999999998    0.0000000000000000    0.0000000000000000
     0.0000000000000000    3.1533350000000002    0.0000000000000000
     0.0000000000000000    0.2531770000000000    8.9854000000000003
   S    N 
     4     4
Direct
     0.3027230000000003    0.2822000000000031    0.8678510000000017
     0.6972769999999997    0.7177999999999969    0.1321489999999983
     0.1972769999999997    0.2822000000000031    0.3678510000000017
     0.8027230000000003    0.7177999999999969    0.6321489999999983
     0.5972089999999994    0.2733670000000004    0.8463339999999988
     0.4027910000000006    0.7266329999999996    0.1536660000000012
     0.9027910000000006    0.2733670000000004    0.3463339999999988
     0.0972089999999994    0.7266329999999996    0.6536660000000012
 
  0.00000000E+00  0.00000000E+00  0.00000000E+00
  0.00000000E+00  0.00000000E+00  0.00000000E+00
  0.00000000E+00  0.00000000E+00  0.00000000E+00
  0.00000000E+00  0.00000000E+00  0.00000000E+00
  0.00000000E+00  0.00000000E+00  0.00000000E+00
  0.00000000E+00  0.00000000E+00  0.00000000E+00
  0.00000000E+00  0.00000000E+00  0.00000000E+00
  0.00000000E+00  0.00000000E+00  0.00000000E+00
