S4N4
1.0
      5.0317570       0.0000000       0.0000000
      0.0000000       3.1533350       0.0000000
      0.0000000       0.2531770       8.9854000
  S     N   
  4     4   
Direct
      0.3027230       0.2822000       0.8678510
      0.6972770       0.7178000       0.1321490
      0.1972770       0.2822000       0.3678510
      0.8027230       0.7178000       0.6321490
      0.5972090       0.2733670       0.8463340
      0.4027910       0.7266330       0.1536660
      0.9027910       0.2733670       0.3463340
      0.0972090       0.7266330       0.6536660
