unknown system                          
           1
     5.031757    0.000000    0.000000
     0.000000    3.153335    0.000000
     0.000000    0.253177    8.985400
   S    N 
     4     4
Direct configuration=     1
   0.30272300  0.28220000  0.86785100
   0.69727700  0.71780000  0.13214900
   0.19727700  0.28220000  0.36785100
   0.80272300  0.71780000  0.63214900
   0.59720900  0.27336700  0.84633400
   0.40279100  0.72663300  0.15366600
   0.90279100  0.27336700  0.34633400
   0.09720900  0.72663300  0.65366600
