Mn16 O56                                
   1.00000000000000     
    17.8459980000000016    0.0000000000000000    0.0000000000000000
     0.0000000000000000    7.1506509999999999    0.0000000000000000
     0.0000000000000000    1.8592599999999999    9.7689450000000004
   Mn   O 
    16    56
Direct
     0.0023249999999990    0.2159210000000016    0.6713760000000022
     0.5023249999999990    0.7840789999999984    0.8286239999999978
     0.9976750000000010    0.7840789999999984    0.3286239999999978
     0.4976750000000010    0.2159210000000016    0.1713760000000022
     0.0026829999999975    0.7934150000000031    0.8258999999999972
     0.5026829999999975    0.2065849999999969    0.6741000000000028
     0.9973170000000025    0.2065849999999969    0.1741000000000028
     0.4973170000000025    0.7934150000000031    0.3258999999999972
     0.7534700000000001    0.9279579999999967    0.1090060000000008
     0.2534700000000001    0.0720420000000033    0.3909939999999992
     0.2465299999999999    0.0720420000000033    0.8909939999999992
     0.7465299999999999    0.9279579999999967    0.6090060000000008
     0.7539050000000032    0.3502849999999995    0.9537180000000021
     0.2539050000000032    0.6497150000000005    0.5462819999999979
     0.2460949999999968    0.6497150000000005    0.0462819999999979
     0.7460949999999968    0.3502849999999995    0.4537180000000021
     0.0531110000000012    0.1716890000000006    0.5499420000000015
     0.5531110000000012    0.8283109999999994    0.9500579999999985
     0.9468889999999988    0.8283109999999994    0.4500579999999985
     0.4468889999999988    0.1716890000000006    0.0499420000000015
     0.9397319999999993    0.3679970000000026    0.6153720000000007
     0.4397319999999993    0.6320029999999974    0.8846279999999993
     0.0602680000000007    0.6320029999999974    0.3846279999999993
     0.5602680000000007    0.3679970000000026    0.1153720000000007
     0.0530109999999979    0.2876309999999975    0.7826689999999985
     0.5530109999999979    0.7123690000000025    0.7173310000000015
     0.9469890000000021    0.7123690000000025    0.2173310000000015
     0.4469890000000021    0.2876309999999975    0.2826689999999985
     0.0566979999999973    0.7284140000000008    0.7164399999999986
     0.5566979999999973    0.2715859999999992    0.7835600000000014
     0.9433020000000027    0.2715859999999992    0.2835600000000014
     0.4433020000000027    0.7284140000000008    0.2164399999999986
     0.7922020000000032    0.1384109999999978    0.5297020000000003
     0.2922020000000032    0.8615890000000022    0.9702979999999997
     0.2077979999999968    0.8615890000000022    0.4702979999999997
     0.7077979999999968    0.1384109999999978    0.0297020000000003
     0.6959760000000017    0.4210690000000028    0.5661980000000000
     0.1959760000000017    0.5789309999999972    0.9338020000000000
     0.3040239999999983    0.5789309999999972    0.4338020000000000
     0.8040239999999983    0.4210690000000028    0.0661980000000000
     0.8083200000000019    0.5029249999999976    0.3971299999999971
     0.3083200000000019    0.4970750000000024    0.1028700000000029
     0.1916799999999981    0.4970750000000024    0.6028700000000029
     0.6916799999999981    0.5029249999999976    0.8971299999999971
     0.6946670000000026    0.3066529999999972    0.3329290000000000
     0.1946670000000026    0.6933470000000028    0.1670710000000000
     0.3053329999999974    0.6933470000000028    0.6670710000000000
     0.8053329999999974    0.3066529999999972    0.8329290000000000
     0.6915049999999994    0.8618110000000030    0.5015720000000030
     0.1915049999999994    0.1381889999999970    0.9984279999999970
     0.3084950000000006    0.1381889999999970    0.4984279999999970
     0.8084950000000006    0.8618110000000030    0.0015720000000030
     0.8089650000000006    0.7721480000000014    0.6572099999999992
     0.3089650000000006    0.2278519999999986    0.8427900000000008
     0.1910349999999994    0.2278519999999986    0.3427900000000008
     0.6910349999999994    0.7721480000000014    0.1572099999999992
     0.7000900000000030    0.9709700000000012    0.7361590000000007
     0.2000900000000030    0.0290299999999988    0.7638409999999993
     0.2999099999999970    0.0290299999999988    0.2638409999999993
     0.7999099999999970    0.9709700000000012    0.2361590000000007
     0.5434869999999989    0.0042400000000029    0.2483349999999973
     0.0434869999999989    0.9957599999999971    0.2516650000000027
     0.4565130000000011    0.9957599999999971    0.7516650000000027
     0.9565130000000011    0.0042400000000029    0.7483349999999973
     0.4497089999999986    0.8355019999999982    0.4519360000000034
     0.9497089999999986    0.1644980000000018    0.0480639999999966
     0.5502910000000014    0.1644980000000018    0.5480639999999966
     0.0502910000000014    0.8355019999999982    0.9519360000000034
     0.5594060000000027    0.6371970000000005    0.3752879999999976
     0.0594060000000027    0.3628029999999995    0.1247120000000024
     0.4405939999999973    0.3628029999999995    0.6247120000000024
     0.9405939999999973    0.6371970000000005    0.8752879999999976
 
  0.00000000E+00  0.00000000E+00  0.00000000E+00
  0.00000000E+00  0.00000000E+00  0.00000000E+00
  0.00000000E+00  0.00000000E+00  0.00000000E+00
  0.00000000E+00  0.00000000E+00  0.00000000E+00
  0.00000000E+00  0.00000000E+00  0.00000000E+00
  0.00000000E+00  0.00000000E+00  0.00000000E+00
  0.00000000E+00  0.00000000E+00  0.00000000E+00
  0.00000000E+00  0.00000000E+00  0.00000000E+00
  0.00000000E+00  0.00000000E+00  0.00000000E+00
  0.00000000E+00  0.00000000E+00  0.00000000E+00
  0.00000000E+00  0.00000000E+00  0.00000000E+00
  0.00000000E+00  0.00000000E+00  0.00000000E+00
  0.00000000E+00  0.00000000E+00  0.00000000E+00
  0.00000000E+00  0.00000000E+00  0.00000000E+00
  0.00000000E+00  0.00000000E+00  0.00000000E+00
  0.00000000E+00  0.00000000E+00  0.00000000E+00
  0.00000000E+00  0.00000000E+00  0.00000000E+00
  0.00000000E+00  0.00000000E+00  0.00000000E+00
  0.00000000E+00  0.00000000E+00  0.00000000E+00
  0.00000000E+00  0.00000000E+00  0.00000000E+00
  0.00000000E+00  0.00000000E+00  0.00000000E+00
  0.00000000E+00  0.00000000E+00  0.00000000E+00
  0.00000000E+00  0.00000000E+00  0.00000000E+00
  0.00000000E+00  0.00000000E+00  0.00000000E+00
  0.00000000E+00  0.00000000E+00  0.00000000E+00
  0.00000000E+00  0.00000000E+00  0.00000000E+00
  0.00000000E+00  0.00000000E+00  0.00000000E+00
  0.00000000E+00  0.00000000E+00  0.00000000E+00
  0.00000000E+00  0.00000000E+00  0.00000000E+00
  0.00000000E+00  0.00000000E+00  0.00000000E+00
  0.00000000E+00  0.00000000E+00  0.00000000E+00
  0.00000000E+00  0.00000000E+00  0.00000000E+00
  0.00000000E+00  0.00000000E+00  0.00000000E+00
  0.00000000E+00  0.00000000E+00  0.00000000E+00
  0.00000000E+00  0.00000000E+00  0.00000000E+00
  0.00000000E+00  0.00000000E+00  0.00000000E+00
  0.00000000E+00  0.00000000E+00  0.00000000E+00
  0.00000000E+00  0.00000000E+00  0.00000000E+00
  0.00000000E+00  0.00000000E+00  0.00000000E+00
  0.00000000E+00  0.00000000E+00  0.00000000E+00
  0.00000000E+00  0.00000000E+00  0.00000000E+00
  0.00000000E+00  0.00000000E+00  0.00000000E+00
  0.00000000E+00  0.00000000E+00  0.00000000E+00
  0.00000000E+00  0.00000000E+00  0.00000000E+00
  0.00000000E+00  0.00000000E+00  0.00000000E+00
  0.00000000E+00  0.00000000E+00  0.00000000E+00
  0.00000000E+00  0.00000000E+00  0.00000000E+00
  0.00000000E+00  0.00000000E+00  0.00000000E+00
  0.00000000E+00  0.00000000E+00  0.00000000E+00
  0.00000000E+00  0.00000000E+00  0.00000000E+00
  0.00000000E+00  0.00000000E+00  0.00000000E+00
  0.00000000E+00  0.00000000E+00  0.00000000E+00
  0.00000000E+00  0.00000000E+00  0.00000000E+00
  0.00000000E+00  0.00000000E+00  0.00000000E+00
  0.00000000E+00  0.00000000E+00  0.00000000E+00
  0.00000000E+00  0.00000000E+00  0.00000000E+00
  0.00000000E+00  0.00000000E+00  0.00000000E+00
  0.00000000E+00  0.00000000E+00  0.00000000E+00
  0.00000000E+00  0.00000000E+00  0.00000000E+00
  0.00000000E+00  0.00000000E+00  0.00000000E+00
  0.00000000E+00  0.00000000E+00  0.00000000E+00
  0.00000000E+00  0.00000000E+00  0.00000000E+00
  0.00000000E+00  0.00000000E+00  0.00000000E+00
  0.00000000E+00  0.00000000E+00  0.00000000E+00
  0.00000000E+00  0.00000000E+00  0.00000000E+00
  0.00000000E+00  0.00000000E+00  0.00000000E+00
  0.00000000E+00  0.00000000E+00  0.00000000E+00
  0.00000000E+00  0.00000000E+00  0.00000000E+00
  0.00000000E+00  0.00000000E+00  0.00000000E+00
  0.00000000E+00  0.00000000E+00  0.00000000E+00
  0.00000000E+00  0.00000000E+00  0.00000000E+00
  0.00000000E+00  0.00000000E+00  0.00000000E+00
