P16Se20
1.0
      6.8127297       0.0000000       0.0000000
      0.0000000      11.4874923       0.0000000
      0.0000000       0.0000000      13.1955012
  P     Se  
  16    20  
Direct
      0.4903471       0.4699941       0.9408719
      0.5096529       0.9699941       0.0591281
      0.0096529       0.4699941       0.4408719
      0.9903471       0.9699941       0.5591281
      0.7966026       0.5201716       0.8916575
      0.2033974       0.0201716       0.1083425
      0.7033974       0.5201716       0.3916575
      0.2966026       0.0201716       0.6083425
      0.4001068       0.6514961       0.9018988
      0.5998932       0.1514961       0.0981012
      0.0998932       0.6514961       0.4018988
      0.9001068       0.1514961       0.5981012
      0.4609532       0.4858862       0.6830828
      0.5390468       0.9858862       0.3169172
      0.0390468       0.4858862       0.1830828
      0.9609532       0.9858862       0.8169172
      0.3640209       0.3674000       0.8145153
      0.6359791       0.8674000       0.1854847
      0.1359791       0.3674000       0.3145153
      0.8640209       0.8674000       0.6854847
      0.7854187       0.4981538       0.7200956
      0.2145813       0.9981538       0.2799044
      0.7145813       0.4981538       0.2200956
      0.2854187       0.9981538       0.7799044
      0.3288283       0.6579880       0.7341041
      0.6711717       0.1579880       0.2658959
      0.1711717       0.6579880       0.2341041
      0.8288283       0.1579880       0.7658959
      0.7140714       0.7104870       0.9293650
      0.2859286       0.2104870       0.0706350
      0.7859286       0.7104870       0.4293650
      0.2140714       0.2104870       0.5706350
      0.1842936       0.7422221       0.9853209
      0.8157064       0.2422221       0.0146791
      0.3157064       0.7422221       0.4853209
      0.6842936       0.2422221       0.5146791
