unknown system                          
           1
     6.812730    0.000000    0.000000
     0.000000   11.487492    0.000000
     0.000000    0.000000   13.195501
   P    Se
    16    20
Direct configuration=     1
   0.49034707  0.46999412  0.94087186
   0.50965293  0.96999412  0.05912814
   0.00965293  0.46999412  0.44087186
   0.99034707  0.96999412  0.55912814
   0.79660261  0.52017163  0.89165754
   0.20339739  0.02017163  0.10834246
   0.70339739  0.52017163  0.39165754
   0.29660261  0.02017163  0.60834246
   0.40010677  0.65149613  0.90189882
   0.59989323  0.15149613  0.09810118
   0.09989323  0.65149613  0.40189882
   0.90010677  0.15149613  0.59810118
   0.46095323  0.48588617  0.68308280
   0.53904677  0.98588617  0.31691720
   0.03904677  0.48588617  0.18308280
   0.96095323  0.98588617  0.81691720
   0.36402086  0.36739999  0.81451534
   0.63597914  0.86739999  0.18548466
   0.13597914  0.36739999  0.31451534
   0.86402086  0.86739999  0.68548466
   0.78541868  0.49815379  0.72009561
   0.21458132  0.99815379  0.27990439
   0.71458132  0.49815379  0.22009561
   0.28541868  0.99815379  0.77990439
   0.32882827  0.65798801  0.73410412
   0.67117173  0.15798801  0.26589588
   0.17117173  0.65798801  0.23410412
   0.82882827  0.15798801  0.76589588
   0.71407138  0.71048702  0.92936498
   0.28592862  0.21048702  0.07063502
   0.78592862  0.71048702  0.42936498
   0.21407138  0.21048702  0.57063502
   0.18429356  0.74222214  0.98532089
   0.81570644  0.24222214  0.01467911
   0.31570644  0.74222214  0.48532089
   0.68429356  0.24222214  0.51467911
