   4   4   0   0
  0.1410331E+02  0.4698617E-09  0.4698617E-09  0.4698617E-09  0.5000000E-15
  1.000000000000000E-004
  CAR 
 unknown system                          
     31.27177963    -35.28872920  301     10.85227178      1.00000000
    -35.289  0.0000E+00  0.0000E+00
    -35.067  0.0000E+00  0.0000E+00
    -34.845  0.0000E+00  0.0000E+00
    -34.623  0.0000E+00  0.0000E+00
    -34.401  0.0000E+00  0.0000E+00
    -34.179  0.0000E+00  0.0000E+00
    -33.958  0.0000E+00  0.0000E+00
    -33.736  0.0000E+00  0.0000E+00
    -33.514  0.0000E+00  0.0000E+00
    -33.292  0.0000E+00  0.0000E+00
    -33.070  0.0000E+00  0.0000E+00
    -32.848  0.0000E+00  0.0000E+00
    -32.626  0.0000E+00  0.0000E+00
    -32.404  0.3844E-03  0.8529E-04
    -32.183  0.2649E+02  0.5877E+01
    -31.961  0.5531E+00  0.6000E+01
    -31.739  0.0000E+00  0.6000E+01
    -31.517  0.0000E+00  0.6000E+01
    -31.295  0.0000E+00  0.6000E+01
    -31.073  0.0000E+00  0.6000E+01
    -30.851  0.0000E+00  0.6000E+01
    -30.629  0.0000E+00  0.6000E+01
    -30.408  0.0000E+00  0.6000E+01
    -30.186  0.0000E+00  0.6000E+01
    -29.964  0.0000E+00  0.6000E+01
    -29.742  0.0000E+00  0.6000E+01
    -29.520  0.0000E+00  0.6000E+01
    -29.298  0.0000E+00  0.6000E+01
    -29.076  0.0000E+00  0.6000E+01
    -28.855  0.0000E+00  0.6000E+01
    -28.633  0.0000E+00  0.6000E+01
    -28.411  0.0000E+00  0.6000E+01
    -28.189  0.0000E+00  0.6000E+01
    -27.967  0.0000E+00  0.6000E+01
    -27.745  0.0000E+00  0.6000E+01
    -27.523  0.0000E+00  0.6000E+01
    -27.301  0.0000E+00  0.6000E+01
    -27.080  0.0000E+00  0.6000E+01
    -26.858  0.0000E+00  0.6000E+01
    -26.636  0.0000E+00  0.6000E+01
    -26.414  0.0000E+00  0.6000E+01
    -26.192  0.0000E+00  0.6000E+01
    -25.970  0.0000E+00  0.6000E+01
    -25.748  0.0000E+00  0.6000E+01
    -25.527  0.0000E+00  0.6000E+01
    -25.305  0.0000E+00  0.6000E+01
    -25.083  0.0000E+00  0.6000E+01
    -24.861  0.0000E+00  0.6000E+01
    -24.639  0.0000E+00  0.6000E+01
    -24.417  0.0000E+00  0.6000E+01
    -24.195  0.0000E+00  0.6000E+01
    -23.973  0.0000E+00  0.6000E+01
    -23.752  0.0000E+00  0.6000E+01
    -23.530  0.0000E+00  0.6000E+01
    -23.308  0.0000E+00  0.6000E+01
    -23.086  0.0000E+00  0.6000E+01
    -22.864  0.0000E+00  0.6000E+01
    -22.642  0.0000E+00  0.6000E+01
    -22.420  0.0000E+00  0.6000E+01
    -22.198  0.0000E+00  0.6000E+01
    -21.977  0.0000E+00  0.6000E+01
    -21.755  0.0000E+00  0.6000E+01
    -21.533  0.0000E+00  0.6000E+01
    -21.311  0.0000E+00  0.6000E+01
    -21.089  0.0000E+00  0.6000E+01
    -20.867  0.0000E+00  0.6000E+01
    -20.645  0.0000E+00  0.6000E+01
    -20.424  0.0000E+00  0.6000E+01
    -20.202  0.0000E+00  0.6000E+01
    -19.980  0.0000E+00  0.6000E+01
    -19.758  0.0000E+00  0.6000E+01
    -19.536  0.0000E+00  0.6000E+01
    -19.314  0.0000E+00  0.6000E+01
    -19.092  0.0000E+00  0.6000E+01
    -18.870  0.0000E+00  0.6000E+01
    -18.649  0.0000E+00  0.6000E+01
    -18.427  0.0000E+00  0.6000E+01
    -18.205  0.0000E+00  0.6000E+01
    -17.983  0.0000E+00  0.6000E+01
    -17.761  0.0000E+00  0.6000E+01
    -17.539  0.0000E+00  0.6000E+01
    -17.317  0.0000E+00  0.6000E+01
    -17.096  0.0000E+00  0.6000E+01
    -16.874  0.0000E+00  0.6000E+01
    -16.652  0.0000E+00  0.6000E+01
    -16.430  0.0000E+00  0.6000E+01
    -16.208  0.0000E+00  0.6000E+01
    -15.986  0.0000E+00  0.6000E+01
    -15.764  0.0000E+00  0.6000E+01
    -15.542  0.0000E+00  0.6000E+01
    -15.321  0.0000E+00  0.6000E+01
    -15.099  0.0000E+00  0.6000E+01
    -14.877  0.0000E+00  0.6000E+01
    -14.655  0.0000E+00  0.6000E+01
    -14.433  0.0000E+00  0.6000E+01
    -14.211  0.0000E+00  0.6000E+01
    -13.989  0.0000E+00  0.6000E+01
    -13.767  0.0000E+00  0.6000E+01
    -13.546  0.0000E+00  0.6000E+01
    -13.324  0.0000E+00  0.6000E+01
    -13.102  0.0000E+00  0.6000E+01
    -12.880  0.0000E+00  0.6000E+01
    -12.658  0.0000E+00  0.6000E+01
    -12.436  0.0000E+00  0.6000E+01
    -12.214  0.0000E+00  0.6000E+01
    -11.993  0.0000E+00  0.6000E+01
    -11.771  0.0000E+00  0.6000E+01
    -11.549  0.0000E+00  0.6000E+01
    -11.327  0.0000E+00  0.6000E+01
    -11.105  0.0000E+00  0.6000E+01
    -10.883  0.0000E+00  0.6000E+01
    -10.661  0.0000E+00  0.6000E+01
    -10.439  0.0000E+00  0.6000E+01
    -10.218  0.0000E+00  0.6000E+01
     -9.996  0.0000E+00  0.6000E+01
     -9.774  0.0000E+00  0.6000E+01
     -9.552  0.0000E+00  0.6000E+01
     -9.330  0.0000E+00  0.6000E+01
     -9.108  0.0000E+00  0.6000E+01
     -8.886  0.0000E+00  0.6000E+01
     -8.665  0.0000E+00  0.6000E+01
     -8.443  0.0000E+00  0.6000E+01
     -8.221  0.0000E+00  0.6000E+01
     -7.999  0.0000E+00  0.6000E+01
     -7.777  0.0000E+00  0.6000E+01
     -7.555  0.0000E+00  0.6000E+01
     -7.333  0.0000E+00  0.6000E+01
     -7.111  0.0000E+00  0.6000E+01
     -6.890  0.0000E+00  0.6000E+01
     -6.668  0.0000E+00  0.6000E+01
     -6.446  0.0000E+00  0.6000E+01
     -6.224  0.0000E+00  0.6000E+01
     -6.002  0.0000E+00  0.6000E+01
     -5.780  0.0000E+00  0.6000E+01
     -5.558  0.0000E+00  0.6000E+01
     -5.337  0.0000E+00  0.6000E+01
     -5.115  0.0000E+00  0.6000E+01
     -4.893  0.0000E+00  0.6000E+01
     -4.671  0.0000E+00  0.6000E+01
     -4.449  0.0000E+00  0.6000E+01
     -4.227  0.0000E+00  0.6000E+01
     -4.005  0.0000E+00  0.6000E+01
     -3.783  0.0000E+00  0.6000E+01
     -3.562  0.0000E+00  0.6000E+01
     -3.340  0.0000E+00  0.6000E+01
     -3.118  0.0000E+00  0.6000E+01
     -2.896  0.0000E+00  0.6000E+01
     -2.674  0.0000E+00  0.6000E+01
     -2.452  0.0000E+00  0.6000E+01
     -2.230  0.0000E+00  0.6000E+01
     -2.008  0.0000E+00  0.6000E+01
     -1.787  0.0000E+00  0.6000E+01
     -1.565  0.0000E+00  0.6000E+01
     -1.343  0.0000E+00  0.6000E+01
     -1.121  0.0000E+00  0.6000E+01
     -0.899  0.0000E+00  0.6000E+01
     -0.677  0.0000E+00  0.6000E+01
     -0.455  0.0000E+00  0.6000E+01
     -0.234  0.0000E+00  0.6000E+01
     -0.012  0.0000E+00  0.6000E+01
      0.210  0.7907E-15  0.6000E+01
      0.432  0.2863E-02  0.6001E+01
      0.654  0.2346E-01  0.6006E+01
      0.876  0.2265E+00  0.6056E+01
      1.098  0.1297E+00  0.6085E+01
      1.320  0.1349E+00  0.6115E+01
      1.541  0.3077E+00  0.6183E+01
      1.763  0.1486E+00  0.6216E+01
      1.985  0.6370E+00  0.6357E+01
      2.207  0.2041E+00  0.6403E+01
      2.429  0.6278E+00  0.6542E+01
      2.651  0.5099E+00  0.6655E+01
      2.873  0.3241E+00  0.6727E+01
      3.094  0.1289E+01  0.7013E+01
      3.316  0.1204E+01  0.7280E+01
      3.538  0.2860E+01  0.7915E+01
      3.760  0.2298E+01  0.8425E+01
      3.982  0.3165E+01  0.9127E+01
      4.204  0.3686E+01  0.9945E+01
      4.426  0.6554E+01  0.1140E+02
      4.648  0.4334E+01  0.1236E+02
      4.869  0.5775E+01  0.1364E+02
      5.091  0.4761E+01  0.1470E+02
      5.313  0.4231E+01  0.1564E+02
      5.535  0.2442E+01  0.1618E+02
      5.757  0.4831E+01  0.1725E+02
      5.979  0.4219E+01  0.1819E+02
      6.201  0.4626E+01  0.1921E+02
      6.423  0.2863E+01  0.1985E+02
      6.644  0.6102E+01  0.2120E+02
      6.866  0.4593E+01  0.2222E+02
      7.088  0.6222E+01  0.2360E+02
      7.310  0.4702E+01  0.2464E+02
      7.532  0.6251E+01  0.2603E+02
      7.754  0.7267E+01  0.2764E+02
      7.976  0.6107E+01  0.2900E+02
      8.197  0.5220E+01  0.3016E+02
      8.419  0.4476E+01  0.3115E+02
      8.641  0.4137E+01  0.3207E+02
      8.863  0.4340E+01  0.3303E+02
      9.085  0.4224E+01  0.3397E+02
      9.307  0.3756E+01  0.3480E+02
      9.529  0.4545E+01  0.3581E+02
      9.751  0.4829E+01  0.3688E+02
      9.972  0.4629E+01  0.3791E+02
     10.194  0.3713E+01  0.3873E+02
     10.416  0.3939E+01  0.3961E+02
     10.638  0.3014E+01  0.4027E+02
     10.860  0.3409E+01  0.4103E+02
     11.082  0.4356E+01  0.4200E+02
     11.304  0.4206E+01  0.4293E+02
     11.525  0.4407E+01  0.4391E+02
     11.747  0.5430E+01  0.4511E+02
     11.969  0.5808E+01  0.4640E+02
     12.191  0.6097E+01  0.4775E+02
     12.413  0.1693E+01  0.4813E+02
     12.635  0.2177E+01  0.4861E+02
     12.857  0.2378E+01  0.4914E+02
     13.079  0.4184E+00  0.4923E+02
     13.300  0.1002E+01  0.4946E+02
     13.522  0.1145E+01  0.4971E+02
     13.744  0.3314E+00  0.4978E+02
     13.966  0.9442E+00  0.4999E+02
     14.188  0.1028E+01  0.5022E+02
     14.410  0.1680E+01  0.5059E+02
     14.632  0.1133E+01  0.5084E+02
     14.854  0.8595E+00  0.5104E+02
     15.075  0.7155E+00  0.5119E+02
     15.297  0.6298E+00  0.5133E+02
     15.519  0.1770E+01  0.5173E+02
     15.741  0.1604E+01  0.5208E+02
     15.963  0.6198E+00  0.5222E+02
     16.185  0.7562E+00  0.5239E+02
     16.407  0.9051E+00  0.5259E+02
     16.628  0.1052E+01  0.5282E+02
     16.850  0.2092E+00  0.5287E+02
     17.072  0.1661E+00  0.5291E+02
     17.294  0.5926E+00  0.5304E+02
     17.516  0.1796E+01  0.5344E+02
     17.738  0.6522E+00  0.5358E+02
     17.960  0.1193E+01  0.5384E+02
     18.182  0.1186E+01  0.5411E+02
     18.403  0.1156E+01  0.5436E+02
     18.625  0.1578E+01  0.5471E+02
     18.847  0.1944E+01  0.5515E+02
     19.069  0.2479E+00  0.5520E+02
     19.291  0.1086E+01  0.5544E+02
     19.513  0.4961E+00  0.5555E+02
     19.735  0.9966E+00  0.5577E+02
     19.956  0.1957E+01  0.5621E+02
     20.178  0.2098E+01  0.5667E+02
     20.400  0.6311E+00  0.5681E+02
     20.622  0.1924E+01  0.5724E+02
     20.844  0.5629E+00  0.5736E+02
     21.066  0.5820E+00  0.5749E+02
     21.288  0.5943E+01  0.5881E+02
     21.510  0.6164E+01  0.6018E+02
     21.731  0.7292E+00  0.6034E+02
     21.953  0.1225E+01  0.6061E+02
     22.175  0.1536E+01  0.6095E+02
     22.397  0.1518E+01  0.6129E+02
     22.619  0.1463E+01  0.6162E+02
     22.841  0.1141E+01  0.6187E+02
     23.063  0.2006E+01  0.6231E+02
     23.285  0.2034E+01  0.6277E+02
     23.506  0.1394E+01  0.6307E+02
     23.728  0.1366E+01  0.6338E+02
     23.950  0.1737E+01  0.6376E+02
     24.172  0.1609E+01  0.6412E+02
     24.394  0.1830E+01  0.6453E+02
     24.616  0.2371E+01  0.6505E+02
     24.838  0.1476E+01  0.6538E+02
     25.059  0.1787E+01  0.6578E+02
     25.281  0.2111E+01  0.6624E+02
     25.503  0.3365E+01  0.6699E+02
     25.725  0.3481E+01  0.6776E+02
     25.947  0.1279E+01  0.6805E+02
     26.169  0.3134E+01  0.6874E+02
     26.391  0.2087E+01  0.6921E+02
     26.613  0.3544E+01  0.6999E+02
     26.834  0.3080E+01  0.7068E+02
     27.056  0.9597E+00  0.7089E+02
     27.278  0.2498E+01  0.7144E+02
     27.500  0.1328E+01  0.7174E+02
     27.722  0.1353E+00  0.7177E+02
     27.944  0.2118E+00  0.7181E+02
     28.166  0.6293E+00  0.7195E+02
     28.387  0.2096E+00  0.7200E+02
     28.609  0.6807E-05  0.7200E+02
     28.831  0.0000E+00  0.7200E+02
     29.053  0.0000E+00  0.7200E+02
     29.275  0.0000E+00  0.7200E+02
     29.497  0.0000E+00  0.7200E+02
     29.719  0.0000E+00  0.7200E+02
     29.941  0.0000E+00  0.7200E+02
     30.162  0.0000E+00  0.7200E+02
     30.384  0.0000E+00  0.7200E+02
     30.606  0.0000E+00  0.7200E+02
     30.828  0.0000E+00  0.7200E+02
     31.050  0.0000E+00  0.7200E+02
     31.272  0.0000E+00  0.7200E+02
