Ir3 Ru1
1.0
  -1.9170482499999999    1.9170482499999999    3.8375584800000002
   1.9170482499999999   -1.9170482499999999    3.8375584800000002
   1.9170482499999999    1.9170482499999999   -3.8375584800000002
Ir Ru
3 1
direct
   0.7499990000000000    0.2500000000000000    0.4999980000000000 Ir
   0.2500000000000000    0.7499990000000000    0.4999980000000000 Ir
   0.4999990000000000    0.4999990000000000    0.0000000000000000 Ir
   0.0000000000000000    0.0000000000000000    0.0000000000000000 Ru
