   3   3   0   0
  0.1485722E+02  0.2747073E-09  0.3944070E-09  0.4764342E-09  0.5000000E-15
  1.000000000000000E-004
  CAR 
 unknown system                          
     32.46474012    -27.23174400  301     11.25537880      1.00000000
    -27.232  0.0000E+00  0.0000E+00
    -27.033  0.0000E+00  0.0000E+00
    -26.834  0.0000E+00  0.0000E+00
    -26.635  0.0000E+00  0.0000E+00
    -26.436  0.0000E+00  0.0000E+00
    -26.237  0.0000E+00  0.0000E+00
    -26.038  0.0000E+00  0.0000E+00
    -25.839  0.0000E+00  0.0000E+00
    -25.640  0.0000E+00  0.0000E+00
    -25.441  0.0000E+00  0.0000E+00
    -25.242  0.0000E+00  0.0000E+00
    -25.043  0.0000E+00  0.0000E+00
    -24.844  0.0000E+00  0.0000E+00
    -24.645  0.2569E-03  0.5112E-04
    -24.446  0.1885E+01  0.3752E+00
    -24.247  0.7871E+01  0.1941E+01
    -24.048  0.1582E+02  0.5090E+01
    -23.849  0.1809E+01  0.5450E+01
    -23.650  0.2433E+01  0.5934E+01
    -23.451  0.3313E+00  0.6000E+01
    -23.252  0.0000E+00  0.6000E+01
    -23.053  0.0000E+00  0.6000E+01
    -22.854  0.0000E+00  0.6000E+01
    -22.655  0.0000E+00  0.6000E+01
    -22.456  0.0000E+00  0.6000E+01
    -22.257  0.0000E+00  0.6000E+01
    -22.058  0.0000E+00  0.6000E+01
    -21.859  0.0000E+00  0.6000E+01
    -21.660  0.0000E+00  0.6000E+01
    -21.461  0.0000E+00  0.6000E+01
    -21.262  0.0000E+00  0.6000E+01
    -21.063  0.0000E+00  0.6000E+01
    -20.864  0.0000E+00  0.6000E+01
    -20.665  0.0000E+00  0.6000E+01
    -20.466  0.0000E+00  0.6000E+01
    -20.267  0.0000E+00  0.6000E+01
    -20.068  0.0000E+00  0.6000E+01
    -19.869  0.0000E+00  0.6000E+01
    -19.670  0.0000E+00  0.6000E+01
    -19.471  0.0000E+00  0.6000E+01
    -19.272  0.0000E+00  0.6000E+01
    -19.073  0.0000E+00  0.6000E+01
    -18.874  0.0000E+00  0.6000E+01
    -18.675  0.0000E+00  0.6000E+01
    -18.476  0.0000E+00  0.6000E+01
    -18.277  0.0000E+00  0.6000E+01
    -18.078  0.0000E+00  0.6000E+01
    -17.879  0.0000E+00  0.6000E+01
    -17.680  0.0000E+00  0.6000E+01
    -17.481  0.0000E+00  0.6000E+01
    -17.282  0.0000E+00  0.6000E+01
    -17.083  0.0000E+00  0.6000E+01
    -16.884  0.0000E+00  0.6000E+01
    -16.685  0.0000E+00  0.6000E+01
    -16.486  0.0000E+00  0.6000E+01
    -16.287  0.0000E+00  0.6000E+01
    -16.088  0.0000E+00  0.6000E+01
    -15.889  0.0000E+00  0.6000E+01
    -15.690  0.0000E+00  0.6000E+01
    -15.491  0.0000E+00  0.6000E+01
    -15.292  0.0000E+00  0.6000E+01
    -15.093  0.0000E+00  0.6000E+01
    -14.894  0.0000E+00  0.6000E+01
    -14.695  0.0000E+00  0.6000E+01
    -14.496  0.0000E+00  0.6000E+01
    -14.298  0.0000E+00  0.6000E+01
    -14.099  0.0000E+00  0.6000E+01
    -13.900  0.0000E+00  0.6000E+01
    -13.701  0.0000E+00  0.6000E+01
    -13.502  0.0000E+00  0.6000E+01
    -13.303  0.0000E+00  0.6000E+01
    -13.104  0.0000E+00  0.6000E+01
    -12.905  0.0000E+00  0.6000E+01
    -12.706  0.0000E+00  0.6000E+01
    -12.507  0.0000E+00  0.6000E+01
    -12.308  0.0000E+00  0.6000E+01
    -12.109  0.0000E+00  0.6000E+01
    -11.910  0.0000E+00  0.6000E+01
    -11.711  0.0000E+00  0.6000E+01
    -11.512  0.0000E+00  0.6000E+01
    -11.313  0.0000E+00  0.6000E+01
    -11.114  0.0000E+00  0.6000E+01
    -10.915  0.0000E+00  0.6000E+01
    -10.716  0.0000E+00  0.6000E+01
    -10.517  0.0000E+00  0.6000E+01
    -10.318  0.0000E+00  0.6000E+01
    -10.119  0.0000E+00  0.6000E+01
     -9.920  0.0000E+00  0.6000E+01
     -9.721  0.0000E+00  0.6000E+01
     -9.522  0.0000E+00  0.6000E+01
     -9.323  0.0000E+00  0.6000E+01
     -9.124  0.0000E+00  0.6000E+01
     -8.925  0.0000E+00  0.6000E+01
     -8.726  0.0000E+00  0.6000E+01
     -8.527  0.0000E+00  0.6000E+01
     -8.328  0.0000E+00  0.6000E+01
     -8.129  0.0000E+00  0.6000E+01
     -7.930  0.0000E+00  0.6000E+01
     -7.731  0.0000E+00  0.6000E+01
     -7.532  0.0000E+00  0.6000E+01
     -7.333  0.0000E+00  0.6000E+01
     -7.134  0.0000E+00  0.6000E+01
     -6.935  0.0000E+00  0.6000E+01
     -6.736  0.0000E+00  0.6000E+01
     -6.537  0.0000E+00  0.6000E+01
     -6.338  0.0000E+00  0.6000E+01
     -6.139  0.0000E+00  0.6000E+01
     -5.940  0.0000E+00  0.6000E+01
     -5.741  0.0000E+00  0.6000E+01
     -5.542  0.0000E+00  0.6000E+01
     -5.343  0.0000E+00  0.6000E+01
     -5.144  0.0000E+00  0.6000E+01
     -4.945  0.0000E+00  0.6000E+01
     -4.746  0.0000E+00  0.6000E+01
     -4.547  0.0000E+00  0.6000E+01
     -4.348  0.0000E+00  0.6000E+01
     -4.149  0.0000E+00  0.6000E+01
     -3.950  0.0000E+00  0.6000E+01
     -3.751  0.0000E+00  0.6000E+01
     -3.552  0.0000E+00  0.6000E+01
     -3.353  0.0000E+00  0.6000E+01
     -3.154  0.0000E+00  0.6000E+01
     -2.955  0.0000E+00  0.6000E+01
     -2.756  0.0000E+00  0.6000E+01
     -2.557  0.0000E+00  0.6000E+01
     -2.358  0.0000E+00  0.6000E+01
     -2.159  0.0000E+00  0.6000E+01
     -1.960  0.0000E+00  0.6000E+01
     -1.761  0.0000E+00  0.6000E+01
     -1.562  0.0000E+00  0.6000E+01
     -1.363  0.0000E+00  0.6000E+01
     -1.164  0.0000E+00  0.6000E+01
     -0.965  0.0000E+00  0.6000E+01
     -0.766  0.0000E+00  0.6000E+01
     -0.567  0.0000E+00  0.6000E+01
     -0.368  0.0000E+00  0.6000E+01
     -0.169  0.0000E+00  0.6000E+01
      0.030  0.0000E+00  0.6000E+01
      0.229  0.0000E+00  0.6000E+01
      0.428  0.0000E+00  0.6000E+01
      0.627  0.0000E+00  0.6000E+01
      0.826  0.0000E+00  0.6000E+01
      1.025  0.0000E+00  0.6000E+01
      1.224  0.0000E+00  0.6000E+01
      1.423  0.0000E+00  0.6000E+01
      1.622  0.0000E+00  0.6000E+01
      1.821  0.0000E+00  0.6000E+01
      2.020  0.0000E+00  0.6000E+01
      2.219  0.0000E+00  0.6000E+01
      2.418  0.0000E+00  0.6000E+01
      2.616  0.0000E+00  0.6000E+01
      2.815  0.0000E+00  0.6000E+01
      3.014  0.0000E+00  0.6000E+01
      3.213  0.0000E+00  0.6000E+01
      3.412  0.7559E-05  0.6000E+01
      3.611  0.2147E-01  0.6004E+01
      3.810  0.5200E-01  0.6015E+01
      4.009  0.2124E+00  0.6057E+01
      4.208  0.1150E+00  0.6080E+01
      4.407  0.1644E+00  0.6112E+01
      4.606  0.2978E+00  0.6172E+01
      4.805  0.3619E+00  0.6244E+01
      5.004  0.3380E+00  0.6311E+01
      5.203  0.4479E+00  0.6400E+01
      5.402  0.1282E+01  0.6655E+01
      5.601  0.2746E+01  0.7202E+01
      5.800  0.4570E+01  0.8111E+01
      5.999  0.5617E+01  0.9229E+01
      6.198  0.6803E+01  0.1058E+02
      6.397  0.6398E+01  0.1186E+02
      6.596  0.4877E+01  0.1283E+02
      6.795  0.3702E+01  0.1356E+02
      6.994  0.5260E+01  0.1461E+02
      7.193  0.3739E+01  0.1535E+02
      7.392  0.4723E+01  0.1629E+02
      7.591  0.4082E+01  0.1711E+02
      7.790  0.4936E+01  0.1809E+02
      7.989  0.6202E+01  0.1932E+02
      8.188  0.5810E+01  0.2048E+02
      8.387  0.5070E+01  0.2149E+02
      8.586  0.4822E+01  0.2245E+02
      8.785  0.5047E+01  0.2345E+02
      8.984  0.4556E+01  0.2436E+02
      9.183  0.4489E+01  0.2525E+02
      9.382  0.4623E+01  0.2617E+02
      9.581  0.5809E+01  0.2733E+02
      9.780  0.4884E+01  0.2830E+02
      9.979  0.3590E+01  0.2901E+02
     10.178  0.3145E+01  0.2964E+02
     10.377  0.2851E+01  0.3021E+02
     10.576  0.1878E+01  0.3058E+02
     10.775  0.2229E+01  0.3102E+02
     10.974  0.1651E+01  0.3135E+02
     11.173  0.2100E+01  0.3177E+02
     11.372  0.2375E+01  0.3224E+02
     11.571  0.1652E+01  0.3257E+02
     11.770  0.2231E+01  0.3301E+02
     11.969  0.2856E+01  0.3358E+02
     12.168  0.4270E+01  0.3443E+02
     12.367  0.3096E+01  0.3505E+02
     12.566  0.3994E+01  0.3584E+02
     12.765  0.3162E+01  0.3647E+02
     12.964  0.3170E+01  0.3710E+02
     13.163  0.1916E+01  0.3748E+02
     13.362  0.1930E+01  0.3787E+02
     13.561  0.1054E+01  0.3808E+02
     13.760  0.1310E+01  0.3834E+02
     13.959  0.1004E+01  0.3854E+02
     14.158  0.1131E+01  0.3876E+02
     14.357  0.9227E+00  0.3895E+02
     14.556  0.6902E+00  0.3908E+02
     14.755  0.8094E+00  0.3925E+02
     14.954  0.6220E+00  0.3937E+02
     15.153  0.7146E+00  0.3951E+02
     15.352  0.5824E+00  0.3963E+02
     15.551  0.9230E+00  0.3981E+02
     15.750  0.7873E+00  0.3997E+02
     15.949  0.9302E+00  0.4015E+02
     16.148  0.8159E+00  0.4032E+02
     16.347  0.5839E+00  0.4043E+02
     16.546  0.7647E+00  0.4058E+02
     16.745  0.6206E+00  0.4071E+02
     16.944  0.6977E+00  0.4085E+02
     17.143  0.7788E+00  0.4100E+02
     17.342  0.5626E+00  0.4111E+02
     17.541  0.8244E+00  0.4128E+02
     17.740  0.5083E+00  0.4138E+02
     17.939  0.7408E+00  0.4153E+02
     18.138  0.6600E+00  0.4166E+02
     18.337  0.3478E+00  0.4173E+02
     18.536  0.3081E+00  0.4179E+02
     18.735  0.2210E+00  0.4183E+02
     18.934  0.5170E+00  0.4193E+02
     19.133  0.3561E+00  0.4201E+02
     19.332  0.6951E+00  0.4214E+02
     19.531  0.1710E+01  0.4248E+02
     19.729  0.1290E+01  0.4274E+02
     19.928  0.9455E+00  0.4293E+02
     20.127  0.1124E+01  0.4315E+02
     20.326  0.8927E+00  0.4333E+02
     20.525  0.6293E+00  0.4346E+02
     20.724  0.1394E+01  0.4373E+02
     20.923  0.1051E+01  0.4394E+02
     21.122  0.8717E+00  0.4412E+02
     21.321  0.8579E+00  0.4429E+02
     21.520  0.9756E+00  0.4448E+02
     21.719  0.1177E+01  0.4471E+02
     21.918  0.9319E+00  0.4490E+02
     22.117  0.1177E+01  0.4513E+02
     22.316  0.9747E+00  0.4533E+02
     22.515  0.9222E+00  0.4551E+02
     22.714  0.1209E+01  0.4575E+02
     22.913  0.1302E+01  0.4601E+02
     23.112  0.1198E+01  0.4625E+02
     23.311  0.1668E+01  0.4658E+02
     23.510  0.1346E+01  0.4685E+02
     23.709  0.1861E+01  0.4722E+02
     23.908  0.2144E+01  0.4765E+02
     24.107  0.1466E+01  0.4794E+02
     24.306  0.1961E+01  0.4833E+02
     24.505  0.1940E+01  0.4871E+02
     24.704  0.1486E+01  0.4901E+02
     24.903  0.1984E+01  0.4940E+02
     25.102  0.1562E+01  0.4972E+02
     25.301  0.9281E+00  0.4990E+02
     25.500  0.1584E+01  0.5022E+02
     25.699  0.1160E+01  0.5045E+02
     25.898  0.2063E+01  0.5086E+02
     26.097  0.2372E+01  0.5133E+02
     26.296  0.2513E+01  0.5183E+02
     26.495  0.2743E+01  0.5237E+02
     26.694  0.2386E+01  0.5285E+02
     26.893  0.1940E+01  0.5324E+02
     27.092  0.1939E+01  0.5362E+02
     27.291  0.1646E+01  0.5395E+02
     27.490  0.1461E+01  0.5424E+02
     27.689  0.1380E+01  0.5451E+02
     27.888  0.1205E+01  0.5475E+02
     28.087  0.1859E+01  0.5512E+02
     28.286  0.1300E+01  0.5538E+02
     28.485  0.1179E+01  0.5562E+02
     28.684  0.1043E+01  0.5582E+02
     28.883  0.4154E+00  0.5591E+02
     29.082  0.2343E+00  0.5595E+02
     29.281  0.1729E-01  0.5596E+02
     29.480  0.1022E+00  0.5598E+02
     29.679  0.6871E-01  0.5599E+02
     29.878  0.4210E-01  0.5600E+02
     30.077  0.4640E-05  0.5600E+02
     30.276  0.0000E+00  0.5600E+02
     30.475  0.0000E+00  0.5600E+02
     30.674  0.0000E+00  0.5600E+02
     30.873  0.0000E+00  0.5600E+02
     31.072  0.0000E+00  0.5600E+02
     31.271  0.0000E+00  0.5600E+02
     31.470  0.0000E+00  0.5600E+02
     31.669  0.0000E+00  0.5600E+02
     31.868  0.0000E+00  0.5600E+02
     32.067  0.0000E+00  0.5600E+02
     32.266  0.0000E+00  0.5600E+02
     32.465  0.0000E+00  0.5600E+02
