       N       E                     dE             d eps       ncg     rms          rms(c)
DAV:   1     0.278718127983E+03    0.27872E+03   -0.16832E+04 25888   0.134E+03
DAV:   2    -0.118850332603E+02   -0.29060E+03   -0.26899E+03 26456   0.348E+02
DAV:   3    -0.231582429832E+02   -0.11273E+02   -0.10943E+02 29128   0.715E+01
DAV:   4    -0.232835256673E+02   -0.12528E+00   -0.12518E+00 29636   0.705E+00
DAV:   5    -0.232860012871E+02   -0.24756E-02   -0.24755E-02 28984   0.102E+00    0.175E+01
DAV:   6    -0.218415988001E+02    0.14444E+01   -0.21623E+00 27996   0.125E+01    0.563E+00
DAV:   7    -0.218216293199E+02    0.19969E-01   -0.60219E-01 28068   0.725E+00    0.406E+00
DAV:   8    -0.216760256294E+02    0.14560E+00   -0.18173E-01 27560   0.447E+00    0.164E+00
DAV:   9    -0.216665896865E+02    0.94359E-02   -0.13549E-02 28384   0.762E-01    0.218E-01
DAV:  10    -0.216664033657E+02    0.18632E-03   -0.41352E-04 32968   0.160E-01    0.928E-02
DAV:  11    -0.216663902953E+02    0.13070E-04   -0.64351E-05 29304   0.459E-02    0.269E-02
DAV:  12    -0.216663883794E+02    0.19159E-05   -0.59433E-06 28692   0.214E-02    0.569E-03
DAV:  13    -0.216663870082E+02    0.13712E-05   -0.40655E-07 16332   0.629E-03    0.108E-03
DAV:  14    -0.216663868147E+02    0.19351E-06   -0.92071E-08 14784   0.329E-03
   1 F= -.21666387E+02 E0= -.21664752E+02  d E =-.326921E-02
