Ba2                                     
   1.00000000000000     
     2.5169042300000002   -3.5917737299999999    0.0000000000000000
     2.5169042300000002    3.5917737299999999    0.0000000000000000
     0.0000000000000000    0.0000000000000000    7.1900451800000003
   Ba
     2
Direct
     0.2532260300000004    0.2532260300000004    0.2500000000000000
     0.7467739699999996    0.7467739699999996    0.7500000000000000
 
  0.00000000E+00  0.00000000E+00  0.00000000E+00
  0.00000000E+00  0.00000000E+00  0.00000000E+00
