   2   2   0   0
  0.6499909E+02  0.4385846E-09  0.4385846E-09  0.7190045E-09  0.5000000E-15
  1.000000000000000E-004
  CAR 
 unknown system                          
      4.18271364    -28.89131893  301      1.49614178      1.00000000
    -28.891  0.0000E+00  0.0000E+00
    -28.781  0.0000E+00  0.0000E+00
    -28.671  0.0000E+00  0.0000E+00
    -28.561  0.0000E+00  0.0000E+00
    -28.450  0.0000E+00  0.0000E+00
    -28.340  0.0000E+00  0.0000E+00
    -28.230  0.0000E+00  0.0000E+00
    -28.120  0.0000E+00  0.0000E+00
    -28.009  0.0000E+00  0.0000E+00
    -27.899  0.0000E+00  0.0000E+00
    -27.789  0.0000E+00  0.0000E+00
    -27.679  0.8392E-16  0.9252E-17
    -27.568  0.2667E-06  0.2941E-07
    -27.458  0.1110E+00  0.1224E-01
    -27.348  0.2088E+02  0.2314E+01
    -27.238  0.1527E+02  0.3997E+01
    -27.127  0.2710E-01  0.4000E+01
    -27.017  0.1236E-07  0.4000E+01
    -26.907  0.0000E+00  0.4000E+01
    -26.797  0.0000E+00  0.4000E+01
    -26.686  0.0000E+00  0.4000E+01
    -26.576  0.0000E+00  0.4000E+01
    -26.466  0.0000E+00  0.4000E+01
    -26.356  0.0000E+00  0.4000E+01
    -26.245  0.0000E+00  0.4000E+01
    -26.135  0.0000E+00  0.4000E+01
    -26.025  0.0000E+00  0.4000E+01
    -25.915  0.0000E+00  0.4000E+01
    -25.804  0.0000E+00  0.4000E+01
    -25.694  0.0000E+00  0.4000E+01
    -25.584  0.0000E+00  0.4000E+01
    -25.474  0.0000E+00  0.4000E+01
    -25.363  0.0000E+00  0.4000E+01
    -25.253  0.0000E+00  0.4000E+01
    -25.143  0.0000E+00  0.4000E+01
    -25.033  0.0000E+00  0.4000E+01
    -24.922  0.0000E+00  0.4000E+01
    -24.812  0.0000E+00  0.4000E+01
    -24.702  0.0000E+00  0.4000E+01
    -24.592  0.0000E+00  0.4000E+01
    -24.481  0.0000E+00  0.4000E+01
    -24.371  0.0000E+00  0.4000E+01
    -24.261  0.0000E+00  0.4000E+01
    -24.151  0.0000E+00  0.4000E+01
    -24.040  0.0000E+00  0.4000E+01
    -23.930  0.0000E+00  0.4000E+01
    -23.820  0.0000E+00  0.4000E+01
    -23.710  0.0000E+00  0.4000E+01
    -23.599  0.0000E+00  0.4000E+01
    -23.489  0.0000E+00  0.4000E+01
    -23.379  0.0000E+00  0.4000E+01
    -23.269  0.0000E+00  0.4000E+01
    -23.158  0.0000E+00  0.4000E+01
    -23.048  0.0000E+00  0.4000E+01
    -22.938  0.0000E+00  0.4000E+01
    -22.828  0.0000E+00  0.4000E+01
    -22.717  0.0000E+00  0.4000E+01
    -22.607  0.0000E+00  0.4000E+01
    -22.497  0.0000E+00  0.4000E+01
    -22.387  0.0000E+00  0.4000E+01
    -22.277  0.0000E+00  0.4000E+01
    -22.166  0.0000E+00  0.4000E+01
    -22.056  0.0000E+00  0.4000E+01
    -21.946  0.0000E+00  0.4000E+01
    -21.836  0.0000E+00  0.4000E+01
    -21.725  0.0000E+00  0.4000E+01
    -21.615  0.0000E+00  0.4000E+01
    -21.505  0.0000E+00  0.4000E+01
    -21.395  0.0000E+00  0.4000E+01
    -21.284  0.0000E+00  0.4000E+01
    -21.174  0.0000E+00  0.4000E+01
    -21.064  0.0000E+00  0.4000E+01
    -20.954  0.0000E+00  0.4000E+01
    -20.843  0.0000E+00  0.4000E+01
    -20.733  0.0000E+00  0.4000E+01
    -20.623  0.0000E+00  0.4000E+01
    -20.513  0.0000E+00  0.4000E+01
    -20.402  0.0000E+00  0.4000E+01
    -20.292  0.0000E+00  0.4000E+01
    -20.182  0.0000E+00  0.4000E+01
    -20.072  0.0000E+00  0.4000E+01
    -19.961  0.0000E+00  0.4000E+01
    -19.851  0.0000E+00  0.4000E+01
    -19.741  0.0000E+00  0.4000E+01
    -19.631  0.0000E+00  0.4000E+01
    -19.520  0.0000E+00  0.4000E+01
    -19.410  0.0000E+00  0.4000E+01
    -19.300  0.0000E+00  0.4000E+01
    -19.190  0.0000E+00  0.4000E+01
    -19.079  0.0000E+00  0.4000E+01
    -18.969  0.0000E+00  0.4000E+01
    -18.859  0.0000E+00  0.4000E+01
    -18.749  0.0000E+00  0.4000E+01
    -18.638  0.0000E+00  0.4000E+01
    -18.528  0.0000E+00  0.4000E+01
    -18.418  0.0000E+00  0.4000E+01
    -18.308  0.0000E+00  0.4000E+01
    -18.197  0.0000E+00  0.4000E+01
    -18.087  0.0000E+00  0.4000E+01
    -17.977  0.0000E+00  0.4000E+01
    -17.867  0.0000E+00  0.4000E+01
    -17.756  0.0000E+00  0.4000E+01
    -17.646  0.0000E+00  0.4000E+01
    -17.536  0.0000E+00  0.4000E+01
    -17.426  0.0000E+00  0.4000E+01
    -17.315  0.0000E+00  0.4000E+01
    -17.205  0.0000E+00  0.4000E+01
    -17.095  0.0000E+00  0.4000E+01
    -16.985  0.0000E+00  0.4000E+01
    -16.874  0.0000E+00  0.4000E+01
    -16.764  0.0000E+00  0.4000E+01
    -16.654  0.0000E+00  0.4000E+01
    -16.544  0.0000E+00  0.4000E+01
    -16.433  0.0000E+00  0.4000E+01
    -16.323  0.0000E+00  0.4000E+01
    -16.213  0.0000E+00  0.4000E+01
    -16.103  0.0000E+00  0.4000E+01
    -15.992  0.0000E+00  0.4000E+01
    -15.882  0.0000E+00  0.4000E+01
    -15.772  0.0000E+00  0.4000E+01
    -15.662  0.0000E+00  0.4000E+01
    -15.551  0.0000E+00  0.4000E+01
    -15.441  0.0000E+00  0.4000E+01
    -15.331  0.0000E+00  0.4000E+01
    -15.221  0.0000E+00  0.4000E+01
    -15.110  0.0000E+00  0.4000E+01
    -15.000  0.0000E+00  0.4000E+01
    -14.890  0.0000E+00  0.4000E+01
    -14.780  0.0000E+00  0.4000E+01
    -14.669  0.0000E+00  0.4000E+01
    -14.559  0.0000E+00  0.4000E+01
    -14.449  0.0000E+00  0.4000E+01
    -14.339  0.0000E+00  0.4000E+01
    -14.228  0.0000E+00  0.4000E+01
    -14.118  0.0000E+00  0.4000E+01
    -14.008  0.0000E+00  0.4000E+01
    -13.898  0.0000E+00  0.4000E+01
    -13.788  0.0000E+00  0.4000E+01
    -13.677  0.0000E+00  0.4000E+01
    -13.567  0.0000E+00  0.4000E+01
    -13.457  0.0000E+00  0.4000E+01
    -13.347  0.0000E+00  0.4000E+01
    -13.236  0.0000E+00  0.4000E+01
    -13.126  0.0000E+00  0.4000E+01
    -13.016  0.9270E-13  0.4000E+01
    -12.906  0.1971E-04  0.4000E+01
    -12.795  0.5036E+00  0.4056E+01
    -12.685  0.1678E+02  0.5905E+01
    -12.575  0.2310E+02  0.8452E+01
    -12.465  0.3038E+02  0.1180E+02
    -12.354  0.3338E+02  0.1548E+02
    -12.244  0.4701E+01  0.1600E+02
    -12.134  0.1463E-02  0.1600E+02
    -12.024  0.7911E-10  0.1600E+02
    -11.913  0.0000E+00  0.1600E+02
    -11.803  0.0000E+00  0.1600E+02
    -11.693  0.0000E+00  0.1600E+02
    -11.583  0.0000E+00  0.1600E+02
    -11.472  0.0000E+00  0.1600E+02
    -11.362  0.0000E+00  0.1600E+02
    -11.252  0.0000E+00  0.1600E+02
    -11.142  0.0000E+00  0.1600E+02
    -11.031  0.0000E+00  0.1600E+02
    -10.921  0.0000E+00  0.1600E+02
    -10.811  0.0000E+00  0.1600E+02
    -10.701  0.0000E+00  0.1600E+02
    -10.590  0.0000E+00  0.1600E+02
    -10.480  0.0000E+00  0.1600E+02
    -10.370  0.0000E+00  0.1600E+02
    -10.260  0.0000E+00  0.1600E+02
    -10.149  0.0000E+00  0.1600E+02
    -10.039  0.0000E+00  0.1600E+02
     -9.929  0.0000E+00  0.1600E+02
     -9.819  0.0000E+00  0.1600E+02
     -9.708  0.0000E+00  0.1600E+02
     -9.598  0.0000E+00  0.1600E+02
     -9.488  0.0000E+00  0.1600E+02
     -9.378  0.0000E+00  0.1600E+02
     -9.267  0.0000E+00  0.1600E+02
     -9.157  0.0000E+00  0.1600E+02
     -9.047  0.0000E+00  0.1600E+02
     -8.937  0.0000E+00  0.1600E+02
     -8.826  0.0000E+00  0.1600E+02
     -8.716  0.0000E+00  0.1600E+02
     -8.606  0.0000E+00  0.1600E+02
     -8.496  0.0000E+00  0.1600E+02
     -8.385  0.0000E+00  0.1600E+02
     -8.275  0.0000E+00  0.1600E+02
     -8.165  0.0000E+00  0.1600E+02
     -8.055  0.0000E+00  0.1600E+02
     -7.944  0.0000E+00  0.1600E+02
     -7.834  0.0000E+00  0.1600E+02
     -7.724  0.0000E+00  0.1600E+02
     -7.614  0.0000E+00  0.1600E+02
     -7.503  0.0000E+00  0.1600E+02
     -7.393  0.0000E+00  0.1600E+02
     -7.283  0.0000E+00  0.1600E+02
     -7.173  0.0000E+00  0.1600E+02
     -7.062  0.0000E+00  0.1600E+02
     -6.952  0.0000E+00  0.1600E+02
     -6.842  0.0000E+00  0.1600E+02
     -6.732  0.0000E+00  0.1600E+02
     -6.621  0.0000E+00  0.1600E+02
     -6.511  0.0000E+00  0.1600E+02
     -6.401  0.0000E+00  0.1600E+02
     -6.291  0.0000E+00  0.1600E+02
     -6.180  0.0000E+00  0.1600E+02
     -6.070  0.0000E+00  0.1600E+02
     -5.960  0.0000E+00  0.1600E+02
     -5.850  0.0000E+00  0.1600E+02
     -5.739  0.0000E+00  0.1600E+02
     -5.629  0.0000E+00  0.1600E+02
     -5.519  0.0000E+00  0.1600E+02
     -5.409  0.0000E+00  0.1600E+02
     -5.299  0.0000E+00  0.1600E+02
     -5.188  0.0000E+00  0.1600E+02
     -5.078  0.0000E+00  0.1600E+02
     -4.968  0.0000E+00  0.1600E+02
     -4.858  0.0000E+00  0.1600E+02
     -4.747  0.0000E+00  0.1600E+02
     -4.637  0.0000E+00  0.1600E+02
     -4.527  0.0000E+00  0.1600E+02
     -4.417  0.0000E+00  0.1600E+02
     -4.306  0.0000E+00  0.1600E+02
     -4.196  0.0000E+00  0.1600E+02
     -4.086  0.0000E+00  0.1600E+02
     -3.976  0.0000E+00  0.1600E+02
     -3.865  0.0000E+00  0.1600E+02
     -3.755  0.0000E+00  0.1600E+02
     -3.645  0.0000E+00  0.1600E+02
     -3.535  0.0000E+00  0.1600E+02
     -3.424  0.0000E+00  0.1600E+02
     -3.314  0.0000E+00  0.1600E+02
     -3.204  0.0000E+00  0.1600E+02
     -3.094  0.0000E+00  0.1600E+02
     -2.983  0.0000E+00  0.1600E+02
     -2.873  0.0000E+00  0.1600E+02
     -2.763  0.0000E+00  0.1600E+02
     -2.653  0.0000E+00  0.1600E+02
     -2.542  0.0000E+00  0.1600E+02
     -2.432  0.0000E+00  0.1600E+02
     -2.322  0.0000E+00  0.1600E+02
     -2.212  0.0000E+00  0.1600E+02
     -2.101  0.0000E+00  0.1600E+02
     -1.991  0.0000E+00  0.1600E+02
     -1.881  0.0000E+00  0.1600E+02
     -1.771  0.0000E+00  0.1600E+02
     -1.660  0.0000E+00  0.1600E+02
     -1.550  0.0000E+00  0.1600E+02
     -1.440  0.0000E+00  0.1600E+02
     -1.330  0.0000E+00  0.1600E+02
     -1.219  0.6258E-10  0.1600E+02
     -1.109  0.3348E-03  0.1600E+02
     -0.999  0.2333E+00  0.1603E+02
     -0.889  0.4314E+00  0.1607E+02
     -0.778  0.3408E+00  0.1611E+02
     -0.668  0.2009E-02  0.1611E+02
     -0.558  0.1026E-01  0.1611E+02
     -0.448  0.7684E+00  0.1620E+02
     -0.337  0.1173E+01  0.1633E+02
     -0.227  0.7299E-01  0.1633E+02
     -0.117  0.9830E+00  0.1644E+02
     -0.007  0.9761E+00  0.1655E+02
      0.104  0.5499E+00  0.1661E+02
      0.214  0.3629E+00  0.1665E+02
      0.324  0.1518E+01  0.1682E+02
      0.434  0.5626E+00  0.1688E+02
      0.545  0.1064E+01  0.1700E+02
      0.655  0.2599E+01  0.1728E+02
      0.765  0.2881E+01  0.1760E+02
      0.875  0.3009E+01  0.1793E+02
      0.986  0.3813E+01  0.1835E+02
      1.096  0.7070E+00  0.1843E+02
      1.206  0.1569E+01  0.1860E+02
      1.316  0.5268E+01  0.1919E+02
      1.427  0.4591E+01  0.1969E+02
      1.537  0.4451E+01  0.2018E+02
      1.647  0.1014E+01  0.2029E+02
      1.757  0.1617E+01  0.2047E+02
      1.868  0.8530E+00  0.2057E+02
      1.978  0.2155E+01  0.2080E+02
      2.088  0.8456E+01  0.2174E+02
      2.198  0.6348E+01  0.2244E+02
      2.309  0.4749E+01  0.2296E+02
      2.419  0.4384E+01  0.2344E+02
      2.529  0.2617E+01  0.2373E+02
      2.639  0.1284E+01  0.2387E+02
      2.750  0.1137E+01  0.2400E+02
      2.860  0.1076E-01  0.2400E+02
      2.970  0.4449E-07  0.2400E+02
      3.080  0.0000E+00  0.2400E+02
      3.190  0.0000E+00  0.2400E+02
      3.301  0.0000E+00  0.2400E+02
      3.411  0.0000E+00  0.2400E+02
      3.521  0.0000E+00  0.2400E+02
      3.631  0.0000E+00  0.2400E+02
      3.742  0.0000E+00  0.2400E+02
      3.852  0.0000E+00  0.2400E+02
      3.962  0.0000E+00  0.2400E+02
      4.072  0.0000E+00  0.2400E+02
      4.183  0.0000E+00  0.2400E+02
