Li4Br4
1.0
      5.4453812       0.0000000       0.0000000
      0.0000000       5.4453812       0.0000000
      0.0000000       0.0000000       5.4453812
  Li    Br  
  4     4   
Direct
      0.0000000       0.0000000       0.0000000
      0.0000000       0.5000000       0.5000000
      0.5000000       0.0000000       0.5000000
      0.5000000       0.5000000       0.0000000
      0.0000000       0.5000000       0.0000000
      0.0000000       0.0000000       0.5000000
      0.5000000       0.5000000       0.5000000
      0.5000000       0.0000000       0.0000000
