Zn13 Rh1                                
   1.00000000000000     
     5.0453202800000003    0.0074070200000000    0.8140905800000000
     0.7001516600000000    6.0742086999999998    2.3139976899999999
     0.0275705600000000   -0.0013095100000000    6.5375890800000001
   Zn   Rh
    13     1
Direct
     0.0000000000000000    0.0000000000000000    0.0000000000000000
     0.6757202300000031    0.3847520599999967    0.7746102199999996
     0.3242797699999969    0.2253897800000004    0.6152479400000033
     0.3242797699999969    0.6152479400000033    0.2253897800000004
     0.6757202300000031    0.7746102199999996    0.3847520599999967
     0.8013232500000029    0.6383108799999988    0.0016663399999999
     0.1986767499999971    0.9983336600000001    0.3616891200000012
     0.1986767499999971    0.3616891200000012    0.9983336600000001
     0.8013232500000029    0.0016663399999999    0.6383108799999988
     0.6353446800000029    0.2228029300000003    0.2228029300000003
     0.3646553199999971    0.7771970699999997    0.7771970699999997
     0.9308416100000017    0.3875484900000004    0.3875484900000004
     0.0691583899999983    0.6124515099999996    0.6124515099999996
     0.5000000000000000    0.0000000000000000    0.0000000000000000
 
  0.00000000E+00  0.00000000E+00  0.00000000E+00
  0.00000000E+00  0.00000000E+00  0.00000000E+00
  0.00000000E+00  0.00000000E+00  0.00000000E+00
  0.00000000E+00  0.00000000E+00  0.00000000E+00
  0.00000000E+00  0.00000000E+00  0.00000000E+00
  0.00000000E+00  0.00000000E+00  0.00000000E+00
  0.00000000E+00  0.00000000E+00  0.00000000E+00
  0.00000000E+00  0.00000000E+00  0.00000000E+00
  0.00000000E+00  0.00000000E+00  0.00000000E+00
  0.00000000E+00  0.00000000E+00  0.00000000E+00
  0.00000000E+00  0.00000000E+00  0.00000000E+00
  0.00000000E+00  0.00000000E+00  0.00000000E+00
  0.00000000E+00  0.00000000E+00  0.00000000E+00
  0.00000000E+00  0.00000000E+00  0.00000000E+00
