  15  15   0   0
  0.1374106E+02  0.3488202E-09  0.7184009E-09  0.8613558E-09  0.5000000E-15
  1.000000000000000E-004
  CAR 
 unknown system                          
     18.33227723    -40.18077357  301      2.55813395      1.00000000
    -40.181  0.0000E+00  0.0000E+00
    -39.986  0.0000E+00  0.0000E+00
    -39.791  0.0000E+00  0.0000E+00
    -39.596  0.0000E+00  0.0000E+00
    -39.401  0.0000E+00  0.0000E+00
    -39.206  0.0000E+00  0.0000E+00
    -39.011  0.0000E+00  0.0000E+00
    -38.815  0.0000E+00  0.0000E+00
    -38.620  0.0000E+00  0.0000E+00
    -38.425  0.0000E+00  0.0000E+00
    -38.230  0.0000E+00  0.0000E+00
    -38.035  0.0000E+00  0.0000E+00
    -37.840  0.0000E+00  0.0000E+00
    -37.645  0.2721E-03  0.5308E-04
    -37.450  0.2075E+02  0.4048E+01
    -37.255  0.3123E+02  0.1014E+02
    -37.060  0.9536E+01  0.1200E+02
    -36.865  0.1848E-05  0.1200E+02
    -36.670  0.0000E+00  0.1200E+02
    -36.475  0.0000E+00  0.1200E+02
    -36.280  0.0000E+00  0.1200E+02
    -36.085  0.0000E+00  0.1200E+02
    -35.890  0.0000E+00  0.1200E+02
    -35.695  0.0000E+00  0.1200E+02
    -35.500  0.0000E+00  0.1200E+02
    -35.305  0.0000E+00  0.1200E+02
    -35.110  0.0000E+00  0.1200E+02
    -34.915  0.0000E+00  0.1200E+02
    -34.720  0.0000E+00  0.1200E+02
    -34.525  0.0000E+00  0.1200E+02
    -34.329  0.0000E+00  0.1200E+02
    -34.134  0.0000E+00  0.1200E+02
    -33.939  0.0000E+00  0.1200E+02
    -33.744  0.0000E+00  0.1200E+02
    -33.549  0.0000E+00  0.1200E+02
    -33.354  0.0000E+00  0.1200E+02
    -33.159  0.0000E+00  0.1200E+02
    -32.964  0.0000E+00  0.1200E+02
    -32.769  0.0000E+00  0.1200E+02
    -32.574  0.0000E+00  0.1200E+02
    -32.379  0.0000E+00  0.1200E+02
    -32.184  0.0000E+00  0.1200E+02
    -31.989  0.0000E+00  0.1200E+02
    -31.794  0.0000E+00  0.1200E+02
    -31.599  0.0000E+00  0.1200E+02
    -31.404  0.0000E+00  0.1200E+02
    -31.209  0.0000E+00  0.1200E+02
    -31.014  0.0000E+00  0.1200E+02
    -30.819  0.0000E+00  0.1200E+02
    -30.624  0.0000E+00  0.1200E+02
    -30.429  0.0000E+00  0.1200E+02
    -30.234  0.0000E+00  0.1200E+02
    -30.039  0.0000E+00  0.1200E+02
    -29.843  0.0000E+00  0.1200E+02
    -29.648  0.0000E+00  0.1200E+02
    -29.453  0.0000E+00  0.1200E+02
    -29.258  0.0000E+00  0.1200E+02
    -29.063  0.0000E+00  0.1200E+02
    -28.868  0.0000E+00  0.1200E+02
    -28.673  0.0000E+00  0.1200E+02
    -28.478  0.0000E+00  0.1200E+02
    -28.283  0.0000E+00  0.1200E+02
    -28.088  0.0000E+00  0.1200E+02
    -27.893  0.0000E+00  0.1200E+02
    -27.698  0.0000E+00  0.1200E+02
    -27.503  0.0000E+00  0.1200E+02
    -27.308  0.0000E+00  0.1200E+02
    -27.113  0.0000E+00  0.1200E+02
    -26.918  0.0000E+00  0.1200E+02
    -26.723  0.0000E+00  0.1200E+02
    -26.528  0.0000E+00  0.1200E+02
    -26.333  0.0000E+00  0.1200E+02
    -26.138  0.0000E+00  0.1200E+02
    -25.943  0.0000E+00  0.1200E+02
    -25.748  0.0000E+00  0.1200E+02
    -25.553  0.0000E+00  0.1200E+02
    -25.357  0.0000E+00  0.1200E+02
    -25.162  0.0000E+00  0.1200E+02
    -24.967  0.0000E+00  0.1200E+02
    -24.772  0.0000E+00  0.1200E+02
    -24.577  0.0000E+00  0.1200E+02
    -24.382  0.0000E+00  0.1200E+02
    -24.187  0.0000E+00  0.1200E+02
    -23.992  0.0000E+00  0.1200E+02
    -23.797  0.0000E+00  0.1200E+02
    -23.602  0.0000E+00  0.1200E+02
    -23.407  0.0000E+00  0.1200E+02
    -23.212  0.0000E+00  0.1200E+02
    -23.017  0.0000E+00  0.1200E+02
    -22.822  0.0000E+00  0.1200E+02
    -22.627  0.0000E+00  0.1200E+02
    -22.432  0.0000E+00  0.1200E+02
    -22.237  0.0000E+00  0.1200E+02
    -22.042  0.0000E+00  0.1200E+02
    -21.847  0.0000E+00  0.1200E+02
    -21.652  0.0000E+00  0.1200E+02
    -21.457  0.0000E+00  0.1200E+02
    -21.262  0.0000E+00  0.1200E+02
    -21.067  0.0000E+00  0.1200E+02
    -20.871  0.0000E+00  0.1200E+02
    -20.676  0.0000E+00  0.1200E+02
    -20.481  0.0000E+00  0.1200E+02
    -20.286  0.0000E+00  0.1200E+02
    -20.091  0.0000E+00  0.1200E+02
    -19.896  0.0000E+00  0.1200E+02
    -19.701  0.0000E+00  0.1200E+02
    -19.506  0.0000E+00  0.1200E+02
    -19.311  0.0000E+00  0.1200E+02
    -19.116  0.0000E+00  0.1200E+02
    -18.921  0.1021E-08  0.1200E+02
    -18.726  0.1092E+00  0.1202E+02
    -18.531  0.5471E+01  0.1309E+02
    -18.336  0.1503E+02  0.1602E+02
    -18.141  0.2159E+02  0.2023E+02
    -17.946  0.1381E+02  0.2292E+02
    -17.751  0.1485E+02  0.2582E+02
    -17.556  0.2439E+02  0.3058E+02
    -17.361  0.5424E+02  0.4116E+02
    -17.166  0.3371E+02  0.4773E+02
    -16.971  0.1363E+01  0.4800E+02
    -16.776  0.1367E-06  0.4800E+02
    -16.581  0.0000E+00  0.4800E+02
    -16.385  0.0000E+00  0.4800E+02
    -16.190  0.0000E+00  0.4800E+02
    -15.995  0.0000E+00  0.4800E+02
    -15.800  0.0000E+00  0.4800E+02
    -15.605  0.0000E+00  0.4800E+02
    -15.410  0.0000E+00  0.4800E+02
    -15.215  0.0000E+00  0.4800E+02
    -15.020  0.0000E+00  0.4800E+02
    -14.825  0.0000E+00  0.4800E+02
    -14.630  0.0000E+00  0.4800E+02
    -14.435  0.0000E+00  0.4800E+02
    -14.240  0.1742E-09  0.4800E+02
    -14.045  0.3676E-01  0.4801E+02
    -13.850  0.1852E+00  0.4804E+02
    -13.655  0.1103E+01  0.4826E+02
    -13.460  0.3004E+01  0.4884E+02
    -13.265  0.1002E+02  0.5080E+02
    -13.070  0.1055E+02  0.5286E+02
    -12.875  0.1516E+02  0.5581E+02
    -12.680  0.1574E+02  0.5888E+02
    -12.485  0.1694E+02  0.6219E+02
    -12.290  0.1458E+02  0.6503E+02
    -12.095  0.4695E+01  0.6595E+02
    -11.899  0.2701E+00  0.6600E+02
    -11.704  0.2342E-05  0.6600E+02
    -11.509  0.0000E+00  0.6600E+02
    -11.314  0.0000E+00  0.6600E+02
    -11.119  0.0000E+00  0.6600E+02
    -10.924  0.0000E+00  0.6600E+02
    -10.729  0.0000E+00  0.6600E+02
    -10.534  0.0000E+00  0.6600E+02
    -10.339  0.0000E+00  0.6600E+02
    -10.144  0.0000E+00  0.6600E+02
     -9.949  0.0000E+00  0.6600E+02
     -9.754  0.0000E+00  0.6600E+02
     -9.559  0.0000E+00  0.6600E+02
     -9.364  0.0000E+00  0.6600E+02
     -9.169  0.0000E+00  0.6600E+02
     -8.974  0.0000E+00  0.6600E+02
     -8.779  0.0000E+00  0.6600E+02
     -8.584  0.0000E+00  0.6600E+02
     -8.389  0.0000E+00  0.6600E+02
     -8.194  0.0000E+00  0.6600E+02
     -7.999  0.0000E+00  0.6600E+02
     -7.804  0.0000E+00  0.6600E+02
     -7.609  0.0000E+00  0.6600E+02
     -7.413  0.0000E+00  0.6600E+02
     -7.218  0.0000E+00  0.6600E+02
     -7.023  0.0000E+00  0.6600E+02
     -6.828  0.0000E+00  0.6600E+02
     -6.633  0.0000E+00  0.6600E+02
     -6.438  0.0000E+00  0.6600E+02
     -6.243  0.0000E+00  0.6600E+02
     -6.048  0.0000E+00  0.6600E+02
     -5.853  0.0000E+00  0.6600E+02
     -5.658  0.0000E+00  0.6600E+02
     -5.463  0.0000E+00  0.6600E+02
     -5.268  0.0000E+00  0.6600E+02
     -5.073  0.0000E+00  0.6600E+02
     -4.878  0.0000E+00  0.6600E+02
     -4.683  0.0000E+00  0.6600E+02
     -4.488  0.0000E+00  0.6600E+02
     -4.293  0.0000E+00  0.6600E+02
     -4.098  0.0000E+00  0.6600E+02
     -3.903  0.0000E+00  0.6600E+02
     -3.708  0.0000E+00  0.6600E+02
     -3.513  0.0000E+00  0.6600E+02
     -3.318  0.0000E+00  0.6600E+02
     -3.123  0.0000E+00  0.6600E+02
     -2.927  0.0000E+00  0.6600E+02
     -2.732  0.0000E+00  0.6600E+02
     -2.537  0.0000E+00  0.6600E+02
     -2.342  0.0000E+00  0.6600E+02
     -2.147  0.0000E+00  0.6600E+02
     -1.952  0.0000E+00  0.6600E+02
     -1.757  0.0000E+00  0.6600E+02
     -1.562  0.5709E-07  0.6600E+02
     -1.367  0.1524E+00  0.6603E+02
     -1.172  0.1574E+01  0.6634E+02
     -0.977  0.4312E+01  0.6718E+02
     -0.782  0.8865E+01  0.6891E+02
     -0.587  0.1351E+02  0.7154E+02
     -0.392  0.1378E+02  0.7423E+02
     -0.197  0.1465E+02  0.7709E+02
     -0.002  0.1965E+02  0.8092E+02
      0.193  0.2125E+02  0.8506E+02
      0.388  0.1834E+02  0.8864E+02
      0.583  0.1699E+02  0.9196E+02
      0.778  0.1539E+02  0.9496E+02
      0.973  0.1691E+02  0.9826E+02
      1.168  0.1512E+02  0.1012E+03
      1.363  0.1858E+02  0.1048E+03
      1.559  0.1937E+02  0.1086E+03
      1.754  0.1988E+02  0.1125E+03
      1.949  0.1708E+02  0.1158E+03
      2.144  0.1821E+02  0.1194E+03
      2.339  0.3241E+01  0.1200E+03
      2.534  0.3381E-02  0.1200E+03
      2.729  0.0000E+00  0.1200E+03
      2.924  0.0000E+00  0.1200E+03
      3.119  0.0000E+00  0.1200E+03
      3.314  0.0000E+00  0.1200E+03
      3.509  0.0000E+00  0.1200E+03
      3.704  0.0000E+00  0.1200E+03
      3.899  0.0000E+00  0.1200E+03
      4.094  0.0000E+00  0.1200E+03
      4.289  0.0000E+00  0.1200E+03
      4.484  0.0000E+00  0.1200E+03
      4.679  0.0000E+00  0.1200E+03
      4.874  0.0000E+00  0.1200E+03
      5.069  0.0000E+00  0.1200E+03
      5.264  0.0000E+00  0.1200E+03
      5.459  0.0000E+00  0.1200E+03
      5.654  0.0000E+00  0.1200E+03
      5.849  0.0000E+00  0.1200E+03
      6.045  0.9546E-15  0.1200E+03
      6.240  0.1693E-02  0.1200E+03
      6.435  0.2545E+00  0.1200E+03
      6.630  0.2096E+01  0.1205E+03
      6.825  0.2487E+01  0.1209E+03
      7.020  0.3986E+01  0.1217E+03
      7.215  0.4324E+01  0.1226E+03
      7.410  0.7615E+01  0.1240E+03
      7.605  0.6605E+01  0.1253E+03
      7.800  0.7362E+01  0.1268E+03
      7.995  0.5287E+01  0.1278E+03
      8.190  0.9083E+01  0.1296E+03
      8.385  0.9197E+01  0.1314E+03
      8.580  0.1319E+02  0.1339E+03
      8.775  0.1535E+02  0.1369E+03
      8.970  0.1105E+02  0.1391E+03
      9.165  0.1188E+02  0.1414E+03
      9.360  0.1201E+02  0.1438E+03
      9.555  0.1407E+02  0.1465E+03
      9.750  0.1494E+02  0.1494E+03
      9.945  0.1334E+02  0.1520E+03
     10.140  0.1095E+02  0.1541E+03
     10.335  0.1265E+02  0.1566E+03
     10.531  0.9457E+01  0.1585E+03
     10.726  0.8856E+01  0.1602E+03
     10.921  0.1570E+02  0.1632E+03
     11.116  0.1415E+02  0.1660E+03
     11.311  0.1190E+02  0.1683E+03
     11.506  0.8436E+01  0.1700E+03
     11.701  0.1295E+02  0.1725E+03
     11.896  0.1145E+02  0.1747E+03
     12.091  0.9429E+01  0.1766E+03
     12.286  0.7534E+01  0.1780E+03
     12.481  0.5829E+01  0.1792E+03
     12.676  0.6827E+01  0.1805E+03
     12.871  0.9566E+01  0.1824E+03
     13.066  0.1056E+02  0.1844E+03
     13.261  0.4471E+01  0.1853E+03
     13.456  0.4332E+01  0.1862E+03
     13.651  0.3891E+01  0.1869E+03
     13.846  0.2448E+01  0.1874E+03
     14.041  0.3863E+01  0.1881E+03
     14.236  0.3460E+01  0.1888E+03
     14.431  0.3379E+01  0.1895E+03
     14.626  0.1907E+01  0.1899E+03
     14.821  0.3121E+01  0.1905E+03
     15.017  0.2776E+01  0.1910E+03
     15.212  0.2582E+01  0.1915E+03
     15.407  0.9249E+00  0.1917E+03
     15.602  0.1381E+01  0.1920E+03
     15.797  0.2352E+00  0.1920E+03
     15.992  0.4774E-04  0.1920E+03
     16.187  0.0000E+00  0.1920E+03
     16.382  0.0000E+00  0.1920E+03
     16.577  0.0000E+00  0.1920E+03
     16.772  0.0000E+00  0.1920E+03
     16.967  0.0000E+00  0.1920E+03
     17.162  0.0000E+00  0.1920E+03
     17.357  0.0000E+00  0.1920E+03
     17.552  0.0000E+00  0.1920E+03
     17.747  0.0000E+00  0.1920E+03
     17.942  0.0000E+00  0.1920E+03
     18.137  0.0000E+00  0.1920E+03
     18.332  0.0000E+00  0.1920E+03
