Y6 O9
1.0
   3.4882024100000000    0.0000000000000000    0.0000000000000000
  -1.7441012000000000    6.8583640800000003   -1.2373131500000001
   0.0000000000000000    0.0117909700000000    8.6135501500000000
Y O
6 9
direct
   0.6353271600000000    0.2706533300000000    0.4871957600000000 Y
   0.3646728400000000    0.7293466700000000    0.5128042400000000 Y
   0.0331671800000000    0.0663363600000000    0.8131981700000001 Y
   0.6905545100000000    0.3811100300000000    0.1372683700000000 Y
   0.3094454900000000    0.6188899700000000    0.8627316300000000 Y
   0.9668328200000000    0.9336636400000000    0.1868018300000000 Y
   0.1275545500000000    0.2551081000000000    0.2822651100000000 O
   0.8253843000000000    0.6507676000000000    0.0300981400000000 O
   0.7933910800000000    0.5867821700000000    0.3766476900000000 O
   0.4709470600000000    0.9418941300000000    0.3431532600000000 O
   0.5290529400000000    0.0581058700000000    0.6568467400000000 O
   0.5000000000000000   -0.0000000000000000   -0.0000000000000000 O
   0.1746157000000000    0.3492324000000000    0.9699018600000000 O
   0.2066089200000000    0.4132178300000000    0.6233523100000000 O
   0.8724454500000000    0.7448919000000001    0.7177348900000000 O
