   2   2   0   0
  0.1388553E+02  0.3399141E-09  0.3399141E-09  0.3399140E-09  0.5000000E-15
  1.000000000000000E-004
  CAR 
 unknown system                          
     14.16107113    -37.64639724  301      2.61232298      1.00000000
    -37.646  0.0000E+00  0.0000E+00
    -37.474  0.0000E+00  0.0000E+00
    -37.301  0.0000E+00  0.0000E+00
    -37.128  0.0000E+00  0.0000E+00
    -36.956  0.0000E+00  0.0000E+00
    -36.783  0.0000E+00  0.0000E+00
    -36.610  0.0000E+00  0.0000E+00
    -36.438  0.0000E+00  0.0000E+00
    -36.265  0.0000E+00  0.0000E+00
    -36.092  0.0000E+00  0.0000E+00
    -35.919  0.0000E+00  0.0000E+00
    -35.747  0.0000E+00  0.0000E+00
    -35.574  0.1764E-16  0.3046E-17
    -35.401  0.8262E-04  0.1427E-04
    -35.229  0.2242E+01  0.3871E+00
    -35.056  0.9334E+01  0.1999E+01
    -34.883  0.5433E-02  0.2000E+01
    -34.711  0.0000E+00  0.2000E+01
    -34.538  0.0000E+00  0.2000E+01
    -34.365  0.0000E+00  0.2000E+01
    -34.193  0.0000E+00  0.2000E+01
    -34.020  0.0000E+00  0.2000E+01
    -33.847  0.0000E+00  0.2000E+01
    -33.674  0.0000E+00  0.2000E+01
    -33.502  0.0000E+00  0.2000E+01
    -33.329  0.0000E+00  0.2000E+01
    -33.156  0.0000E+00  0.2000E+01
    -32.984  0.0000E+00  0.2000E+01
    -32.811  0.0000E+00  0.2000E+01
    -32.638  0.0000E+00  0.2000E+01
    -32.466  0.0000E+00  0.2000E+01
    -32.293  0.0000E+00  0.2000E+01
    -32.120  0.0000E+00  0.2000E+01
    -31.948  0.0000E+00  0.2000E+01
    -31.775  0.0000E+00  0.2000E+01
    -31.602  0.0000E+00  0.2000E+01
    -31.430  0.0000E+00  0.2000E+01
    -31.257  0.0000E+00  0.2000E+01
    -31.084  0.0000E+00  0.2000E+01
    -30.911  0.0000E+00  0.2000E+01
    -30.739  0.0000E+00  0.2000E+01
    -30.566  0.0000E+00  0.2000E+01
    -30.393  0.0000E+00  0.2000E+01
    -30.221  0.0000E+00  0.2000E+01
    -30.048  0.0000E+00  0.2000E+01
    -29.875  0.0000E+00  0.2000E+01
    -29.703  0.0000E+00  0.2000E+01
    -29.530  0.0000E+00  0.2000E+01
    -29.357  0.0000E+00  0.2000E+01
    -29.185  0.0000E+00  0.2000E+01
    -29.012  0.0000E+00  0.2000E+01
    -28.839  0.0000E+00  0.2000E+01
    -28.666  0.0000E+00  0.2000E+01
    -28.494  0.0000E+00  0.2000E+01
    -28.321  0.0000E+00  0.2000E+01
    -28.148  0.0000E+00  0.2000E+01
    -27.976  0.0000E+00  0.2000E+01
    -27.803  0.0000E+00  0.2000E+01
    -27.630  0.0000E+00  0.2000E+01
    -27.458  0.0000E+00  0.2000E+01
    -27.285  0.0000E+00  0.2000E+01
    -27.112  0.0000E+00  0.2000E+01
    -26.940  0.0000E+00  0.2000E+01
    -26.767  0.0000E+00  0.2000E+01
    -26.594  0.0000E+00  0.2000E+01
    -26.421  0.0000E+00  0.2000E+01
    -26.249  0.0000E+00  0.2000E+01
    -26.076  0.0000E+00  0.2000E+01
    -25.903  0.0000E+00  0.2000E+01
    -25.731  0.0000E+00  0.2000E+01
    -25.558  0.0000E+00  0.2000E+01
    -25.385  0.0000E+00  0.2000E+01
    -25.213  0.0000E+00  0.2000E+01
    -25.040  0.0000E+00  0.2000E+01
    -24.867  0.0000E+00  0.2000E+01
    -24.695  0.0000E+00  0.2000E+01
    -24.522  0.0000E+00  0.2000E+01
    -24.349  0.0000E+00  0.2000E+01
    -24.176  0.0000E+00  0.2000E+01
    -24.004  0.0000E+00  0.2000E+01
    -23.831  0.0000E+00  0.2000E+01
    -23.658  0.0000E+00  0.2000E+01
    -23.486  0.0000E+00  0.2000E+01
    -23.313  0.0000E+00  0.2000E+01
    -23.140  0.0000E+00  0.2000E+01
    -22.968  0.0000E+00  0.2000E+01
    -22.795  0.0000E+00  0.2000E+01
    -22.622  0.0000E+00  0.2000E+01
    -22.450  0.0000E+00  0.2000E+01
    -22.277  0.0000E+00  0.2000E+01
    -22.104  0.0000E+00  0.2000E+01
    -21.931  0.0000E+00  0.2000E+01
    -21.759  0.0000E+00  0.2000E+01
    -21.586  0.0000E+00  0.2000E+01
    -21.413  0.0000E+00  0.2000E+01
    -21.241  0.0000E+00  0.2000E+01
    -21.068  0.0000E+00  0.2000E+01
    -20.895  0.0000E+00  0.2000E+01
    -20.723  0.0000E+00  0.2000E+01
    -20.550  0.0000E+00  0.2000E+01
    -20.377  0.0000E+00  0.2000E+01
    -20.205  0.0000E+00  0.2000E+01
    -20.032  0.0000E+00  0.2000E+01
    -19.859  0.0000E+00  0.2000E+01
    -19.686  0.0000E+00  0.2000E+01
    -19.514  0.0000E+00  0.2000E+01
    -19.341  0.0000E+00  0.2000E+01
    -19.168  0.0000E+00  0.2000E+01
    -18.996  0.0000E+00  0.2000E+01
    -18.823  0.0000E+00  0.2000E+01
    -18.650  0.0000E+00  0.2000E+01
    -18.478  0.0000E+00  0.2000E+01
    -18.305  0.0000E+00  0.2000E+01
    -18.132  0.0000E+00  0.2000E+01
    -17.960  0.0000E+00  0.2000E+01
    -17.787  0.0000E+00  0.2000E+01
    -17.614  0.0000E+00  0.2000E+01
    -17.441  0.0000E+00  0.2000E+01
    -17.269  0.2309E-04  0.2000E+01
    -17.096  0.3576E+00  0.2062E+01
    -16.923  0.2068E+01  0.2419E+01
    -16.751  0.4116E+01  0.3130E+01
    -16.578  0.3805E+01  0.3787E+01
    -16.405  0.2771E+01  0.4265E+01
    -16.233  0.8178E+01  0.5677E+01
    -16.060  0.1256E+02  0.7846E+01
    -15.887  0.8920E+00  0.8000E+01
    -15.715  0.3102E-06  0.8000E+01
    -15.542  0.0000E+00  0.8000E+01
    -15.369  0.0000E+00  0.8000E+01
    -15.196  0.0000E+00  0.8000E+01
    -15.024  0.0000E+00  0.8000E+01
    -14.851  0.0000E+00  0.8000E+01
    -14.678  0.0000E+00  0.8000E+01
    -14.506  0.0000E+00  0.8000E+01
    -14.333  0.0000E+00  0.8000E+01
    -14.160  0.0000E+00  0.8000E+01
    -13.988  0.0000E+00  0.8000E+01
    -13.815  0.0000E+00  0.8000E+01
    -13.642  0.0000E+00  0.8000E+01
    -13.470  0.8819E-17  0.8000E+01
    -13.297  0.1387E-04  0.8000E+01
    -13.124  0.1530E-01  0.8003E+01
    -12.952  0.1985E+00  0.8037E+01
    -12.779  0.5196E+00  0.8127E+01
    -12.606  0.1907E+01  0.8456E+01
    -12.433  0.3294E+01  0.9025E+01
    -12.261  0.3414E+01  0.9614E+01
    -12.088  0.1854E+01  0.9935E+01
    -11.915  0.3781E+00  0.1000E+02
    -11.743  0.1991E-03  0.1000E+02
    -11.570  0.0000E+00  0.1000E+02
    -11.397  0.0000E+00  0.1000E+02
    -11.225  0.0000E+00  0.1000E+02
    -11.052  0.0000E+00  0.1000E+02
    -10.879  0.0000E+00  0.1000E+02
    -10.707  0.0000E+00  0.1000E+02
    -10.534  0.0000E+00  0.1000E+02
    -10.361  0.0000E+00  0.1000E+02
    -10.188  0.0000E+00  0.1000E+02
    -10.016  0.0000E+00  0.1000E+02
     -9.843  0.0000E+00  0.1000E+02
     -9.670  0.0000E+00  0.1000E+02
     -9.498  0.0000E+00  0.1000E+02
     -9.325  0.0000E+00  0.1000E+02
     -9.152  0.0000E+00  0.1000E+02
     -8.980  0.0000E+00  0.1000E+02
     -8.807  0.0000E+00  0.1000E+02
     -8.634  0.0000E+00  0.1000E+02
     -8.462  0.0000E+00  0.1000E+02
     -8.289  0.0000E+00  0.1000E+02
     -8.116  0.0000E+00  0.1000E+02
     -7.943  0.0000E+00  0.1000E+02
     -7.771  0.0000E+00  0.1000E+02
     -7.598  0.0000E+00  0.1000E+02
     -7.425  0.0000E+00  0.1000E+02
     -7.253  0.0000E+00  0.1000E+02
     -7.080  0.0000E+00  0.1000E+02
     -6.907  0.0000E+00  0.1000E+02
     -6.735  0.0000E+00  0.1000E+02
     -6.562  0.0000E+00  0.1000E+02
     -6.389  0.0000E+00  0.1000E+02
     -6.217  0.0000E+00  0.1000E+02
     -6.044  0.0000E+00  0.1000E+02
     -5.871  0.0000E+00  0.1000E+02
     -5.698  0.0000E+00  0.1000E+02
     -5.526  0.0000E+00  0.1000E+02
     -5.353  0.0000E+00  0.1000E+02
     -5.180  0.0000E+00  0.1000E+02
     -5.008  0.0000E+00  0.1000E+02
     -4.835  0.0000E+00  0.1000E+02
     -4.662  0.0000E+00  0.1000E+02
     -4.490  0.0000E+00  0.1000E+02
     -4.317  0.0000E+00  0.1000E+02
     -4.144  0.0000E+00  0.1000E+02
     -3.972  0.0000E+00  0.1000E+02
     -3.799  0.0000E+00  0.1000E+02
     -3.626  0.0000E+00  0.1000E+02
     -3.453  0.0000E+00  0.1000E+02
     -3.281  0.0000E+00  0.1000E+02
     -3.108  0.0000E+00  0.1000E+02
     -2.935  0.0000E+00  0.1000E+02
     -2.763  0.0000E+00  0.1000E+02
     -2.590  0.0000E+00  0.1000E+02
     -2.417  0.0000E+00  0.1000E+02
     -2.245  0.0000E+00  0.1000E+02
     -2.072  0.0000E+00  0.1000E+02
     -1.899  0.0000E+00  0.1000E+02
     -1.727  0.0000E+00  0.1000E+02
     -1.554  0.0000E+00  0.1000E+02
     -1.381  0.0000E+00  0.1000E+02
     -1.208  0.0000E+00  0.1000E+02
     -1.036  0.0000E+00  0.1000E+02
     -0.863  0.0000E+00  0.1000E+02
     -0.690  0.0000E+00  0.1000E+02
     -0.518  0.3528E-16  0.1000E+02
     -0.345  0.8242E-04  0.1000E+02
     -0.172  0.1412E+00  0.1002E+02
      0.000  0.4678E+00  0.1011E+02
      0.173  0.7851E+00  0.1024E+02
      0.346  0.1733E+01  0.1054E+02
      0.518  0.1890E+01  0.1087E+02
      0.691  0.2886E+01  0.1136E+02
      0.864  0.9378E+00  0.1153E+02
      1.037  0.1450E+01  0.1178E+02
      1.209  0.3407E+01  0.1237E+02
      1.382  0.8048E+01  0.1376E+02
      1.555  0.3386E+01  0.1434E+02
      1.727  0.4034E+01  0.1504E+02
      1.900  0.2934E+01  0.1554E+02
      2.073  0.1820E+01  0.1586E+02
      2.245  0.6694E+00  0.1597E+02
      2.418  0.1533E+00  0.1600E+02
      2.591  0.9590E-03  0.1600E+02
      2.763  0.0000E+00  0.1600E+02
      2.936  0.0000E+00  0.1600E+02
      3.109  0.0000E+00  0.1600E+02
      3.282  0.0000E+00  0.1600E+02
      3.454  0.0000E+00  0.1600E+02
      3.627  0.0000E+00  0.1600E+02
      3.800  0.0000E+00  0.1600E+02
      3.972  0.0000E+00  0.1600E+02
      4.145  0.0000E+00  0.1600E+02
      4.318  0.0000E+00  0.1600E+02
      4.490  0.0000E+00  0.1600E+02
      4.663  0.0000E+00  0.1600E+02
      4.836  0.0000E+00  0.1600E+02
      5.008  0.0000E+00  0.1600E+02
      5.181  0.0000E+00  0.1600E+02
      5.354  0.0000E+00  0.1600E+02
      5.526  0.0000E+00  0.1600E+02
      5.699  0.0000E+00  0.1600E+02
      5.872  0.1039E-06  0.1600E+02
      6.045  0.5328E-01  0.1601E+02
      6.217  0.4216E-01  0.1602E+02
      6.390  0.1819E+00  0.1605E+02
      6.563  0.3780E+00  0.1611E+02
      6.735  0.4090E+00  0.1618E+02
      6.908  0.7953E-01  0.1620E+02
      7.081  0.1628E+00  0.1623E+02
      7.253  0.8324E+00  0.1637E+02
      7.426  0.2772E+00  0.1642E+02
      7.599  0.6366E+00  0.1653E+02
      7.771  0.1247E+01  0.1674E+02
      7.944  0.3972E+00  0.1681E+02
      8.117  0.7325E+00  0.1694E+02
      8.290  0.1221E+01  0.1715E+02
      8.462  0.8926E+00  0.1730E+02
      8.635  0.2181E+01  0.1768E+02
      8.808  0.1041E+01  0.1786E+02
      8.980  0.1428E+01  0.1811E+02
      9.153  0.6851E+00  0.1822E+02
      9.326  0.2044E+01  0.1858E+02
      9.498  0.2039E+01  0.1893E+02
      9.671  0.2159E+01  0.1930E+02
      9.844  0.1318E+01  0.1953E+02
     10.016  0.2906E+01  0.2003E+02
     10.189  0.2478E+01  0.2046E+02
     10.362  0.1398E+01  0.2070E+02
     10.535  0.1788E+01  0.2101E+02
     10.707  0.1634E+01  0.2129E+02
     10.880  0.3086E+01  0.2182E+02
     11.053  0.5062E+01  0.2270E+02
     11.225  0.1873E+01  0.2302E+02
     11.398  0.2787E+01  0.2350E+02
     11.571  0.1643E+01  0.2379E+02
     11.743  0.6508E+00  0.2390E+02
     11.916  0.5803E+00  0.2400E+02
     12.089  0.9917E-04  0.2400E+02
     12.261  0.0000E+00  0.2400E+02
     12.434  0.0000E+00  0.2400E+02
     12.607  0.0000E+00  0.2400E+02
     12.780  0.0000E+00  0.2400E+02
     12.952  0.0000E+00  0.2400E+02
     13.125  0.0000E+00  0.2400E+02
     13.298  0.0000E+00  0.2400E+02
     13.470  0.0000E+00  0.2400E+02
     13.643  0.0000E+00  0.2400E+02
     13.816  0.0000E+00  0.2400E+02
     13.988  0.0000E+00  0.2400E+02
     14.161  0.0000E+00  0.2400E+02
