       N       E                     dE             d eps       ncg     rms          rms(c)
DAV:   1     0.690764300406E+03    0.69076E+03   -0.28024E+04 27512   0.180E+03
DAV:   2     0.868071159645E+01   -0.68208E+03   -0.65675E+03 27464   0.607E+02
DAV:   3    -0.397866981905E+02   -0.48467E+02   -0.44423E+02 31968   0.155E+02
DAV:   4    -0.420029335795E+02   -0.22162E+01   -0.21693E+01 34968   0.360E+01
DAV:   5    -0.420555760865E+02   -0.52643E-01   -0.52580E-01 32704   0.518E+00    0.235E+01
DAV:   6    -0.399296456892E+02    0.21259E+01   -0.46395E+00 33264   0.135E+01    0.835E+00
DAV:   7    -0.395879119626E+02    0.34173E+00   -0.15359E+00 37688   0.128E+01    0.398E+00
DAV:   8    -0.395182143886E+02    0.69698E-01   -0.21732E-01 38824   0.322E+00    0.148E+00
DAV:   9    -0.395125140113E+02    0.57004E-02   -0.16008E-02 30584   0.880E-01    0.219E-01
DAV:  10    -0.395120187480E+02    0.49526E-03   -0.27010E-03 36688   0.616E-01    0.149E-01
DAV:  11    -0.395119054623E+02    0.11329E-03   -0.53235E-04 33304   0.234E-01    0.112E-01
DAV:  12    -0.395119068853E+02   -0.14229E-05   -0.11213E-04 37408   0.835E-02    0.238E-02
DAV:  13    -0.395119045889E+02    0.22963E-05   -0.10775E-05 30776   0.257E-02    0.100E-02
DAV:  14    -0.395119041196E+02    0.46938E-06   -0.12721E-06 17296   0.129E-02
   1 F= -.39511904E+02 E0= -.39506483E+02  d E =-.108421E-01
