Si4 S8
1.0
  -0.0311005500000000    0.0000000000000000    5.8794889200000000
   6.2393113299999996    0.0000000000000000   -1.5292139600000001
   0.0000000000000000    7.9468562100000000    0.0000000000000000
Si S
4 8
direct
   0.6125687800000000    0.1165934100000000    0.3645309400000000 Si
   0.8874312200000000    0.8834065900000000    0.8645309400000000 Si
   0.3874312200000000    0.8834065900000000    0.6354690600000000 Si
   0.1125687800000000    0.1165934100000000    0.1354690600000000 Si
   0.5143794100000000    0.2213822600000000    0.6032223500000000 S
   0.9856205900000000    0.7786177399999999    0.1032223500000000 S
   0.4856205900000000    0.7786177399999999    0.3967776500000000 S
   0.0143794100000000    0.2213822600000000    0.8967776500000000 S
   0.4841640800000000    0.2422652300000000    0.1464350100000000 S
   0.0158359200000000    0.7577347700000000    0.6464350100000000 S
   0.5158359200000000    0.7577347700000000    0.8535649900000000 S
   0.9841640800000000    0.2422652300000000    0.3535649900000000 S
