unknown system                          
           1
    -0.031101    0.000000    5.879489
     6.239311    0.000000   -1.529214
     0.000000    7.946856    0.000000
   Si   S 
     4     8
Direct configuration=     1
   0.61256878  0.11659341  0.36453094
   0.88743122  0.88340659  0.86453094
   0.38743122  0.88340659  0.63546906
   0.11256878  0.11659341  0.13546906
   0.51437941  0.22138226  0.60322235
   0.98562059  0.77861774  0.10322235
   0.48562059  0.77861774  0.39677765
   0.01437941  0.22138226  0.89677765
   0.48416408  0.24226523  0.14643501
   0.01583592  0.75773477  0.64643501
   0.51583592  0.75773477  0.85356499
   0.98416408  0.24226523  0.35356499
