H16 C8 N16
1.0
   6.7544700000000004    0.0000000000000000    0.0000000000000000
   0.0000000000000000    6.9566780000000001    0.0000000000000000
   0.0000000000000000    0.0000000000000000    9.1864600000000003
H C N
16 8 16
direct
   0.9007600000000000    0.2930770000000000    0.4834580000000000 H
   0.5992400000000000    0.7930770000000000    0.5165419999999999 H
   0.4007600000000000    0.7069230000000000    0.0165420000000000 H
   0.0992400000000000    0.2069230000000000    0.9834580000000001 H
   0.0992400000000000    0.7069230000000000    0.5165419999999999 H
   0.4007600000000000    0.2069230000000000    0.4834580000000000 H
   0.5992400000000000    0.2930770000000000    0.9834580000000001 H
   0.9007600000000000    0.7930770000000000    0.0165420000000000 H
   0.7186510000000000    0.4521270000000000    0.4119510000000000 H
   0.7813490000000000    0.9521269999999999    0.5880490000000000 H
   0.2186510000000000    0.5478730000000001    0.0880490000000000 H
   0.2813490000000000    0.0478730000000000    0.9119510000000000 H
   0.2813490000000000    0.5478730000000001    0.5880490000000000 H
   0.2186510000000000    0.0478730000000000    0.4119510000000000 H
   0.7813490000000000    0.4521270000000000    0.9119510000000000 H
   0.7186510000000000    0.9521269999999999    0.0880490000000000 H
   0.9186320000000000    0.3569240000000000    0.2686760000000000 C
   0.5813680000000000    0.8569240000000000    0.7313240000000000 C
   0.4186320000000000    0.6430760000000000    0.2313240000000000 C
   0.0813680000000000    0.1430760000000000    0.7686760000000000 C
   0.0813680000000000    0.6430760000000000    0.7313240000000000 C
   0.4186320000000000    0.1430760000000000    0.2686760000000000 C
   0.5813680000000000    0.3569240000000000    0.7686760000000000 C
   0.9186320000000000    0.8569240000000000    0.2313240000000000 C
   0.8298930000000000    0.3538020000000000    0.3953620000000000 N
   0.6701070000000000    0.8538019999999999    0.6046380000000000 N
   0.3298930000000000    0.6461980000000001    0.1046380000000000 N
   0.1701070000000000    0.1461980000000000    0.8953620000000000 N
   0.1701070000000000    0.6461980000000001    0.6046380000000000 N
   0.3298930000000000    0.1461980000000000    0.3953620000000000 N
   0.6701070000000000    0.3538020000000000    0.8953620000000000 N
   0.8298930000000000    0.8538019999999999    0.1046380000000000 N
   0.9906890000000000    0.3588660000000000    0.1516960000000000 N
   0.5093110000000000    0.8588660000000000    0.8483039999999999 N
   0.4906890000000000    0.6411340000000000    0.3483040000000000 N
   0.0093110000000000    0.1411340000000000    0.6516960000000001 N
   0.0093110000000000    0.6411340000000000    0.8483039999999999 N
   0.4906890000000000    0.1411340000000000    0.1516960000000000 N
   0.5093110000000000    0.3588660000000000    0.6516960000000001 N
   0.9906890000000000    0.8588660000000000    0.3483040000000000 N
