unknown system                          
           1
     6.754470    0.000000    0.000000
     0.000000    6.956678    0.000000
     0.000000    0.000000    9.186460
   H    C    N 
    16     8    16
Direct configuration=     1
   0.90076000  0.29307700  0.48345800
   0.59924000  0.79307700  0.51654200
   0.40076000  0.70692300  0.01654200
   0.09924000  0.20692300  0.98345800
   0.09924000  0.70692300  0.51654200
   0.40076000  0.20692300  0.48345800
   0.59924000  0.29307700  0.98345800
   0.90076000  0.79307700  0.01654200
   0.71865100  0.45212700  0.41195100
   0.78134900  0.95212700  0.58804900
   0.21865100  0.54787300  0.08804900
   0.28134900  0.04787300  0.91195100
   0.28134900  0.54787300  0.58804900
   0.21865100  0.04787300  0.41195100
   0.78134900  0.45212700  0.91195100
   0.71865100  0.95212700  0.08804900
   0.91863200  0.35692400  0.26867600
   0.58136800  0.85692400  0.73132400
   0.41863200  0.64307600  0.23132400
   0.08136800  0.14307600  0.76867600
   0.08136800  0.64307600  0.73132400
   0.41863200  0.14307600  0.26867600
   0.58136800  0.35692400  0.76867600
   0.91863200  0.85692400  0.23132400
   0.82989300  0.35380200  0.39536200
   0.67010700  0.85380200  0.60463800
   0.32989300  0.64619800  0.10463800
   0.17010700  0.14619800  0.89536200
   0.17010700  0.64619800  0.60463800
   0.32989300  0.14619800  0.39536200
   0.67010700  0.35380200  0.89536200
   0.82989300  0.85380200  0.10463800
   0.99068900  0.35886600  0.15169600
   0.50931100  0.85886600  0.84830400
   0.49068900  0.64113400  0.34830400
   0.00931100  0.14113400  0.65169600
   0.00931100  0.64113400  0.84830400
   0.49068900  0.14113400  0.15169600
   0.50931100  0.35886600  0.65169600
   0.99068900  0.85886600  0.34830400
