Ca24 N16                                
   1.00000000000000     
     9.3357647000000004    0.0000000000000000   -3.3006910299999999
    -4.6678828599999997    8.0850096400000009   -3.3006910299999999
     0.0000000000000000    0.0000000000000000    9.9020730900000000
   Ca   N 
    24    16
Direct
     0.0439126099999996    0.2715373699999972    0.0069576799999993
     0.2723762399999998    0.7354213099999996    0.2284626300000028
     0.7645786900000004    0.0369539300000028    0.4930423200000007
     0.4560873900000004    0.4630460699999972    0.2276237600000002
     0.2276237600000002    0.4560873900000004    0.4630460699999972
     0.2715373699999972    0.0069576799999993    0.0439126099999996
     0.2284626300000028    0.2723762399999998    0.7354213099999996
     0.0369539300000028    0.4930423200000007    0.7645786900000004
     0.4930423200000007    0.7645786900000004    0.0369539300000028
     0.7354213099999996    0.2284626300000028    0.2723762399999998
     0.0069576799999993    0.0439126099999996    0.2715373699999972
     0.4630460699999972    0.2276237600000002    0.4560873900000004
     0.9630460699999972    0.5069576799999993    0.2354213099999996
     0.7715373699999972    0.7276237600000002    0.2645786900000004
     0.7284626300000028    0.9930423200000007    0.9560873900000004
     0.7723762399999998    0.5439126099999996    0.5369539300000028
     0.5439126099999996    0.5369539300000028    0.7723762399999998
     0.2354213099999996    0.9630460699999972    0.5069576799999993
     0.7276237600000002    0.2645786900000004    0.7715373699999972
     0.9560873900000004    0.7284626300000028    0.9930423200000007
     0.5069576799999993    0.2354213099999996    0.9630460699999972
     0.2645786900000004    0.7715373699999972    0.7276237600000002
     0.9930423200000007    0.9560873900000004    0.7284626300000028
     0.5369539300000028    0.7723762399999998    0.5439126099999996
     0.2500000000000000    0.7103561600000035    0.4603561600000035
     0.0396438399999965    0.7500000000000000    0.7896438399999965
     0.7896438399999965    0.0396438399999965    0.7500000000000000
     0.4603561600000035    0.2500000000000000    0.7103561600000035
     0.7103561600000035    0.4603561600000035    0.2500000000000000
     0.7500000000000000    0.7896438399999965    0.0396438399999965
     0.7500000000000000    0.2896438399999965    0.5396438399999965
     0.9603561600000035    0.2500000000000000    0.2103561600000035
     0.2103561600000035    0.9603561600000035    0.2500000000000000
     0.5396438399999965    0.7500000000000000    0.2896438399999965
     0.2896438399999965    0.5396438399999965    0.7500000000000000
     0.2500000000000000    0.2103561600000035    0.9603561600000035
     0.0000000000000000    0.5000000000000000    0.0000000000000000
     0.5000000000000000    0.0000000000000000    0.0000000000000000
     0.0000000000000000    0.0000000000000000    0.5000000000000000
     0.5000000000000000    0.5000000000000000    0.5000000000000000
 
  0.00000000E+00  0.00000000E+00  0.00000000E+00
  0.00000000E+00  0.00000000E+00  0.00000000E+00
  0.00000000E+00  0.00000000E+00  0.00000000E+00
  0.00000000E+00  0.00000000E+00  0.00000000E+00
  0.00000000E+00  0.00000000E+00  0.00000000E+00
  0.00000000E+00  0.00000000E+00  0.00000000E+00
  0.00000000E+00  0.00000000E+00  0.00000000E+00
  0.00000000E+00  0.00000000E+00  0.00000000E+00
  0.00000000E+00  0.00000000E+00  0.00000000E+00
  0.00000000E+00  0.00000000E+00  0.00000000E+00
  0.00000000E+00  0.00000000E+00  0.00000000E+00
  0.00000000E+00  0.00000000E+00  0.00000000E+00
  0.00000000E+00  0.00000000E+00  0.00000000E+00
  0.00000000E+00  0.00000000E+00  0.00000000E+00
  0.00000000E+00  0.00000000E+00  0.00000000E+00
  0.00000000E+00  0.00000000E+00  0.00000000E+00
  0.00000000E+00  0.00000000E+00  0.00000000E+00
  0.00000000E+00  0.00000000E+00  0.00000000E+00
  0.00000000E+00  0.00000000E+00  0.00000000E+00
  0.00000000E+00  0.00000000E+00  0.00000000E+00
  0.00000000E+00  0.00000000E+00  0.00000000E+00
  0.00000000E+00  0.00000000E+00  0.00000000E+00
  0.00000000E+00  0.00000000E+00  0.00000000E+00
  0.00000000E+00  0.00000000E+00  0.00000000E+00
  0.00000000E+00  0.00000000E+00  0.00000000E+00
  0.00000000E+00  0.00000000E+00  0.00000000E+00
  0.00000000E+00  0.00000000E+00  0.00000000E+00
  0.00000000E+00  0.00000000E+00  0.00000000E+00
  0.00000000E+00  0.00000000E+00  0.00000000E+00
  0.00000000E+00  0.00000000E+00  0.00000000E+00
  0.00000000E+00  0.00000000E+00  0.00000000E+00
  0.00000000E+00  0.00000000E+00  0.00000000E+00
  0.00000000E+00  0.00000000E+00  0.00000000E+00
  0.00000000E+00  0.00000000E+00  0.00000000E+00
  0.00000000E+00  0.00000000E+00  0.00000000E+00
  0.00000000E+00  0.00000000E+00  0.00000000E+00
  0.00000000E+00  0.00000000E+00  0.00000000E+00
  0.00000000E+00  0.00000000E+00  0.00000000E+00
  0.00000000E+00  0.00000000E+00  0.00000000E+00
  0.00000000E+00  0.00000000E+00  0.00000000E+00
