   8   8   0   0
  0.1027690E+02  0.2896271E-09  0.2896271E-09  0.1131732E-08  0.5000000E-15
  1.000000000000000E-004
  CAR 
 unknown system                          
     23.11638204    -36.96142586  301      9.10627110      1.00000000
    -36.961  0.0000E+00  0.0000E+00
    -36.761  0.0000E+00  0.0000E+00
    -36.561  0.0000E+00  0.0000E+00
    -36.361  0.0000E+00  0.0000E+00
    -36.160  0.0000E+00  0.0000E+00
    -35.960  0.0000E+00  0.0000E+00
    -35.760  0.0000E+00  0.0000E+00
    -35.560  0.0000E+00  0.0000E+00
    -35.359  0.0000E+00  0.0000E+00
    -35.159  0.0000E+00  0.0000E+00
    -34.959  0.0000E+00  0.0000E+00
    -34.759  0.0000E+00  0.0000E+00
    -34.558  0.0000E+00  0.0000E+00
    -34.358  0.4706E-04  0.9424E-05
    -34.158  0.7416E+01  0.1485E+01
    -33.958  0.4106E+02  0.9708E+01
    -33.757  0.3627E+02  0.1697E+02
    -33.557  0.3474E+02  0.2393E+02
    -33.357  0.3575E+00  0.2400E+02
    -33.156  0.0000E+00  0.2400E+02
    -32.956  0.0000E+00  0.2400E+02
    -32.756  0.0000E+00  0.2400E+02
    -32.556  0.0000E+00  0.2400E+02
    -32.355  0.0000E+00  0.2400E+02
    -32.155  0.0000E+00  0.2400E+02
    -31.955  0.0000E+00  0.2400E+02
    -31.755  0.0000E+00  0.2400E+02
    -31.554  0.0000E+00  0.2400E+02
    -31.354  0.0000E+00  0.2400E+02
    -31.154  0.0000E+00  0.2400E+02
    -30.954  0.0000E+00  0.2400E+02
    -30.753  0.0000E+00  0.2400E+02
    -30.553  0.0000E+00  0.2400E+02
    -30.353  0.0000E+00  0.2400E+02
    -30.153  0.0000E+00  0.2400E+02
    -29.952  0.0000E+00  0.2400E+02
    -29.752  0.0000E+00  0.2400E+02
    -29.552  0.0000E+00  0.2400E+02
    -29.352  0.0000E+00  0.2400E+02
    -29.151  0.0000E+00  0.2400E+02
    -28.951  0.0000E+00  0.2400E+02
    -28.751  0.0000E+00  0.2400E+02
    -28.551  0.0000E+00  0.2400E+02
    -28.350  0.0000E+00  0.2400E+02
    -28.150  0.0000E+00  0.2400E+02
    -27.950  0.0000E+00  0.2400E+02
    -27.749  0.0000E+00  0.2400E+02
    -27.549  0.0000E+00  0.2400E+02
    -27.349  0.0000E+00  0.2400E+02
    -27.149  0.0000E+00  0.2400E+02
    -26.948  0.0000E+00  0.2400E+02
    -26.748  0.0000E+00  0.2400E+02
    -26.548  0.0000E+00  0.2400E+02
    -26.348  0.0000E+00  0.2400E+02
    -26.147  0.0000E+00  0.2400E+02
    -25.947  0.0000E+00  0.2400E+02
    -25.747  0.0000E+00  0.2400E+02
    -25.547  0.0000E+00  0.2400E+02
    -25.346  0.0000E+00  0.2400E+02
    -25.146  0.0000E+00  0.2400E+02
    -24.946  0.0000E+00  0.2400E+02
    -24.746  0.0000E+00  0.2400E+02
    -24.545  0.0000E+00  0.2400E+02
    -24.345  0.0000E+00  0.2400E+02
    -24.145  0.0000E+00  0.2400E+02
    -23.945  0.0000E+00  0.2400E+02
    -23.744  0.0000E+00  0.2400E+02
    -23.544  0.0000E+00  0.2400E+02
    -23.344  0.0000E+00  0.2400E+02
    -23.144  0.0000E+00  0.2400E+02
    -22.943  0.0000E+00  0.2400E+02
    -22.743  0.0000E+00  0.2400E+02
    -22.543  0.0000E+00  0.2400E+02
    -22.342  0.0000E+00  0.2400E+02
    -22.142  0.0000E+00  0.2400E+02
    -21.942  0.0000E+00  0.2400E+02
    -21.742  0.0000E+00  0.2400E+02
    -21.541  0.0000E+00  0.2400E+02
    -21.341  0.0000E+00  0.2400E+02
    -21.141  0.0000E+00  0.2400E+02
    -20.941  0.0000E+00  0.2400E+02
    -20.740  0.0000E+00  0.2400E+02
    -20.540  0.0000E+00  0.2400E+02
    -20.340  0.0000E+00  0.2400E+02
    -20.140  0.0000E+00  0.2400E+02
    -19.939  0.0000E+00  0.2400E+02
    -19.739  0.0000E+00  0.2400E+02
    -19.539  0.0000E+00  0.2400E+02
    -19.339  0.0000E+00  0.2400E+02
    -19.138  0.0000E+00  0.2400E+02
    -18.938  0.0000E+00  0.2400E+02
    -18.738  0.0000E+00  0.2400E+02
    -18.538  0.0000E+00  0.2400E+02
    -18.337  0.0000E+00  0.2400E+02
    -18.137  0.0000E+00  0.2400E+02
    -17.937  0.0000E+00  0.2400E+02
    -17.737  0.0000E+00  0.2400E+02
    -17.536  0.0000E+00  0.2400E+02
    -17.336  0.0000E+00  0.2400E+02
    -17.136  0.0000E+00  0.2400E+02
    -16.935  0.0000E+00  0.2400E+02
    -16.735  0.0000E+00  0.2400E+02
    -16.535  0.0000E+00  0.2400E+02
    -16.335  0.0000E+00  0.2400E+02
    -16.134  0.0000E+00  0.2400E+02
    -15.934  0.0000E+00  0.2400E+02
    -15.734  0.0000E+00  0.2400E+02
    -15.534  0.0000E+00  0.2400E+02
    -15.333  0.0000E+00  0.2400E+02
    -15.133  0.0000E+00  0.2400E+02
    -14.933  0.0000E+00  0.2400E+02
    -14.733  0.0000E+00  0.2400E+02
    -14.532  0.0000E+00  0.2400E+02
    -14.332  0.0000E+00  0.2400E+02
    -14.132  0.0000E+00  0.2400E+02
    -13.932  0.0000E+00  0.2400E+02
    -13.731  0.0000E+00  0.2400E+02
    -13.531  0.0000E+00  0.2400E+02
    -13.331  0.0000E+00  0.2400E+02
    -13.131  0.0000E+00  0.2400E+02
    -12.930  0.0000E+00  0.2400E+02
    -12.730  0.0000E+00  0.2400E+02
    -12.530  0.0000E+00  0.2400E+02
    -12.330  0.0000E+00  0.2400E+02
    -12.129  0.0000E+00  0.2400E+02
    -11.929  0.0000E+00  0.2400E+02
    -11.729  0.0000E+00  0.2400E+02
    -11.528  0.0000E+00  0.2400E+02
    -11.328  0.0000E+00  0.2400E+02
    -11.128  0.0000E+00  0.2400E+02
    -10.928  0.0000E+00  0.2400E+02
    -10.727  0.0000E+00  0.2400E+02
    -10.527  0.0000E+00  0.2400E+02
    -10.327  0.0000E+00  0.2400E+02
    -10.127  0.0000E+00  0.2400E+02
     -9.926  0.0000E+00  0.2400E+02
     -9.726  0.0000E+00  0.2400E+02
     -9.526  0.0000E+00  0.2400E+02
     -9.326  0.0000E+00  0.2400E+02
     -9.125  0.0000E+00  0.2400E+02
     -8.925  0.0000E+00  0.2400E+02
     -8.725  0.0000E+00  0.2400E+02
     -8.525  0.0000E+00  0.2400E+02
     -8.324  0.0000E+00  0.2400E+02
     -8.124  0.0000E+00  0.2400E+02
     -7.924  0.0000E+00  0.2400E+02
     -7.724  0.0000E+00  0.2400E+02
     -7.523  0.0000E+00  0.2400E+02
     -7.323  0.0000E+00  0.2400E+02
     -7.123  0.0000E+00  0.2400E+02
     -6.923  0.2709E-13  0.2400E+02
     -6.722  0.3636E-02  0.2400E+02
     -6.522  0.4645E-01  0.2401E+02
     -6.322  0.3419E+00  0.2408E+02
     -6.121  0.9487E-01  0.2410E+02
     -5.921  0.6440E+00  0.2423E+02
     -5.721  0.2335E+00  0.2427E+02
     -5.521  0.8719E+00  0.2445E+02
     -5.320  0.6421E+00  0.2458E+02
     -5.120  0.4617E+00  0.2467E+02
     -4.920  0.7908E+00  0.2483E+02
     -4.720  0.1655E+01  0.2516E+02
     -4.519  0.1097E+01  0.2538E+02
     -4.319  0.5615E+00  0.2549E+02
     -4.119  0.1960E+01  0.2588E+02
     -3.919  0.3970E+01  0.2668E+02
     -3.718  0.3364E+01  0.2735E+02
     -3.518  0.5217E+01  0.2840E+02
     -3.318  0.3993E+01  0.2920E+02
     -3.118  0.4898E+01  0.3018E+02
     -2.917  0.2920E+01  0.3076E+02
     -2.717  0.2370E+01  0.3124E+02
     -2.517  0.1259E+01  0.3149E+02
     -2.317  0.1349E+01  0.3176E+02
     -2.116  0.1020E+01  0.3196E+02
     -1.916  0.3514E-01  0.3197E+02
     -1.716  0.9787E-01  0.3199E+02
     -1.516  0.5194E-01  0.3200E+02
     -1.315  0.0000E+00  0.3200E+02
     -1.115  0.7111E-07  0.3200E+02
     -0.915  0.4180E-01  0.3201E+02
     -0.714  0.8253E-02  0.3201E+02
     -0.514  0.3076E+00  0.3207E+02
     -0.314  0.1417E+00  0.3210E+02
     -0.114  0.9645E-01  0.3212E+02
      0.087  0.8595E+00  0.3229E+02
      0.287  0.1374E+01  0.3257E+02
      0.487  0.1746E+01  0.3292E+02
      0.687  0.1635E+01  0.3324E+02
      0.888  0.1752E+01  0.3359E+02
      1.088  0.3803E+01  0.3436E+02
      1.288  0.4970E+01  0.3535E+02
      1.488  0.1061E+01  0.3556E+02
      1.689  0.3433E+01  0.3625E+02
      1.889  0.4045E+01  0.3706E+02
      2.089  0.7871E+01  0.3864E+02
      2.289  0.2270E+01  0.3909E+02
      2.490  0.6684E+01  0.4043E+02
      2.690  0.4993E+01  0.4143E+02
      2.890  0.4283E+01  0.4229E+02
      3.090  0.5050E+01  0.4330E+02
      3.291  0.7053E+01  0.4471E+02
      3.491  0.6216E+01  0.4596E+02
      3.691  0.5257E+01  0.4701E+02
      3.891  0.5817E+01  0.4817E+02
      4.092  0.7932E+01  0.4976E+02
      4.292  0.8399E+01  0.5145E+02
      4.492  0.5752E+01  0.5260E+02
      4.693  0.6069E+01  0.5381E+02
      4.893  0.4362E+01  0.5469E+02
      5.093  0.2651E+01  0.5522E+02
      5.293  0.4959E+00  0.5532E+02
      5.494  0.1447E+01  0.5561E+02
      5.694  0.1439E+01  0.5589E+02
      5.894  0.1068E+01  0.5611E+02
      6.094  0.3527E+01  0.5681E+02
      6.295  0.2787E+01  0.5737E+02
      6.495  0.5951E+01  0.5856E+02
      6.695  0.2063E+01  0.5898E+02
      6.895  0.3416E+01  0.5966E+02
      7.096  0.2207E+01  0.6010E+02
      7.296  0.5119E+01  0.6113E+02
      7.496  0.6638E+01  0.6246E+02
      7.696  0.4966E+01  0.6345E+02
      7.897  0.2221E+01  0.6390E+02
      8.097  0.2531E+01  0.6440E+02
      8.297  0.2639E+01  0.6493E+02
      8.497  0.2174E+01  0.6537E+02
      8.698  0.1407E+01  0.6565E+02
      8.898  0.6150E+01  0.6688E+02
      9.098  0.5329E+01  0.6795E+02
      9.298  0.5548E+01  0.6906E+02
      9.499  0.3940E+01  0.6985E+02
      9.699  0.3817E+01  0.7061E+02
      9.899  0.5258E+01  0.7167E+02
     10.100  0.4776E+01  0.7262E+02
     10.300  0.2517E+01  0.7313E+02
     10.500  0.7772E+01  0.7468E+02
     10.700  0.5841E+01  0.7585E+02
     10.901  0.5349E+01  0.7692E+02
     11.101  0.5674E+01  0.7806E+02
     11.301  0.7263E+01  0.7951E+02
     11.501  0.7183E+01  0.8095E+02
     11.702  0.2021E+01  0.8136E+02
     11.902  0.4014E+01  0.8216E+02
     12.102  0.3306E+01  0.8282E+02
     12.302  0.2914E+01  0.8341E+02
     12.503  0.1115E+01  0.8363E+02
     12.703  0.3012E+01  0.8423E+02
     12.903  0.1201E+01  0.8447E+02
     13.103  0.3297E+01  0.8513E+02
     13.304  0.3351E+01  0.8581E+02
     13.504  0.2516E+01  0.8631E+02
     13.704  0.3310E+01  0.8697E+02
     13.904  0.4105E+01  0.8779E+02
     14.105  0.1474E+01  0.8809E+02
     14.305  0.4004E+01  0.8889E+02
     14.505  0.4678E+01  0.8983E+02
     14.705  0.2676E+01  0.9036E+02
     14.906  0.5018E+01  0.9137E+02
     15.106  0.3385E+01  0.9205E+02
     15.306  0.2693E+01  0.9259E+02
     15.507  0.1921E+01  0.9297E+02
     15.707  0.3147E+01  0.9360E+02
     15.907  0.1998E+01  0.9400E+02
     16.107  0.2503E+01  0.9450E+02
     16.308  0.3784E+01  0.9526E+02
     16.508  0.2146E+01  0.9569E+02
     16.708  0.1654E+01  0.9602E+02
     16.908  0.2222E+01  0.9647E+02
     17.109  0.1694E+01  0.9680E+02
     17.309  0.7914E+00  0.9696E+02
     17.509  0.8734E+00  0.9714E+02
     17.709  0.1002E+01  0.9734E+02
     17.910  0.2258E+01  0.9779E+02
     18.110  0.3066E+01  0.9841E+02
     18.310  0.4051E+01  0.9922E+02
     18.510  0.3952E+01  0.1000E+03
     18.711  0.3407E+01  0.1007E+03
     18.911  0.3691E+01  0.1014E+03
     19.111  0.4573E+01  0.1023E+03
     19.311  0.4697E+01  0.1033E+03
     19.512  0.1420E+01  0.1036E+03
     19.712  0.5232E+00  0.1037E+03
     19.912  0.7284E+00  0.1038E+03
     20.112  0.2954E+00  0.1039E+03
     20.313  0.5027E+00  0.1040E+03
     20.513  0.9783E-01  0.1040E+03
     20.713  0.7809E-05  0.1040E+03
     20.914  0.0000E+00  0.1040E+03
     21.114  0.0000E+00  0.1040E+03
     21.314  0.0000E+00  0.1040E+03
     21.514  0.0000E+00  0.1040E+03
     21.715  0.0000E+00  0.1040E+03
     21.915  0.0000E+00  0.1040E+03
     22.115  0.0000E+00  0.1040E+03
     22.315  0.0000E+00  0.1040E+03
     22.516  0.0000E+00  0.1040E+03
     22.716  0.0000E+00  0.1040E+03
     22.916  0.0000E+00  0.1040E+03
     23.116  0.0000E+00  0.1040E+03
