Re4C4
1.0
      1.4481350      -2.5082440       0.0000000
      1.4481350       2.5082440       0.0000000
      0.0000000       0.0000000      11.3173170
  Re    C   
  4     4   
Direct
      0.3333330       0.6666670       0.8739440
      0.6666670       0.3333330       0.1260560
      0.6666670       0.3333330       0.3739440
      0.3333330       0.6666670       0.6260560
      0.0000000       0.0000000       0.5000000
      0.0000000       0.0000000       0.0000000
      0.3333330       0.6666670       0.2500000
      0.6666670       0.3333330       0.7500000
