unknown system                          
           1
     1.448135   -2.508244    0.000000
     1.448135    2.508244    0.000000
     0.000000    0.000000   11.317317
   Re   C 
     4     4
Direct configuration=     1
   0.33333300  0.66666700  0.87394400
   0.66666700  0.33333300  0.12605600
   0.66666700  0.33333300  0.37394400
   0.33333300  0.66666700  0.62605600
   0.00000000  0.00000000  0.50000000
   0.00000000  0.00000000  0.00000000
   0.33333300  0.66666700  0.25000000
   0.66666700  0.33333300  0.75000000
