Cu3 Te2                                 
   1.00000000000000     
     4.0487313800000004    0.0000000000000000    0.0000000000000000
     0.0000000000000000    4.0487313800000004    0.0000000000000000
     0.0000000000000000    0.0000000000000000    5.9632906600000002
   Cu   Te
     3     2
Direct
     0.5000000000000000    0.0000000000000000    0.9934612799999982
     0.0000000000000000    0.5000000000000000    0.9934612799999982
     0.0000000000000000    0.0000000000000000    0.2721384600000007
     0.0000000000000000    0.0000000000000000    0.7211286599999980
     0.5000000000000000    0.5000000000000000    0.2898103200000008
 
  0.00000000E+00  0.00000000E+00  0.00000000E+00
  0.00000000E+00  0.00000000E+00  0.00000000E+00
  0.00000000E+00  0.00000000E+00  0.00000000E+00
  0.00000000E+00  0.00000000E+00  0.00000000E+00
  0.00000000E+00  0.00000000E+00  0.00000000E+00
