Ba2 O2                                  
   1.00000000000000     
     3.8186668600000000   -0.0000002600000000    0.0000000000000000
    -1.9093331499999999    3.3069855399999999    0.0000000000000000
     0.0000000000000000    0.0000000000000000    6.6541991899999999
   Ba   O 
     2     2
Direct
     0.3333183399999982    0.6666376900000017    0.2500000000000000
     0.6666816600000018    0.3333623099999983    0.7500000000000000
     0.0000000000000000    0.0000000000000000    0.5000000000000000
     0.0000000000000000    0.0000000000000000    0.0000000000000000
 
  0.00000000E+00  0.00000000E+00  0.00000000E+00
  0.00000000E+00  0.00000000E+00  0.00000000E+00
  0.00000000E+00  0.00000000E+00  0.00000000E+00
  0.00000000E+00  0.00000000E+00  0.00000000E+00
