H8C8
1.0
      5.3150950       3.0001900       0.0000000
     -5.3150950       3.0001900       0.0000000
      0.0000000       1.3636980       4.6667450
  H     C   
  8     8   
Direct
      0.3631300       0.9589580       0.2736150
      0.0410420       0.6368700       0.7263850
      0.6368700       0.0410420       0.7263850
      0.9589580       0.3631300       0.2736150
      0.2853790       0.4508520       0.8368820
      0.5491480       0.7146210       0.1631180
      0.7146210       0.5491480       0.1631180
      0.4508520       0.2853790       0.8368820
      0.1819490       0.1819490       0.2391030
      0.8180510       0.8180510       0.7608970
      0.3805880       0.3805880       0.9683020
      0.6194120       0.6194120       0.0316980
      0.2026100       0.9768430       0.3721480
      0.0231570       0.7973900       0.6278520
      0.7973900       0.0231570       0.6278520
      0.9768430       0.2026100       0.3721480
