   4   4   0   0
  0.3863217E+02  0.5366235E-09  0.5366235E-09  0.5366235E-09  0.5000000E-15
  1.000000000000000E-004
  CAR 
 unknown system                          
      6.37091171    -34.78933197  301      3.07585575      1.00000000
    -34.789  0.0000E+00  0.0000E+00
    -34.652  0.0000E+00  0.0000E+00
    -34.515  0.0000E+00  0.0000E+00
    -34.378  0.0000E+00  0.0000E+00
    -34.241  0.0000E+00  0.0000E+00
    -34.103  0.0000E+00  0.0000E+00
    -33.966  0.0000E+00  0.0000E+00
    -33.829  0.0000E+00  0.0000E+00
    -33.692  0.0000E+00  0.0000E+00
    -33.555  0.0000E+00  0.0000E+00
    -33.417  0.0000E+00  0.0000E+00
    -33.280  0.0000E+00  0.0000E+00
    -33.143  0.7368E-10  0.1011E-10
    -33.006  0.1746E-01  0.2395E-02
    -32.869  0.2429E+02  0.3335E+01
    -32.731  0.1942E+02  0.6000E+01
    -32.594  0.3122E-02  0.6000E+01
    -32.457  0.4930E-12  0.6000E+01
    -32.320  0.0000E+00  0.6000E+01
    -32.183  0.0000E+00  0.6000E+01
    -32.045  0.0000E+00  0.6000E+01
    -31.908  0.0000E+00  0.6000E+01
    -31.771  0.0000E+00  0.6000E+01
    -31.634  0.0000E+00  0.6000E+01
    -31.497  0.0000E+00  0.6000E+01
    -31.359  0.0000E+00  0.6000E+01
    -31.222  0.0000E+00  0.6000E+01
    -31.085  0.0000E+00  0.6000E+01
    -30.948  0.0000E+00  0.6000E+01
    -30.811  0.0000E+00  0.6000E+01
    -30.673  0.0000E+00  0.6000E+01
    -30.536  0.0000E+00  0.6000E+01
    -30.399  0.0000E+00  0.6000E+01
    -30.262  0.0000E+00  0.6000E+01
    -30.125  0.0000E+00  0.6000E+01
    -29.987  0.0000E+00  0.6000E+01
    -29.850  0.0000E+00  0.6000E+01
    -29.713  0.0000E+00  0.6000E+01
    -29.576  0.0000E+00  0.6000E+01
    -29.439  0.0000E+00  0.6000E+01
    -29.301  0.0000E+00  0.6000E+01
    -29.164  0.0000E+00  0.6000E+01
    -29.027  0.0000E+00  0.6000E+01
    -28.890  0.0000E+00  0.6000E+01
    -28.752  0.0000E+00  0.6000E+01
    -28.615  0.0000E+00  0.6000E+01
    -28.478  0.0000E+00  0.6000E+01
    -28.341  0.0000E+00  0.6000E+01
    -28.204  0.0000E+00  0.6000E+01
    -28.066  0.0000E+00  0.6000E+01
    -27.929  0.0000E+00  0.6000E+01
    -27.792  0.0000E+00  0.6000E+01
    -27.655  0.0000E+00  0.6000E+01
    -27.518  0.0000E+00  0.6000E+01
    -27.380  0.0000E+00  0.6000E+01
    -27.243  0.0000E+00  0.6000E+01
    -27.106  0.0000E+00  0.6000E+01
    -26.969  0.0000E+00  0.6000E+01
    -26.832  0.0000E+00  0.6000E+01
    -26.694  0.0000E+00  0.6000E+01
    -26.557  0.0000E+00  0.6000E+01
    -26.420  0.0000E+00  0.6000E+01
    -26.283  0.0000E+00  0.6000E+01
    -26.146  0.0000E+00  0.6000E+01
    -26.008  0.0000E+00  0.6000E+01
    -25.871  0.0000E+00  0.6000E+01
    -25.734  0.0000E+00  0.6000E+01
    -25.597  0.0000E+00  0.6000E+01
    -25.460  0.0000E+00  0.6000E+01
    -25.322  0.0000E+00  0.6000E+01
    -25.185  0.0000E+00  0.6000E+01
    -25.048  0.0000E+00  0.6000E+01
    -24.911  0.0000E+00  0.6000E+01
    -24.774  0.0000E+00  0.6000E+01
    -24.636  0.0000E+00  0.6000E+01
    -24.499  0.0000E+00  0.6000E+01
    -24.362  0.0000E+00  0.6000E+01
    -24.225  0.0000E+00  0.6000E+01
    -24.088  0.0000E+00  0.6000E+01
    -23.950  0.0000E+00  0.6000E+01
    -23.813  0.0000E+00  0.6000E+01
    -23.676  0.0000E+00  0.6000E+01
    -23.539  0.0000E+00  0.6000E+01
    -23.402  0.0000E+00  0.6000E+01
    -23.264  0.0000E+00  0.6000E+01
    -23.127  0.0000E+00  0.6000E+01
    -22.990  0.0000E+00  0.6000E+01
    -22.853  0.0000E+00  0.6000E+01
    -22.716  0.0000E+00  0.6000E+01
    -22.578  0.0000E+00  0.6000E+01
    -22.441  0.0000E+00  0.6000E+01
    -22.304  0.0000E+00  0.6000E+01
    -22.167  0.0000E+00  0.6000E+01
    -22.030  0.0000E+00  0.6000E+01
    -21.892  0.0000E+00  0.6000E+01
    -21.755  0.0000E+00  0.6000E+01
    -21.618  0.0000E+00  0.6000E+01
    -21.481  0.0000E+00  0.6000E+01
    -21.344  0.0000E+00  0.6000E+01
    -21.206  0.0000E+00  0.6000E+01
    -21.069  0.0000E+00  0.6000E+01
    -20.932  0.0000E+00  0.6000E+01
    -20.795  0.0000E+00  0.6000E+01
    -20.658  0.0000E+00  0.6000E+01
    -20.520  0.0000E+00  0.6000E+01
    -20.383  0.0000E+00  0.6000E+01
    -20.246  0.0000E+00  0.6000E+01
    -20.109  0.0000E+00  0.6000E+01
    -19.972  0.0000E+00  0.6000E+01
    -19.834  0.0000E+00  0.6000E+01
    -19.697  0.0000E+00  0.6000E+01
    -19.560  0.0000E+00  0.6000E+01
    -19.423  0.0000E+00  0.6000E+01
    -19.286  0.0000E+00  0.6000E+01
    -19.148  0.0000E+00  0.6000E+01
    -19.011  0.0000E+00  0.6000E+01
    -18.874  0.0000E+00  0.6000E+01
    -18.737  0.0000E+00  0.6000E+01
    -18.600  0.0000E+00  0.6000E+01
    -18.462  0.0000E+00  0.6000E+01
    -18.325  0.0000E+00  0.6000E+01
    -18.188  0.0000E+00  0.6000E+01
    -18.051  0.0000E+00  0.6000E+01
    -17.914  0.0000E+00  0.6000E+01
    -17.776  0.0000E+00  0.6000E+01
    -17.639  0.0000E+00  0.6000E+01
    -17.502  0.1771E-07  0.6000E+01
    -17.365  0.6820E+00  0.6094E+01
    -17.228  0.6752E+02  0.1536E+02
    -17.090  0.4681E+01  0.1600E+02
    -16.953  0.2552E-05  0.1600E+02
    -16.816  0.0000E+00  0.1600E+02
    -16.679  0.0000E+00  0.1600E+02
    -16.542  0.0000E+00  0.1600E+02
    -16.404  0.0000E+00  0.1600E+02
    -16.267  0.0000E+00  0.1600E+02
    -16.130  0.0000E+00  0.1600E+02
    -15.993  0.0000E+00  0.1600E+02
    -15.856  0.0000E+00  0.1600E+02
    -15.718  0.0000E+00  0.1600E+02
    -15.581  0.0000E+00  0.1600E+02
    -15.444  0.9902E-08  0.1600E+02
    -15.307  0.4007E-01  0.1601E+02
    -15.170  0.3553E+01  0.1649E+02
    -15.032  0.2525E+02  0.1996E+02
    -14.895  0.3544E+02  0.2482E+02
    -14.758  0.4461E+02  0.3094E+02
    -14.621  0.2229E+02  0.3400E+02
    -14.484  0.1398E-01  0.3400E+02
    -14.346  0.2187E-10  0.3400E+02
    -14.209  0.0000E+00  0.3400E+02
    -14.072  0.0000E+00  0.3400E+02
    -13.935  0.0000E+00  0.3400E+02
    -13.798  0.0000E+00  0.3400E+02
    -13.660  0.0000E+00  0.3400E+02
    -13.523  0.0000E+00  0.3400E+02
    -13.386  0.0000E+00  0.3400E+02
    -13.249  0.0000E+00  0.3400E+02
    -13.112  0.0000E+00  0.3400E+02
    -12.974  0.0000E+00  0.3400E+02
    -12.837  0.0000E+00  0.3400E+02
    -12.700  0.0000E+00  0.3400E+02
    -12.563  0.0000E+00  0.3400E+02
    -12.426  0.0000E+00  0.3400E+02
    -12.288  0.0000E+00  0.3400E+02
    -12.151  0.0000E+00  0.3400E+02
    -12.014  0.0000E+00  0.3400E+02
    -11.877  0.0000E+00  0.3400E+02
    -11.740  0.0000E+00  0.3400E+02
    -11.602  0.0000E+00  0.3400E+02
    -11.465  0.0000E+00  0.3400E+02
    -11.328  0.0000E+00  0.3400E+02
    -11.191  0.0000E+00  0.3400E+02
    -11.054  0.0000E+00  0.3400E+02
    -10.916  0.0000E+00  0.3400E+02
    -10.779  0.0000E+00  0.3400E+02
    -10.642  0.0000E+00  0.3400E+02
    -10.505  0.0000E+00  0.3400E+02
    -10.368  0.0000E+00  0.3400E+02
    -10.230  0.0000E+00  0.3400E+02
    -10.093  0.0000E+00  0.3400E+02
     -9.956  0.0000E+00  0.3400E+02
     -9.819  0.0000E+00  0.3400E+02
     -9.682  0.0000E+00  0.3400E+02
     -9.544  0.0000E+00  0.3400E+02
     -9.407  0.0000E+00  0.3400E+02
     -9.270  0.0000E+00  0.3400E+02
     -9.133  0.0000E+00  0.3400E+02
     -8.996  0.0000E+00  0.3400E+02
     -8.858  0.0000E+00  0.3400E+02
     -8.721  0.0000E+00  0.3400E+02
     -8.584  0.0000E+00  0.3400E+02
     -8.447  0.0000E+00  0.3400E+02
     -8.310  0.0000E+00  0.3400E+02
     -8.172  0.0000E+00  0.3400E+02
     -8.035  0.0000E+00  0.3400E+02
     -7.898  0.0000E+00  0.3400E+02
     -7.761  0.0000E+00  0.3400E+02
     -7.624  0.0000E+00  0.3400E+02
     -7.486  0.0000E+00  0.3400E+02
     -7.349  0.0000E+00  0.3400E+02
     -7.212  0.0000E+00  0.3400E+02
     -7.075  0.0000E+00  0.3400E+02
     -6.938  0.0000E+00  0.3400E+02
     -6.800  0.0000E+00  0.3400E+02
     -6.663  0.0000E+00  0.3400E+02
     -6.526  0.0000E+00  0.3400E+02
     -6.389  0.0000E+00  0.3400E+02
     -6.252  0.0000E+00  0.3400E+02
     -6.114  0.0000E+00  0.3400E+02
     -5.977  0.0000E+00  0.3400E+02
     -5.840  0.0000E+00  0.3400E+02
     -5.703  0.0000E+00  0.3400E+02
     -5.566  0.0000E+00  0.3400E+02
     -5.428  0.0000E+00  0.3400E+02
     -5.291  0.0000E+00  0.3400E+02
     -5.154  0.0000E+00  0.3400E+02
     -5.017  0.0000E+00  0.3400E+02
     -4.880  0.0000E+00  0.3400E+02
     -4.742  0.0000E+00  0.3400E+02
     -4.605  0.0000E+00  0.3400E+02
     -4.468  0.0000E+00  0.3400E+02
     -4.331  0.0000E+00  0.3400E+02
     -4.194  0.0000E+00  0.3400E+02
     -4.056  0.0000E+00  0.3400E+02
     -3.919  0.2016E-13  0.3400E+02
     -3.782  0.4007E-04  0.3400E+02
     -3.645  0.8023E-01  0.3401E+02
     -3.508  0.5119E+00  0.3408E+02
     -3.370  0.1458E+01  0.3428E+02
     -3.233  0.1952E+01  0.3455E+02
     -3.096  0.6390E+01  0.3543E+02
     -2.959  0.4180E+01  0.3600E+02
     -2.822  0.4716E-02  0.3600E+02
     -2.684  0.8053E-11  0.3600E+02
     -2.547  0.0000E+00  0.3600E+02
     -2.410  0.0000E+00  0.3600E+02
     -2.273  0.0000E+00  0.3600E+02
     -2.136  0.0000E+00  0.3600E+02
     -1.998  0.0000E+00  0.3600E+02
     -1.861  0.0000E+00  0.3600E+02
     -1.724  0.0000E+00  0.3600E+02
     -1.587  0.0000E+00  0.3600E+02
     -1.450  0.0000E+00  0.3600E+02
     -1.312  0.0000E+00  0.3600E+02
     -1.175  0.0000E+00  0.3600E+02
     -1.038  0.0000E+00  0.3600E+02
     -0.901  0.0000E+00  0.3600E+02
     -0.764  0.0000E+00  0.3600E+02
     -0.626  0.0000E+00  0.3600E+02
     -0.489  0.0000E+00  0.3600E+02
     -0.352  0.0000E+00  0.3600E+02
     -0.215  0.0000E+00  0.3600E+02
     -0.078  0.0000E+00  0.3600E+02
      0.060  0.0000E+00  0.3600E+02
      0.197  0.5267E-09  0.3600E+02
      0.334  0.1068E-01  0.3600E+02
      0.471  0.6591E+00  0.3609E+02
      0.608  0.1283E+01  0.3627E+02
      0.746  0.1843E+01  0.3652E+02
      0.883  0.2491E+01  0.3686E+02
      1.020  0.2087E+01  0.3715E+02
      1.157  0.3952E+01  0.3769E+02
      1.294  0.2637E+01  0.3805E+02
      1.432  0.8553E+00  0.3817E+02
      1.569  0.2633E+01  0.3853E+02
      1.706  0.9232E+00  0.3866E+02
      1.843  0.2982E+01  0.3907E+02
      1.980  0.3542E+01  0.3955E+02
      2.118  0.3249E+01  0.4000E+02
      2.255  0.1417E+01  0.4019E+02
      2.392  0.5707E+01  0.4098E+02
      2.529  0.3388E+01  0.4144E+02
      2.666  0.4381E+01  0.4204E+02
      2.804  0.5830E+01  0.4284E+02
      2.941  0.6837E+01  0.4378E+02
      3.078  0.1667E+01  0.4401E+02
      3.215  0.1818E+01  0.4426E+02
      3.352  0.2157E+00  0.4429E+02
      3.490  0.4944E-01  0.4429E+02
      3.627  0.6469E+00  0.4438E+02
      3.764  0.2527E+01  0.4473E+02
      3.901  0.1725E+01  0.4497E+02
      4.038  0.5040E+01  0.4566E+02
      4.176  0.3343E+01  0.4612E+02
      4.313  0.5920E+01  0.4693E+02
      4.450  0.5593E+01  0.4770E+02
      4.587  0.2209E+01  0.4800E+02
      4.725  0.2164E-02  0.4800E+02
      4.862  0.1501E-10  0.4800E+02
      4.999  0.0000E+00  0.4800E+02
      5.136  0.0000E+00  0.4800E+02
      5.273  0.0000E+00  0.4800E+02
      5.411  0.0000E+00  0.4800E+02
      5.548  0.0000E+00  0.4800E+02
      5.685  0.0000E+00  0.4800E+02
      5.822  0.0000E+00  0.4800E+02
      5.959  0.0000E+00  0.4800E+02
      6.097  0.0000E+00  0.4800E+02
      6.234  0.0000E+00  0.4800E+02
      6.371  0.0000E+00  0.4800E+02
