       N       E                     dE             d eps       ncg     rms          rms(c)
DAV:   1     0.435869611251E+03    0.43587E+03   -0.22797E+04  6000   0.204E+03
DAV:   2     0.327207909726E+02   -0.40315E+03   -0.40114E+03  6912   0.503E+02
DAV:   3    -0.798525857066E+01   -0.40706E+02   -0.40318E+02  9160   0.143E+02
DAV:   4    -0.102265308632E+02   -0.22413E+01   -0.22308E+01  8952   0.304E+01
DAV:   5    -0.103388712059E+02   -0.11234E+00   -0.11196E+00  9928   0.521E+00    0.248E+01
DAV:   6    -0.102097407924E+02    0.12913E+00   -0.36689E-01  8816   0.285E+00    0.148E+01
DAV:   7    -0.101844119589E+02    0.25329E-01   -0.26216E-01  7824   0.399E+00    0.589E-01
DAV:   8    -0.101850874649E+02   -0.67551E-03   -0.24379E-02  9968   0.644E-01    0.295E-01
DAV:   9    -0.101855536698E+02   -0.46620E-03   -0.98290E-04  8192   0.223E-01    0.111E-01
DAV:  10    -0.101856915812E+02   -0.13791E-03   -0.17206E-04  7920   0.117E-01    0.231E-02
DAV:  11    -0.101857003349E+02   -0.87537E-05   -0.22836E-05  7992   0.459E-02    0.125E-02
DAV:  12    -0.101857004678E+02   -0.13288E-06   -0.96894E-07  5824   0.653E-03
   1 F= -.10185700E+02 E0= -.10183212E+02  d E =-.497758E-02
