       N       E                     dE             d eps       ncg     rms          rms(c)
DAV:   1     0.921079414735E+02    0.92108E+02   -0.90426E+03 12296   0.139E+03
DAV:   2    -0.483972912760E+01   -0.96948E+02   -0.88815E+02 16992   0.251E+02
DAV:   3    -0.939471254147E+01   -0.45550E+01   -0.45275E+01 15744   0.567E+01
DAV:   4    -0.948542590688E+01   -0.90713E-01   -0.90682E-01 16828   0.762E+00
DAV:   5    -0.948720554767E+01   -0.17796E-02   -0.17796E-02 16484   0.817E-01    0.651E+00
DAV:   6    -0.808958373432E+01    0.13976E+01   -0.46678E+00 13924   0.251E+01    0.378E+00
DAV:   7    -0.806323705623E+01    0.26347E-01   -0.27814E-01 14872   0.464E+00    0.194E+00
DAV:   8    -0.805154470921E+01    0.11692E-01   -0.58741E-02 13388   0.274E+00    0.378E-01
DAV:   9    -0.805401108619E+01   -0.24664E-02   -0.98347E-03 15564   0.772E-01    0.144E-01
DAV:  10    -0.805492873625E+01   -0.91765E-03   -0.18011E-03 12724   0.419E-01    0.685E-02
DAV:  11    -0.805489846546E+01    0.30271E-04   -0.92921E-04 15368   0.254E-01    0.390E-02
DAV:  12    -0.805487526970E+01    0.23196E-04   -0.19537E-04 12800   0.123E-01    0.825E-03
DAV:  13    -0.805487470396E+01    0.56574E-06   -0.85121E-06 15148   0.267E-02
   1 F= -.80548747E+01 E0= -.80548747E+01  d E =-.834467E-15
