Ca1 Ga4                                 
   1.00000000000000     
     4.0312566600000004   -0.0349557000000000    1.5331233200000001
    -0.5363851100000000    3.9955650999999999    1.5331233300000000
    -0.0301613800000000   -0.0341815300000000    6.0848712699999998
   Ca   Ga
     1     4
Direct
     0.0000000000000000    0.0000000000000000    0.0000000000000000
     0.3939076500000027    0.3939076500000027    0.2306925800000030
     0.6060923499999973    0.6060923499999973    0.7693074199999970
     0.2418586200000021    0.7581413799999979    0.5000000000000000
     0.7581413799999979    0.2418586200000021    0.5000000000000000
 
  0.00000000E+00  0.00000000E+00  0.00000000E+00
  0.00000000E+00  0.00000000E+00  0.00000000E+00
  0.00000000E+00  0.00000000E+00  0.00000000E+00
  0.00000000E+00  0.00000000E+00  0.00000000E+00
  0.00000000E+00  0.00000000E+00  0.00000000E+00
