   5   5   0   0
  0.1966432E+02  0.4313087E-09  0.4313087E-09  0.6085042E-09  0.5000000E-15
  1.000000000000000E-004
  CAR 
 unknown system                          
     17.17121065    -38.54531662  301      5.62662092      1.00000000
    -38.545  0.0000E+00  0.0000E+00
    -38.360  0.0000E+00  0.0000E+00
    -38.174  0.0000E+00  0.0000E+00
    -37.988  0.0000E+00  0.0000E+00
    -37.802  0.0000E+00  0.0000E+00
    -37.617  0.0000E+00  0.0000E+00
    -37.431  0.0000E+00  0.0000E+00
    -37.245  0.0000E+00  0.0000E+00
    -37.060  0.0000E+00  0.0000E+00
    -36.874  0.0000E+00  0.0000E+00
    -36.688  0.0000E+00  0.0000E+00
    -36.502  0.0000E+00  0.0000E+00
    -36.317  0.0000E+00  0.0000E+00
    -36.131  0.3902E-02  0.7246E-03
    -35.945  0.1044E+02  0.1939E+01
    -35.759  0.3296E+00  0.2000E+01
    -35.574  0.0000E+00  0.2000E+01
    -35.388  0.0000E+00  0.2000E+01
    -35.202  0.0000E+00  0.2000E+01
    -35.017  0.0000E+00  0.2000E+01
    -34.831  0.0000E+00  0.2000E+01
    -34.645  0.0000E+00  0.2000E+01
    -34.459  0.0000E+00  0.2000E+01
    -34.274  0.0000E+00  0.2000E+01
    -34.088  0.0000E+00  0.2000E+01
    -33.902  0.0000E+00  0.2000E+01
    -33.717  0.0000E+00  0.2000E+01
    -33.531  0.0000E+00  0.2000E+01
    -33.345  0.0000E+00  0.2000E+01
    -33.159  0.0000E+00  0.2000E+01
    -32.974  0.0000E+00  0.2000E+01
    -32.788  0.0000E+00  0.2000E+01
    -32.602  0.0000E+00  0.2000E+01
    -32.416  0.0000E+00  0.2000E+01
    -32.231  0.0000E+00  0.2000E+01
    -32.045  0.0000E+00  0.2000E+01
    -31.859  0.0000E+00  0.2000E+01
    -31.674  0.0000E+00  0.2000E+01
    -31.488  0.0000E+00  0.2000E+01
    -31.302  0.0000E+00  0.2000E+01
    -31.116  0.0000E+00  0.2000E+01
    -30.931  0.0000E+00  0.2000E+01
    -30.745  0.0000E+00  0.2000E+01
    -30.559  0.0000E+00  0.2000E+01
    -30.374  0.0000E+00  0.2000E+01
    -30.188  0.0000E+00  0.2000E+01
    -30.002  0.0000E+00  0.2000E+01
    -29.816  0.0000E+00  0.2000E+01
    -29.631  0.0000E+00  0.2000E+01
    -29.445  0.0000E+00  0.2000E+01
    -29.259  0.0000E+00  0.2000E+01
    -29.074  0.0000E+00  0.2000E+01
    -28.888  0.0000E+00  0.2000E+01
    -28.702  0.0000E+00  0.2000E+01
    -28.516  0.0000E+00  0.2000E+01
    -28.331  0.0000E+00  0.2000E+01
    -28.145  0.0000E+00  0.2000E+01
    -27.959  0.0000E+00  0.2000E+01
    -27.773  0.0000E+00  0.2000E+01
    -27.588  0.0000E+00  0.2000E+01
    -27.402  0.0000E+00  0.2000E+01
    -27.216  0.0000E+00  0.2000E+01
    -27.031  0.0000E+00  0.2000E+01
    -26.845  0.0000E+00  0.2000E+01
    -26.659  0.0000E+00  0.2000E+01
    -26.473  0.0000E+00  0.2000E+01
    -26.288  0.0000E+00  0.2000E+01
    -26.102  0.0000E+00  0.2000E+01
    -25.916  0.0000E+00  0.2000E+01
    -25.731  0.0000E+00  0.2000E+01
    -25.545  0.0000E+00  0.2000E+01
    -25.359  0.0000E+00  0.2000E+01
    -25.173  0.0000E+00  0.2000E+01
    -24.988  0.0000E+00  0.2000E+01
    -24.802  0.0000E+00  0.2000E+01
    -24.616  0.0000E+00  0.2000E+01
    -24.430  0.0000E+00  0.2000E+01
    -24.245  0.0000E+00  0.2000E+01
    -24.059  0.0000E+00  0.2000E+01
    -23.873  0.0000E+00  0.2000E+01
    -23.688  0.0000E+00  0.2000E+01
    -23.502  0.0000E+00  0.2000E+01
    -23.316  0.0000E+00  0.2000E+01
    -23.130  0.0000E+00  0.2000E+01
    -22.945  0.0000E+00  0.2000E+01
    -22.759  0.0000E+00  0.2000E+01
    -22.573  0.0000E+00  0.2000E+01
    -22.388  0.0000E+00  0.2000E+01
    -22.202  0.0000E+00  0.2000E+01
    -22.016  0.0000E+00  0.2000E+01
    -21.830  0.0000E+00  0.2000E+01
    -21.645  0.0000E+00  0.2000E+01
    -21.459  0.0000E+00  0.2000E+01
    -21.273  0.0000E+00  0.2000E+01
    -21.087  0.0000E+00  0.2000E+01
    -20.902  0.0000E+00  0.2000E+01
    -20.716  0.0000E+00  0.2000E+01
    -20.530  0.0000E+00  0.2000E+01
    -20.345  0.0000E+00  0.2000E+01
    -20.159  0.0000E+00  0.2000E+01
    -19.973  0.0000E+00  0.2000E+01
    -19.787  0.0000E+00  0.2000E+01
    -19.602  0.0000E+00  0.2000E+01
    -19.416  0.0000E+00  0.2000E+01
    -19.230  0.0000E+00  0.2000E+01
    -19.045  0.0000E+00  0.2000E+01
    -18.859  0.0000E+00  0.2000E+01
    -18.673  0.0000E+00  0.2000E+01
    -18.487  0.0000E+00  0.2000E+01
    -18.302  0.0000E+00  0.2000E+01
    -18.116  0.0000E+00  0.2000E+01
    -17.930  0.0000E+00  0.2000E+01
    -17.744  0.0000E+00  0.2000E+01
    -17.559  0.0000E+00  0.2000E+01
    -17.373  0.0000E+00  0.2000E+01
    -17.187  0.3775E-02  0.2001E+01
    -17.002  0.2685E+02  0.6987E+01
    -16.816  0.5454E+01  0.8000E+01
    -16.630  0.8190E-07  0.8000E+01
    -16.444  0.0000E+00  0.8000E+01
    -16.259  0.0000E+00  0.8000E+01
    -16.073  0.0000E+00  0.8000E+01
    -15.887  0.0000E+00  0.8000E+01
    -15.702  0.0000E+00  0.8000E+01
    -15.516  0.0000E+00  0.8000E+01
    -15.330  0.0000E+00  0.8000E+01
    -15.144  0.0000E+00  0.8000E+01
    -14.959  0.0000E+00  0.8000E+01
    -14.773  0.0000E+00  0.8000E+01
    -14.587  0.0000E+00  0.8000E+01
    -14.401  0.0000E+00  0.8000E+01
    -14.216  0.0000E+00  0.8000E+01
    -14.030  0.0000E+00  0.8000E+01
    -13.844  0.0000E+00  0.8000E+01
    -13.659  0.0000E+00  0.8000E+01
    -13.473  0.0000E+00  0.8000E+01
    -13.287  0.0000E+00  0.8000E+01
    -13.101  0.0000E+00  0.8000E+01
    -12.916  0.0000E+00  0.8000E+01
    -12.730  0.0000E+00  0.8000E+01
    -12.544  0.0000E+00  0.8000E+01
    -12.359  0.0000E+00  0.8000E+01
    -12.173  0.0000E+00  0.8000E+01
    -11.987  0.0000E+00  0.8000E+01
    -11.801  0.0000E+00  0.8000E+01
    -11.616  0.0000E+00  0.8000E+01
    -11.430  0.0000E+00  0.8000E+01
    -11.244  0.0000E+00  0.8000E+01
    -11.058  0.0000E+00  0.8000E+01
    -10.873  0.0000E+00  0.8000E+01
    -10.687  0.0000E+00  0.8000E+01
    -10.501  0.0000E+00  0.8000E+01
    -10.316  0.0000E+00  0.8000E+01
    -10.130  0.0000E+00  0.8000E+01
     -9.944  0.1439E-07  0.8000E+01
     -9.758  0.2345E+01  0.8435E+01
     -9.573  0.6510E+02  0.2053E+02
     -9.387  0.4490E+02  0.2886E+02
     -9.201  0.7398E+02  0.4260E+02
     -9.016  0.2905E+02  0.4800E+02
     -8.830  0.1919E-02  0.4800E+02
     -8.644  0.0000E+00  0.4800E+02
     -8.458  0.0000E+00  0.4800E+02
     -8.273  0.0000E+00  0.4800E+02
     -8.087  0.0000E+00  0.4800E+02
     -7.901  0.0000E+00  0.4800E+02
     -7.716  0.0000E+00  0.4800E+02
     -7.530  0.0000E+00  0.4800E+02
     -7.344  0.0000E+00  0.4800E+02
     -7.158  0.0000E+00  0.4800E+02
     -6.973  0.0000E+00  0.4800E+02
     -6.787  0.0000E+00  0.4800E+02
     -6.601  0.0000E+00  0.4800E+02
     -6.415  0.0000E+00  0.4800E+02
     -6.230  0.0000E+00  0.4800E+02
     -6.044  0.0000E+00  0.4800E+02
     -5.858  0.0000E+00  0.4800E+02
     -5.673  0.4148E-16  0.4800E+02
     -5.487  0.1546E-03  0.4800E+02
     -5.301  0.4519E-01  0.4801E+02
     -5.115  0.4205E+00  0.4809E+02
     -4.930  0.3908E+00  0.4816E+02
     -4.744  0.6277E+00  0.4828E+02
     -4.558  0.7819E+00  0.4842E+02
     -4.373  0.1067E+01  0.4862E+02
     -4.187  0.4710E+00  0.4871E+02
     -4.001  0.8697E+00  0.4887E+02
     -3.815  0.7693E+00  0.4901E+02
     -3.630  0.1026E+01  0.4920E+02
     -3.444  0.8692E+00  0.4936E+02
     -3.258  0.1035E+01  0.4955E+02
     -3.072  0.7405E+00  0.4969E+02
     -2.887  0.6719E+00  0.4982E+02
     -2.701  0.7582E+00  0.4996E+02
     -2.515  0.1528E+01  0.5024E+02
     -2.330  0.1415E+01  0.5050E+02
     -2.144  0.1854E+01  0.5085E+02
     -1.958  0.1083E+01  0.5105E+02
     -1.772  0.7608E+00  0.5119E+02
     -1.587  0.1089E+01  0.5139E+02
     -1.401  0.4205E+00  0.5147E+02
     -1.215  0.7990E+00  0.5162E+02
     -1.030  0.6334E+00  0.5174E+02
     -0.844  0.1126E+01  0.5195E+02
     -0.658  0.5906E+00  0.5206E+02
     -0.472  0.1114E+01  0.5226E+02
     -0.287  0.1756E+01  0.5259E+02
     -0.101  0.2251E+01  0.5301E+02
      0.085  0.1530E+01  0.5329E+02
      0.271  0.1591E+01  0.5359E+02
      0.456  0.6259E+00  0.5370E+02
      0.642  0.9934E+00  0.5389E+02
      0.828  0.5334E+00  0.5399E+02
      1.013  0.1064E+01  0.5418E+02
      1.199  0.1254E+01  0.5442E+02
      1.385  0.8321E+00  0.5457E+02
      1.571  0.1655E+01  0.5488E+02
      1.756  0.1352E+01  0.5513E+02
      1.942  0.1491E+01  0.5541E+02
      2.128  0.1499E+01  0.5569E+02
      2.313  0.1590E+01  0.5598E+02
      2.499  0.7654E+00  0.5612E+02
      2.685  0.1867E+01  0.5647E+02
      2.871  0.1346E+01  0.5672E+02
      3.056  0.2877E+01  0.5725E+02
      3.242  0.2562E+01  0.5773E+02
      3.428  0.2215E+01  0.5814E+02
      3.614  0.2271E+01  0.5856E+02
      3.799  0.1783E+01  0.5889E+02
      3.985  0.2325E+01  0.5933E+02
      4.171  0.2364E+01  0.5977E+02
      4.356  0.1840E+01  0.6011E+02
      4.542  0.1928E+01  0.6047E+02
      4.728  0.2235E+01  0.6088E+02
      4.914  0.1064E+01  0.6108E+02
      5.099  0.9788E+00  0.6126E+02
      5.285  0.1343E+01  0.6151E+02
      5.471  0.1549E+01  0.6180E+02
      5.656  0.1283E+01  0.6204E+02
      5.842  0.1095E+01  0.6224E+02
      6.028  0.1345E+01  0.6249E+02
      6.214  0.6997E+00  0.6262E+02
      6.399  0.2308E+01  0.6305E+02
      6.585  0.2920E+01  0.6359E+02
      6.771  0.3727E+01  0.6428E+02
      6.957  0.2288E+01  0.6471E+02
      7.142  0.2642E+01  0.6520E+02
      7.328  0.2079E+01  0.6558E+02
      7.514  0.4141E+01  0.6635E+02
      7.699  0.3365E+01  0.6698E+02
      7.885  0.2819E+01  0.6750E+02
      8.071  0.2406E+01  0.6795E+02
      8.257  0.2958E+01  0.6850E+02
      8.442  0.3912E+01  0.6922E+02
      8.628  0.3513E+01  0.6988E+02
      8.814  0.4896E+01  0.7079E+02
      8.999  0.4410E+01  0.7160E+02
      9.185  0.4612E+01  0.7246E+02
      9.371  0.6980E+01  0.7376E+02
      9.557  0.6647E+01  0.7499E+02
      9.742  0.4018E+01  0.7574E+02
      9.928  0.2858E+01  0.7627E+02
     10.114  0.4066E+01  0.7702E+02
     10.300  0.3238E+01  0.7763E+02
     10.485  0.3845E+01  0.7834E+02
     10.671  0.3425E+01  0.7898E+02
     10.857  0.3457E+01  0.7962E+02
     11.042  0.3839E+01  0.8033E+02
     11.228  0.2925E+01  0.8087E+02
     11.414  0.4423E+01  0.8170E+02
     11.600  0.3559E+01  0.8236E+02
     11.785  0.2273E+01  0.8278E+02
     11.971  0.1696E+01  0.8309E+02
     12.157  0.2898E+01  0.8363E+02
     12.342  0.2565E+01  0.8411E+02
     12.528  0.2258E+01  0.8453E+02
     12.714  0.2855E+01  0.8506E+02
     12.900  0.2048E+01  0.8544E+02
     13.085  0.2363E+01  0.8588E+02
     13.271  0.2616E+01  0.8636E+02
     13.457  0.2588E+01  0.8684E+02
     13.642  0.3222E+01  0.8744E+02
     13.828  0.1332E+01  0.8769E+02
     14.014  0.7186E+00  0.8782E+02
     14.200  0.2885E+00  0.8788E+02
     14.385  0.3114E+00  0.8793E+02
     14.571  0.1031E+00  0.8795E+02
     14.757  0.2524E+00  0.8800E+02
     14.943  0.4364E-04  0.8800E+02
     15.128  0.0000E+00  0.8800E+02
     15.314  0.0000E+00  0.8800E+02
     15.500  0.0000E+00  0.8800E+02
     15.685  0.0000E+00  0.8800E+02
     15.871  0.0000E+00  0.8800E+02
     16.057  0.0000E+00  0.8800E+02
     16.243  0.0000E+00  0.8800E+02
     16.428  0.0000E+00  0.8800E+02
     16.614  0.0000E+00  0.8800E+02
     16.800  0.0000E+00  0.8800E+02
     16.985  0.0000E+00  0.8800E+02
     17.171  0.0000E+00  0.8800E+02
