  10  10   0   0
  0.6816237E+01  0.2841679E-09  0.2841679E-09  0.9746841E-09  0.5000000E-15
  1.000000000000000E-004
  CAR 
 unknown system                          
     34.18531328   -100.29210650  301      5.10457125      1.00000000
   -100.292  0.0000E+00  0.0000E+00
    -99.844  0.0000E+00  0.0000E+00
    -99.396  0.0000E+00  0.0000E+00
    -98.947  0.0000E+00  0.0000E+00
    -98.499  0.0000E+00  0.0000E+00
    -98.051  0.0000E+00  0.0000E+00
    -97.603  0.0000E+00  0.0000E+00
    -97.154  0.0000E+00  0.0000E+00
    -96.706  0.0000E+00  0.0000E+00
    -96.258  0.0000E+00  0.0000E+00
    -95.810  0.0000E+00  0.0000E+00
    -95.361  0.0000E+00  0.0000E+00
    -94.913  0.0000E+00  0.0000E+00
    -94.465  0.1858E-14  0.8327E-15
    -94.016  0.1785E+02  0.8000E+01
    -93.568  0.0000E+00  0.8000E+01
    -93.120  0.3799E-13  0.8000E+01
    -92.672  0.8923E+01  0.1200E+02
    -92.223  0.0000E+00  0.1200E+02
    -91.775  0.0000E+00  0.1200E+02
    -91.327  0.0000E+00  0.1200E+02
    -90.879  0.0000E+00  0.1200E+02
    -90.430  0.0000E+00  0.1200E+02
    -89.982  0.0000E+00  0.1200E+02
    -89.534  0.0000E+00  0.1200E+02
    -89.086  0.0000E+00  0.1200E+02
    -88.637  0.0000E+00  0.1200E+02
    -88.189  0.0000E+00  0.1200E+02
    -87.741  0.0000E+00  0.1200E+02
    -87.293  0.0000E+00  0.1200E+02
    -86.844  0.0000E+00  0.1200E+02
    -86.396  0.0000E+00  0.1200E+02
    -85.948  0.0000E+00  0.1200E+02
    -85.500  0.0000E+00  0.1200E+02
    -85.051  0.0000E+00  0.1200E+02
    -84.603  0.0000E+00  0.1200E+02
    -84.155  0.0000E+00  0.1200E+02
    -83.707  0.0000E+00  0.1200E+02
    -83.258  0.0000E+00  0.1200E+02
    -82.810  0.0000E+00  0.1200E+02
    -82.362  0.0000E+00  0.1200E+02
    -81.914  0.0000E+00  0.1200E+02
    -81.465  0.0000E+00  0.1200E+02
    -81.017  0.0000E+00  0.1200E+02
    -80.569  0.0000E+00  0.1200E+02
    -80.120  0.0000E+00  0.1200E+02
    -79.672  0.0000E+00  0.1200E+02
    -79.224  0.0000E+00  0.1200E+02
    -78.776  0.0000E+00  0.1200E+02
    -78.327  0.0000E+00  0.1200E+02
    -77.879  0.0000E+00  0.1200E+02
    -77.431  0.0000E+00  0.1200E+02
    -76.983  0.0000E+00  0.1200E+02
    -76.534  0.0000E+00  0.1200E+02
    -76.086  0.0000E+00  0.1200E+02
    -75.638  0.0000E+00  0.1200E+02
    -75.190  0.0000E+00  0.1200E+02
    -74.741  0.0000E+00  0.1200E+02
    -74.293  0.0000E+00  0.1200E+02
    -73.845  0.0000E+00  0.1200E+02
    -73.397  0.0000E+00  0.1200E+02
    -72.948  0.0000E+00  0.1200E+02
    -72.500  0.0000E+00  0.1200E+02
    -72.052  0.0000E+00  0.1200E+02
    -71.604  0.0000E+00  0.1200E+02
    -71.155  0.0000E+00  0.1200E+02
    -70.707  0.0000E+00  0.1200E+02
    -70.259  0.0000E+00  0.1200E+02
    -69.811  0.0000E+00  0.1200E+02
    -69.362  0.0000E+00  0.1200E+02
    -68.914  0.0000E+00  0.1200E+02
    -68.466  0.0000E+00  0.1200E+02
    -68.018  0.0000E+00  0.1200E+02
    -67.569  0.0000E+00  0.1200E+02
    -67.121  0.0000E+00  0.1200E+02
    -66.673  0.0000E+00  0.1200E+02
    -66.224  0.0000E+00  0.1200E+02
    -65.776  0.0000E+00  0.1200E+02
    -65.328  0.0000E+00  0.1200E+02
    -64.880  0.0000E+00  0.1200E+02
    -64.431  0.0000E+00  0.1200E+02
    -63.983  0.0000E+00  0.1200E+02
    -63.535  0.0000E+00  0.1200E+02
    -63.087  0.0000E+00  0.1200E+02
    -62.638  0.0000E+00  0.1200E+02
    -62.190  0.0000E+00  0.1200E+02
    -61.742  0.0000E+00  0.1200E+02
    -61.294  0.0000E+00  0.1200E+02
    -60.845  0.0000E+00  0.1200E+02
    -60.397  0.0000E+00  0.1200E+02
    -59.949  0.0000E+00  0.1200E+02
    -59.501  0.0000E+00  0.1200E+02
    -59.052  0.0000E+00  0.1200E+02
    -58.604  0.0000E+00  0.1200E+02
    -58.156  0.0000E+00  0.1200E+02
    -57.708  0.0000E+00  0.1200E+02
    -57.259  0.0000E+00  0.1200E+02
    -56.811  0.0000E+00  0.1200E+02
    -56.363  0.0000E+00  0.1200E+02
    -55.915  0.0000E+00  0.1200E+02
    -55.466  0.0000E+00  0.1200E+02
    -55.018  0.0000E+00  0.1200E+02
    -54.570  0.0000E+00  0.1200E+02
    -54.122  0.0000E+00  0.1200E+02
    -53.673  0.0000E+00  0.1200E+02
    -53.225  0.0000E+00  0.1200E+02
    -52.777  0.0000E+00  0.1200E+02
    -52.328  0.0000E+00  0.1200E+02
    -51.880  0.0000E+00  0.1200E+02
    -51.432  0.0000E+00  0.1200E+02
    -50.984  0.0000E+00  0.1200E+02
    -50.535  0.0000E+00  0.1200E+02
    -50.087  0.0000E+00  0.1200E+02
    -49.639  0.0000E+00  0.1200E+02
    -49.191  0.0000E+00  0.1200E+02
    -48.742  0.0000E+00  0.1200E+02
    -48.294  0.0000E+00  0.1200E+02
    -47.846  0.0000E+00  0.1200E+02
    -47.398  0.0000E+00  0.1200E+02
    -46.949  0.0000E+00  0.1200E+02
    -46.501  0.0000E+00  0.1200E+02
    -46.053  0.0000E+00  0.1200E+02
    -45.605  0.0000E+00  0.1200E+02
    -45.156  0.0000E+00  0.1200E+02
    -44.708  0.0000E+00  0.1200E+02
    -44.260  0.0000E+00  0.1200E+02
    -43.812  0.0000E+00  0.1200E+02
    -43.363  0.0000E+00  0.1200E+02
    -42.915  0.0000E+00  0.1200E+02
    -42.467  0.0000E+00  0.1200E+02
    -42.019  0.0000E+00  0.1200E+02
    -41.570  0.0000E+00  0.1200E+02
    -41.122  0.0000E+00  0.1200E+02
    -40.674  0.0000E+00  0.1200E+02
    -40.226  0.0000E+00  0.1200E+02
    -39.777  0.0000E+00  0.1200E+02
    -39.329  0.0000E+00  0.1200E+02
    -38.881  0.0000E+00  0.1200E+02
    -38.432  0.0000E+00  0.1200E+02
    -37.984  0.0000E+00  0.1200E+02
    -37.536  0.0000E+00  0.1200E+02
    -37.088  0.0000E+00  0.1200E+02
    -36.639  0.0000E+00  0.1200E+02
    -36.191  0.0000E+00  0.1200E+02
    -35.743  0.0000E+00  0.1200E+02
    -35.295  0.0000E+00  0.1200E+02
    -34.846  0.0000E+00  0.1200E+02
    -34.398  0.0000E+00  0.1200E+02
    -33.950  0.0000E+00  0.1200E+02
    -33.502  0.0000E+00  0.1200E+02
    -33.053  0.0000E+00  0.1200E+02
    -32.605  0.0000E+00  0.1200E+02
    -32.157  0.0000E+00  0.1200E+02
    -31.709  0.0000E+00  0.1200E+02
    -31.260  0.0000E+00  0.1200E+02
    -30.812  0.0000E+00  0.1200E+02
    -30.364  0.0000E+00  0.1200E+02
    -29.916  0.0000E+00  0.1200E+02
    -29.467  0.0000E+00  0.1200E+02
    -29.019  0.0000E+00  0.1200E+02
    -28.571  0.0000E+00  0.1200E+02
    -28.123  0.0000E+00  0.1200E+02
    -27.674  0.0000E+00  0.1200E+02
    -27.226  0.0000E+00  0.1200E+02
    -26.778  0.0000E+00  0.1200E+02
    -26.330  0.0000E+00  0.1200E+02
    -25.881  0.0000E+00  0.1200E+02
    -25.433  0.0000E+00  0.1200E+02
    -24.985  0.0000E+00  0.1200E+02
    -24.536  0.0000E+00  0.1200E+02
    -24.088  0.0000E+00  0.1200E+02
    -23.640  0.0000E+00  0.1200E+02
    -23.192  0.0000E+00  0.1200E+02
    -22.743  0.0000E+00  0.1200E+02
    -22.295  0.0000E+00  0.1200E+02
    -21.847  0.0000E+00  0.1200E+02
    -21.399  0.0000E+00  0.1200E+02
    -20.950  0.0000E+00  0.1200E+02
    -20.502  0.0000E+00  0.1200E+02
    -20.054  0.0000E+00  0.1200E+02
    -19.606  0.0000E+00  0.1200E+02
    -19.157  0.0000E+00  0.1200E+02
    -18.709  0.0000E+00  0.1200E+02
    -18.261  0.0000E+00  0.1200E+02
    -17.813  0.0000E+00  0.1200E+02
    -17.364  0.0000E+00  0.1200E+02
    -16.916  0.0000E+00  0.1200E+02
    -16.468  0.0000E+00  0.1200E+02
    -16.020  0.0000E+00  0.1200E+02
    -15.571  0.0000E+00  0.1200E+02
    -15.123  0.0000E+00  0.1200E+02
    -14.675  0.0000E+00  0.1200E+02
    -14.227  0.0000E+00  0.1200E+02
    -13.778  0.0000E+00  0.1200E+02
    -13.330  0.0000E+00  0.1200E+02
    -12.882  0.0000E+00  0.1200E+02
    -12.434  0.0000E+00  0.1200E+02
    -11.985  0.1036E-08  0.1200E+02
    -11.537  0.2874E+00  0.1213E+02
    -11.089  0.9058E+00  0.1255E+02
    -10.640  0.9433E+00  0.1302E+02
    -10.192  0.1552E+01  0.1374E+02
     -9.744  0.2177E+01  0.1488E+02
     -9.296  0.4142E+01  0.1685E+02
     -8.847  0.5325E+01  0.1947E+02
     -8.399  0.4255E+00  0.2000E+02
     -7.951  0.0000E+00  0.2000E+02
     -7.503  0.0000E+00  0.2000E+02
     -7.054  0.0000E+00  0.2000E+02
     -6.606  0.0000E+00  0.2000E+02
     -6.158  0.0000E+00  0.2000E+02
     -5.710  0.0000E+00  0.2000E+02
     -5.261  0.0000E+00  0.2000E+02
     -4.813  0.0000E+00  0.2000E+02
     -4.365  0.0000E+00  0.2000E+02
     -3.917  0.0000E+00  0.2000E+02
     -3.468  0.0000E+00  0.2000E+02
     -3.020  0.6006E-02  0.2000E+02
     -2.572  0.6938E+00  0.2032E+02
     -2.124  0.1963E+01  0.2130E+02
     -1.675  0.2337E+01  0.2243E+02
     -1.227  0.1615E+01  0.2327E+02
     -0.779  0.3333E+01  0.2489E+02
     -0.331  0.2532E+01  0.2636E+02
      0.118  0.2404E+01  0.2749E+02
      0.566  0.3350E+01  0.2913E+02
      1.014  0.3555E+01  0.3094E+02
      1.462  0.5211E+01  0.3354E+02
      1.911  0.2737E+01  0.3482E+02
      2.359  0.3355E+01  0.3648E+02
      2.807  0.3195E+01  0.3807E+02
      3.256  0.4050E+01  0.4020E+02
      3.704  0.5101E+01  0.4267E+02
      4.152  0.2081E+01  0.4380E+02
      4.600  0.4104E+00  0.4400E+02
      5.049  0.0000E+00  0.4400E+02
      5.497  0.0000E+00  0.4400E+02
      5.945  0.0000E+00  0.4400E+02
      6.393  0.0000E+00  0.4400E+02
      6.842  0.0000E+00  0.4400E+02
      7.290  0.0000E+00  0.4400E+02
      7.738  0.6798E-07  0.4400E+02
      8.186  0.4462E-01  0.4402E+02
      8.635  0.3568E+00  0.4418E+02
      9.083  0.6172E+00  0.4446E+02
      9.531  0.4401E+00  0.4466E+02
      9.979  0.1362E+01  0.4527E+02
     10.428  0.7527E+00  0.4571E+02
     10.876  0.1361E+01  0.4633E+02
     11.324  0.1646E+01  0.4708E+02
     11.772  0.2442E+01  0.4824E+02
     12.221  0.3779E+01  0.5006E+02
     12.669  0.2925E+01  0.5149E+02
     13.117  0.1447E+01  0.5227E+02
     13.565  0.2632E+01  0.5354E+02
     14.014  0.3767E+01  0.5534E+02
     14.462  0.3406E+01  0.5713E+02
     14.910  0.3520E+01  0.5889E+02
     15.358  0.3352E+01  0.6060E+02
     15.807  0.3231E+01  0.6225E+02
     16.255  0.3295E+01  0.6390E+02
     16.703  0.4782E+01  0.6626E+02
     17.152  0.3753E+01  0.6828E+02
     17.600  0.3635E+01  0.7029E+02
     18.048  0.3198E+01  0.7192E+02
     18.496  0.2581E+01  0.7326E+02
     18.945  0.2885E+01  0.7480E+02
     19.393  0.4008E+01  0.7668E+02
     19.841  0.1692E+01  0.7758E+02
     20.289  0.3156E+01  0.7939E+02
     20.738  0.3645E+01  0.8117E+02
     21.186  0.1954E+01  0.8211E+02
     21.634  0.2608E+01  0.8339E+02
     22.082  0.1564E+01  0.8441E+02
     22.531  0.1921E+01  0.8529E+02
     22.979  0.3012E+01  0.8667E+02
     23.427  0.3121E+01  0.8835E+02
     23.875  0.1907E+01  0.8937E+02
     24.324  0.3270E+01  0.9112E+02
     24.772  0.1750E+01  0.9215E+02
     25.220  0.8923E-01  0.9220E+02
     25.668  0.1834E+00  0.9228E+02
     26.117  0.6211E+00  0.9256E+02
     26.565  0.2003E+01  0.9346E+02
     27.013  0.2379E+01  0.9462E+02
     27.461  0.1653E+01  0.9536E+02
     27.910  0.5510E+00  0.9587E+02
     28.358  0.8923E-01  0.9600E+02
     28.806  0.0000E+00  0.9600E+02
     29.254  0.0000E+00  0.9600E+02
     29.703  0.0000E+00  0.9600E+02
     30.151  0.0000E+00  0.9600E+02
     30.599  0.0000E+00  0.9600E+02
     31.048  0.0000E+00  0.9600E+02
     31.496  0.0000E+00  0.9600E+02
     31.944  0.0000E+00  0.9600E+02
     32.392  0.0000E+00  0.9600E+02
     32.841  0.0000E+00  0.9600E+02
     33.289  0.0000E+00  0.9600E+02
     33.737  0.0000E+00  0.9600E+02
     34.185  0.0000E+00  0.9600E+02
