Na4 Cl2                                 
   1.00000000000000     
     3.2157930000000001   -6.6318659999999996    0.0000000000000000
     3.2157930000000001    6.6318659999999996    0.0000000000000000
     0.0000000000000000    0.0000000000000000    4.0273770000000004
   Na   Cl
     4     2
Direct
     0.5000000000000000    0.5000000000000000    0.0000000000000000
     0.0000000000000000    0.0000000000000000    0.5000000000000000
     0.6964060000000032    0.3035939999999968    0.5000000000000000
     0.3035939999999968    0.6964060000000032    0.5000000000000000
     0.1593530000000030    0.8406469999999970    0.0000000000000000
     0.8406469999999970    0.1593530000000030    0.0000000000000000
 
  0.00000000E+00  0.00000000E+00  0.00000000E+00
  0.00000000E+00  0.00000000E+00  0.00000000E+00
  0.00000000E+00  0.00000000E+00  0.00000000E+00
  0.00000000E+00  0.00000000E+00  0.00000000E+00
  0.00000000E+00  0.00000000E+00  0.00000000E+00
  0.00000000E+00  0.00000000E+00  0.00000000E+00
