       N       E                     dE             d eps       ncg     rms          rms(c)
DAV:   1     0.130323255480E+04    0.13032E+04   -0.45502E+04 17064   0.159E+03
DAV:   2     0.553992650383E+02   -0.12478E+04   -0.11318E+04 17348   0.487E+02
DAV:   3    -0.134173811965E+03   -0.18957E+03   -0.18139E+03 18448   0.188E+02
DAV:   4    -0.142135941427E+03   -0.79621E+01   -0.79066E+01 19668   0.397E+01
DAV:   5    -0.142289625472E+03   -0.15368E+00   -0.15352E+00 19264   0.607E+00    0.565E+01
DAV:   6    -0.108406905831E+03    0.33883E+02   -0.98197E+01 23092   0.734E+01    0.157E+01
DAV:   7    -0.107705668723E+03    0.70124E+00   -0.17863E+01 21160   0.283E+01    0.178E+01
DAV:   8    -0.106887174128E+03    0.81849E+00   -0.19489E+00 21152   0.132E+01    0.331E+00
DAV:   9    -0.106924181097E+03   -0.37007E-01   -0.29895E-01 18916   0.296E+00    0.249E+00
DAV:  10    -0.106884413633E+03    0.39767E-01   -0.65619E-02 17896   0.221E+00    0.115E+00
DAV:  11    -0.106878011280E+03    0.64024E-02   -0.19044E-02 20856   0.104E+00    0.103E-01
DAV:  12    -0.106878210225E+03   -0.19895E-03   -0.12963E-03 17900   0.175E-01    0.116E-01
DAV:  13    -0.106878143463E+03    0.66762E-04   -0.12817E-04 18680   0.750E-02    0.440E-02
DAV:  14    -0.106878130553E+03    0.12910E-04   -0.24040E-05 20564   0.362E-02    0.133E-02
DAV:  15    -0.106878129812E+03    0.74094E-06   -0.79205E-06 21100   0.269E-02
   1 F= -.10687813E+03 E0= -.10687813E+03  d E =-.455471E-26
