Ti4O8
1.0
     -2.9601620       3.2534967       3.2533846
      2.9601582      -3.2535033       3.2533869
      2.9601587       3.2534994      -3.2533903
  Ti    O   
  4     8   
Direct
      0.5000052       0.7500001       0.7499955
      0.4999957       0.2499969       0.2500015
      0.9999999       0.0000009       0.5000009
      0.9999995       0.5000018       0.0000021
      0.3043322       0.3046303       0.5002966
      0.1952685       0.2496050       0.9456637
      0.3043321       0.8040356       0.9997034
      0.8039407       0.2496045       0.5543367
      0.1960589       0.7503945       0.4456622
      0.8047313       0.7503938       0.0543358
      0.6956682       0.1959655       0.0002977
      0.6956677       0.6953702       0.4997039
