Au4 S2                                  
   1.00000000000000     
     5.2739821800000000    0.0000000000000000    0.0000000000000000
     0.0000000000000000    5.2739821800000000    0.0000000000000000
     0.0000000000000000    0.0000000000000000    5.2739821800000000
   Au   S 
     4     2
Direct
     0.5000000000000000    0.5000000000000000    0.0000000000000000
     0.0000000000000000    0.5000000000000000    0.5000000000000000
     0.5000000000000000    0.0000000000000000    0.5000000000000000
     0.0000000000000000    0.0000000000000000    0.0000000000000000
     0.2500000000000000    0.2500000000000000    0.2500000000000000
     0.7500000000000000    0.7500000000000000    0.7500000000000000
 
  0.00000000E+00  0.00000000E+00  0.00000000E+00
  0.00000000E+00  0.00000000E+00  0.00000000E+00
  0.00000000E+00  0.00000000E+00  0.00000000E+00
  0.00000000E+00  0.00000000E+00  0.00000000E+00
  0.00000000E+00  0.00000000E+00  0.00000000E+00
  0.00000000E+00  0.00000000E+00  0.00000000E+00
