       N       E                     dE             d eps       ncg     rms          rms(c)
DAV:   1     0.469660067615E+03    0.46966E+03   -0.25794E+04 14384   0.241E+03
DAV:   2     0.474565660462E+02   -0.42220E+03   -0.40906E+03 13848   0.592E+02
DAV:   3    -0.121910474735E+02   -0.59648E+02   -0.57793E+02 17024   0.181E+02
DAV:   4    -0.149682985050E+02   -0.27773E+01   -0.27675E+01 15096   0.409E+01
DAV:   5    -0.150504471302E+02   -0.82149E-01   -0.82144E-01 19064   0.750E+00    0.347E+00
DAV:   6    -0.148469447815E+02    0.20350E+00   -0.35697E-01 18072   0.787E+00    0.205E+00
DAV:   7    -0.148446276722E+02    0.23171E-02   -0.11359E-01 15824   0.274E+00    0.105E+00
DAV:   8    -0.148428822978E+02    0.17454E-02   -0.17548E-02 16184   0.956E-01    0.191E-01
DAV:   9    -0.148426561955E+02    0.22610E-03   -0.13975E-03 17192   0.263E-01    0.628E-02
DAV:  10    -0.148426832084E+02   -0.27013E-04   -0.26812E-04 16680   0.161E-01    0.261E-02
DAV:  11    -0.148426877572E+02   -0.45489E-05   -0.35541E-05 16152   0.529E-02    0.109E-02
DAV:  12    -0.148426864364E+02    0.13208E-05   -0.54391E-06 13728   0.212E-02    0.242E-03
DAV:  13    -0.148426865406E+02   -0.10421E-06   -0.83770E-07  7920   0.144E-02
   1 F= -.14842687E+02 E0= -.14839432E+02  d E =-.650879E-02
