As3 Pd6                                 
   1.00000000000000     
     0.0000000000000000    0.0000000000000000   -3.6719246200000000
    -3.3298378799999999   -5.7674226800000001    0.0000000000000000
    -3.3299224500000002    5.7674722000000003    0.0000000000000000
   As   Pd
     3     6
Direct
     0.0000000000000000    0.3333378399999987    0.6667209800000009
     0.0000000000000000    0.6666168599999978    0.3332790199999991
     0.5000000000000000    0.9999899499999998    0.0000000000000000
     0.0000000000000000    0.2651031999999987    0.0000000000000000
     0.0000000000000000    0.7348903700000022    0.7349091099999967
     0.0000000000000000    0.9999802600000010    0.2650898899999987
     0.5000000000000000    0.6070729799999981    0.0000000000000000
     0.5000000000000000    0.3929395799999966    0.3929666299999965
     0.5000000000000000    0.9999719500000026    0.6070333700000035
 
  0.00000000E+00  0.00000000E+00  0.00000000E+00
  0.00000000E+00  0.00000000E+00  0.00000000E+00
  0.00000000E+00  0.00000000E+00  0.00000000E+00
  0.00000000E+00  0.00000000E+00  0.00000000E+00
  0.00000000E+00  0.00000000E+00  0.00000000E+00
  0.00000000E+00  0.00000000E+00  0.00000000E+00
  0.00000000E+00  0.00000000E+00  0.00000000E+00
  0.00000000E+00  0.00000000E+00  0.00000000E+00
  0.00000000E+00  0.00000000E+00  0.00000000E+00
