   8   8   0   0
  0.2822956E+02  0.6089730E-09  0.6089730E-09  0.6089730E-09  0.5000000E-15
  1.000000000000000E-004
  CAR 
 unknown system                          
     18.00784316     -7.23386752  301      6.07922009      1.00000000
     -7.234  0.0000E+00  0.0000E+00
     -7.150  0.0000E+00  0.0000E+00
     -7.066  0.0000E+00  0.0000E+00
     -6.981  0.0000E+00  0.0000E+00
     -6.897  0.0000E+00  0.0000E+00
     -6.813  0.0000E+00  0.0000E+00
     -6.729  0.0000E+00  0.0000E+00
     -6.645  0.0000E+00  0.0000E+00
     -6.561  0.0000E+00  0.0000E+00
     -6.477  0.0000E+00  0.0000E+00
     -6.392  0.0000E+00  0.0000E+00
     -6.308  0.2391E-08  0.2012E-09
     -6.224  0.9214E-03  0.7753E-04
     -6.140  0.1682E+01  0.1416E+00
     -6.056  0.2538E+02  0.2277E+01
     -5.972  0.8552E+01  0.2997E+01
     -5.888  0.4850E-01  0.3001E+01
     -5.804  0.6044E+01  0.3509E+01
     -5.719  0.5789E+02  0.8380E+01
     -5.635  0.4180E+02  0.1190E+02
     -5.551  0.4901E+02  0.1602E+02
     -5.467  0.7557E+02  0.2238E+02
     -5.383  0.9908E+02  0.3072E+02
     -5.299  0.1087E+03  0.3986E+02
     -5.215  0.1149E+03  0.4953E+02
     -5.130  0.7139E+02  0.5554E+02
     -5.046  0.1746E+02  0.5701E+02
     -4.962  0.1369E+02  0.5816E+02
     -4.878  0.2113E+02  0.5994E+02
     -4.794  0.7561E+00  0.6000E+02
     -4.710  0.2206E-03  0.6000E+02
     -4.626  0.3117E-09  0.6000E+02
     -4.541  0.0000E+00  0.6000E+02
     -4.457  0.0000E+00  0.6000E+02
     -4.373  0.0000E+00  0.6000E+02
     -4.289  0.0000E+00  0.6000E+02
     -4.205  0.0000E+00  0.6000E+02
     -4.121  0.0000E+00  0.6000E+02
     -4.037  0.0000E+00  0.6000E+02
     -3.952  0.0000E+00  0.6000E+02
     -3.868  0.0000E+00  0.6000E+02
     -3.784  0.0000E+00  0.6000E+02
     -3.700  0.0000E+00  0.6000E+02
     -3.616  0.0000E+00  0.6000E+02
     -3.532  0.0000E+00  0.6000E+02
     -3.448  0.1510E-11  0.6000E+02
     -3.363  0.3046E-05  0.6000E+02
     -3.279  0.2652E-01  0.6000E+02
     -3.195  0.1472E+01  0.6013E+02
     -3.111  0.1447E+01  0.6025E+02
     -3.027  0.2496E-01  0.6025E+02
     -2.943  0.2726E-05  0.6025E+02
     -2.859  0.5720E-07  0.6025E+02
     -2.774  0.4181E-02  0.6025E+02
     -2.690  0.1569E+01  0.6038E+02
     -2.606  0.6686E+01  0.6094E+02
     -2.522  0.6534E+00  0.6100E+02
     -2.438  0.5689E-03  0.6100E+02
     -2.354  0.3867E-08  0.6100E+02
     -2.270  0.4299E-03  0.6100E+02
     -2.186  0.5729E+00  0.6105E+02
     -2.101  0.6604E+01  0.6160E+02
     -2.017  0.1731E+01  0.6175E+02
     -1.933  0.5325E-02  0.6175E+02
     -1.849  0.9050E-07  0.6175E+02
     -1.765  0.1059E-02  0.6175E+02
     -1.681  0.1013E+01  0.6184E+02
     -1.597  0.9007E+01  0.6259E+02
     -1.512  0.1861E+01  0.6275E+02
     -1.428  0.2308E-01  0.6275E+02
     -1.344  0.2792E+01  0.6299E+02
     -1.260  0.5846E+01  0.6348E+02
     -1.176  0.2565E+00  0.6350E+02
     -1.092  0.8374E-04  0.6350E+02
     -1.008  0.7007E-03  0.6350E+02
     -0.923  0.9067E+00  0.6358E+02
     -0.839  0.1084E+02  0.6449E+02
     -0.755  0.3099E+01  0.6475E+02
     -0.671  0.1165E+01  0.6485E+02
     -0.587  0.4403E+01  0.6522E+02
     -0.503  0.3824E+00  0.6525E+02
     -0.419  0.2873E-03  0.6525E+02
     -0.334  0.1068E-02  0.6525E+02
     -0.250  0.8757E+00  0.6532E+02
     -0.166  0.8286E+01  0.6602E+02
     -0.082  0.7958E+01  0.6669E+02
      0.002  0.1028E+01  0.6678E+02
      0.086  0.6095E+01  0.6729E+02
      0.170  0.2483E+01  0.6750E+02
      0.255  0.1366E-01  0.6750E+02
      0.339  0.4148E-06  0.6750E+02
      0.423  0.1254E-05  0.6750E+02
      0.507  0.2610E-01  0.6750E+02
      0.591  0.3125E+01  0.6777E+02
      0.675  0.5562E+01  0.6823E+02
      0.759  0.2018E+00  0.6825E+02
      0.843  0.8021E+00  0.6832E+02
      0.928  0.6780E+01  0.6889E+02
      1.012  0.1331E+01  0.6900E+02
      1.096  0.8058E+00  0.6907E+02
      1.180  0.6385E+01  0.6961E+02
      1.264  0.7794E+01  0.7026E+02
      1.348  0.5623E+01  0.7073E+02
      1.432  0.1850E+01  0.7089E+02
      1.517  0.7379E+01  0.7151E+02
      1.601  0.5160E+01  0.7194E+02
      1.685  0.6570E+00  0.7200E+02
      1.769  0.9348E-03  0.7200E+02
      1.853  0.6519E-08  0.7200E+02
      1.937  0.0000E+00  0.7200E+02
      2.021  0.0000E+00  0.7200E+02
      2.106  0.8502E-09  0.7200E+02
      2.190  0.3561E-03  0.7200E+02
      2.274  0.7777E+00  0.7207E+02
      2.358  0.1745E+02  0.7353E+02
      2.442  0.2966E+02  0.7603E+02
      2.526  0.4242E+02  0.7960E+02
      2.610  0.3117E+02  0.8222E+02
      2.695  0.2950E+02  0.8470E+02
      2.779  0.2680E+02  0.8696E+02
      2.863  0.1698E+02  0.8839E+02
      2.947  0.9355E+01  0.8917E+02
      3.031  0.9674E+01  0.8999E+02
      3.115  0.1150E+02  0.9096E+02
      3.199  0.1572E+02  0.9228E+02
      3.284  0.2619E+01  0.9250E+02
      3.368  0.8870E-02  0.9250E+02
      3.452  0.2009E-06  0.9250E+02
      3.536  0.6433E-07  0.9250E+02
      3.620  0.2904E-02  0.9250E+02
      3.704  0.7010E+00  0.9256E+02
      3.788  0.2917E+01  0.9280E+02
      3.872  0.6919E+01  0.9339E+02
      3.957  0.1656E+01  0.9353E+02
      4.041  0.8001E+01  0.9420E+02
      4.125  0.1331E+02  0.9532E+02
      4.209  0.5033E+01  0.9574E+02
      4.293  0.8619E-01  0.9575E+02
      4.377  0.1051E-04  0.9575E+02
      4.461  0.5562E-11  0.9575E+02
      4.546  0.0000E+00  0.9575E+02
      4.630  0.0000E+00  0.9575E+02
      4.714  0.3811E-10  0.9575E+02
      4.798  0.3357E-04  0.9575E+02
      4.882  0.1330E+00  0.9576E+02
      4.966  0.4718E+01  0.9616E+02
      5.050  0.1283E+02  0.9724E+02
      5.135  0.5989E+01  0.9774E+02
      5.219  0.1324E+01  0.9785E+02
      5.303  0.1702E+01  0.9800E+02
      5.387  0.9522E-01  0.9800E+02
      5.471  0.1802E+01  0.9816E+02
      5.555  0.5692E+01  0.9863E+02
      5.639  0.9906E+01  0.9947E+02
      5.724  0.3320E+01  0.9975E+02
      5.808  0.2907E-01  0.9975E+02
      5.892  0.1557E-05  0.9975E+02
      5.976  0.3584E-02  0.9975E+02
      6.060  0.1473E+01  0.9987E+02
      6.144  0.6728E+01  0.1004E+03
      6.228  0.7495E+00  0.1005E+03
      6.313  0.3632E+01  0.1008E+03
      6.397  0.5140E+01  0.1012E+03
      6.481  0.2788E+01  0.1015E+03
      6.565  0.3267E+01  0.1018E+03
      6.649  0.4521E+01  0.1021E+03
      6.733  0.4309E+01  0.1025E+03
      6.817  0.7290E-01  0.1025E+03
      6.901  0.7888E-05  0.1025E+03
      6.986  0.8501E-02  0.1025E+03
      7.070  0.3718E+01  0.1028E+03
      7.154  0.2002E+02  0.1045E+03
      7.238  0.1099E+02  0.1054E+03
      7.322  0.9188E+00  0.1055E+03
      7.406  0.8508E-03  0.1055E+03
      7.490  0.4173E-08  0.1055E+03
      7.575  0.1957E-03  0.1055E+03
      7.659  0.4514E+00  0.1055E+03
      7.743  0.8359E+01  0.1062E+03
      7.827  0.8602E+01  0.1070E+03
      7.911  0.3355E+01  0.1072E+03
      7.995  0.1957E+00  0.1073E+03
      8.079  0.7700E+01  0.1079E+03
      8.164  0.6882E+01  0.1085E+03
      8.248  0.1098E+00  0.1085E+03
      8.332  0.7902E-01  0.1085E+03
      8.416  0.3453E+01  0.1088E+03
      8.500  0.7866E+01  0.1095E+03
      8.584  0.6241E+01  0.1100E+03
      8.668  0.2188E+01  0.1102E+03
      8.753  0.6622E+01  0.1107E+03
      8.837  0.2649E+01  0.1109E+03
      8.921  0.1841E+01  0.1111E+03
      9.005  0.8622E+01  0.1118E+03
      9.089  0.2383E+01  0.1120E+03
      9.173  0.6196E+01  0.1126E+03
      9.257  0.2359E+01  0.1127E+03
      9.342  0.1185E-01  0.1127E+03
      9.426  0.7419E-06  0.1128E+03
      9.510  0.1165E-01  0.1128E+03
      9.594  0.1812E+01  0.1129E+03
      9.678  0.3975E+01  0.1132E+03
      9.762  0.5064E+01  0.1137E+03
      9.846  0.9547E+01  0.1145E+03
      9.930  0.3924E+00  0.1145E+03
     10.015  0.1310E+01  0.1146E+03
     10.099  0.6800E+01  0.1152E+03
     10.183  0.2965E+01  0.1154E+03
     10.267  0.1042E+02  0.1163E+03
     10.351  0.2287E+01  0.1165E+03
     10.435  0.3796E+01  0.1168E+03
     10.519  0.1269E+02  0.1179E+03
     10.604  0.9727E+01  0.1187E+03
     10.688  0.4272E+01  0.1191E+03
     10.772  0.7977E+01  0.1197E+03
     10.856  0.9506E+01  0.1205E+03
     10.940  0.7760E+01  0.1212E+03
     11.024  0.2243E+01  0.1214E+03
     11.108  0.4163E+01  0.1217E+03
     11.193  0.2431E+01  0.1219E+03
     11.277  0.1365E+02  0.1231E+03
     11.361  0.2296E+01  0.1233E+03
     11.445  0.5645E+01  0.1238E+03
     11.529  0.8113E+01  0.1244E+03
     11.613  0.9316E+00  0.1245E+03
     11.697  0.5576E+01  0.1250E+03
     11.782  0.1173E+02  0.1260E+03
     11.866  0.9702E+01  0.1268E+03
     11.950  0.8200E+01  0.1275E+03
     12.034  0.6546E+01  0.1280E+03
     12.118  0.2643E+01  0.1282E+03
     12.202  0.3530E-01  0.1282E+03
     12.286  0.2914E-05  0.1282E+03
     12.371  0.1028E-11  0.1282E+03
     12.455  0.4486E-10  0.1283E+03
     12.539  0.4283E-04  0.1283E+03
     12.623  0.1816E+00  0.1283E+03
     12.707  0.5465E+01  0.1287E+03
     12.791  0.6311E+01  0.1293E+03
     12.875  0.5658E+01  0.1297E+03
     12.960  0.5844E+00  0.1298E+03
     13.044  0.2275E+01  0.1300E+03
     13.128  0.3237E+00  0.1300E+03
     13.212  0.5993E-01  0.1300E+03
     13.296  0.3039E+01  0.1303E+03
     13.380  0.2799E+01  0.1305E+03
     13.464  0.9446E-01  0.1305E+03
     13.548  0.5657E+01  0.1310E+03
     13.633  0.1455E+02  0.1322E+03
     13.717  0.1400E+02  0.1334E+03
     13.801  0.1086E+02  0.1343E+03
     13.885  0.2437E+01  0.1345E+03
     13.969  0.1292E+01  0.1346E+03
     14.053  0.1636E+01  0.1347E+03
     14.137  0.1137E+00  0.1348E+03
     14.222  0.2949E+01  0.1350E+03
     14.306  0.1396E+02  0.1362E+03
     14.390  0.1921E+02  0.1378E+03
     14.474  0.2428E+01  0.1380E+03
     14.558  0.6706E-02  0.1380E+03
     14.642  0.2031E-01  0.1380E+03
     14.726  0.2867E+01  0.1382E+03
     14.811  0.6105E+01  0.1388E+03
     14.895  0.1045E+02  0.1396E+03
     14.979  0.7212E+01  0.1402E+03
     15.063  0.1657E+01  0.1404E+03
     15.147  0.6689E+01  0.1409E+03
     15.231  0.6569E+00  0.1410E+03
     15.315  0.5755E-03  0.1410E+03
     15.400  0.1934E-05  0.1410E+03
     15.484  0.3342E-01  0.1410E+03
     15.568  0.3419E+01  0.1413E+03
     15.652  0.8445E+01  0.1420E+03
     15.736  0.5789E+01  0.1425E+03
     15.820  0.4966E+01  0.1429E+03
     15.904  0.6854E+01  0.1435E+03
     15.989  0.2075E+00  0.1435E+03
     16.073  0.4698E-04  0.1435E+03
     16.157  0.1938E-03  0.1435E+03
     16.241  0.2200E+00  0.1435E+03
     16.325  0.2231E+01  0.1437E+03
     16.409  0.5191E+00  0.1437E+03
     16.493  0.1367E-02  0.1437E+03
     16.577  0.1848E-07  0.1438E+03
     16.662  0.2756E-07  0.1438E+03
     16.746  0.1744E-02  0.1438E+03
     16.830  0.5729E+00  0.1438E+03
     16.914  0.2204E+01  0.1440E+03
     16.998  0.1929E+00  0.1440E+03
     17.082  0.1463E-03  0.1440E+03
     17.166  0.5226E-09  0.1440E+03
     17.251  0.0000E+00  0.1440E+03
     17.335  0.0000E+00  0.1440E+03
     17.419  0.0000E+00  0.1440E+03
     17.503  0.0000E+00  0.1440E+03
     17.587  0.0000E+00  0.1440E+03
     17.671  0.0000E+00  0.1440E+03
     17.755  0.0000E+00  0.1440E+03
     17.840  0.0000E+00  0.1440E+03
     17.924  0.0000E+00  0.1440E+03
     18.008  0.0000E+00  0.1440E+03
