Zr6 Ge2                                 
   1.00000000000000     
     3.0701700000000001   -5.3176909999999999    0.0000000000000000
     3.0701700000000001    5.3176909999999999    0.0000000000000000
     0.0000000000000000    0.0000000000000000    5.0481069999999999
   Zr   Ge
     6     2
Direct
     0.1706769999999977    0.3413550000000001    0.2500000000000000
     0.6586449999999999    0.8293230000000023    0.2500000000000000
     0.1706769999999977    0.8293230000000023    0.2500000000000000
     0.8293230000000023    0.6586449999999999    0.7500000000000000
     0.3413550000000001    0.1706769999999977    0.7500000000000000
     0.8293230000000023    0.1706769999999977    0.7500000000000000
     0.3333330000000032    0.6666669999999968    0.7500000000000000
     0.6666669999999968    0.3333330000000032    0.2500000000000000
 
  0.00000000E+00  0.00000000E+00  0.00000000E+00
  0.00000000E+00  0.00000000E+00  0.00000000E+00
  0.00000000E+00  0.00000000E+00  0.00000000E+00
  0.00000000E+00  0.00000000E+00  0.00000000E+00
  0.00000000E+00  0.00000000E+00  0.00000000E+00
  0.00000000E+00  0.00000000E+00  0.00000000E+00
  0.00000000E+00  0.00000000E+00  0.00000000E+00
  0.00000000E+00  0.00000000E+00  0.00000000E+00
