   8   8   0   0
  0.2060412E+02  0.6140341E-09  0.6140341E-09  0.5048107E-09  0.5000000E-15
  1.000000000000000E-004
  CAR 
 unknown system                          
     21.79571834    -42.32986042  301      9.33336915      1.00000000
    -42.330  0.0000E+00  0.0000E+00
    -42.116  0.0000E+00  0.0000E+00
    -41.902  0.0000E+00  0.0000E+00
    -41.689  0.0000E+00  0.0000E+00
    -41.475  0.0000E+00  0.0000E+00
    -41.261  0.0000E+00  0.0000E+00
    -41.047  0.0000E+00  0.0000E+00
    -40.834  0.0000E+00  0.0000E+00
    -40.620  0.0000E+00  0.0000E+00
    -40.406  0.0000E+00  0.0000E+00
    -40.192  0.0000E+00  0.0000E+00
    -39.979  0.0000E+00  0.0000E+00
    -39.765  0.0000E+00  0.0000E+00
    -39.551  0.1493E-04  0.3192E-05
    -39.337  0.8550E+01  0.1828E+01
    -39.124  0.4742E+02  0.1196E+02
    -38.910  0.1700E+00  0.1200E+02
    -38.696  0.0000E+00  0.1200E+02
    -38.482  0.0000E+00  0.1200E+02
    -38.269  0.0000E+00  0.1200E+02
    -38.055  0.0000E+00  0.1200E+02
    -37.841  0.0000E+00  0.1200E+02
    -37.627  0.0000E+00  0.1200E+02
    -37.414  0.0000E+00  0.1200E+02
    -37.200  0.0000E+00  0.1200E+02
    -36.986  0.0000E+00  0.1200E+02
    -36.772  0.0000E+00  0.1200E+02
    -36.559  0.0000E+00  0.1200E+02
    -36.345  0.0000E+00  0.1200E+02
    -36.131  0.0000E+00  0.1200E+02
    -35.917  0.0000E+00  0.1200E+02
    -35.704  0.0000E+00  0.1200E+02
    -35.490  0.0000E+00  0.1200E+02
    -35.276  0.0000E+00  0.1200E+02
    -35.062  0.0000E+00  0.1200E+02
    -34.849  0.0000E+00  0.1200E+02
    -34.635  0.0000E+00  0.1200E+02
    -34.421  0.0000E+00  0.1200E+02
    -34.207  0.0000E+00  0.1200E+02
    -33.994  0.0000E+00  0.1200E+02
    -33.780  0.0000E+00  0.1200E+02
    -33.566  0.0000E+00  0.1200E+02
    -33.352  0.0000E+00  0.1200E+02
    -33.139  0.0000E+00  0.1200E+02
    -32.925  0.0000E+00  0.1200E+02
    -32.711  0.0000E+00  0.1200E+02
    -32.497  0.0000E+00  0.1200E+02
    -32.284  0.0000E+00  0.1200E+02
    -32.070  0.0000E+00  0.1200E+02
    -31.856  0.0000E+00  0.1200E+02
    -31.642  0.0000E+00  0.1200E+02
    -31.429  0.0000E+00  0.1200E+02
    -31.215  0.0000E+00  0.1200E+02
    -31.001  0.0000E+00  0.1200E+02
    -30.787  0.0000E+00  0.1200E+02
    -30.574  0.0000E+00  0.1200E+02
    -30.360  0.0000E+00  0.1200E+02
    -30.146  0.0000E+00  0.1200E+02
    -29.932  0.0000E+00  0.1200E+02
    -29.718  0.0000E+00  0.1200E+02
    -29.505  0.0000E+00  0.1200E+02
    -29.291  0.0000E+00  0.1200E+02
    -29.077  0.0000E+00  0.1200E+02
    -28.863  0.0000E+00  0.1200E+02
    -28.650  0.0000E+00  0.1200E+02
    -28.436  0.0000E+00  0.1200E+02
    -28.222  0.0000E+00  0.1200E+02
    -28.008  0.0000E+00  0.1200E+02
    -27.795  0.0000E+00  0.1200E+02
    -27.581  0.0000E+00  0.1200E+02
    -27.367  0.0000E+00  0.1200E+02
    -27.153  0.0000E+00  0.1200E+02
    -26.940  0.0000E+00  0.1200E+02
    -26.726  0.0000E+00  0.1200E+02
    -26.512  0.0000E+00  0.1200E+02
    -26.298  0.0000E+00  0.1200E+02
    -26.085  0.0000E+00  0.1200E+02
    -25.871  0.0000E+00  0.1200E+02
    -25.657  0.0000E+00  0.1200E+02
    -25.443  0.0000E+00  0.1200E+02
    -25.230  0.0000E+00  0.1200E+02
    -25.016  0.0000E+00  0.1200E+02
    -24.802  0.0000E+00  0.1200E+02
    -24.588  0.0000E+00  0.1200E+02
    -24.375  0.0000E+00  0.1200E+02
    -24.161  0.0000E+00  0.1200E+02
    -23.947  0.0000E+00  0.1200E+02
    -23.733  0.0000E+00  0.1200E+02
    -23.520  0.0000E+00  0.1200E+02
    -23.306  0.0000E+00  0.1200E+02
    -23.092  0.0000E+00  0.1200E+02
    -22.878  0.0000E+00  0.1200E+02
    -22.665  0.0000E+00  0.1200E+02
    -22.451  0.0000E+00  0.1200E+02
    -22.237  0.0000E+00  0.1200E+02
    -22.023  0.0000E+00  0.1200E+02
    -21.810  0.0000E+00  0.1200E+02
    -21.596  0.0000E+00  0.1200E+02
    -21.382  0.0000E+00  0.1200E+02
    -21.168  0.0000E+00  0.1200E+02
    -20.955  0.0000E+00  0.1200E+02
    -20.741  0.0000E+00  0.1200E+02
    -20.527  0.0000E+00  0.1200E+02
    -20.313  0.0000E+00  0.1200E+02
    -20.100  0.0000E+00  0.1200E+02
    -19.886  0.0000E+00  0.1200E+02
    -19.672  0.0000E+00  0.1200E+02
    -19.458  0.0000E+00  0.1200E+02
    -19.245  0.0000E+00  0.1200E+02
    -19.031  0.0000E+00  0.1200E+02
    -18.817  0.0000E+00  0.1200E+02
    -18.603  0.0000E+00  0.1200E+02
    -18.390  0.0000E+00  0.1200E+02
    -18.176  0.1435E-07  0.1200E+02
    -17.962  0.4840E+00  0.1210E+02
    -17.748  0.2349E+02  0.1713E+02
    -17.535  0.3591E+02  0.2480E+02
    -17.321  0.2805E+02  0.3080E+02
    -17.107  0.3462E+02  0.3820E+02
    -16.893  0.4103E+02  0.4697E+02
    -16.680  0.4833E+01  0.4800E+02
    -16.466  0.0000E+00  0.4800E+02
    -16.252  0.0000E+00  0.4800E+02
    -16.038  0.0000E+00  0.4800E+02
    -15.825  0.0000E+00  0.4800E+02
    -15.611  0.0000E+00  0.4800E+02
    -15.397  0.0000E+00  0.4800E+02
    -15.183  0.5307E-10  0.4800E+02
    -14.970  0.1211E+02  0.5059E+02
    -14.756  0.8145E+02  0.6800E+02
    -14.542  0.5364E-04  0.6800E+02
    -14.328  0.0000E+00  0.6800E+02
    -14.115  0.0000E+00  0.6800E+02
    -13.901  0.0000E+00  0.6800E+02
    -13.687  0.0000E+00  0.6800E+02
    -13.473  0.0000E+00  0.6800E+02
    -13.260  0.0000E+00  0.6800E+02
    -13.046  0.0000E+00  0.6800E+02
    -12.832  0.0000E+00  0.6800E+02
    -12.618  0.0000E+00  0.6800E+02
    -12.405  0.0000E+00  0.6800E+02
    -12.191  0.0000E+00  0.6800E+02
    -11.977  0.0000E+00  0.6800E+02
    -11.763  0.0000E+00  0.6800E+02
    -11.550  0.0000E+00  0.6800E+02
    -11.336  0.0000E+00  0.6800E+02
    -11.122  0.0000E+00  0.6800E+02
    -10.908  0.0000E+00  0.6800E+02
    -10.695  0.0000E+00  0.6800E+02
    -10.481  0.0000E+00  0.6800E+02
    -10.267  0.0000E+00  0.6800E+02
    -10.053  0.0000E+00  0.6800E+02
     -9.840  0.0000E+00  0.6800E+02
     -9.626  0.0000E+00  0.6800E+02
     -9.412  0.0000E+00  0.6800E+02
     -9.198  0.0000E+00  0.6800E+02
     -8.985  0.0000E+00  0.6800E+02
     -8.771  0.0000E+00  0.6800E+02
     -8.557  0.0000E+00  0.6800E+02
     -8.343  0.0000E+00  0.6800E+02
     -8.130  0.0000E+00  0.6800E+02
     -7.916  0.0000E+00  0.6800E+02
     -7.702  0.0000E+00  0.6800E+02
     -7.488  0.0000E+00  0.6800E+02
     -7.275  0.0000E+00  0.6800E+02
     -7.061  0.0000E+00  0.6800E+02
     -6.847  0.0000E+00  0.6800E+02
     -6.633  0.0000E+00  0.6800E+02
     -6.420  0.0000E+00  0.6800E+02
     -6.206  0.0000E+00  0.6800E+02
     -5.992  0.0000E+00  0.6800E+02
     -5.778  0.0000E+00  0.6800E+02
     -5.565  0.0000E+00  0.6800E+02
     -5.351  0.0000E+00  0.6800E+02
     -5.137  0.0000E+00  0.6800E+02
     -4.923  0.0000E+00  0.6800E+02
     -4.710  0.0000E+00  0.6800E+02
     -4.496  0.0000E+00  0.6800E+02
     -4.282  0.0000E+00  0.6800E+02
     -4.068  0.0000E+00  0.6800E+02
     -3.855  0.0000E+00  0.6800E+02
     -3.641  0.0000E+00  0.6800E+02
     -3.427  0.0000E+00  0.6800E+02
     -3.213  0.0000E+00  0.6800E+02
     -3.000  0.0000E+00  0.6800E+02
     -2.786  0.0000E+00  0.6800E+02
     -2.572  0.0000E+00  0.6800E+02
     -2.358  0.0000E+00  0.6800E+02
     -2.144  0.0000E+00  0.6800E+02
     -1.931  0.0000E+00  0.6800E+02
     -1.717  0.0000E+00  0.6800E+02
     -1.503  0.0000E+00  0.6800E+02
     -1.289  0.0000E+00  0.6800E+02
     -1.076  0.0000E+00  0.6800E+02
     -0.862  0.0000E+00  0.6800E+02
     -0.648  0.0000E+00  0.6800E+02
     -0.434  0.1173E-08  0.6800E+02
     -0.221  0.6641E-01  0.6801E+02
     -0.007  0.2788E+00  0.6807E+02
      0.207  0.1781E+01  0.6845E+02
      0.421  0.1083E+01  0.6869E+02
      0.634  0.3655E+01  0.6947E+02
      0.848  0.8789E+01  0.7135E+02
      1.062  0.3060E+01  0.7200E+02
      1.276  0.0000E+00  0.7200E+02
      1.489  0.0000E+00  0.7200E+02
      1.703  0.0000E+00  0.7200E+02
      1.917  0.0000E+00  0.7200E+02
      2.131  0.0000E+00  0.7200E+02
      2.344  0.0000E+00  0.7200E+02
      2.558  0.0000E+00  0.7200E+02
      2.772  0.0000E+00  0.7200E+02
      2.986  0.0000E+00  0.7200E+02
      3.199  0.0000E+00  0.7200E+02
      3.413  0.0000E+00  0.7200E+02
      3.627  0.0000E+00  0.7200E+02
      3.841  0.0000E+00  0.7200E+02
      4.054  0.0000E+00  0.7200E+02
      4.268  0.0000E+00  0.7200E+02
      4.482  0.1231E-07  0.7200E+02
      4.696  0.2624E+00  0.7206E+02
      4.909  0.1734E+01  0.7243E+02
      5.123  0.3110E+01  0.7309E+02
      5.337  0.6719E+01  0.7453E+02
      5.551  0.4059E+01  0.7540E+02
      5.764  0.2974E+01  0.7603E+02
      5.978  0.4340E+01  0.7696E+02
      6.192  0.2916E+01  0.7758E+02
      6.406  0.5829E+01  0.7883E+02
      6.619  0.7525E+01  0.8044E+02
      6.833  0.1123E+02  0.8284E+02
      7.047  0.4507E+01  0.8380E+02
      7.261  0.5738E+01  0.8503E+02
      7.474  0.9038E+01  0.8696E+02
      7.688  0.4427E+01  0.8791E+02
      7.902  0.5433E+01  0.8907E+02
      8.116  0.3135E+01  0.8974E+02
      8.329  0.7771E+01  0.9140E+02
      8.543  0.1075E+02  0.9370E+02
      8.757  0.1031E+02  0.9590E+02
      8.971  0.1125E+02  0.9830E+02
      9.184  0.4803E+01  0.9933E+02
      9.398  0.5539E+01  0.1005E+03
      9.612  0.5621E+01  0.1017E+03
      9.826  0.1328E+02  0.1046E+03
     10.039  0.1006E+02  0.1067E+03
     10.253  0.6843E+01  0.1082E+03
     10.467  0.4135E+01  0.1091E+03
     10.681  0.9274E+01  0.1110E+03
     10.894  0.4654E+01  0.1120E+03
     11.108  0.5807E+01  0.1133E+03
     11.322  0.3881E+01  0.1141E+03
     11.536  0.5302E+01  0.1152E+03
     11.749  0.1041E+02  0.1175E+03
     11.963  0.1148E+02  0.1199E+03
     12.177  0.9240E+01  0.1219E+03
     12.391  0.6756E+01  0.1233E+03
     12.604  0.1159E+02  0.1258E+03
     12.818  0.1178E+02  0.1283E+03
     13.032  0.1453E+02  0.1314E+03
     13.246  0.9085E+01  0.1334E+03
     13.459  0.6151E+01  0.1347E+03
     13.673  0.4387E+01  0.1356E+03
     13.887  0.8344E+01  0.1374E+03
     14.101  0.4052E+01  0.1383E+03
     14.314  0.1134E+02  0.1407E+03
     14.528  0.7079E+01  0.1422E+03
     14.742  0.5925E+01  0.1435E+03
     14.956  0.6285E+01  0.1448E+03
     15.169  0.7961E+01  0.1465E+03
     15.383  0.5764E+01  0.1478E+03
     15.597  0.1847E+01  0.1482E+03
     15.811  0.3674E+01  0.1489E+03
     16.024  0.1514E+01  0.1493E+03
     16.238  0.1163E+01  0.1495E+03
     16.452  0.2360E+01  0.1500E+03
     16.666  0.2047E+01  0.1505E+03
     16.879  0.3771E+01  0.1513E+03
     17.093  0.3288E+01  0.1520E+03
     17.307  0.1095E+01  0.1522E+03
     17.521  0.1501E+01  0.1525E+03
     17.734  0.6780E+01  0.1540E+03
     17.948  0.4182E+01  0.1549E+03
     18.162  0.4759E+01  0.1559E+03
     18.376  0.8332E+01  0.1577E+03
     18.589  0.5727E+01  0.1589E+03
     18.803  0.4178E+01  0.1598E+03
     19.017  0.1056E+01  0.1600E+03
     19.231  0.8344E-05  0.1600E+03
     19.444  0.0000E+00  0.1600E+03
     19.658  0.0000E+00  0.1600E+03
     19.872  0.0000E+00  0.1600E+03
     20.086  0.0000E+00  0.1600E+03
     20.299  0.0000E+00  0.1600E+03
     20.513  0.0000E+00  0.1600E+03
     20.727  0.0000E+00  0.1600E+03
     20.941  0.0000E+00  0.1600E+03
     21.154  0.0000E+00  0.1600E+03
     21.368  0.0000E+00  0.1600E+03
     21.582  0.0000E+00  0.1600E+03
     21.796  0.0000E+00  0.1600E+03
