unknown system                          
           1
     3.070170   -5.317691    0.000000
     3.070170    5.317691    0.000000
     0.000000    0.000000    5.048107
   Zr   Ge
     6     2
Direct configuration=     1
   0.17067700  0.34135500  0.25000000
   0.65864500  0.82932300  0.25000000
   0.17067700  0.82932300  0.25000000
   0.82932300  0.65864500  0.75000000
   0.34135500  0.17067700  0.75000000
   0.82932300  0.17067700  0.75000000
   0.33333300  0.66666700  0.75000000
   0.66666700  0.33333300  0.25000000
