Sr4 F8                                  
   1.00000000000000     
     0.0000000000000000    0.0000000000000000   -3.7812870900000002
     0.0000000000000000   -6.2801842299999997    0.0000000000000000
    -7.4254269800000001    0.0000000000000000    0.0000000000000000
   Sr   F 
     4     8
Direct
     0.7500000000000000    0.2517906900000000    0.6143497799999977
     0.7500000000000000    0.7517906900000000    0.8856502200000023
     0.2500000000000000    0.7482093100000000    0.3856502200000023
     0.2500000000000000    0.2482093100000000    0.1143497799999977
     0.7500000000000000    0.1431602799999965    0.9284195099999977
     0.7500000000000000    0.6431602800000036    0.5715804900000023
     0.2500000000000000    0.8568397199999964    0.0715804900000023
     0.2500000000000000    0.3568397200000035    0.4284195099999977
     0.7500000000000000    0.5253015400000010    0.1684497099999973
     0.7500000000000000    0.0253015400000010    0.3315502900000027
     0.2500000000000000    0.4746984599999990    0.8315502900000027
     0.2500000000000000    0.9746984599999990    0.6684497099999973
 
  0.00000000E+00  0.00000000E+00  0.00000000E+00
  0.00000000E+00  0.00000000E+00  0.00000000E+00
  0.00000000E+00  0.00000000E+00  0.00000000E+00
  0.00000000E+00  0.00000000E+00  0.00000000E+00
  0.00000000E+00  0.00000000E+00  0.00000000E+00
  0.00000000E+00  0.00000000E+00  0.00000000E+00
  0.00000000E+00  0.00000000E+00  0.00000000E+00
  0.00000000E+00  0.00000000E+00  0.00000000E+00
  0.00000000E+00  0.00000000E+00  0.00000000E+00
  0.00000000E+00  0.00000000E+00  0.00000000E+00
  0.00000000E+00  0.00000000E+00  0.00000000E+00
  0.00000000E+00  0.00000000E+00  0.00000000E+00
