  12  12   0   0
  0.1469441E+02  0.3781287E-09  0.6280184E-09  0.7425427E-09  0.5000000E-15
  1.000000000000000E-004
  CAR 
 unknown system                          
     10.49598598    -33.51009574  301     -0.78057246      1.00000000
    -33.510  0.0000E+00  0.0000E+00
    -33.363  0.0000E+00  0.0000E+00
    -33.217  0.0000E+00  0.0000E+00
    -33.070  0.0000E+00  0.0000E+00
    -32.923  0.0000E+00  0.0000E+00
    -32.777  0.0000E+00  0.0000E+00
    -32.630  0.0000E+00  0.0000E+00
    -32.483  0.0000E+00  0.0000E+00
    -32.337  0.0000E+00  0.0000E+00
    -32.190  0.0000E+00  0.0000E+00
    -32.043  0.0000E+00  0.0000E+00
    -31.897  0.0000E+00  0.0000E+00
    -31.750  0.1449E-11  0.2126E-12
    -31.603  0.3275E-02  0.4804E-03
    -31.456  0.1457E+02  0.2138E+01
    -31.310  0.3989E+02  0.7989E+01
    -31.163  0.7170E-01  0.8000E+01
    -31.016  0.1078E-09  0.8000E+01
    -30.870  0.0000E+00  0.8000E+01
    -30.723  0.0000E+00  0.8000E+01
    -30.576  0.0000E+00  0.8000E+01
    -30.430  0.0000E+00  0.8000E+01
    -30.283  0.0000E+00  0.8000E+01
    -30.136  0.0000E+00  0.8000E+01
    -29.990  0.0000E+00  0.8000E+01
    -29.843  0.0000E+00  0.8000E+01
    -29.696  0.0000E+00  0.8000E+01
    -29.550  0.0000E+00  0.8000E+01
    -29.403  0.0000E+00  0.8000E+01
    -29.256  0.0000E+00  0.8000E+01
    -29.109  0.0000E+00  0.8000E+01
    -28.963  0.0000E+00  0.8000E+01
    -28.816  0.0000E+00  0.8000E+01
    -28.669  0.0000E+00  0.8000E+01
    -28.523  0.0000E+00  0.8000E+01
    -28.376  0.0000E+00  0.8000E+01
    -28.229  0.0000E+00  0.8000E+01
    -28.083  0.0000E+00  0.8000E+01
    -27.936  0.0000E+00  0.8000E+01
    -27.789  0.0000E+00  0.8000E+01
    -27.643  0.0000E+00  0.8000E+01
    -27.496  0.0000E+00  0.8000E+01
    -27.349  0.0000E+00  0.8000E+01
    -27.203  0.0000E+00  0.8000E+01
    -27.056  0.0000E+00  0.8000E+01
    -26.909  0.0000E+00  0.8000E+01
    -26.762  0.0000E+00  0.8000E+01
    -26.616  0.0000E+00  0.8000E+01
    -26.469  0.0000E+00  0.8000E+01
    -26.322  0.0000E+00  0.8000E+01
    -26.176  0.0000E+00  0.8000E+01
    -26.029  0.0000E+00  0.8000E+01
    -25.882  0.0000E+00  0.8000E+01
    -25.736  0.0000E+00  0.8000E+01
    -25.589  0.0000E+00  0.8000E+01
    -25.442  0.0000E+00  0.8000E+01
    -25.296  0.0000E+00  0.8000E+01
    -25.149  0.0000E+00  0.8000E+01
    -25.002  0.0000E+00  0.8000E+01
    -24.856  0.0000E+00  0.8000E+01
    -24.709  0.0000E+00  0.8000E+01
    -24.562  0.0000E+00  0.8000E+01
    -24.416  0.0000E+00  0.8000E+01
    -24.269  0.0000E+00  0.8000E+01
    -24.122  0.0000E+00  0.8000E+01
    -23.975  0.0000E+00  0.8000E+01
    -23.829  0.0000E+00  0.8000E+01
    -23.682  0.0000E+00  0.8000E+01
    -23.535  0.0000E+00  0.8000E+01
    -23.389  0.0000E+00  0.8000E+01
    -23.242  0.0000E+00  0.8000E+01
    -23.095  0.0000E+00  0.8000E+01
    -22.949  0.0000E+00  0.8000E+01
    -22.802  0.0000E+00  0.8000E+01
    -22.655  0.0000E+00  0.8000E+01
    -22.509  0.0000E+00  0.8000E+01
    -22.362  0.0000E+00  0.8000E+01
    -22.215  0.0000E+00  0.8000E+01
    -22.069  0.0000E+00  0.8000E+01
    -21.922  0.0000E+00  0.8000E+01
    -21.775  0.0000E+00  0.8000E+01
    -21.628  0.0000E+00  0.8000E+01
    -21.482  0.0000E+00  0.8000E+01
    -21.335  0.3559E-14  0.8000E+01
    -21.188  0.1010E-03  0.8000E+01
    -21.042  0.1689E+01  0.8248E+01
    -20.895  0.2170E+02  0.1143E+02
    -20.748  0.2481E+02  0.1507E+02
    -20.602  0.6299E+01  0.1599E+02
    -20.455  0.6655E-01  0.1600E+02
    -20.308  0.1834E+02  0.1869E+02
    -20.162  0.3577E+02  0.2394E+02
    -20.015  0.4154E+00  0.2400E+02
    -19.868  0.2017E-07  0.2400E+02
    -19.722  0.0000E+00  0.2400E+02
    -19.575  0.0000E+00  0.2400E+02
    -19.428  0.0000E+00  0.2400E+02
    -19.281  0.0000E+00  0.2400E+02
    -19.135  0.0000E+00  0.2400E+02
    -18.988  0.0000E+00  0.2400E+02
    -18.841  0.0000E+00  0.2400E+02
    -18.695  0.0000E+00  0.2400E+02
    -18.548  0.0000E+00  0.2400E+02
    -18.401  0.0000E+00  0.2400E+02
    -18.255  0.0000E+00  0.2400E+02
    -18.108  0.0000E+00  0.2400E+02
    -17.961  0.0000E+00  0.2400E+02
    -17.815  0.0000E+00  0.2400E+02
    -17.668  0.0000E+00  0.2400E+02
    -17.521  0.0000E+00  0.2400E+02
    -17.375  0.0000E+00  0.2400E+02
    -17.228  0.0000E+00  0.2400E+02
    -17.081  0.0000E+00  0.2400E+02
    -16.934  0.0000E+00  0.2400E+02
    -16.788  0.0000E+00  0.2400E+02
    -16.641  0.0000E+00  0.2400E+02
    -16.494  0.0000E+00  0.2400E+02
    -16.348  0.0000E+00  0.2400E+02
    -16.201  0.0000E+00  0.2400E+02
    -16.054  0.0000E+00  0.2400E+02
    -15.908  0.0000E+00  0.2400E+02
    -15.761  0.0000E+00  0.2400E+02
    -15.614  0.0000E+00  0.2400E+02
    -15.468  0.0000E+00  0.2400E+02
    -15.321  0.0000E+00  0.2400E+02
    -15.174  0.0000E+00  0.2400E+02
    -15.028  0.0000E+00  0.2400E+02
    -14.881  0.0000E+00  0.2400E+02
    -14.734  0.0000E+00  0.2400E+02
    -14.587  0.0000E+00  0.2400E+02
    -14.441  0.0000E+00  0.2400E+02
    -14.294  0.0000E+00  0.2400E+02
    -14.147  0.0000E+00  0.2400E+02
    -14.001  0.7388E-15  0.2400E+02
    -13.854  0.5447E-04  0.2400E+02
    -13.707  0.1474E+01  0.2422E+02
    -13.561  0.2572E+02  0.2799E+02
    -13.414  0.5901E+02  0.3665E+02
    -13.267  0.4946E+02  0.4390E+02
    -13.121  0.2188E+02  0.4711E+02
    -12.974  0.6013E+01  0.4799E+02
    -12.827  0.5202E-01  0.4800E+02
    -12.681  0.5440E-08  0.4800E+02
    -12.534  0.0000E+00  0.4800E+02
    -12.387  0.0000E+00  0.4800E+02
    -12.240  0.0000E+00  0.4800E+02
    -12.094  0.0000E+00  0.4800E+02
    -11.947  0.0000E+00  0.4800E+02
    -11.800  0.0000E+00  0.4800E+02
    -11.654  0.0000E+00  0.4800E+02
    -11.507  0.0000E+00  0.4800E+02
    -11.360  0.0000E+00  0.4800E+02
    -11.214  0.0000E+00  0.4800E+02
    -11.067  0.0000E+00  0.4800E+02
    -10.920  0.0000E+00  0.4800E+02
    -10.774  0.0000E+00  0.4800E+02
    -10.627  0.0000E+00  0.4800E+02
    -10.480  0.0000E+00  0.4800E+02
    -10.334  0.0000E+00  0.4800E+02
    -10.187  0.0000E+00  0.4800E+02
    -10.040  0.0000E+00  0.4800E+02
     -9.893  0.0000E+00  0.4800E+02
     -9.747  0.0000E+00  0.4800E+02
     -9.600  0.0000E+00  0.4800E+02
     -9.453  0.0000E+00  0.4800E+02
     -9.307  0.0000E+00  0.4800E+02
     -9.160  0.0000E+00  0.4800E+02
     -9.013  0.0000E+00  0.4800E+02
     -8.867  0.0000E+00  0.4800E+02
     -8.720  0.0000E+00  0.4800E+02
     -8.573  0.0000E+00  0.4800E+02
     -8.427  0.0000E+00  0.4800E+02
     -8.280  0.0000E+00  0.4800E+02
     -8.133  0.0000E+00  0.4800E+02
     -7.987  0.0000E+00  0.4800E+02
     -7.840  0.0000E+00  0.4800E+02
     -7.693  0.0000E+00  0.4800E+02
     -7.547  0.0000E+00  0.4800E+02
     -7.400  0.0000E+00  0.4800E+02
     -7.253  0.0000E+00  0.4800E+02
     -7.106  0.0000E+00  0.4800E+02
     -6.960  0.0000E+00  0.4800E+02
     -6.813  0.0000E+00  0.4800E+02
     -6.666  0.0000E+00  0.4800E+02
     -6.520  0.0000E+00  0.4800E+02
     -6.373  0.0000E+00  0.4800E+02
     -6.226  0.0000E+00  0.4800E+02
     -6.080  0.0000E+00  0.4800E+02
     -5.933  0.0000E+00  0.4800E+02
     -5.786  0.0000E+00  0.4800E+02
     -5.640  0.0000E+00  0.4800E+02
     -5.493  0.0000E+00  0.4800E+02
     -5.346  0.0000E+00  0.4800E+02
     -5.200  0.0000E+00  0.4800E+02
     -5.053  0.0000E+00  0.4800E+02
     -4.906  0.0000E+00  0.4800E+02
     -4.759  0.0000E+00  0.4800E+02
     -4.613  0.0000E+00  0.4800E+02
     -4.466  0.0000E+00  0.4800E+02
     -4.319  0.0000E+00  0.4800E+02
     -4.173  0.0000E+00  0.4800E+02
     -4.026  0.0000E+00  0.4800E+02
     -3.879  0.0000E+00  0.4800E+02
     -3.733  0.0000E+00  0.4800E+02
     -3.586  0.5208E-14  0.4800E+02
     -3.439  0.9699E-04  0.4800E+02
     -3.293  0.6513E+00  0.4810E+02
     -3.146  0.7653E+01  0.4922E+02
     -2.999  0.1387E+02  0.5125E+02
     -2.853  0.1877E+02  0.5401E+02
     -2.706  0.1567E+02  0.5630E+02
     -2.559  0.2138E+02  0.5944E+02
     -2.412  0.2522E+02  0.6314E+02
     -2.266  0.1721E+02  0.6566E+02
     -2.119  0.2335E+02  0.6909E+02
     -1.972  0.2004E+02  0.7203E+02
     -1.826  0.1916E+02  0.7484E+02
     -1.679  0.2833E+02  0.7899E+02
     -1.532  0.3883E+02  0.8469E+02
     -1.386  0.3700E+02  0.9012E+02
     -1.239  0.2989E+02  0.9450E+02
     -1.092  0.1007E+02  0.9598E+02
     -0.946  0.1570E+00  0.9600E+02
     -0.799  0.9680E-06  0.9600E+02
     -0.652  0.0000E+00  0.9600E+02
     -0.506  0.0000E+00  0.9600E+02
     -0.359  0.0000E+00  0.9600E+02
     -0.212  0.0000E+00  0.9600E+02
     -0.065  0.0000E+00  0.9600E+02
      0.081  0.0000E+00  0.9600E+02
      0.228  0.0000E+00  0.9600E+02
      0.375  0.0000E+00  0.9600E+02
      0.521  0.0000E+00  0.9600E+02
      0.668  0.0000E+00  0.9600E+02
      0.815  0.0000E+00  0.9600E+02
      0.961  0.0000E+00  0.9600E+02
      1.108  0.0000E+00  0.9600E+02
      1.255  0.0000E+00  0.9600E+02
      1.401  0.0000E+00  0.9600E+02
      1.548  0.0000E+00  0.9600E+02
      1.695  0.0000E+00  0.9600E+02
      1.841  0.0000E+00  0.9600E+02
      1.988  0.0000E+00  0.9600E+02
      2.135  0.0000E+00  0.9600E+02
      2.282  0.0000E+00  0.9600E+02
      2.428  0.0000E+00  0.9600E+02
      2.575  0.0000E+00  0.9600E+02
      2.722  0.0000E+00  0.9600E+02
      2.868  0.0000E+00  0.9600E+02
      3.015  0.0000E+00  0.9600E+02
      3.162  0.0000E+00  0.9600E+02
      3.308  0.0000E+00  0.9600E+02
      3.455  0.0000E+00  0.9600E+02
      3.602  0.0000E+00  0.9600E+02
      3.748  0.0000E+00  0.9600E+02
      3.895  0.0000E+00  0.9600E+02
      4.042  0.0000E+00  0.9600E+02
      4.188  0.0000E+00  0.9600E+02
      4.335  0.0000E+00  0.9600E+02
      4.482  0.0000E+00  0.9600E+02
      4.629  0.0000E+00  0.9600E+02
      4.775  0.0000E+00  0.9600E+02
      4.922  0.0000E+00  0.9600E+02
      5.069  0.0000E+00  0.9600E+02
      5.215  0.0000E+00  0.9600E+02
      5.362  0.0000E+00  0.9600E+02
      5.509  0.0000E+00  0.9600E+02
      5.655  0.0000E+00  0.9600E+02
      5.802  0.0000E+00  0.9600E+02
      5.949  0.3881E-10  0.9600E+02
      6.095  0.3067E-02  0.9600E+02
      6.242  0.1561E+00  0.9602E+02
      6.389  0.3107E-02  0.9602E+02
      6.535  0.2983E-01  0.9603E+02
      6.682  0.6503E+00  0.9612E+02
      6.829  0.2936E+00  0.9617E+02
      6.975  0.2653E+00  0.9621E+02
      7.122  0.1738E+01  0.9646E+02
      7.269  0.4964E+00  0.9653E+02
      7.416  0.1856E+01  0.9681E+02
      7.562  0.1748E+01  0.9706E+02
      7.709  0.2673E+01  0.9745E+02
      7.856  0.7921E+01  0.9862E+02
      8.002  0.9179E+01  0.9996E+02
      8.149  0.7958E+01  0.1011E+03
      8.296  0.7962E+01  0.1023E+03
      8.442  0.9115E+01  0.1036E+03
      8.589  0.2484E+01  0.1040E+03
      8.736  0.4753E-02  0.1040E+03
      8.882  0.5370E-11  0.1040E+03
      9.029  0.0000E+00  0.1040E+03
      9.176  0.0000E+00  0.1040E+03
      9.322  0.0000E+00  0.1040E+03
      9.469  0.0000E+00  0.1040E+03
      9.616  0.0000E+00  0.1040E+03
      9.763  0.0000E+00  0.1040E+03
      9.909  0.0000E+00  0.1040E+03
     10.056  0.0000E+00  0.1040E+03
     10.203  0.0000E+00  0.1040E+03
     10.349  0.0000E+00  0.1040E+03
     10.496  0.0000E+00  0.1040E+03
