Sr4F8
1.0
      0.0000000       0.0000000      -3.7812871
      0.0000000      -6.2801842       0.0000000
     -7.4254270       0.0000000       0.0000000
  Sr    F   
  4     8   
Direct
      0.7500000       0.2517907       0.6143498
      0.7500000       0.7517907       0.8856502
      0.2500000       0.7482093       0.3856502
      0.2500000       0.2482093       0.1143498
      0.7500000       0.1431603       0.9284195
      0.7500000       0.6431603       0.5715805
      0.2500000       0.8568397       0.0715805
      0.2500000       0.3568397       0.4284195
      0.7500000       0.5253015       0.1684497
      0.7500000       0.0253015       0.3315503
      0.2500000       0.4746985       0.8315503
      0.2500000       0.9746985       0.6684497
