unknown system                          
           1
     0.000000    0.000000   -3.781287
     0.000000   -6.280184    0.000000
    -7.425427    0.000000    0.000000
   Sr   F 
     4     8
Direct configuration=     1
   0.75000000  0.25179069  0.61434978
   0.75000000  0.75179069  0.88565022
   0.25000000  0.74820931  0.38565022
   0.25000000  0.24820931  0.11434978
   0.75000000  0.14316028  0.92841951
   0.75000000  0.64316028  0.57158049
   0.25000000  0.85683972  0.07158049
   0.25000000  0.35683972  0.42841951
   0.75000000  0.52530154  0.16844971
   0.75000000  0.02530154  0.33155029
   0.25000000  0.47469846  0.83155029
   0.25000000  0.97469846  0.66844971
