  36  36   0   0
  0.1890692E+02  0.1236938E-08  0.1236938E-08  0.5136851E-09  0.5000000E-15
  1.000000000000000E-004
  CAR 
 unknown system                          
     12.17809044    -23.06990920  301     -0.08633934      1.00000000
    -23.070  0.0000E+00  0.0000E+00
    -22.952  0.0000E+00  0.0000E+00
    -22.835  0.0000E+00  0.0000E+00
    -22.717  0.0000E+00  0.0000E+00
    -22.600  0.0000E+00  0.0000E+00
    -22.482  0.0000E+00  0.0000E+00
    -22.365  0.0000E+00  0.0000E+00
    -22.247  0.0000E+00  0.0000E+00
    -22.130  0.0000E+00  0.0000E+00
    -22.012  0.0000E+00  0.0000E+00
    -21.895  0.0000E+00  0.0000E+00
    -21.777  0.0000E+00  0.0000E+00
    -21.660  0.2293E-07  0.2694E-08
    -21.542  0.1476E-01  0.1734E-02
    -21.425  0.1468E+01  0.1742E+00
    -21.308  0.6739E+01  0.9660E+00
    -21.190  0.8134E+01  0.1922E+01
    -21.073  0.6403E+01  0.2674E+01
    -20.955  0.1567E+02  0.4515E+01
    -20.838  0.6683E+01  0.5301E+01
    -20.720  0.5291E+01  0.5922E+01
    -20.603  0.1233E+02  0.7372E+01
    -20.485  0.9509E+01  0.8489E+01
    -20.368  0.1141E+02  0.9829E+01
    -20.250  0.1582E+02  0.1169E+02
    -20.133  0.9571E+01  0.1281E+02
    -20.015  0.6465E+01  0.1357E+02
    -19.898  0.1165E+02  0.1494E+02
    -19.780  0.1643E+02  0.1687E+02
    -19.663  0.8288E+01  0.1784E+02
    -19.545  0.2192E+02  0.2042E+02
    -19.428  0.7209E+01  0.2127E+02
    -19.310  0.7886E+01  0.2219E+02
    -19.193  0.1955E+02  0.2449E+02
    -19.075  0.1422E+02  0.2616E+02
    -18.958  0.2197E+02  0.2874E+02
    -18.840  0.4482E+02  0.3401E+02
    -18.723  0.1678E+02  0.3598E+02
    -18.605  0.1670E+00  0.3600E+02
    -18.488  0.2994E-06  0.3600E+02
    -18.370  0.0000E+00  0.3600E+02
    -18.253  0.0000E+00  0.3600E+02
    -18.135  0.0000E+00  0.3600E+02
    -18.018  0.0000E+00  0.3600E+02
    -17.900  0.0000E+00  0.3600E+02
    -17.783  0.0000E+00  0.3600E+02
    -17.665  0.0000E+00  0.3600E+02
    -17.548  0.0000E+00  0.3600E+02
    -17.430  0.0000E+00  0.3600E+02
    -17.313  0.0000E+00  0.3600E+02
    -17.195  0.0000E+00  0.3600E+02
    -17.078  0.0000E+00  0.3600E+02
    -16.960  0.0000E+00  0.3600E+02
    -16.843  0.0000E+00  0.3600E+02
    -16.725  0.0000E+00  0.3600E+02
    -16.608  0.0000E+00  0.3600E+02
    -16.490  0.0000E+00  0.3600E+02
    -16.373  0.0000E+00  0.3600E+02
    -16.255  0.0000E+00  0.3600E+02
    -16.138  0.9721E-09  0.3600E+02
    -16.020  0.2570E-01  0.3600E+02
    -15.903  0.3184E+02  0.3974E+02
    -15.785  0.4246E+02  0.4473E+02
    -15.668  0.2755E+02  0.4797E+02
    -15.550  0.2630E+00  0.4800E+02
    -15.433  0.1587E-06  0.4800E+02
    -15.315  0.0000E+00  0.4800E+02
    -15.198  0.0000E+00  0.4800E+02
    -15.080  0.0000E+00  0.4800E+02
    -14.963  0.0000E+00  0.4800E+02
    -14.845  0.0000E+00  0.4800E+02
    -14.728  0.0000E+00  0.4800E+02
    -14.610  0.0000E+00  0.4800E+02
    -14.493  0.0000E+00  0.4800E+02
    -14.375  0.0000E+00  0.4800E+02
    -14.258  0.0000E+00  0.4800E+02
    -14.140  0.0000E+00  0.4800E+02
    -14.023  0.0000E+00  0.4800E+02
    -13.905  0.0000E+00  0.4800E+02
    -13.788  0.0000E+00  0.4800E+02
    -13.670  0.0000E+00  0.4800E+02
    -13.553  0.0000E+00  0.4800E+02
    -13.435  0.0000E+00  0.4800E+02
    -13.318  0.0000E+00  0.4800E+02
    -13.200  0.0000E+00  0.4800E+02
    -13.083  0.0000E+00  0.4800E+02
    -12.965  0.0000E+00  0.4800E+02
    -12.848  0.0000E+00  0.4800E+02
    -12.730  0.0000E+00  0.4800E+02
    -12.613  0.0000E+00  0.4800E+02
    -12.496  0.0000E+00  0.4800E+02
    -12.378  0.0000E+00  0.4800E+02
    -12.261  0.0000E+00  0.4800E+02
    -12.143  0.0000E+00  0.4800E+02
    -12.026  0.0000E+00  0.4800E+02
    -11.908  0.0000E+00  0.4800E+02
    -11.791  0.0000E+00  0.4800E+02
    -11.673  0.0000E+00  0.4800E+02
    -11.556  0.0000E+00  0.4800E+02
    -11.438  0.0000E+00  0.4800E+02
    -11.321  0.0000E+00  0.4800E+02
    -11.203  0.0000E+00  0.4800E+02
    -11.086  0.3344E-07  0.4800E+02
    -10.968  0.1732E-01  0.4800E+02
    -10.851  0.1153E+01  0.4814E+02
    -10.733  0.3015E+01  0.4849E+02
    -10.616  0.2993E+01  0.4884E+02
    -10.498  0.8350E+01  0.4982E+02
    -10.381  0.6766E+01  0.5062E+02
    -10.263  0.7989E+01  0.5156E+02
    -10.146  0.3573E+00  0.5160E+02
    -10.028  0.1318E-03  0.5160E+02
     -9.911  0.5219E+00  0.5166E+02
     -9.793  0.8826E+01  0.5270E+02
     -9.676  0.1285E+02  0.5421E+02
     -9.558  0.5470E+01  0.5485E+02
     -9.441  0.7125E+01  0.5569E+02
     -9.323  0.1030E+02  0.5690E+02
     -9.206  0.2479E+02  0.5981E+02
     -9.088  0.1315E+02  0.6136E+02
     -8.971  0.1033E+02  0.6257E+02
     -8.853  0.8667E+01  0.6359E+02
     -8.736  0.1032E+01  0.6371E+02
     -8.618  0.5564E+01  0.6436E+02
     -8.501  0.6863E+01  0.6517E+02
     -8.383  0.6988E+01  0.6599E+02
     -8.266  0.8020E-01  0.6600E+02
     -8.148  0.8273E-07  0.6600E+02
     -8.031  0.0000E+00  0.6600E+02
     -7.913  0.5636E-09  0.6600E+02
     -7.796  0.6570E-02  0.6600E+02
     -7.678  0.4458E+01  0.6652E+02
     -7.561  0.1101E+02  0.6782E+02
     -7.443  0.7968E+01  0.6875E+02
     -7.326  0.1606E+02  0.7064E+02
     -7.208  0.2465E+02  0.7354E+02
     -7.091  0.2202E+02  0.7613E+02
     -6.973  0.5720E+01  0.7680E+02
     -6.856  0.1905E-01  0.7680E+02
     -6.738  0.7028E+01  0.7763E+02
     -6.621  0.2125E+02  0.8012E+02
     -6.503  0.1421E+02  0.8179E+02
     -6.386  0.1197E+02  0.8320E+02
     -6.268  0.5078E+01  0.8379E+02
     -6.151  0.8706E+01  0.8482E+02
     -6.033  0.1310E+02  0.8636E+02
     -5.916  0.1296E+02  0.8788E+02
     -5.798  0.2366E+02  0.9066E+02
     -5.681  0.1539E+02  0.9247E+02
     -5.563  0.9684E+01  0.9361E+02
     -5.446  0.1589E+02  0.9547E+02
     -5.328  0.1765E+02  0.9755E+02
     -5.211  0.1736E+02  0.9959E+02
     -5.093  0.1552E+02  0.1014E+03
     -4.976  0.7947E+01  0.1023E+03
     -4.858  0.1042E+02  0.1036E+03
     -4.741  0.1661E+02  0.1055E+03
     -4.623  0.1303E+02  0.1071E+03
     -4.506  0.7375E+01  0.1079E+03
     -4.388  0.7905E+01  0.1088E+03
     -4.271  0.1905E+02  0.1111E+03
     -4.153  0.1954E+02  0.1134E+03
     -4.036  0.1363E+02  0.1150E+03
     -3.918  0.1822E+02  0.1171E+03
     -3.801  0.1257E+02  0.1186E+03
     -3.684  0.1138E+02  0.1199E+03
     -3.566  0.1124E+02  0.1213E+03
     -3.449  0.2914E+02  0.1247E+03
     -3.331  0.1618E+02  0.1266E+03
     -3.214  0.1821E+02  0.1287E+03
     -3.096  0.3461E+02  0.1328E+03
     -2.979  0.3970E+02  0.1375E+03
     -2.861  0.1497E+02  0.1392E+03
     -2.744  0.1972E+02  0.1415E+03
     -2.626  0.1567E+02  0.1434E+03
     -2.509  0.1869E+02  0.1456E+03
     -2.391  0.1466E+02  0.1473E+03
     -2.274  0.2520E+02  0.1502E+03
     -2.156  0.1840E+02  0.1524E+03
     -2.039  0.2236E+02  0.1550E+03
     -1.921  0.2106E+02  0.1575E+03
     -1.804  0.2381E+02  0.1603E+03
     -1.686  0.2328E+02  0.1630E+03
     -1.569  0.2390E+02  0.1659E+03
     -1.451  0.2663E+02  0.1690E+03
     -1.334  0.1804E+02  0.1711E+03
     -1.216  0.7623E+01  0.1720E+03
     -1.099  0.1365E-01  0.1720E+03
     -0.981  0.2374E-06  0.1720E+03
     -0.864  0.2309E+00  0.1720E+03
     -0.746  0.4025E+02  0.1768E+03
     -0.629  0.2755E+02  0.1800E+03
     -0.511  0.5589E-01  0.1800E+03
     -0.394  0.1383E+01  0.1802E+03
     -0.276  0.2743E+02  0.1834E+03
     -0.159  0.5314E+02  0.1896E+03
     -0.041  0.2137E+02  0.1921E+03
      0.076  0.2928E+01  0.1925E+03
      0.194  0.1164E+01  0.1926E+03
      0.311  0.6541E+01  0.1934E+03
      0.429  0.5649E+01  0.1941E+03
      0.546  0.3370E+01  0.1944E+03
      0.664  0.2858E+01  0.1948E+03
      0.781  0.9148E+01  0.1959E+03
      0.899  0.9274E+01  0.1969E+03
      1.016  0.9243E+01  0.1980E+03
      1.134  0.5355E+01  0.1987E+03
      1.251  0.7668E+01  0.1996E+03
      1.369  0.1415E+02  0.2012E+03
      1.486  0.2321E+01  0.2015E+03
      1.604  0.6366E+01  0.2022E+03
      1.721  0.9947E+01  0.2034E+03
      1.839  0.4940E+01  0.2040E+03
      1.956  0.2265E-01  0.2040E+03
      2.074  0.1710E+01  0.2042E+03
      2.191  0.6913E+01  0.2050E+03
      2.309  0.8194E+01  0.2060E+03
      2.426  0.3350E+01  0.2064E+03
      2.544  0.7627E+01  0.2073E+03
      2.661  0.1091E+02  0.2085E+03
      2.779  0.3655E+01  0.2090E+03
      2.896  0.1235E+02  0.2104E+03
      3.014  0.6166E+01  0.2112E+03
      3.131  0.7849E+01  0.2121E+03
      3.249  0.7168E+01  0.2129E+03
      3.366  0.1113E+02  0.2142E+03
      3.484  0.9499E+01  0.2153E+03
      3.601  0.2042E+01  0.2156E+03
      3.719  0.2616E+01  0.2159E+03
      3.836  0.2034E+00  0.2159E+03
      3.954  0.7293E+00  0.2160E+03
      4.071  0.1209E-01  0.2160E+03
      4.189  0.1487E-07  0.2160E+03
      4.306  0.0000E+00  0.2160E+03
      4.424  0.0000E+00  0.2160E+03
      4.541  0.0000E+00  0.2160E+03
      4.659  0.0000E+00  0.2160E+03
      4.776  0.1417E-15  0.2160E+03
      4.894  0.5309E-06  0.2160E+03
      5.011  0.5418E-01  0.2160E+03
      5.128  0.8841E+00  0.2161E+03
      5.246  0.2386E+01  0.2164E+03
      5.363  0.3756E+01  0.2168E+03
      5.481  0.8569E+01  0.2178E+03
      5.598  0.7084E+01  0.2187E+03
      5.716  0.8471E+01  0.2197E+03
      5.833  0.1490E+02  0.2214E+03
      5.951  0.2223E+02  0.2240E+03
      6.068  0.1534E+02  0.2258E+03
      6.186  0.1204E+02  0.2272E+03
      6.303  0.5442E+01  0.2279E+03
      6.421  0.1325E+02  0.2294E+03
      6.538  0.8183E+01  0.2304E+03
      6.656  0.1944E+02  0.2327E+03
      6.773  0.9958E+01  0.2339E+03
      6.891  0.1797E+02  0.2360E+03
      7.008  0.2313E+02  0.2387E+03
      7.126  0.2102E+02  0.2412E+03
      7.243  0.1905E+02  0.2434E+03
      7.361  0.1926E+02  0.2457E+03
      7.478  0.1876E+02  0.2479E+03
      7.596  0.1545E+02  0.2497E+03
      7.713  0.1694E+02  0.2517E+03
      7.831  0.2005E+02  0.2540E+03
      7.948  0.1256E+02  0.2555E+03
      8.066  0.1261E+02  0.2570E+03
      8.183  0.1912E+02  0.2592E+03
      8.301  0.2962E+02  0.2627E+03
      8.418  0.1553E+02  0.2645E+03
      8.536  0.5110E+01  0.2651E+03
      8.653  0.3856E+01  0.2656E+03
      8.771  0.6504E+01  0.2663E+03
      8.888  0.1295E+02  0.2679E+03
      9.006  0.1025E+02  0.2691E+03
      9.123  0.1559E+02  0.2709E+03
      9.241  0.1121E+02  0.2722E+03
      9.358  0.6059E+01  0.2729E+03
      9.476  0.7436E+01  0.2738E+03
      9.593  0.1076E+02  0.2751E+03
      9.711  0.1042E+02  0.2763E+03
      9.828  0.2929E+02  0.2797E+03
      9.946  0.1442E+02  0.2814E+03
     10.063  0.1168E+02  0.2828E+03
     10.181  0.1077E+02  0.2841E+03
     10.298  0.1195E+02  0.2855E+03
     10.416  0.1037E+02  0.2867E+03
     10.533  0.7733E+01  0.2876E+03
     10.651  0.3349E+01  0.2880E+03
     10.768  0.2792E-01  0.2880E+03
     10.886  0.3704E-07  0.2880E+03
     11.003  0.0000E+00  0.2880E+03
     11.121  0.0000E+00  0.2880E+03
     11.238  0.0000E+00  0.2880E+03
     11.356  0.0000E+00  0.2880E+03
     11.473  0.0000E+00  0.2880E+03
     11.591  0.0000E+00  0.2880E+03
     11.708  0.0000E+00  0.2880E+03
     11.826  0.0000E+00  0.2880E+03
     11.943  0.0000E+00  0.2880E+03
     12.061  0.0000E+00  0.2880E+03
     12.178  0.0000E+00  0.2880E+03
