Si12O24
1.0
      6.1846890     -10.7121960       0.0000000
      6.1846890      10.7121960       0.0000000
      0.0000000       0.0000000       5.1368510
  Si    O   
  12    24  
Direct
      0.3721660       0.8599460       0.5189240
      0.6278340       0.4877800       0.0189240
      0.1400540       0.5122200       0.5189240
      0.5122200       0.3721660       0.4810760
      0.8599460       0.3721660       0.0189240
      0.5122200       0.1400540       0.0189240
      0.4877800       0.6278340       0.5189240
      0.8599460       0.4877800       0.4810760
      0.1400540       0.6278340       0.9810760
      0.6278340       0.1400540       0.4810760
      0.3721660       0.5122200       0.9810760
      0.4877800       0.8599460       0.9810760
      0.0000000       0.5000000       0.0000000
      0.3958080       0.6041920       0.7500000
      0.1993260       0.3986530       0.7500000
      0.6041920       0.2083840       0.2500000
      0.3986530       0.1993260       0.2500000
      0.4014200       0.5985800       0.2500000
      0.6041920       0.3958080       0.2500000
      0.5000000       0.5000000       0.0000000
      0.5985800       0.4014200       0.7500000
      0.8006740       0.6013470       0.2500000
      0.4014200       0.8028400       0.2500000
      0.2083840       0.6041920       0.7500000
      0.6013470       0.8006740       0.7500000
      0.5000000       0.0000000       0.0000000
      0.1971600       0.5985800       0.2500000
      0.8028400       0.4014200       0.7500000
      0.5985800       0.1971600       0.7500000
      0.1993260       0.8006740       0.7500000
      0.8006740       0.1993260       0.2500000
      0.5000000       0.0000000       0.5000000
      0.7916160       0.3958080       0.2500000
      0.5000000       0.5000000       0.5000000
      0.0000000       0.5000000       0.5000000
      0.3958080       0.7916160       0.7500000
