unknown system                          
           1
     6.184689  -10.712196    0.000000
     6.184689   10.712196    0.000000
     0.000000    0.000000    5.136851
   Si   O 
    12    24
Direct configuration=     1
   0.37216600  0.85994600  0.51892400
   0.62783400  0.48778000  0.01892400
   0.14005400  0.51222000  0.51892400
   0.51222000  0.37216600  0.48107600
   0.85994600  0.37216600  0.01892400
   0.51222000  0.14005400  0.01892400
   0.48778000  0.62783400  0.51892400
   0.85994600  0.48778000  0.48107600
   0.14005400  0.62783400  0.98107600
   0.62783400  0.14005400  0.48107600
   0.37216600  0.51222000  0.98107600
   0.48778000  0.85994600  0.98107600
   0.00000000  0.50000000  0.00000000
   0.39580800  0.60419200  0.75000000
   0.19932600  0.39865300  0.75000000
   0.60419200  0.20838400  0.25000000
   0.39865300  0.19932600  0.25000000
   0.40142000  0.59858000  0.25000000
   0.60419200  0.39580800  0.25000000
   0.50000000  0.50000000  0.00000000
   0.59858000  0.40142000  0.75000000
   0.80067400  0.60134700  0.25000000
   0.40142000  0.80284000  0.25000000
   0.20838400  0.60419200  0.75000000
   0.60134700  0.80067400  0.75000000
   0.50000000  0.00000000  0.00000000
   0.19716000  0.59858000  0.25000000
   0.80284000  0.40142000  0.75000000
   0.59858000  0.19716000  0.75000000
   0.19932600  0.80067400  0.75000000
   0.80067400  0.19932600  0.25000000
   0.50000000  0.00000000  0.50000000
   0.79161600  0.39580800  0.25000000
   0.50000000  0.50000000  0.50000000
   0.00000000  0.50000000  0.50000000
   0.39580800  0.79161600  0.75000000
