   4   4   0   0
  0.1028436E+02  0.2467291E-09  0.2467292E-09  0.7803073E-09  0.5000000E-15
  1.000000000000000E-004
  CAR 
 unknown system                          
     21.37945866    -17.89698094  301      3.43255847      1.00000000
    -17.897  0.0000E+00  0.0000E+00
    -17.766  0.0000E+00  0.0000E+00
    -17.635  0.0000E+00  0.0000E+00
    -17.504  0.0000E+00  0.0000E+00
    -17.373  0.0000E+00  0.0000E+00
    -17.242  0.0000E+00  0.0000E+00
    -17.111  0.0000E+00  0.0000E+00
    -16.981  0.0000E+00  0.0000E+00
    -16.850  0.0000E+00  0.0000E+00
    -16.719  0.0000E+00  0.0000E+00
    -16.588  0.0000E+00  0.0000E+00
    -16.457  0.0000E+00  0.0000E+00
    -16.326  0.2521E-10  0.3301E-11
    -16.195  0.4426E-03  0.5795E-04
    -16.064  0.1158E+00  0.1522E-01
    -15.933  0.4594E+00  0.7536E-01
    -15.802  0.8971E+00  0.1928E+00
    -15.671  0.3673E-01  0.1976E+00
    -15.540  0.9903E+00  0.3273E+00
    -15.409  0.9656E+00  0.4537E+00
    -15.279  0.5651E+00  0.5277E+00
    -15.148  0.8128E-03  0.5278E+00
    -15.017  0.5858E-01  0.5354E+00
    -14.886  0.2050E+01  0.8039E+00
    -14.755  0.4374E+00  0.8611E+00
    -14.624  0.4428E+00  0.9191E+00
    -14.493  0.8249E+00  0.1027E+01
    -14.362  0.5220E-02  0.1028E+01
    -14.231  0.7781E-02  0.1029E+01
    -14.100  0.8956E+00  0.1146E+01
    -13.969  0.1543E+01  0.1348E+01
    -13.838  0.1370E+01  0.1527E+01
    -13.707  0.3125E-02  0.1528E+01
    -13.577  0.2327E-01  0.1531E+01
    -13.446  0.1040E+01  0.1667E+01
    -13.315  0.2098E+00  0.1694E+01
    -13.184  0.5806E-04  0.1694E+01
    -13.053  0.5339E+00  0.1764E+01
    -12.922  0.1985E+01  0.2024E+01
    -12.791  0.7844E-01  0.2035E+01
    -12.660  0.2136E+01  0.2314E+01
    -12.529  0.3587E+00  0.2361E+01
    -12.398  0.1171E-04  0.2361E+01
    -12.267  0.7060E-05  0.2361E+01
    -12.136  0.1976E+00  0.2387E+01
    -12.006  0.1056E+01  0.2525E+01
    -11.875  0.4487E-01  0.2531E+01
    -11.744  0.1106E+01  0.2676E+01
    -11.613  0.2118E+01  0.2953E+01
    -11.482  0.5701E+00  0.3028E+01
    -11.351  0.2487E-02  0.3028E+01
    -11.220  0.1508E+01  0.3226E+01
    -11.089  0.1035E+01  0.3361E+01
    -10.958  0.6929E-03  0.3361E+01
    -10.827  0.3821E+00  0.3411E+01
    -10.696  0.2541E+00  0.3444E+01
    -10.565  0.6650E-04  0.3444E+01
    -10.434  0.5190E+00  0.3512E+01
    -10.304  0.3197E+01  0.3931E+01
    -10.173  0.1032E+00  0.3944E+01
    -10.042  0.1887E-06  0.3944E+01
     -9.911  0.2657E-03  0.3944E+01
     -9.780  0.3865E+00  0.3995E+01
     -9.649  0.2498E+00  0.4028E+01
     -9.518  0.3498E-03  0.4028E+01
     -9.387  0.7139E+00  0.4121E+01
     -9.256  0.5630E+00  0.4195E+01
     -9.125  0.2056E+01  0.4464E+01
     -8.994  0.1334E+01  0.4639E+01
     -8.863  0.4650E-03  0.4639E+01
     -8.732  0.1690E-08  0.4639E+01
     -8.602  0.1737E-01  0.4641E+01
     -8.471  0.2169E+01  0.4925E+01
     -8.340  0.4829E+00  0.4988E+01
     -8.209  0.1128E+01  0.5136E+01
     -8.078  0.2403E-01  0.5139E+01
     -7.947  0.1699E+01  0.5362E+01
     -7.816  0.8443E+00  0.5472E+01
     -7.685  0.1012E-03  0.5472E+01
     -7.554  0.4374E-13  0.5472E+01
     -7.423  0.4346E-09  0.5472E+01
     -7.292  0.8932E-02  0.5473E+01
     -7.161  0.2057E+01  0.5743E+01
     -7.030  0.2115E+01  0.6020E+01
     -6.900  0.6214E-01  0.6028E+01
     -6.769  0.5559E-07  0.6028E+01
     -6.638  0.0000E+00  0.6028E+01
     -6.507  0.1602E-14  0.6028E+01
     -6.376  0.1747E-04  0.6028E+01
     -6.245  0.6882E+00  0.6118E+01
     -6.114  0.3239E+01  0.6542E+01
     -5.983  0.2377E+01  0.6853E+01
     -5.852  0.6088E-01  0.6861E+01
     -5.721  0.3030E-07  0.6861E+01
     -5.590  0.1692E-01  0.6863E+01
     -5.459  0.1162E+01  0.7016E+01
     -5.329  0.9367E-01  0.7028E+01
     -5.198  0.6464E-03  0.7028E+01
     -5.067  0.1385E+01  0.7209E+01
     -4.936  0.1160E+01  0.7361E+01
     -4.805  0.4513E+00  0.7420E+01
     -4.674  0.9008E+00  0.7538E+01
     -4.543  0.2397E+01  0.7852E+01
     -4.412  0.1701E+00  0.7874E+01
     -4.281  0.1381E+01  0.8055E+01
     -4.150  0.4712E+00  0.8117E+01
     -4.019  0.1982E+01  0.8376E+01
     -3.888  0.2180E+01  0.8662E+01
     -3.757  0.7995E+00  0.8766E+01
     -3.627  0.3968E+00  0.8818E+01
     -3.496  0.9575E+00  0.8944E+01
     -3.365  0.2411E+01  0.9259E+01
     -3.234  0.2858E+00  0.9297E+01
     -3.103  0.2981E+01  0.9687E+01
     -2.972  0.4392E+01  0.1026E+02
     -2.841  0.1975E+01  0.1052E+02
     -2.710  0.1132E+01  0.1067E+02
     -2.579  0.1189E+01  0.1082E+02
     -2.448  0.2487E+01  0.1115E+02
     -2.317  0.1557E+01  0.1135E+02
     -2.186  0.8852E+00  0.1147E+02
     -2.055  0.6701E+00  0.1156E+02
     -1.925  0.8386E+00  0.1167E+02
     -1.794  0.1690E+01  0.1189E+02
     -1.663  0.7083E+00  0.1198E+02
     -1.532  0.3973E+01  0.1250E+02
     -1.401  0.8987E+00  0.1262E+02
     -1.270  0.1669E+01  0.1284E+02
     -1.139  0.3922E+00  0.1289E+02
     -1.008  0.2619E+00  0.1292E+02
     -0.877  0.6178E+00  0.1300E+02
     -0.746  0.1469E+01  0.1320E+02
     -0.615  0.1891E+01  0.1344E+02
     -0.484  0.1452E+01  0.1363E+02
     -0.354  0.8977E+00  0.1375E+02
     -0.223  0.1516E+01  0.1395E+02
     -0.092  0.1027E+01  0.1408E+02
      0.039  0.9918E+00  0.1421E+02
      0.170  0.1326E+01  0.1439E+02
      0.301  0.1628E-01  0.1439E+02
      0.432  0.9172E+00  0.1451E+02
      0.563  0.9882E+00  0.1464E+02
      0.694  0.9982E+00  0.1477E+02
      0.825  0.6839E+00  0.1486E+02
      0.956  0.1889E+01  0.1511E+02
      1.087  0.1429E+01  0.1529E+02
      1.218  0.1057E+01  0.1543E+02
      1.348  0.9029E-01  0.1544E+02
      1.479  0.1757E-01  0.1545E+02
      1.610  0.4425E+00  0.1550E+02
      1.741  0.4162E+00  0.1556E+02
      1.872  0.5995E+00  0.1564E+02
      2.003  0.8782E+00  0.1575E+02
      2.134  0.2606E+00  0.1579E+02
      2.265  0.8852E+00  0.1590E+02
      2.396  0.3188E+00  0.1594E+02
      2.527  0.4291E-03  0.1594E+02
      2.658  0.2380E-11  0.1594E+02
      2.789  0.0000E+00  0.1594E+02
      2.920  0.1951E-14  0.1594E+02
      3.050  0.4797E-05  0.1594E+02
      3.181  0.3221E-01  0.1595E+02
      3.312  0.1193E+00  0.1596E+02
      3.443  0.3231E+00  0.1601E+02
      3.574  0.2539E+00  0.1604E+02
      3.705  0.9263E-01  0.1605E+02
      3.836  0.2755E-01  0.1606E+02
      3.967  0.2399E-05  0.1606E+02
      4.098  0.0000E+00  0.1606E+02
      4.229  0.0000E+00  0.1606E+02
      4.360  0.2815E-14  0.1606E+02
      4.491  0.1349E-04  0.1606E+02
      4.622  0.2116E+00  0.1608E+02
      4.752  0.1235E+01  0.1624E+02
      4.883  0.1675E+01  0.1646E+02
      5.014  0.7996E+00  0.1657E+02
      5.145  0.2352E+00  0.1660E+02
      5.276  0.8419E+00  0.1671E+02
      5.407  0.7533E+00  0.1681E+02
      5.538  0.8311E+00  0.1692E+02
      5.669  0.4144E+00  0.1697E+02
      5.800  0.2144E+00  0.1700E+02
      5.931  0.1029E+01  0.1713E+02
      6.062  0.1068E+01  0.1727E+02
      6.193  0.1302E+01  0.1744E+02
      6.323  0.8519E+00  0.1756E+02
      6.454  0.5751E+00  0.1763E+02
      6.585  0.5548E-01  0.1764E+02
      6.716  0.5695E-04  0.1764E+02
      6.847  0.2734E-01  0.1764E+02
      6.978  0.2539E+00  0.1768E+02
      7.109  0.1183E+01  0.1783E+02
      7.240  0.4947E+00  0.1790E+02
      7.371  0.7479E+00  0.1799E+02
      7.502  0.2824E+00  0.1803E+02
      7.633  0.1173E+00  0.1805E+02
      7.764  0.6909E+00  0.1814E+02
      7.895  0.1438E+01  0.1832E+02
      8.025  0.9911E+00  0.1845E+02
      8.156  0.1139E+00  0.1847E+02
      8.287  0.1105E+01  0.1861E+02
      8.418  0.6884E+00  0.1870E+02
      8.549  0.6214E+00  0.1879E+02
      8.680  0.9253E-01  0.1880E+02
      8.811  0.1684E+00  0.1882E+02
      8.942  0.3016E-02  0.1882E+02
      9.073  0.7032E+00  0.1891E+02
      9.204  0.2477E+00  0.1894E+02
      9.335  0.1233E+01  0.1911E+02
      9.466  0.1436E+01  0.1929E+02
      9.597  0.8642E+00  0.1941E+02
      9.727  0.4478E+00  0.1947E+02
      9.858  0.1004E+01  0.1960E+02
      9.989  0.2969E+00  0.1964E+02
     10.120  0.6590E+00  0.1972E+02
     10.251  0.5472E+00  0.1979E+02
     10.382  0.1108E+01  0.1994E+02
     10.513  0.6444E-01  0.1995E+02
     10.644  0.6451E+00  0.2003E+02
     10.775  0.1017E+01  0.2016E+02
     10.906  0.2763E+01  0.2053E+02
     11.037  0.4838E+00  0.2059E+02
     11.168  0.8237E+00  0.2070E+02
     11.299  0.1324E+01  0.2087E+02
     11.429  0.9951E+00  0.2100E+02
     11.560  0.4503E+01  0.2159E+02
     11.691  0.3999E+01  0.2211E+02
     11.822  0.3944E+01  0.2263E+02
     11.953  0.1462E+01  0.2282E+02
     12.084  0.2552E+01  0.2316E+02
     12.215  0.2114E+01  0.2343E+02
     12.346  0.2699E+01  0.2379E+02
     12.477  0.1504E+01  0.2398E+02
     12.608  0.3238E+00  0.2403E+02
     12.739  0.1292E+01  0.2419E+02
     12.870  0.1393E+01  0.2438E+02
     13.000  0.1140E+01  0.2453E+02
     13.131  0.1008E+01  0.2466E+02
     13.262  0.1454E+01  0.2485E+02
     13.393  0.4253E+01  0.2541E+02
     13.524  0.2465E+01  0.2573E+02
     13.655  0.2241E+01  0.2602E+02
     13.786  0.1771E+01  0.2625E+02
     13.917  0.1400E+01  0.2644E+02
     14.048  0.1549E+01  0.2664E+02
     14.179  0.8658E+00  0.2675E+02
     14.310  0.3546E+01  0.2722E+02
     14.441  0.1472E+01  0.2741E+02
     14.572  0.2306E+00  0.2744E+02
     14.702  0.9760E+00  0.2757E+02
     14.833  0.2757E+01  0.2793E+02
     14.964  0.2778E+01  0.2829E+02
     15.095  0.1074E+01  0.2843E+02
     15.226  0.9798E-01  0.2845E+02
     15.357  0.7916E+00  0.2855E+02
     15.488  0.1128E+01  0.2870E+02
     15.619  0.9325E+00  0.2882E+02
     15.750  0.1163E+01  0.2897E+02
     15.881  0.2202E+01  0.2926E+02
     16.012  0.1232E+01  0.2942E+02
     16.143  0.2046E+01  0.2969E+02
     16.274  0.1048E+01  0.2983E+02
     16.404  0.6847E+00  0.2992E+02
     16.535  0.2516E+01  0.3025E+02
     16.666  0.1077E+01  0.3039E+02
     16.797  0.1614E+01  0.3060E+02
     16.928  0.2247E+01  0.3089E+02
     17.059  0.2311E+01  0.3119E+02
     17.190  0.1009E+01  0.3133E+02
     17.321  0.2952E+00  0.3137E+02
     17.452  0.4382E+00  0.3142E+02
     17.583  0.3067E+00  0.3146E+02
     17.714  0.1015E+00  0.3148E+02
     17.845  0.7863E+00  0.3158E+02
     17.976  0.5028E-01  0.3159E+02
     18.106  0.3961E+00  0.3164E+02
     18.237  0.1452E+00  0.3166E+02
     18.368  0.7139E+00  0.3175E+02
     18.499  0.2593E+00  0.3178E+02
     18.630  0.5799E+00  0.3186E+02
     18.761  0.1202E+00  0.3188E+02
     18.892  0.3125E+00  0.3192E+02
     19.023  0.1009E-01  0.3192E+02
     19.154  0.1142E+00  0.3193E+02
     19.285  0.1867E-01  0.3194E+02
     19.416  0.2996E+00  0.3197E+02
     19.547  0.1595E+00  0.3200E+02
     19.677  0.3464E-01  0.3200E+02
     19.808  0.3262E-03  0.3200E+02
     19.939  0.2414E-10  0.3200E+02
     20.070  0.0000E+00  0.3200E+02
     20.201  0.0000E+00  0.3200E+02
     20.332  0.0000E+00  0.3200E+02
     20.463  0.0000E+00  0.3200E+02
     20.594  0.0000E+00  0.3200E+02
     20.725  0.0000E+00  0.3200E+02
     20.856  0.0000E+00  0.3200E+02
     20.987  0.0000E+00  0.3200E+02
     21.118  0.0000E+00  0.3200E+02
     21.249  0.0000E+00  0.3200E+02
     21.379  0.0000E+00  0.3200E+02
