       N       E                     dE             d eps       ncg     rms          rms(c)
DAV:   1     0.478465174615E+02    0.47847E+02   -0.84301E+03 13824   0.101E+03
DAV:   2    -0.356954766133E+02   -0.83542E+02   -0.75942E+02 19224   0.202E+02
DAV:   3    -0.393083688772E+02   -0.36129E+01   -0.35885E+01 18792   0.400E+01
DAV:   4    -0.393445479053E+02   -0.36179E-01   -0.36164E-01 17248   0.480E+00
DAV:   5    -0.393451913325E+02   -0.64343E-03   -0.64335E-03 18400   0.607E-01    0.887E+00
DAV:   6    -0.375048162164E+02    0.18404E+01   -0.13027E+00 16552   0.692E+00    0.519E+00
DAV:   7    -0.368906390635E+02    0.61418E+00   -0.16323E+00 17464   0.784E+00    0.144E+00
DAV:   8    -0.369019307921E+02   -0.11292E-01   -0.64561E-02 16304   0.150E+00    0.247E-01
DAV:   9    -0.369010411490E+02    0.88964E-03   -0.14501E-03 17984   0.259E-01    0.110E-01
DAV:  10    -0.369013183903E+02   -0.27724E-03   -0.89797E-04 14240   0.185E-01    0.707E-02
DAV:  11    -0.369013151681E+02    0.32222E-05   -0.23430E-05 18384   0.318E-02    0.160E-02
DAV:  12    -0.369013160469E+02   -0.87882E-06   -0.10646E-06 14424   0.906E-03
   1 F= -.36901316E+02 E0= -.36900924E+02  d E =-.783503E-03
