Ag3 Sb1                                 
   1.00000000000000     
     3.2593649999999998    0.0000000000000000    0.0000000000000000
     0.0000000000000000    4.8137359999999996    0.0000000000000000
     0.0000000000000000    0.0000000000000000    5.1677049999999998
   Ag   Sb
     3     1
Direct
     0.5000000000000000    0.5000000000000000    0.8308869999999970
     0.0000000000000000    0.5000000000000000    0.3490949999999984
     0.5000000000000000    0.0000000000000000    0.4972959999999986
     0.0000000000000000    0.0000000000000000    0.0027219999999986
 
  0.00000000E+00  0.00000000E+00  0.00000000E+00
  0.00000000E+00  0.00000000E+00  0.00000000E+00
  0.00000000E+00  0.00000000E+00  0.00000000E+00
  0.00000000E+00  0.00000000E+00  0.00000000E+00
