       N       E                     dE             d eps       ncg     rms          rms(c)
DAV:   1     0.586378448099E+02    0.58638E+02   -0.26962E+03225124   0.155E+02
DAV:   2    -0.681390430350E+01   -0.65452E+02   -0.57787E+02222192   0.477E+01
DAV:   3    -0.119473076061E+02   -0.51334E+01   -0.49379E+01238180   0.128E+01
DAV:   4    -0.119784166935E+02   -0.31109E-01   -0.31089E-01227872   0.926E-01
DAV:   5    -0.119784234885E+02   -0.67949E-05   -0.67948E-05227896   0.127E-02    0.120E+01
DAV:   6    -0.137580255335E+02   -0.17796E+01   -0.32795E+01220576   0.132E+01    0.150E+01
DAV:   7    -0.105457912138E+02    0.32122E+01   -0.92451E+00212820   0.751E+00    0.104E+00
DAV:   8    -0.105247873209E+02    0.21004E-01   -0.65688E-02235236   0.572E-01    0.990E-01
DAV:   9    -0.105114151462E+02    0.13372E-01   -0.31044E-02228616   0.394E-01    0.269E-01
DAV:  10    -0.105109186373E+02    0.49651E-03   -0.33636E-03239668   0.129E-01    0.906E-02
DAV:  11    -0.105108697181E+02    0.48919E-04   -0.17880E-04240224   0.266E-02    0.690E-03
DAV:  12    -0.105108694758E+02    0.24230E-06   -0.13799E-06227860   0.213E-03
   1 F= -.10510869E+02 E0= -.10509984E+02  d E =-.177140E-02
