  20  20   0   0
  0.1779885E+02  0.7771578E-09  0.5930787E-09  0.8698074E-09  0.5000000E-15
  1.000000000000000E-004
  CAR 
 unknown system                          
     12.38549463    -17.65825477  301      5.72343402      1.00000000
    -17.658  0.0000E+00  0.0000E+00
    -17.558  0.0000E+00  0.0000E+00
    -17.458  0.0000E+00  0.0000E+00
    -17.358  0.0000E+00  0.0000E+00
    -17.258  0.0000E+00  0.0000E+00
    -17.158  0.0000E+00  0.0000E+00
    -17.057  0.0000E+00  0.0000E+00
    -16.957  0.0000E+00  0.0000E+00
    -16.857  0.0000E+00  0.0000E+00
    -16.757  0.0000E+00  0.0000E+00
    -16.657  0.0000E+00  0.0000E+00
    -16.557  0.1067E-12  0.1069E-13
    -16.457  0.9584E-05  0.9598E-06
    -16.356  0.4860E+00  0.4867E-01
    -16.256  0.2758E+02  0.2811E+01
    -16.156  0.1186E+02  0.3998E+01
    -16.056  0.1793E-01  0.4000E+01
    -15.956  0.1916E-07  0.4000E+01
    -15.856  0.0000E+00  0.4000E+01
    -15.755  0.0000E+00  0.4000E+01
    -15.655  0.0000E+00  0.4000E+01
    -15.555  0.0000E+00  0.4000E+01
    -15.455  0.0000E+00  0.4000E+01
    -15.355  0.0000E+00  0.4000E+01
    -15.255  0.0000E+00  0.4000E+01
    -15.155  0.0000E+00  0.4000E+01
    -15.054  0.0000E+00  0.4000E+01
    -14.954  0.0000E+00  0.4000E+01
    -14.854  0.0000E+00  0.4000E+01
    -14.754  0.0000E+00  0.4000E+01
    -14.654  0.0000E+00  0.4000E+01
    -14.554  0.0000E+00  0.4000E+01
    -14.454  0.0000E+00  0.4000E+01
    -14.353  0.0000E+00  0.4000E+01
    -14.253  0.0000E+00  0.4000E+01
    -14.153  0.0000E+00  0.4000E+01
    -14.053  0.0000E+00  0.4000E+01
    -13.953  0.5252E-08  0.4000E+01
    -13.853  0.1347E-02  0.4000E+01
    -13.753  0.4138E+00  0.4042E+01
    -13.652  0.5257E+01  0.4568E+01
    -13.552  0.1151E+02  0.5721E+01
    -13.452  0.1598E+02  0.7321E+01
    -13.352  0.4808E+01  0.7803E+01
    -13.252  0.4238E+01  0.8227E+01
    -13.152  0.7138E+01  0.8942E+01
    -13.052  0.1309E+02  0.1025E+02
    -12.951  0.9583E+01  0.1121E+02
    -12.851  0.5494E+01  0.1176E+02
    -12.751  0.7924E+01  0.1256E+02
    -12.651  0.1119E+02  0.1368E+02
    -12.551  0.1441E+02  0.1512E+02
    -12.451  0.1279E+02  0.1640E+02
    -12.351  0.2042E+02  0.1845E+02
    -12.250  0.1415E+02  0.1986E+02
    -12.150  0.1367E+01  0.2000E+02
    -12.050  0.2157E-02  0.2000E+02
    -11.950  0.4864E-08  0.2000E+02
    -11.850  0.0000E+00  0.2000E+02
    -11.750  0.0000E+00  0.2000E+02
    -11.650  0.0000E+00  0.2000E+02
    -11.549  0.0000E+00  0.2000E+02
    -11.449  0.0000E+00  0.2000E+02
    -11.349  0.0000E+00  0.2000E+02
    -11.249  0.0000E+00  0.2000E+02
    -11.149  0.0000E+00  0.2000E+02
    -11.049  0.0000E+00  0.2000E+02
    -10.948  0.0000E+00  0.2000E+02
    -10.848  0.0000E+00  0.2000E+02
    -10.748  0.0000E+00  0.2000E+02
    -10.648  0.3524E-12  0.2000E+02
    -10.548  0.2558E-04  0.2000E+02
    -10.448  0.8698E+00  0.2009E+02
    -10.348  0.3068E+02  0.2316E+02
    -10.247  0.8382E+01  0.2400E+02
    -10.147  0.5620E-02  0.2400E+02
    -10.047  0.2123E-08  0.2400E+02
     -9.947  0.0000E+00  0.2400E+02
     -9.847  0.0000E+00  0.2400E+02
     -9.747  0.0000E+00  0.2400E+02
     -9.647  0.0000E+00  0.2400E+02
     -9.546  0.0000E+00  0.2400E+02
     -9.446  0.0000E+00  0.2400E+02
     -9.346  0.0000E+00  0.2400E+02
     -9.246  0.0000E+00  0.2400E+02
     -9.146  0.0000E+00  0.2400E+02
     -9.046  0.0000E+00  0.2400E+02
     -8.946  0.0000E+00  0.2400E+02
     -8.845  0.0000E+00  0.2400E+02
     -8.745  0.0000E+00  0.2400E+02
     -8.645  0.0000E+00  0.2400E+02
     -8.545  0.0000E+00  0.2400E+02
     -8.445  0.0000E+00  0.2400E+02
     -8.345  0.0000E+00  0.2400E+02
     -8.245  0.0000E+00  0.2400E+02
     -8.144  0.0000E+00  0.2400E+02
     -8.044  0.0000E+00  0.2400E+02
     -7.944  0.0000E+00  0.2400E+02
     -7.844  0.0000E+00  0.2400E+02
     -7.744  0.0000E+00  0.2400E+02
     -7.644  0.0000E+00  0.2400E+02
     -7.544  0.0000E+00  0.2400E+02
     -7.443  0.0000E+00  0.2400E+02
     -7.343  0.0000E+00  0.2400E+02
     -7.243  0.0000E+00  0.2400E+02
     -7.143  0.0000E+00  0.2400E+02
     -7.043  0.0000E+00  0.2400E+02
     -6.943  0.0000E+00  0.2400E+02
     -6.843  0.0000E+00  0.2400E+02
     -6.742  0.0000E+00  0.2400E+02
     -6.642  0.0000E+00  0.2400E+02
     -6.542  0.0000E+00  0.2400E+02
     -6.442  0.0000E+00  0.2400E+02
     -6.342  0.9347E-11  0.2400E+02
     -6.242  0.7559E-04  0.2400E+02
     -6.141  0.3425E+00  0.2403E+02
     -6.041  0.5905E+01  0.2463E+02
     -5.941  0.1445E+02  0.2607E+02
     -5.841  0.8197E+01  0.2689E+02
     -5.741  0.9979E+01  0.2789E+02
     -5.641  0.1069E+02  0.2896E+02
     -5.541  0.9220E+01  0.2989E+02
     -5.440  0.7035E+01  0.3059E+02
     -5.340  0.7203E+01  0.3131E+02
     -5.240  0.1221E+02  0.3254E+02
     -5.140  0.8960E+01  0.3343E+02
     -5.040  0.6715E+01  0.3411E+02
     -4.940  0.1020E+02  0.3513E+02
     -4.840  0.8296E+01  0.3596E+02
     -4.739  0.2135E+01  0.3617E+02
     -4.639  0.5352E+01  0.3671E+02
     -4.539  0.5750E+01  0.3728E+02
     -4.439  0.7068E+01  0.3799E+02
     -4.339  0.6483E+01  0.3864E+02
     -4.239  0.4501E+01  0.3909E+02
     -4.139  0.4338E+01  0.3953E+02
     -4.038  0.3295E+01  0.3986E+02
     -3.938  0.1167E+01  0.3997E+02
     -3.838  0.2796E+00  0.4000E+02
     -3.738  0.4068E-03  0.4000E+02
     -3.638  0.3494E-09  0.4000E+02
     -3.538  0.0000E+00  0.4000E+02
     -3.438  0.0000E+00  0.4000E+02
     -3.337  0.0000E+00  0.4000E+02
     -3.237  0.0000E+00  0.4000E+02
     -3.137  0.0000E+00  0.4000E+02
     -3.037  0.0000E+00  0.4000E+02
     -2.937  0.0000E+00  0.4000E+02
     -2.837  0.0000E+00  0.4000E+02
     -2.737  0.0000E+00  0.4000E+02
     -2.636  0.0000E+00  0.4000E+02
     -2.536  0.0000E+00  0.4000E+02
     -2.436  0.0000E+00  0.4000E+02
     -2.336  0.0000E+00  0.4000E+02
     -2.236  0.0000E+00  0.4000E+02
     -2.136  0.0000E+00  0.4000E+02
     -2.036  0.0000E+00  0.4000E+02
     -1.935  0.0000E+00  0.4000E+02
     -1.835  0.0000E+00  0.4000E+02
     -1.735  0.0000E+00  0.4000E+02
     -1.635  0.0000E+00  0.4000E+02
     -1.535  0.0000E+00  0.4000E+02
     -1.435  0.2774E-08  0.4000E+02
     -1.334  0.1853E-02  0.4000E+02
     -1.234  0.1374E+01  0.4014E+02
     -1.134  0.1397E+02  0.4154E+02
     -1.034  0.1587E+02  0.4313E+02
     -0.934  0.8404E+01  0.4397E+02
     -0.834  0.7558E+01  0.4472E+02
     -0.734  0.1230E+02  0.4596E+02
     -0.633  0.8014E+01  0.4676E+02
     -0.533  0.1001E+02  0.4776E+02
     -0.433  0.9709E+01  0.4873E+02
     -0.333  0.1763E+02  0.5050E+02
     -0.233  0.1323E+02  0.5182E+02
     -0.133  0.7426E+01  0.5257E+02
     -0.033  0.6704E+01  0.5324E+02
      0.068  0.7794E+01  0.5402E+02
      0.168  0.5852E+01  0.5461E+02
      0.268  0.5685E+01  0.5518E+02
      0.368  0.1361E+02  0.5654E+02
      0.468  0.1594E+02  0.5814E+02
      0.568  0.1380E+02  0.5952E+02
      0.668  0.1706E+02  0.6123E+02
      0.769  0.1759E+02  0.6299E+02
      0.869  0.1119E+02  0.6411E+02
      0.969  0.1564E+02  0.6567E+02
      1.069  0.1455E+02  0.6713E+02
      1.169  0.1881E+02  0.6902E+02
      1.269  0.1648E+02  0.7067E+02
      1.369  0.8451E+01  0.7151E+02
      1.470  0.7456E+01  0.7226E+02
      1.570  0.9145E+01  0.7318E+02
      1.670  0.7205E+01  0.7390E+02
      1.770  0.1416E+02  0.7531E+02
      1.870  0.1566E+02  0.7688E+02
      1.970  0.1542E+02  0.7843E+02
      2.070  0.9434E+01  0.7937E+02
      2.171  0.1819E+02  0.8119E+02
      2.271  0.1268E+02  0.8246E+02
      2.371  0.1292E+02  0.8376E+02
      2.471  0.1272E+02  0.8503E+02
      2.571  0.1590E+02  0.8662E+02
      2.671  0.1753E+02  0.8838E+02
      2.771  0.1859E+02  0.9024E+02
      2.872  0.1155E+02  0.9140E+02
      2.972  0.1035E+02  0.9243E+02
      3.072  0.1481E+02  0.9392E+02
      3.172  0.1452E+02  0.9537E+02
      3.272  0.1344E+02  0.9672E+02
      3.372  0.1596E+02  0.9832E+02
      3.473  0.1954E+02  0.1003E+03
      3.573  0.1879E+02  0.1022E+03
      3.673  0.1504E+02  0.1037E+03
      3.773  0.3276E+01  0.1040E+03
      3.873  0.3631E+01  0.1044E+03
      3.973  0.2197E+02  0.1066E+03
      4.073  0.1392E+02  0.1079E+03
      4.174  0.5291E+00  0.1080E+03
      4.274  0.1886E-03  0.1080E+03
      4.374  0.1499E-09  0.1080E+03
      4.474  0.1500E-03  0.1080E+03
      4.574  0.2005E+00  0.1080E+03
      4.674  0.6713E+00  0.1081E+03
      4.774  0.7254E+00  0.1082E+03
      4.875  0.2408E+01  0.1084E+03
      4.975  0.6056E+00  0.1085E+03
      5.075  0.4407E+01  0.1089E+03
      5.175  0.6159E+01  0.1095E+03
      5.275  0.5971E+01  0.1101E+03
      5.375  0.4587E+01  0.1106E+03
      5.475  0.1445E+01  0.1107E+03
      5.576  0.3604E+01  0.1111E+03
      5.676  0.5002E+01  0.1116E+03
      5.776  0.8308E+01  0.1124E+03
      5.876  0.5672E+01  0.1130E+03
      5.976  0.9407E+01  0.1139E+03
      6.076  0.5700E+01  0.1145E+03
      6.176  0.3048E+01  0.1148E+03
      6.277  0.8053E+01  0.1156E+03
      6.377  0.5529E+01  0.1162E+03
      6.477  0.3670E+01  0.1165E+03
      6.577  0.2141E+01  0.1167E+03
      6.677  0.4932E+01  0.1172E+03
      6.777  0.5010E+01  0.1177E+03
      6.877  0.7595E+01  0.1185E+03
      6.978  0.8230E+01  0.1193E+03
      7.078  0.4114E+01  0.1197E+03
      7.178  0.3279E+01  0.1201E+03
      7.278  0.4328E+01  0.1205E+03
      7.378  0.7117E+01  0.1212E+03
      7.478  0.9402E+01  0.1222E+03
      7.578  0.1337E+02  0.1235E+03
      7.679  0.1061E+02  0.1246E+03
      7.779  0.8988E+01  0.1255E+03
      7.879  0.8818E+01  0.1263E+03
      7.979  0.5667E+01  0.1269E+03
      8.079  0.9475E+01  0.1279E+03
      8.179  0.1075E+02  0.1289E+03
      8.280  0.1140E+02  0.1301E+03
      8.380  0.1085E+02  0.1312E+03
      8.480  0.8734E+01  0.1320E+03
      8.580  0.8042E+01  0.1328E+03
      8.680  0.1185E+02  0.1340E+03
      8.780  0.1375E+02  0.1354E+03
      8.880  0.1042E+02  0.1364E+03
      8.981  0.1586E+02  0.1380E+03
      9.081  0.1190E+02  0.1392E+03
      9.181  0.1332E+02  0.1406E+03
      9.281  0.1204E+02  0.1418E+03
      9.381  0.1116E+02  0.1429E+03
      9.481  0.1088E+02  0.1440E+03
      9.581  0.1222E+02  0.1452E+03
      9.682  0.1177E+02  0.1464E+03
      9.782  0.1154E+02  0.1475E+03
      9.882  0.1396E+02  0.1489E+03
      9.982  0.1427E+02  0.1504E+03
     10.082  0.9293E+01  0.1513E+03
     10.182  0.8424E+01  0.1521E+03
     10.282  0.1060E+02  0.1532E+03
     10.383  0.1359E+02  0.1546E+03
     10.483  0.1164E+02  0.1557E+03
     10.583  0.9527E+01  0.1567E+03
     10.683  0.1125E+02  0.1578E+03
     10.783  0.9002E+01  0.1587E+03
     10.883  0.8413E+01  0.1595E+03
     10.983  0.3843E+01  0.1599E+03
     11.084  0.6705E+00  0.1600E+03
     11.184  0.1632E-01  0.1600E+03
     11.284  0.7922E-06  0.1600E+03
     11.384  0.1813E-13  0.1600E+03
     11.484  0.0000E+00  0.1600E+03
     11.584  0.0000E+00  0.1600E+03
     11.684  0.0000E+00  0.1600E+03
     11.785  0.0000E+00  0.1600E+03
     11.885  0.0000E+00  0.1600E+03
     11.985  0.0000E+00  0.1600E+03
     12.085  0.0000E+00  0.1600E+03
     12.185  0.0000E+00  0.1600E+03
     12.285  0.0000E+00  0.1600E+03
     12.385  0.0000E+00  0.1600E+03
