S18 N18                                 
   1.00000000000000     
     3.8724360000000000    0.0000000000000000    0.2931090000000000
     0.0000000000000000    7.0761659999999997    0.0000000000000000
    -1.3153809999999999    0.0000000000000000   29.1944559999999989
   S    N 
    18    18
Direct
     0.9338959999999972    0.4997419999999977    0.9640559999999994
     0.6073870000000028    0.8784580000000020    0.7407529999999980
     0.8916960000000032    0.4914249999999996    0.7473290000000006
     0.4251720000000034    0.0950119999999970    0.0618600000000029
     0.6332749999999976    0.9403489999999977    0.5368959999999987
     0.8667250000000024    0.4403489999999977    0.5631040000000027
     0.0856909999999971    0.6503909999999991    0.8772450000000021
     0.3261490000000009    0.0436940000000021    0.8576789999999974
     0.6083039999999968    0.9914249999999996    0.3526710000000008
     0.8926129999999972    0.3784580000000020    0.3592470000000034
     0.1634450000000029    0.5559909999999988    0.6374599999999973
     0.4341030000000003    0.0212429999999983    0.6681999999999988
     0.5661040000000028    0.9997419999999977    0.1359440000000021
     0.0658969999999997    0.5212429999999983    0.4318000000000026
     0.3365549999999971    0.0559909999999988    0.4625399999999971
     0.1738509999999991    0.5436940000000021    0.2423209999999969
     0.4143090000000029    0.1503909999999991    0.2227549999999994
     0.0748279999999966    0.5950119999999970    0.0381399999999985
     0.1345919999999978    0.6507859999999965    0.9315679999999986
     0.5811690000000027    0.4210410000000024    0.7719900000000024
     0.9140540000000001    0.7374069999999975    0.7314500000000024
     0.5710580000000007    0.3096969999999999    0.5721920000000011
     0.3762389999999982    0.7199820000000017    0.0423660000000012
     0.9289419999999993    0.8096969999999999    0.5278080000000003
     0.0828619999999987    0.1363449999999986    0.8901170000000036
     0.5859459999999999    0.2374069999999975    0.3685499999999990
     0.3306120000000021    0.7999849999999995    0.8533729999999977
     0.9188309999999973    0.9210410000000024    0.3280099999999990
     0.1205410000000029    0.1370399999999989    0.6753590000000003
     0.3654080000000022    0.1507859999999965    0.1684320000000028
     0.4592420000000033    0.6904139999999970    0.6311570000000017
     0.0407579999999967    0.1904139999999970    0.4688429999999997
     0.3794589999999971    0.6370399999999989    0.4246410000000012
     0.1693879999999979    0.2999849999999995    0.2466269999999966
     0.4171380000000013    0.6363449999999986    0.2098829999999978
     0.1237610000000018    0.2199820000000017    0.0576340000000002
 
  0.00000000E+00  0.00000000E+00  0.00000000E+00
  0.00000000E+00  0.00000000E+00  0.00000000E+00
  0.00000000E+00  0.00000000E+00  0.00000000E+00
  0.00000000E+00  0.00000000E+00  0.00000000E+00
  0.00000000E+00  0.00000000E+00  0.00000000E+00
  0.00000000E+00  0.00000000E+00  0.00000000E+00
  0.00000000E+00  0.00000000E+00  0.00000000E+00
  0.00000000E+00  0.00000000E+00  0.00000000E+00
  0.00000000E+00  0.00000000E+00  0.00000000E+00
  0.00000000E+00  0.00000000E+00  0.00000000E+00
  0.00000000E+00  0.00000000E+00  0.00000000E+00
  0.00000000E+00  0.00000000E+00  0.00000000E+00
  0.00000000E+00  0.00000000E+00  0.00000000E+00
  0.00000000E+00  0.00000000E+00  0.00000000E+00
  0.00000000E+00  0.00000000E+00  0.00000000E+00
  0.00000000E+00  0.00000000E+00  0.00000000E+00
  0.00000000E+00  0.00000000E+00  0.00000000E+00
  0.00000000E+00  0.00000000E+00  0.00000000E+00
  0.00000000E+00  0.00000000E+00  0.00000000E+00
  0.00000000E+00  0.00000000E+00  0.00000000E+00
  0.00000000E+00  0.00000000E+00  0.00000000E+00
  0.00000000E+00  0.00000000E+00  0.00000000E+00
  0.00000000E+00  0.00000000E+00  0.00000000E+00
  0.00000000E+00  0.00000000E+00  0.00000000E+00
  0.00000000E+00  0.00000000E+00  0.00000000E+00
  0.00000000E+00  0.00000000E+00  0.00000000E+00
  0.00000000E+00  0.00000000E+00  0.00000000E+00
  0.00000000E+00  0.00000000E+00  0.00000000E+00
  0.00000000E+00  0.00000000E+00  0.00000000E+00
  0.00000000E+00  0.00000000E+00  0.00000000E+00
  0.00000000E+00  0.00000000E+00  0.00000000E+00
  0.00000000E+00  0.00000000E+00  0.00000000E+00
  0.00000000E+00  0.00000000E+00  0.00000000E+00
  0.00000000E+00  0.00000000E+00  0.00000000E+00
  0.00000000E+00  0.00000000E+00  0.00000000E+00
  0.00000000E+00  0.00000000E+00  0.00000000E+00
