  36  36   0   0
  0.2229763E+02  0.3883513E-09  0.7076166E-09  0.2922407E-08  0.5000000E-15
  1.000000000000000E-004
  CAR 
 unknown system                          
      9.36607264    -20.12034859  301      0.70367050      1.00000000
    -20.120  0.0000E+00  0.0000E+00
    -20.022  0.0000E+00  0.0000E+00
    -19.924  0.0000E+00  0.0000E+00
    -19.825  0.0000E+00  0.0000E+00
    -19.727  0.0000E+00  0.0000E+00
    -19.629  0.0000E+00  0.0000E+00
    -19.531  0.0000E+00  0.0000E+00
    -19.432  0.0000E+00  0.0000E+00
    -19.334  0.0000E+00  0.0000E+00
    -19.236  0.0000E+00  0.0000E+00
    -19.137  0.0000E+00  0.0000E+00
    -19.039  0.3046E-12  0.2994E-13
    -18.941  0.1035E-04  0.1017E-05
    -18.843  0.2729E+00  0.2682E-01
    -18.744  0.1546E+02  0.1547E+01
    -18.646  0.2332E+02  0.3839E+01
    -18.548  0.1637E+01  0.4000E+01
    -18.449  0.1032E-01  0.4001E+01
    -18.351  0.3654E+01  0.4360E+01
    -18.253  0.1531E+02  0.5865E+01
    -18.155  0.1523E+02  0.7361E+01
    -18.056  0.8771E+01  0.8223E+01
    -17.958  0.9208E+01  0.9128E+01
    -17.860  0.2046E+02  0.1114E+02
    -17.761  0.3179E+02  0.1426E+02
    -17.663  0.2362E+02  0.1659E+02
    -17.565  0.2398E+02  0.1894E+02
    -17.467  0.4498E+02  0.2336E+02
    -17.368  0.1524E+02  0.2486E+02
    -17.270  0.2675E+02  0.2749E+02
    -17.172  0.5157E+01  0.2800E+02
    -17.073  0.1948E-01  0.2800E+02
    -16.975  0.1753E-06  0.2800E+02
    -16.877  0.5046E-03  0.2800E+02
    -16.779  0.1530E+01  0.2815E+02
    -16.680  0.1985E+02  0.3010E+02
    -16.582  0.1828E+02  0.3190E+02
    -16.484  0.1043E+01  0.3200E+02
    -16.385  0.1960E-03  0.3200E+02
    -16.287  0.2699E-10  0.3200E+02
    -16.189  0.0000E+00  0.3200E+02
    -16.091  0.3144E-07  0.3200E+02
    -15.992  0.1264E-01  0.3200E+02
    -15.894  0.6415E+01  0.3263E+02
    -15.796  0.2936E+02  0.3552E+02
    -15.697  0.4908E+01  0.3600E+02
    -15.599  0.6081E-02  0.3600E+02
    -15.501  0.7923E-08  0.3600E+02
    -15.403  0.0000E+00  0.3600E+02
    -15.304  0.0000E+00  0.3600E+02
    -15.206  0.0000E+00  0.3600E+02
    -15.108  0.0000E+00  0.3600E+02
    -15.009  0.0000E+00  0.3600E+02
    -14.911  0.0000E+00  0.3600E+02
    -14.813  0.0000E+00  0.3600E+02
    -14.715  0.0000E+00  0.3600E+02
    -14.616  0.0000E+00  0.3600E+02
    -14.518  0.0000E+00  0.3600E+02
    -14.420  0.0000E+00  0.3600E+02
    -14.321  0.0000E+00  0.3600E+02
    -14.223  0.0000E+00  0.3600E+02
    -14.125  0.0000E+00  0.3600E+02
    -14.026  0.0000E+00  0.3600E+02
    -13.928  0.0000E+00  0.3600E+02
    -13.830  0.0000E+00  0.3600E+02
    -13.732  0.0000E+00  0.3600E+02
    -13.633  0.0000E+00  0.3600E+02
    -13.535  0.0000E+00  0.3600E+02
    -13.437  0.0000E+00  0.3600E+02
    -13.338  0.0000E+00  0.3600E+02
    -13.240  0.0000E+00  0.3600E+02
    -13.142  0.0000E+00  0.3600E+02
    -13.044  0.0000E+00  0.3600E+02
    -12.945  0.0000E+00  0.3600E+02
    -12.847  0.5325E-14  0.3600E+02
    -12.749  0.7315E-06  0.3600E+02
    -12.650  0.7914E-01  0.3601E+02
    -12.552  0.1485E+02  0.3747E+02
    -12.454  0.2518E+02  0.3994E+02
    -12.356  0.5905E+00  0.4000E+02
    -12.257  0.3622E-04  0.4000E+02
    -12.159  0.2030E-11  0.4000E+02
    -12.061  0.4542E-13  0.4000E+02
    -11.962  0.3370E-05  0.4000E+02
    -11.864  0.1513E+00  0.4001E+02
    -11.766  0.8084E+01  0.4081E+02
    -11.668  0.7326E+01  0.4153E+02
    -11.569  0.7837E+01  0.4230E+02
    -11.471  0.9247E+01  0.4321E+02
    -11.373  0.7647E+01  0.4396E+02
    -11.274  0.4042E+00  0.4400E+02
    -11.176  0.1046E-03  0.4400E+02
    -11.078  0.2529E-10  0.4400E+02
    -10.980  0.0000E+00  0.4400E+02
    -10.881  0.1348E-10  0.4400E+02
    -10.783  0.6249E-04  0.4400E+02
    -10.685  0.2370E+00  0.4402E+02
    -10.586  0.4814E+01  0.4450E+02
    -10.488  0.9043E+01  0.4539E+02
    -10.390  0.1889E+02  0.4724E+02
    -10.292  0.1769E+02  0.4898E+02
    -10.193  0.9155E+01  0.4988E+02
    -10.095  0.4904E+01  0.5036E+02
     -9.997  0.3292E+01  0.5069E+02
     -9.898  0.4949E+01  0.5117E+02
     -9.800  0.1098E+02  0.5225E+02
     -9.702  0.7883E+01  0.5303E+02
     -9.604  0.7433E+01  0.5376E+02
     -9.505  0.5066E+01  0.5425E+02
     -9.407  0.4205E+01  0.5467E+02
     -9.309  0.9702E+01  0.5562E+02
     -9.210  0.1067E+02  0.5667E+02
     -9.112  0.7983E+01  0.5745E+02
     -9.014  0.7962E+01  0.5824E+02
     -8.916  0.7329E+01  0.5896E+02
     -8.817  0.1046E+02  0.5999E+02
     -8.719  0.7494E+01  0.6072E+02
     -8.621  0.1310E+02  0.6201E+02
     -8.522  0.9370E+01  0.6293E+02
     -8.424  0.5792E+01  0.6350E+02
     -8.326  0.4048E+01  0.6390E+02
     -8.227  0.1545E+01  0.6405E+02
     -8.129  0.5950E+01  0.6463E+02
     -8.031  0.4931E+01  0.6512E+02
     -7.933  0.3044E+01  0.6542E+02
     -7.834  0.7415E+01  0.6615E+02
     -7.736  0.1409E+01  0.6629E+02
     -7.638  0.1521E+01  0.6644E+02
     -7.539  0.8744E+01  0.6729E+02
     -7.441  0.5000E+01  0.6779E+02
     -7.343  0.2168E+01  0.6800E+02
     -7.245  0.1420E+01  0.6814E+02
     -7.146  0.9096E+01  0.6903E+02
     -7.048  0.1050E+02  0.7006E+02
     -6.950  0.1045E+02  0.7109E+02
     -6.851  0.7857E+01  0.7186E+02
     -6.753  0.1352E+01  0.7200E+02
     -6.655  0.3019E-01  0.7200E+02
     -6.557  0.2222E-05  0.7200E+02
     -6.458  0.1027E-12  0.7200E+02
     -6.360  0.0000E+00  0.7200E+02
     -6.262  0.0000E+00  0.7200E+02
     -6.163  0.0000E+00  0.7200E+02
     -6.065  0.5025E-08  0.7200E+02
     -5.967  0.2943E-02  0.7200E+02
     -5.869  0.2078E+01  0.7220E+02
     -5.770  0.9091E+01  0.7310E+02
     -5.672  0.6883E+01  0.7377E+02
     -5.574  0.2592E+02  0.7632E+02
     -5.475  0.2162E+02  0.7845E+02
     -5.377  0.1881E+02  0.8030E+02
     -5.279  0.1943E+02  0.8220E+02
     -5.181  0.1987E+02  0.8416E+02
     -5.082  0.2325E+02  0.8644E+02
     -4.984  0.2048E+02  0.8846E+02
     -4.886  0.1839E+02  0.9026E+02
     -4.787  0.2450E+02  0.9267E+02
     -4.689  0.2846E+02  0.9547E+02
     -4.591  0.2629E+02  0.9805E+02
     -4.493  0.2804E+02  0.1008E+03
     -4.394  0.3153E+02  0.1039E+03
     -4.296  0.2199E+02  0.1061E+03
     -4.198  0.2285E+02  0.1083E+03
     -4.099  0.2515E+02  0.1108E+03
     -4.001  0.2157E+02  0.1129E+03
     -3.903  0.2783E+02  0.1156E+03
     -3.805  0.2088E+02  0.1177E+03
     -3.706  0.2133E+02  0.1198E+03
     -3.608  0.2599E+02  0.1223E+03
     -3.510  0.3667E+02  0.1259E+03
     -3.411  0.3394E+02  0.1293E+03
     -3.313  0.2782E+02  0.1320E+03
     -3.215  0.3172E+02  0.1351E+03
     -3.117  0.3006E+02  0.1381E+03
     -3.018  0.2083E+02  0.1401E+03
     -2.920  0.2261E+02  0.1424E+03
     -2.822  0.2632E+02  0.1449E+03
     -2.723  0.2448E+02  0.1474E+03
     -2.625  0.2411E+02  0.1497E+03
     -2.527  0.2269E+02  0.1520E+03
     -2.428  0.2318E+02  0.1542E+03
     -2.330  0.1733E+02  0.1559E+03
     -2.232  0.1060E+02  0.1570E+03
     -2.134  0.2395E+02  0.1593E+03
     -2.035  0.3192E+02  0.1625E+03
     -1.937  0.1240E+02  0.1637E+03
     -1.839  0.3066E+01  0.1640E+03
     -1.740  0.1281E+00  0.1640E+03
     -1.642  0.5523E+01  0.1645E+03
     -1.544  0.2830E+02  0.1673E+03
     -1.446  0.6518E+01  0.1680E+03
     -1.347  0.1373E+01  0.1681E+03
     -1.249  0.3741E+01  0.1685E+03
     -1.151  0.5038E+01  0.1690E+03
     -1.052  0.1349E+02  0.1703E+03
     -0.954  0.3197E+02  0.1734E+03
     -0.856  0.4732E+01  0.1739E+03
     -0.758  0.9571E+01  0.1748E+03
     -0.659  0.1028E+02  0.1758E+03
     -0.561  0.2754E+01  0.1761E+03
     -0.463  0.3573E+01  0.1765E+03
     -0.364  0.5171E+01  0.1770E+03
     -0.266  0.9887E+01  0.1779E+03
     -0.168  0.1680E+02  0.1796E+03
     -0.070  0.2128E+02  0.1817E+03
      0.029  0.1653E+02  0.1833E+03
      0.127  0.2104E+02  0.1854E+03
      0.225  0.2959E+02  0.1883E+03
      0.324  0.2065E+02  0.1903E+03
      0.422  0.1651E+02  0.1919E+03
      0.520  0.2215E+02  0.1941E+03
      0.618  0.2412E+02  0.1965E+03
      0.717  0.1624E+02  0.1981E+03
      0.815  0.7668E+01  0.1988E+03
      0.913  0.1621E+02  0.2004E+03
      1.012  0.6478E+01  0.2011E+03
      1.110  0.8068E+01  0.2019E+03
      1.208  0.5296E+01  0.2024E+03
      1.306  0.2269E+01  0.2026E+03
      1.405  0.8174E+01  0.2034E+03
      1.503  0.1305E+02  0.2047E+03
      1.601  0.7885E+01  0.2055E+03
      1.700  0.1168E+02  0.2066E+03
      1.798  0.5808E+01  0.2072E+03
      1.896  0.1481E+02  0.2086E+03
      1.994  0.1305E+02  0.2099E+03
      2.093  0.1947E+02  0.2118E+03
      2.191  0.2161E+02  0.2140E+03
      2.289  0.2106E+02  0.2160E+03
      2.388  0.1892E+02  0.2179E+03
      2.486  0.1428E+02  0.2193E+03
      2.584  0.1551E+02  0.2208E+03
      2.682  0.1262E+02  0.2221E+03
      2.781  0.1368E+02  0.2234E+03
      2.879  0.1799E+02  0.2252E+03
      2.977  0.1591E+02  0.2267E+03
      3.076  0.1468E+02  0.2282E+03
      3.174  0.1455E+02  0.2296E+03
      3.272  0.1696E+02  0.2313E+03
      3.371  0.2680E+02  0.2339E+03
      3.469  0.2343E+02  0.2362E+03
      3.567  0.1896E+02  0.2381E+03
      3.665  0.1223E+02  0.2393E+03
      3.764  0.5956E+01  0.2399E+03
      3.862  0.1276E+01  0.2400E+03
      3.960  0.5527E-01  0.2400E+03
      4.059  0.3824E-05  0.2400E+03
      4.157  0.5231E-12  0.2400E+03
      4.255  0.6350E-05  0.2400E+03
      4.353  0.6952E-01  0.2400E+03
      4.452  0.1277E+01  0.2401E+03
      4.550  0.4512E+01  0.2406E+03
      4.648  0.1522E+02  0.2421E+03
      4.747  0.1271E+02  0.2433E+03
      4.845  0.1651E+02  0.2449E+03
      4.943  0.1322E+02  0.2462E+03
      5.041  0.1443E+02  0.2477E+03
      5.140  0.1317E+02  0.2490E+03
      5.238  0.9945E+01  0.2499E+03
      5.336  0.4553E+01  0.2504E+03
      5.435  0.5204E+01  0.2509E+03
      5.533  0.3328E+01  0.2512E+03
      5.631  0.6490E+01  0.2519E+03
      5.729  0.1970E+02  0.2538E+03
      5.828  0.1761E+02  0.2555E+03
      5.926  0.1184E+02  0.2567E+03
      6.024  0.1304E+02  0.2580E+03
      6.123  0.1576E+02  0.2595E+03
      6.221  0.1328E+02  0.2608E+03
      6.319  0.1271E+02  0.2621E+03
      6.417  0.8816E+01  0.2629E+03
      6.516  0.2351E+02  0.2653E+03
      6.614  0.1628E+02  0.2669E+03
      6.712  0.1464E+02  0.2683E+03
      6.811  0.1791E+02  0.2700E+03
      6.909  0.1532E+02  0.2716E+03
      7.007  0.1785E+02  0.2733E+03
      7.105  0.2553E+02  0.2758E+03
      7.204  0.1561E+02  0.2774E+03
      7.302  0.2349E+02  0.2797E+03
      7.400  0.1572E+02  0.2812E+03
      7.499  0.1434E+02  0.2826E+03
      7.597  0.1680E+02  0.2843E+03
      7.695  0.9061E+01  0.2852E+03
      7.793  0.7640E+01  0.2859E+03
      7.892  0.1003E+02  0.2869E+03
      7.990  0.6689E+01  0.2876E+03
      8.088  0.4463E+01  0.2880E+03
      8.187  0.9329E-01  0.2880E+03
      8.285  0.4341E-05  0.2880E+03
      8.383  0.1598E-12  0.2880E+03
      8.481  0.0000E+00  0.2880E+03
      8.580  0.0000E+00  0.2880E+03
      8.678  0.0000E+00  0.2880E+03
      8.776  0.0000E+00  0.2880E+03
      8.875  0.0000E+00  0.2880E+03
      8.973  0.0000E+00  0.2880E+03
      9.071  0.0000E+00  0.2880E+03
      9.169  0.0000E+00  0.2880E+03
      9.268  0.0000E+00  0.2880E+03
      9.366  0.0000E+00  0.2880E+03
