   8   8   0   0
  0.8091700E+02  0.9713827E-09  0.9713827E-09  0.7921700E-09  0.5000000E-15
  1.000000000000000E-004
  CAR 
 unknown system                          
      2.54610719    -34.01477687  301     -0.18102270      1.00000000
    -34.015  0.0000E+00  0.0000E+00
    -33.893  0.0000E+00  0.0000E+00
    -33.771  0.0000E+00  0.0000E+00
    -33.649  0.0000E+00  0.0000E+00
    -33.527  0.0000E+00  0.0000E+00
    -33.405  0.0000E+00  0.0000E+00
    -33.284  0.0000E+00  0.0000E+00
    -33.162  0.0000E+00  0.0000E+00
    -33.040  0.0000E+00  0.0000E+00
    -32.918  0.0000E+00  0.0000E+00
    -32.796  0.0000E+00  0.0000E+00
    -32.674  0.0000E+00  0.0000E+00
    -32.552  0.6450E-06  0.7860E-07
    -32.430  0.1241E+01  0.1512E+00
    -32.309  0.8605E+02  0.1064E+02
    -32.187  0.1117E+02  0.1200E+02
    -32.065  0.1596E-03  0.1200E+02
    -31.943  0.0000E+00  0.1200E+02
    -31.821  0.0000E+00  0.1200E+02
    -31.699  0.0000E+00  0.1200E+02
    -31.577  0.0000E+00  0.1200E+02
    -31.456  0.0000E+00  0.1200E+02
    -31.334  0.0000E+00  0.1200E+02
    -31.212  0.0000E+00  0.1200E+02
    -31.090  0.0000E+00  0.1200E+02
    -30.968  0.0000E+00  0.1200E+02
    -30.846  0.0000E+00  0.1200E+02
    -30.724  0.0000E+00  0.1200E+02
    -30.602  0.0000E+00  0.1200E+02
    -30.481  0.0000E+00  0.1200E+02
    -30.359  0.0000E+00  0.1200E+02
    -30.237  0.0000E+00  0.1200E+02
    -30.115  0.0000E+00  0.1200E+02
    -29.993  0.0000E+00  0.1200E+02
    -29.871  0.0000E+00  0.1200E+02
    -29.749  0.0000E+00  0.1200E+02
    -29.627  0.0000E+00  0.1200E+02
    -29.506  0.0000E+00  0.1200E+02
    -29.384  0.0000E+00  0.1200E+02
    -29.262  0.8017E-13  0.1200E+02
    -29.140  0.1926E-03  0.1200E+02
    -29.018  0.5736E+01  0.1270E+02
    -28.896  0.2689E+02  0.1598E+02
    -28.774  0.1973E+00  0.1600E+02
    -28.653  0.4178E-07  0.1600E+02
    -28.531  0.0000E+00  0.1600E+02
    -28.409  0.0000E+00  0.1600E+02
    -28.287  0.0000E+00  0.1600E+02
    -28.165  0.0000E+00  0.1600E+02
    -28.043  0.0000E+00  0.1600E+02
    -27.921  0.0000E+00  0.1600E+02
    -27.799  0.0000E+00  0.1600E+02
    -27.678  0.0000E+00  0.1600E+02
    -27.556  0.0000E+00  0.1600E+02
    -27.434  0.0000E+00  0.1600E+02
    -27.312  0.0000E+00  0.1600E+02
    -27.190  0.0000E+00  0.1600E+02
    -27.068  0.0000E+00  0.1600E+02
    -26.946  0.0000E+00  0.1600E+02
    -26.824  0.0000E+00  0.1600E+02
    -26.703  0.0000E+00  0.1600E+02
    -26.581  0.0000E+00  0.1600E+02
    -26.459  0.0000E+00  0.1600E+02
    -26.337  0.0000E+00  0.1600E+02
    -26.215  0.0000E+00  0.1600E+02
    -26.093  0.0000E+00  0.1600E+02
    -25.971  0.0000E+00  0.1600E+02
    -25.850  0.0000E+00  0.1600E+02
    -25.728  0.0000E+00  0.1600E+02
    -25.606  0.0000E+00  0.1600E+02
    -25.484  0.0000E+00  0.1600E+02
    -25.362  0.0000E+00  0.1600E+02
    -25.240  0.0000E+00  0.1600E+02
    -25.118  0.0000E+00  0.1600E+02
    -24.996  0.0000E+00  0.1600E+02
    -24.875  0.0000E+00  0.1600E+02
    -24.753  0.0000E+00  0.1600E+02
    -24.631  0.0000E+00  0.1600E+02
    -24.509  0.0000E+00  0.1600E+02
    -24.387  0.0000E+00  0.1600E+02
    -24.265  0.0000E+00  0.1600E+02
    -24.143  0.0000E+00  0.1600E+02
    -24.021  0.0000E+00  0.1600E+02
    -23.900  0.0000E+00  0.1600E+02
    -23.778  0.0000E+00  0.1600E+02
    -23.656  0.0000E+00  0.1600E+02
    -23.534  0.0000E+00  0.1600E+02
    -23.412  0.0000E+00  0.1600E+02
    -23.290  0.0000E+00  0.1600E+02
    -23.168  0.0000E+00  0.1600E+02
    -23.047  0.0000E+00  0.1600E+02
    -22.925  0.0000E+00  0.1600E+02
    -22.803  0.0000E+00  0.1600E+02
    -22.681  0.0000E+00  0.1600E+02
    -22.559  0.0000E+00  0.1600E+02
    -22.437  0.0000E+00  0.1600E+02
    -22.315  0.0000E+00  0.1600E+02
    -22.193  0.0000E+00  0.1600E+02
    -22.072  0.0000E+00  0.1600E+02
    -21.950  0.0000E+00  0.1600E+02
    -21.828  0.0000E+00  0.1600E+02
    -21.706  0.0000E+00  0.1600E+02
    -21.584  0.0000E+00  0.1600E+02
    -21.462  0.0000E+00  0.1600E+02
    -21.340  0.0000E+00  0.1600E+02
    -21.218  0.0000E+00  0.1600E+02
    -21.097  0.0000E+00  0.1600E+02
    -20.975  0.0000E+00  0.1600E+02
    -20.853  0.0000E+00  0.1600E+02
    -20.731  0.0000E+00  0.1600E+02
    -20.609  0.0000E+00  0.1600E+02
    -20.487  0.0000E+00  0.1600E+02
    -20.365  0.0000E+00  0.1600E+02
    -20.244  0.0000E+00  0.1600E+02
    -20.122  0.0000E+00  0.1600E+02
    -20.000  0.0000E+00  0.1600E+02
    -19.878  0.0000E+00  0.1600E+02
    -19.756  0.0000E+00  0.1600E+02
    -19.634  0.0000E+00  0.1600E+02
    -19.512  0.0000E+00  0.1600E+02
    -19.390  0.0000E+00  0.1600E+02
    -19.269  0.0000E+00  0.1600E+02
    -19.147  0.0000E+00  0.1600E+02
    -19.025  0.0000E+00  0.1600E+02
    -18.903  0.0000E+00  0.1600E+02
    -18.781  0.0000E+00  0.1600E+02
    -18.659  0.0000E+00  0.1600E+02
    -18.537  0.0000E+00  0.1600E+02
    -18.415  0.0000E+00  0.1600E+02
    -18.294  0.0000E+00  0.1600E+02
    -18.172  0.0000E+00  0.1600E+02
    -18.050  0.0000E+00  0.1600E+02
    -17.928  0.0000E+00  0.1600E+02
    -17.806  0.0000E+00  0.1600E+02
    -17.684  0.0000E+00  0.1600E+02
    -17.562  0.0000E+00  0.1600E+02
    -17.441  0.0000E+00  0.1600E+02
    -17.319  0.0000E+00  0.1600E+02
    -17.197  0.0000E+00  0.1600E+02
    -17.075  0.0000E+00  0.1600E+02
    -16.953  0.0000E+00  0.1600E+02
    -16.831  0.0000E+00  0.1600E+02
    -16.709  0.0000E+00  0.1600E+02
    -16.587  0.0000E+00  0.1600E+02
    -16.466  0.0000E+00  0.1600E+02
    -16.344  0.0000E+00  0.1600E+02
    -16.222  0.0000E+00  0.1600E+02
    -16.100  0.3082E-10  0.1600E+02
    -15.978  0.1007E-01  0.1600E+02
    -15.856  0.7385E+02  0.2500E+02
    -15.734  0.2203E+03  0.5184E+02
    -15.612  0.1279E+01  0.5200E+02
    -15.491  0.3391E-06  0.5200E+02
    -15.369  0.0000E+00  0.5200E+02
    -15.247  0.0000E+00  0.5200E+02
    -15.125  0.0000E+00  0.5200E+02
    -15.003  0.0000E+00  0.5200E+02
    -14.881  0.0000E+00  0.5200E+02
    -14.759  0.0000E+00  0.5200E+02
    -14.638  0.0000E+00  0.5200E+02
    -14.516  0.0000E+00  0.5200E+02
    -14.394  0.0000E+00  0.5200E+02
    -14.272  0.0000E+00  0.5200E+02
    -14.150  0.0000E+00  0.5200E+02
    -14.028  0.0000E+00  0.5200E+02
    -13.906  0.0000E+00  0.5200E+02
    -13.784  0.0000E+00  0.5200E+02
    -13.663  0.0000E+00  0.5200E+02
    -13.541  0.0000E+00  0.5200E+02
    -13.419  0.0000E+00  0.5200E+02
    -13.297  0.1515E-07  0.5200E+02
    -13.175  0.2120E+00  0.5203E+02
    -13.053  0.7072E+02  0.6064E+02
    -12.931  0.2753E+02  0.6400E+02
    -12.809  0.2842E-02  0.6400E+02
    -12.688  0.4273E-11  0.6400E+02
    -12.566  0.0000E+00  0.6400E+02
    -12.444  0.0000E+00  0.6400E+02
    -12.322  0.0000E+00  0.6400E+02
    -12.200  0.0000E+00  0.6400E+02
    -12.078  0.0000E+00  0.6400E+02
    -11.956  0.0000E+00  0.6400E+02
    -11.835  0.0000E+00  0.6400E+02
    -11.713  0.0000E+00  0.6400E+02
    -11.591  0.0000E+00  0.6400E+02
    -11.469  0.0000E+00  0.6400E+02
    -11.347  0.0000E+00  0.6400E+02
    -11.225  0.0000E+00  0.6400E+02
    -11.103  0.0000E+00  0.6400E+02
    -10.981  0.0000E+00  0.6400E+02
    -10.860  0.0000E+00  0.6400E+02
    -10.738  0.0000E+00  0.6400E+02
    -10.616  0.0000E+00  0.6400E+02
    -10.494  0.0000E+00  0.6400E+02
    -10.372  0.0000E+00  0.6400E+02
    -10.250  0.0000E+00  0.6400E+02
    -10.128  0.0000E+00  0.6400E+02
    -10.006  0.0000E+00  0.6400E+02
     -9.885  0.0000E+00  0.6400E+02
     -9.763  0.0000E+00  0.6400E+02
     -9.641  0.0000E+00  0.6400E+02
     -9.519  0.0000E+00  0.6400E+02
     -9.397  0.0000E+00  0.6400E+02
     -9.275  0.0000E+00  0.6400E+02
     -9.153  0.0000E+00  0.6400E+02
     -9.032  0.0000E+00  0.6400E+02
     -8.910  0.0000E+00  0.6400E+02
     -8.788  0.0000E+00  0.6400E+02
     -8.666  0.0000E+00  0.6400E+02
     -8.544  0.0000E+00  0.6400E+02
     -8.422  0.0000E+00  0.6400E+02
     -8.300  0.0000E+00  0.6400E+02
     -8.178  0.0000E+00  0.6400E+02
     -8.057  0.0000E+00  0.6400E+02
     -7.935  0.0000E+00  0.6400E+02
     -7.813  0.0000E+00  0.6400E+02
     -7.691  0.0000E+00  0.6400E+02
     -7.569  0.0000E+00  0.6400E+02
     -7.447  0.0000E+00  0.6400E+02
     -7.325  0.0000E+00  0.6400E+02
     -7.203  0.0000E+00  0.6400E+02
     -7.082  0.0000E+00  0.6400E+02
     -6.960  0.0000E+00  0.6400E+02
     -6.838  0.0000E+00  0.6400E+02
     -6.716  0.0000E+00  0.6400E+02
     -6.594  0.0000E+00  0.6400E+02
     -6.472  0.0000E+00  0.6400E+02
     -6.350  0.0000E+00  0.6400E+02
     -6.229  0.0000E+00  0.6400E+02
     -6.107  0.0000E+00  0.6400E+02
     -5.985  0.0000E+00  0.6400E+02
     -5.863  0.0000E+00  0.6400E+02
     -5.741  0.0000E+00  0.6400E+02
     -5.619  0.0000E+00  0.6400E+02
     -5.497  0.0000E+00  0.6400E+02
     -5.375  0.0000E+00  0.6400E+02
     -5.254  0.0000E+00  0.6400E+02
     -5.132  0.0000E+00  0.6400E+02
     -5.010  0.0000E+00  0.6400E+02
     -4.888  0.0000E+00  0.6400E+02
     -4.766  0.0000E+00  0.6400E+02
     -4.644  0.0000E+00  0.6400E+02
     -4.522  0.0000E+00  0.6400E+02
     -4.400  0.0000E+00  0.6400E+02
     -4.279  0.0000E+00  0.6400E+02
     -4.157  0.0000E+00  0.6400E+02
     -4.035  0.0000E+00  0.6400E+02
     -3.913  0.0000E+00  0.6400E+02
     -3.791  0.0000E+00  0.6400E+02
     -3.669  0.0000E+00  0.6400E+02
     -3.547  0.0000E+00  0.6400E+02
     -3.426  0.0000E+00  0.6400E+02
     -3.304  0.0000E+00  0.6400E+02
     -3.182  0.0000E+00  0.6400E+02
     -3.060  0.0000E+00  0.6400E+02
     -2.938  0.0000E+00  0.6400E+02
     -2.816  0.0000E+00  0.6400E+02
     -2.694  0.0000E+00  0.6400E+02
     -2.572  0.0000E+00  0.6400E+02
     -2.451  0.1650E-10  0.6400E+02
     -2.329  0.5654E-03  0.6400E+02
     -2.207  0.3832E+00  0.6405E+02
     -2.085  0.2242E+00  0.6407E+02
     -1.963  0.1140E+01  0.6421E+02
     -1.841  0.3683E+01  0.6466E+02
     -1.719  0.1426E+00  0.6468E+02
     -1.597  0.6423E+01  0.6546E+02
     -1.476  0.9534E+00  0.6558E+02
     -1.354  0.3272E+01  0.6598E+02
     -1.232  0.3125E+00  0.6601E+02
     -1.110  0.8122E+01  0.6700E+02
     -0.988  0.3827E+01  0.6747E+02
     -0.866  0.5302E+01  0.6812E+02
     -0.744  0.8593E+01  0.6916E+02
     -0.623  0.7775E+00  0.6926E+02
     -0.501  0.3770E+00  0.6931E+02
     -0.379  0.7143E+01  0.7018E+02
     -0.257  0.6698E+01  0.7099E+02
     -0.135  0.1477E+02  0.7279E+02
     -0.013  0.9113E+01  0.7390E+02
      0.109  0.1852E+01  0.7413E+02
      0.231  0.3801E+01  0.7459E+02
      0.352  0.4937E+01  0.7519E+02
      0.474  0.5680E+01  0.7589E+02
      0.596  0.1576E+02  0.7781E+02
      0.718  0.4299E+01  0.7833E+02
      0.840  0.8220E+01  0.7933E+02
      0.962  0.5446E+01  0.8000E+02
      1.084  0.4002E-01  0.8000E+02
      1.206  0.2087E-07  0.8000E+02
      1.327  0.0000E+00  0.8000E+02
      1.449  0.0000E+00  0.8000E+02
      1.571  0.0000E+00  0.8000E+02
      1.693  0.0000E+00  0.8000E+02
      1.815  0.0000E+00  0.8000E+02
      1.937  0.0000E+00  0.8000E+02
      2.059  0.0000E+00  0.8000E+02
      2.180  0.0000E+00  0.8000E+02
      2.302  0.0000E+00  0.8000E+02
      2.424  0.0000E+00  0.8000E+02
      2.546  0.0000E+00  0.8000E+02
