K6 Rb2
1.0
   4.8569144000000000   -8.4124200800000004    0.0000000000000000
   4.8569144000000000    8.4124200800000004    0.0000000000000000
   0.0000000000000000    0.0000000000000000    7.9216996200000001
K Rb
6 2
direct
   0.1649777200000000    0.3299554400000000    0.2500000000000000 K
   0.6700445600000000    0.8350222800000000    0.2500000000000000 K
   0.1649777200000000    0.8350222800000000    0.2500000000000000 K
   0.8350222800000000    0.6700445600000000    0.7500000000000000 K
   0.3299554400000000    0.1649777200000000    0.7500000000000000 K
   0.8350222800000000    0.1649777200000000    0.7500000000000000 K
   0.3333330000000000    0.6666670000000000    0.7500000000000000 Rb
   0.6666670000000000    0.3333330000000000    0.2500000000000000 Rb
