unknown system                          
           1
     4.856914   -8.412420    0.000000
     4.856914    8.412420    0.000000
     0.000000    0.000000    7.921700
   K    Rb
     6     2
Direct configuration=     1
   0.16497772  0.32995544  0.25000000
   0.67004456  0.83502228  0.25000000
   0.16497772  0.83502228  0.25000000
   0.83502228  0.67004456  0.75000000
   0.32995544  0.16497772  0.75000000
   0.83502228  0.16497772  0.75000000
   0.33333300  0.66666700  0.75000000
   0.66666700  0.33333300  0.25000000
