       N       E                     dE             d eps       ncg     rms          rms(c)
DAV:   1     0.125447947935E+03    0.12545E+03   -0.89992E+03  7840   0.103E+03
DAV:   2     0.254029468366E+00   -0.12519E+03   -0.11915E+03  9480   0.225E+02
DAV:   3    -0.146066594134E+02   -0.14861E+02   -0.14763E+02 13384   0.613E+01
DAV:   4    -0.150776811118E+02   -0.47102E+00   -0.46862E+00 11216   0.127E+01
DAV:   5    -0.151005274330E+02   -0.22846E-01   -0.22843E-01 11416   0.234E+00    0.327E+00
DAV:   6    -0.148394174365E+02    0.26111E+00   -0.41176E-01  8960   0.281E+00    0.241E+00
DAV:   7    -0.148453610743E+02   -0.59436E-02   -0.14014E-01 10480   0.164E+00    0.149E+00
DAV:   8    -0.148701350072E+02   -0.24774E-01   -0.29934E-02  8740   0.101E+00    0.335E-01
DAV:   9    -0.148698629962E+02    0.27201E-03   -0.98144E-04 10892   0.199E-01    0.104E-01
DAV:  10    -0.148711735872E+02   -0.13106E-02   -0.16364E-03  8448   0.206E-01    0.442E-02
DAV:  11    -0.148711812838E+02   -0.76965E-05   -0.32179E-05 12340   0.339E-02    0.879E-03
DAV:  12    -0.148711895913E+02   -0.83076E-05   -0.55542E-06  8748   0.134E-02    0.527E-03
DAV:  13    -0.148711917063E+02   -0.21150E-05   -0.30097E-06  8884   0.902E-03    0.184E-03
DAV:  14    -0.148711916916E+02    0.14674E-07   -0.40017E-08  7384   0.162E-03
   1 F= -.14871192E+02 E0= -.14871192E+02  d E =-.252040E-12
