   4   4   0   0
  0.1655397E+02  0.5530771E-09  0.5530771E-09  0.5530771E-09  0.5000000E-15
  1.000000000000000E-004
  CAR 
 unknown system                          
     18.65265992    -20.98707500  301      5.89949913      1.00000000
    -20.987  0.0000E+00  0.0000E+00
    -20.855  0.0000E+00  0.0000E+00
    -20.723  0.0000E+00  0.0000E+00
    -20.591  0.0000E+00  0.0000E+00
    -20.459  0.0000E+00  0.0000E+00
    -20.326  0.0000E+00  0.0000E+00
    -20.194  0.0000E+00  0.0000E+00
    -20.062  0.0000E+00  0.0000E+00
    -19.930  0.0000E+00  0.0000E+00
    -19.798  0.0000E+00  0.0000E+00
    -19.666  0.0000E+00  0.0000E+00
    -19.534  0.0000E+00  0.0000E+00
    -19.401  0.1587E-09  0.2097E-10
    -19.269  0.5893E-02  0.7786E-03
    -19.137  0.7332E+01  0.9696E+00
    -19.005  0.1008E+03  0.1429E+02
    -18.873  0.1059E+03  0.2828E+02
    -18.741  0.1261E+02  0.2995E+02
    -18.609  0.4076E+00  0.3000E+02
    -18.477  0.8937E-05  0.3000E+02
    -18.344  0.0000E+00  0.3000E+02
    -18.212  0.0000E+00  0.3000E+02
    -18.080  0.0000E+00  0.3000E+02
    -17.948  0.0000E+00  0.3000E+02
    -17.816  0.0000E+00  0.3000E+02
    -17.684  0.0000E+00  0.3000E+02
    -17.552  0.0000E+00  0.3000E+02
    -17.419  0.0000E+00  0.3000E+02
    -17.287  0.0000E+00  0.3000E+02
    -17.155  0.0000E+00  0.3000E+02
    -17.023  0.0000E+00  0.3000E+02
    -16.891  0.0000E+00  0.3000E+02
    -16.759  0.0000E+00  0.3000E+02
    -16.627  0.0000E+00  0.3000E+02
    -16.495  0.0000E+00  0.3000E+02
    -16.362  0.0000E+00  0.3000E+02
    -16.230  0.0000E+00  0.3000E+02
    -16.098  0.0000E+00  0.3000E+02
    -15.966  0.0000E+00  0.3000E+02
    -15.834  0.0000E+00  0.3000E+02
    -15.702  0.0000E+00  0.3000E+02
    -15.570  0.0000E+00  0.3000E+02
    -15.438  0.0000E+00  0.3000E+02
    -15.305  0.0000E+00  0.3000E+02
    -15.173  0.0000E+00  0.3000E+02
    -15.041  0.0000E+00  0.3000E+02
    -14.909  0.0000E+00  0.3000E+02
    -14.777  0.0000E+00  0.3000E+02
    -14.645  0.0000E+00  0.3000E+02
    -14.513  0.0000E+00  0.3000E+02
    -14.380  0.0000E+00  0.3000E+02
    -14.248  0.0000E+00  0.3000E+02
    -14.116  0.0000E+00  0.3000E+02
    -13.984  0.0000E+00  0.3000E+02
    -13.852  0.0000E+00  0.3000E+02
    -13.720  0.0000E+00  0.3000E+02
    -13.588  0.0000E+00  0.3000E+02
    -13.456  0.0000E+00  0.3000E+02
    -13.323  0.0000E+00  0.3000E+02
    -13.191  0.0000E+00  0.3000E+02
    -13.059  0.0000E+00  0.3000E+02
    -12.927  0.0000E+00  0.3000E+02
    -12.795  0.0000E+00  0.3000E+02
    -12.663  0.0000E+00  0.3000E+02
    -12.531  0.0000E+00  0.3000E+02
    -12.398  0.0000E+00  0.3000E+02
    -12.266  0.0000E+00  0.3000E+02
    -12.134  0.0000E+00  0.3000E+02
    -12.002  0.0000E+00  0.3000E+02
    -11.870  0.0000E+00  0.3000E+02
    -11.738  0.0000E+00  0.3000E+02
    -11.606  0.0000E+00  0.3000E+02
    -11.474  0.1807E-08  0.3000E+02
    -11.341  0.3986E-02  0.3000E+02
    -11.209  0.7621E+00  0.3010E+02
    -11.077  0.3308E+01  0.3054E+02
    -10.945  0.6407E+01  0.3138E+02
    -10.813  0.4265E+01  0.3195E+02
    -10.681  0.3901E+00  0.3200E+02
    -10.549  0.1138E-04  0.3200E+02
    -10.416  0.0000E+00  0.3200E+02
    -10.284  0.0000E+00  0.3200E+02
    -10.152  0.0000E+00  0.3200E+02
    -10.020  0.0000E+00  0.3200E+02
     -9.888  0.0000E+00  0.3200E+02
     -9.756  0.0000E+00  0.3200E+02
     -9.624  0.0000E+00  0.3200E+02
     -9.492  0.0000E+00  0.3200E+02
     -9.359  0.0000E+00  0.3200E+02
     -9.227  0.0000E+00  0.3200E+02
     -9.095  0.0000E+00  0.3200E+02
     -8.963  0.0000E+00  0.3200E+02
     -8.831  0.0000E+00  0.3200E+02
     -8.699  0.0000E+00  0.3200E+02
     -8.567  0.0000E+00  0.3200E+02
     -8.434  0.0000E+00  0.3200E+02
     -8.302  0.0000E+00  0.3200E+02
     -8.170  0.0000E+00  0.3200E+02
     -8.038  0.0000E+00  0.3200E+02
     -7.906  0.0000E+00  0.3200E+02
     -7.774  0.0000E+00  0.3200E+02
     -7.642  0.0000E+00  0.3200E+02
     -7.510  0.0000E+00  0.3200E+02
     -7.377  0.0000E+00  0.3200E+02
     -7.245  0.0000E+00  0.3200E+02
     -7.113  0.0000E+00  0.3200E+02
     -6.981  0.0000E+00  0.3200E+02
     -6.849  0.0000E+00  0.3200E+02
     -6.717  0.0000E+00  0.3200E+02
     -6.585  0.7077E-07  0.3200E+02
     -6.453  0.1347E-01  0.3200E+02
     -6.320  0.1992E+00  0.3203E+02
     -6.188  0.4719E+00  0.3209E+02
     -6.056  0.8688E+00  0.3221E+02
     -5.924  0.1135E+01  0.3236E+02
     -5.792  0.9154E-01  0.3237E+02
     -5.660  0.2374E+00  0.3240E+02
     -5.528  0.9495E+00  0.3252E+02
     -5.395  0.1450E+01  0.3272E+02
     -5.263  0.1037E+01  0.3285E+02
     -5.131  0.3352E-01  0.3286E+02
     -4.999  0.3710E-01  0.3286E+02
     -4.867  0.7622E+00  0.3296E+02
     -4.735  0.8592E+00  0.3308E+02
     -4.603  0.1512E+01  0.3328E+02
     -4.471  0.8190E+00  0.3338E+02
     -4.338  0.2686E+00  0.3342E+02
     -4.206  0.6655E+00  0.3351E+02
     -4.074  0.6077E+00  0.3359E+02
     -3.942  0.8250E+00  0.3370E+02
     -3.810  0.2276E+00  0.3373E+02
     -3.678  0.6989E+00  0.3382E+02
     -3.546  0.1180E+01  0.3398E+02
     -3.413  0.1873E+00  0.3400E+02
     -3.281  0.4042E-02  0.3400E+02
     -3.149  0.1117E+01  0.3415E+02
     -3.017  0.8373E+00  0.3426E+02
     -2.885  0.1064E+01  0.3440E+02
     -2.753  0.1618E+01  0.3461E+02
     -2.621  0.1009E+01  0.3475E+02
     -2.489  0.1416E+01  0.3493E+02
     -2.356  0.9839E+00  0.3506E+02
     -2.224  0.5089E+00  0.3513E+02
     -2.092  0.9315E+00  0.3525E+02
     -1.960  0.1573E+01  0.3546E+02
     -1.828  0.7708E+00  0.3556E+02
     -1.696  0.8356E+00  0.3567E+02
     -1.564  0.3571E+00  0.3572E+02
     -1.431  0.3949E+00  0.3577E+02
     -1.299  0.1227E+01  0.3594E+02
     -1.167  0.4324E+01  0.3651E+02
     -1.035  0.1878E+01  0.3675E+02
     -0.903  0.1066E+01  0.3690E+02
     -0.771  0.1391E+01  0.3708E+02
     -0.639  0.1173E+01  0.3723E+02
     -0.507  0.2247E+01  0.3753E+02
     -0.374  0.6848E+00  0.3762E+02
     -0.242  0.8116E-01  0.3763E+02
     -0.110  0.2532E-05  0.3763E+02
      0.022  0.6358E-09  0.3763E+02
      0.154  0.3573E-02  0.3763E+02
      0.286  0.1652E+00  0.3765E+02
      0.418  0.1239E+00  0.3767E+02
      0.551  0.6329E+00  0.3775E+02
      0.683  0.3479E+00  0.3780E+02
      0.815  0.2407E+00  0.3783E+02
      0.947  0.1423E+01  0.3802E+02
      1.079  0.5965E+00  0.3810E+02
      1.211  0.1475E+01  0.3829E+02
      1.343  0.2173E+01  0.3858E+02
      1.475  0.9832E+00  0.3871E+02
      1.608  0.1580E+01  0.3892E+02
      1.740  0.1152E+01  0.3907E+02
      1.872  0.1929E+01  0.3933E+02
      2.004  0.9072E+00  0.3945E+02
      2.136  0.1307E+01  0.3962E+02
      2.268  0.1692E+01  0.3984E+02
      2.400  0.3431E+01  0.4030E+02
      2.533  0.2940E+01  0.4069E+02
      2.665  0.2950E+01  0.4108E+02
      2.797  0.1356E+01  0.4125E+02
      2.929  0.2379E+01  0.4157E+02
      3.061  0.2328E+01  0.4188E+02
      3.193  0.2256E+01  0.4217E+02
      3.325  0.1191E+01  0.4233E+02
      3.457  0.3660E+01  0.4282E+02
      3.590  0.4008E+01  0.4334E+02
      3.722  0.2204E+01  0.4364E+02
      3.854  0.3559E+01  0.4411E+02
      3.986  0.3823E+01  0.4461E+02
      4.118  0.1611E+01  0.4482E+02
      4.250  0.2293E+01  0.4513E+02
      4.382  0.2343E+01  0.4544E+02
      4.514  0.1638E+01  0.4565E+02
      4.647  0.8198E+00  0.4576E+02
      4.779  0.1680E+01  0.4598E+02
      4.911  0.1501E+01  0.4618E+02
      5.043  0.2462E+01  0.4651E+02
      5.175  0.1631E+01  0.4672E+02
      5.307  0.3106E+01  0.4713E+02
      5.439  0.7783E+00  0.4724E+02
      5.572  0.1494E+01  0.4743E+02
      5.704  0.1534E+01  0.4764E+02
      5.836  0.1697E+01  0.4786E+02
      5.968  0.1948E+01  0.4812E+02
      6.100  0.1996E+01  0.4838E+02
      6.232  0.2252E+01  0.4868E+02
      6.364  0.3179E+01  0.4910E+02
      6.496  0.2098E+01  0.4938E+02
      6.629  0.9428E+00  0.4950E+02
      6.761  0.1077E+01  0.4964E+02
      6.893  0.2147E+01  0.4993E+02
      7.025  0.1642E+01  0.5014E+02
      7.157  0.1107E+01  0.5029E+02
      7.289  0.2170E+01  0.5058E+02
      7.421  0.2136E+01  0.5086E+02
      7.554  0.1367E+01  0.5104E+02
      7.686  0.2353E+01  0.5135E+02
      7.818  0.9289E+00  0.5147E+02
      7.950  0.2070E+01  0.5175E+02
      8.082  0.2115E+01  0.5203E+02
      8.214  0.1285E+01  0.5220E+02
      8.346  0.2429E+01  0.5252E+02
      8.478  0.2026E+01  0.5278E+02
      8.611  0.2065E+01  0.5306E+02
      8.743  0.1508E+01  0.5326E+02
      8.875  0.1353E+01  0.5344E+02
      9.007  0.2605E+01  0.5378E+02
      9.139  0.1834E+01  0.5402E+02
      9.271  0.1439E+01  0.5421E+02
      9.403  0.5011E+00  0.5428E+02
      9.536  0.1425E+01  0.5447E+02
      9.668  0.2199E+01  0.5476E+02
      9.800  0.2950E+01  0.5515E+02
      9.932  0.1361E+01  0.5533E+02
     10.064  0.2204E+01  0.5562E+02
     10.196  0.2970E+01  0.5601E+02
     10.328  0.2704E+01  0.5637E+02
     10.460  0.1200E+01  0.5653E+02
     10.593  0.3030E+01  0.5693E+02
     10.725  0.2283E+01  0.5723E+02
     10.857  0.2222E+01  0.5752E+02
     10.989  0.1548E+01  0.5773E+02
     11.121  0.1346E+01  0.5790E+02
     11.253  0.1702E+01  0.5813E+02
     11.385  0.1513E+01  0.5833E+02
     11.518  0.1639E+01  0.5855E+02
     11.650  0.2314E+01  0.5885E+02
     11.782  0.1127E+01  0.5900E+02
     11.914  0.1262E+01  0.5917E+02
     12.046  0.1885E+01  0.5942E+02
     12.178  0.7121E+00  0.5951E+02
     12.310  0.1248E+01  0.5968E+02
     12.442  0.2090E+00  0.5970E+02
     12.575  0.8664E+00  0.5982E+02
     12.707  0.1021E+01  0.5995E+02
     12.839  0.1215E+01  0.6011E+02
     12.971  0.1114E+01  0.6026E+02
     13.103  0.4448E+00  0.6032E+02
     13.235  0.4698E+00  0.6038E+02
     13.367  0.3367E+00  0.6043E+02
     13.499  0.2064E-02  0.6043E+02
     13.632  0.6575E-01  0.6043E+02
     13.764  0.2331E+01  0.6074E+02
     13.896  0.2320E+01  0.6105E+02
     14.028  0.9661E+00  0.6118E+02
     14.160  0.7572E+00  0.6128E+02
     14.292  0.8294E+00  0.6139E+02
     14.424  0.1242E+01  0.6155E+02
     14.557  0.1612E+01  0.6176E+02
     14.689  0.1472E+01  0.6196E+02
     14.821  0.9053E+00  0.6208E+02
     14.953  0.1015E+01  0.6221E+02
     15.085  0.5830E+00  0.6229E+02
     15.217  0.1398E+01  0.6247E+02
     15.349  0.2064E+01  0.6275E+02
     15.481  0.1447E+01  0.6294E+02
     15.614  0.6541E+00  0.6302E+02
     15.746  0.5914E+00  0.6310E+02
     15.878  0.8953E+00  0.6322E+02
     16.010  0.1295E+01  0.6339E+02
     16.142  0.1782E+01  0.6363E+02
     16.274  0.7757E+00  0.6373E+02
     16.406  0.5826E+00  0.6381E+02
     16.539  0.9317E+00  0.6393E+02
     16.671  0.5594E-01  0.6394E+02
     16.803  0.3174E+00  0.6398E+02
     16.935  0.1610E+00  0.6400E+02
     17.067  0.1535E-02  0.6400E+02
     17.199  0.8492E-10  0.6400E+02
     17.331  0.0000E+00  0.6400E+02
     17.463  0.0000E+00  0.6400E+02
     17.596  0.0000E+00  0.6400E+02
     17.728  0.0000E+00  0.6400E+02
     17.860  0.0000E+00  0.6400E+02
     17.992  0.0000E+00  0.6400E+02
     18.124  0.0000E+00  0.6400E+02
     18.256  0.0000E+00  0.6400E+02
     18.388  0.0000E+00  0.6400E+02
     18.521  0.0000E+00  0.6400E+02
     18.653  0.0000E+00  0.6400E+02
