H16 N16                                 
   1.00000000000000     
     3.7463713900000002    0.0000000000000000    0.0000000000000000
     0.0000000000000000    8.5566824700000002    0.0000000000000000
     0.0000000000000000    0.0000000000000000    8.9105968000000004
   H    N 
    16    16
Direct
     0.3898937499999988    0.2071336400000021    0.6641079199999993
     0.3898937499999988    0.2928663599999979    0.8358920800000007
     0.6101062500000012    0.7071336400000021    0.8358920800000007
     0.6101062500000012    0.7928663599999979    0.6641079199999993
     0.6101062500000012    0.7928663599999979    0.3358920800000007
     0.6101062500000012    0.7071336400000021    0.1641079199999993
     0.3898937499999988    0.2928663599999979    0.1641079199999993
     0.3898937499999988    0.2071336400000021    0.3358920800000007
     0.7085595900000001    0.3391862799999998    0.7094319999999996
     0.7085595900000001    0.1608137200000002    0.7905680000000004
     0.2914404099999999    0.8391862799999998    0.7905680000000004
     0.2914404099999999    0.6608137200000002    0.7094319999999996
     0.2914404099999999    0.6608137200000002    0.2905680000000004
     0.2914404099999999    0.8391862799999998    0.2094319999999996
     0.7085595900000001    0.1608137200000002    0.2094319999999996
     0.7085595900000001    0.3391862799999998    0.2905680000000004
     0.5485338000000013    0.2500000000000000    0.7500000000000000
     0.4514661999999987    0.7500000000000000    0.7500000000000000
     0.4514661999999987    0.7500000000000000    0.2500000000000000
     0.5485338000000013    0.2500000000000000    0.2500000000000000
     0.8817530000000033    0.8721585600000026    0.5000000000000000
     0.8817530000000033    0.6278414399999974    0.0000000000000000
     0.1182469999999967    0.3721585600000026    0.0000000000000000
     0.1182469999999967    0.1278414399999974    0.5000000000000000
     0.0000000000000000    0.5000000000000000    0.0000000000000000
     0.0000000000000000    0.0000000000000000    0.5000000000000000
     0.0000000000000000    0.5000000000000000    0.6324317999999991
     0.0000000000000000    0.0000000000000000    0.8675682000000009
     0.0000000000000000    0.5000000000000000    0.3675682000000009
     0.0000000000000000    0.0000000000000000    0.1324317999999991
     0.0000000000000000    0.5000000000000000    0.5000000000000000
     0.0000000000000000    0.0000000000000000    0.0000000000000000
 
  0.00000000E+00  0.00000000E+00  0.00000000E+00
  0.00000000E+00  0.00000000E+00  0.00000000E+00
  0.00000000E+00  0.00000000E+00  0.00000000E+00
  0.00000000E+00  0.00000000E+00  0.00000000E+00
  0.00000000E+00  0.00000000E+00  0.00000000E+00
  0.00000000E+00  0.00000000E+00  0.00000000E+00
  0.00000000E+00  0.00000000E+00  0.00000000E+00
  0.00000000E+00  0.00000000E+00  0.00000000E+00
  0.00000000E+00  0.00000000E+00  0.00000000E+00
  0.00000000E+00  0.00000000E+00  0.00000000E+00
  0.00000000E+00  0.00000000E+00  0.00000000E+00
  0.00000000E+00  0.00000000E+00  0.00000000E+00
  0.00000000E+00  0.00000000E+00  0.00000000E+00
  0.00000000E+00  0.00000000E+00  0.00000000E+00
  0.00000000E+00  0.00000000E+00  0.00000000E+00
  0.00000000E+00  0.00000000E+00  0.00000000E+00
  0.00000000E+00  0.00000000E+00  0.00000000E+00
  0.00000000E+00  0.00000000E+00  0.00000000E+00
  0.00000000E+00  0.00000000E+00  0.00000000E+00
  0.00000000E+00  0.00000000E+00  0.00000000E+00
  0.00000000E+00  0.00000000E+00  0.00000000E+00
  0.00000000E+00  0.00000000E+00  0.00000000E+00
  0.00000000E+00  0.00000000E+00  0.00000000E+00
  0.00000000E+00  0.00000000E+00  0.00000000E+00
  0.00000000E+00  0.00000000E+00  0.00000000E+00
  0.00000000E+00  0.00000000E+00  0.00000000E+00
  0.00000000E+00  0.00000000E+00  0.00000000E+00
  0.00000000E+00  0.00000000E+00  0.00000000E+00
  0.00000000E+00  0.00000000E+00  0.00000000E+00
  0.00000000E+00  0.00000000E+00  0.00000000E+00
  0.00000000E+00  0.00000000E+00  0.00000000E+00
  0.00000000E+00  0.00000000E+00  0.00000000E+00
