       N       E                     dE             d eps       ncg     rms          rms(c)
DAV:   1     0.514323136537E+03    0.51432E+03   -0.50053E+04 10088   0.121E+03
DAV:   2    -0.153689663774E+03   -0.66801E+03   -0.63719E+03 12872   0.290E+02
DAV:   3    -0.202598065467E+03   -0.48908E+02   -0.48402E+02 12680   0.776E+01
DAV:   4    -0.203232342160E+03   -0.63428E+00   -0.63218E+00 12992   0.968E+00
DAV:   5    -0.203244900679E+03   -0.12559E-01   -0.12543E-01 13000   0.118E+00    0.252E+01
DAV:   6    -0.190546701711E+03    0.12698E+02   -0.24823E+01 13024   0.182E+01    0.126E+01
DAV:   7    -0.189605470468E+03    0.94123E+00   -0.40677E+00 12880   0.765E+00    0.719E+00
DAV:   8    -0.189518914925E+03    0.86556E-01   -0.49681E-01 11968   0.257E+00    0.172E+00
DAV:   9    -0.189522553499E+03   -0.36386E-02   -0.22116E-02 13016   0.905E-01    0.395E-01
DAV:  10    -0.189526672758E+03   -0.41193E-02   -0.12948E-02 12048   0.474E-01    0.171E-01
DAV:  11    -0.189527647466E+03   -0.97471E-03   -0.10885E-03 12096   0.168E-01    0.746E-02
DAV:  12    -0.189528142280E+03   -0.49481E-03   -0.41204E-04 11096   0.804E-02    0.233E-02
DAV:  13    -0.189528158487E+03   -0.16207E-04   -0.30026E-05 13128   0.340E-02    0.917E-03
DAV:  14    -0.189528162581E+03   -0.40940E-05   -0.16685E-05 11904   0.152E-02    0.812E-03
DAV:  15    -0.189528162065E+03    0.51563E-06   -0.16483E-06  9744   0.641E-03
   1 F= -.18952816E+03 E0= -.18952816E+03  d E =-.216904E-16
