unknown system                          
           1
     3.746371    0.000000    0.000000
     0.000000    8.556682    0.000000
     0.000000    0.000000    8.910597
   H    N 
    16    16
Direct configuration=     1
   0.38989375  0.20713364  0.66410792
   0.38989375  0.29286636  0.83589208
   0.61010625  0.70713364  0.83589208
   0.61010625  0.79286636  0.66410792
   0.61010625  0.79286636  0.33589208
   0.61010625  0.70713364  0.16410792
   0.38989375  0.29286636  0.16410792
   0.38989375  0.20713364  0.33589208
   0.70855959  0.33918628  0.70943200
   0.70855959  0.16081372  0.79056800
   0.29144041  0.83918628  0.79056800
   0.29144041  0.66081372  0.70943200
   0.29144041  0.66081372  0.29056800
   0.29144041  0.83918628  0.20943200
   0.70855959  0.16081372  0.20943200
   0.70855959  0.33918628  0.29056800
   0.54853380  0.25000000  0.75000000
   0.45146620  0.75000000  0.75000000
   0.45146620  0.75000000  0.25000000
   0.54853380  0.25000000  0.25000000
   0.88175300  0.87215856  0.50000000
   0.88175300  0.62784144  0.00000000
   0.11824700  0.37215856  0.00000000
   0.11824700  0.12784144  0.50000000
   0.00000000  0.50000000  0.00000000
   0.00000000  0.00000000  0.50000000
   0.00000000  0.50000000  0.63243180
   0.00000000  0.00000000  0.86756820
   0.00000000  0.50000000  0.36756820
   0.00000000  0.00000000  0.13243180
   0.00000000  0.50000000  0.50000000
   0.00000000  0.00000000  0.00000000
