Ba20 P16
1.0
   8.4300023100000008    0.0000000000000000    0.0000000000000000
  -0.0000000000000000    8.5158132099999992    0.0000000000000000
   0.0000000000000000    0.0000000000000000   16.7231135699999989
Ba P
20 16
direct
   0.7455554100000000    0.9960612700000000    0.7500000000000000 Ba
   0.2455554100000000    0.5039387300000000    0.7500000000000000 Ba
   0.7544445900000000    0.4960612700000000    0.2500000000000000 Ba
   0.2544445900000000    0.0039387300000000    0.2500000000000000 Ba
   0.5724206100000000    0.3330422200000000    0.8978841900000000 Ba
   0.0724206100000000    0.1669577800000000    0.6021158100000000 Ba
   0.9275793900000000    0.8330422200000001    0.1021158100000000 Ba
   0.4275793900000000    0.6669577799999999    0.3978841900000000 Ba
   0.4275793900000000    0.6669577799999999    0.1021158100000000 Ba
   0.9275793900000000    0.8330422200000001    0.3978841900000000 Ba
   0.0724206100000000    0.1669577800000000    0.8978841900000000 Ba
   0.5724206100000000    0.3330422200000000    0.6021158100000000 Ba
   0.4084302500000000    0.8417690900000000    0.6031485700000000 Ba
   0.9084302500000000    0.6582309100000000    0.8968514300000000 Ba
   0.0915697500000000    0.3417690900000000    0.3968514300000000 Ba
   0.5915697500000000    0.1582309100000000    0.1031485700000000 Ba
   0.5915697500000000    0.1582309100000000    0.3968514300000000 Ba
   0.0915697500000000    0.3417690900000000    0.1031485700000000 Ba
   0.9084302500000000    0.6582309100000000    0.6031485700000000 Ba
   0.4084302500000000    0.8417690900000000    0.8968514300000000 Ba
   0.3538825200000000    0.4115942000000000    0.2500000000000000 P
   0.8538825200000000    0.0884058000000000    0.2500000000000000 P
   0.1461174800000000    0.9115942000000000    0.7500000000000000 P
   0.6461174800000000    0.5884058000000000    0.7500000000000000 P
   0.1602817500000000    0.6010222700000000    0.2500000000000000 P
   0.6602817500000000    0.8989777300000000    0.2500000000000000 P
   0.3397182500000000    0.1010222700000000    0.7500000000000000 P
   0.8397182500000000    0.3989777300000000    0.7500000000000000 P
   0.7460130400000000    0.9926167000000000    0.9472193300000000 P
   0.2460130400000000    0.5073833000000000    0.5527806700000000 P
   0.7539869600000000    0.4926167000000000    0.0527806700000000 P
   0.2539869600000000    0.0073833000000000    0.4472193300000000 P
   0.2539869600000000    0.0073833000000000    0.0527806700000000 P
   0.7539869600000000    0.4926167000000000    0.4472193300000000 P
   0.2460130400000000    0.5073833000000000    0.9472193300000000 P
   0.7460130400000000    0.9926167000000000    0.5527806700000000 P
