Rb1 P1                                  
   1.00000000000000     
    -2.4294319999999998    2.5482369999999999    3.5272760000000001
     2.4294319999999998   -2.5482369999999999    3.5272760000000001
     2.4294319999999998    2.5482369999999999   -3.5272760000000001
   Rb   P 
     1     1
Direct
     0.0000000000000000    0.0000000000000000    0.0000000000000000
     0.5000000000000000    0.5000000000000000    0.0000000000000000
 
  0.00000000E+00  0.00000000E+00  0.00000000E+00
  0.00000000E+00  0.00000000E+00  0.00000000E+00
