   2   2   0   0
  0.4367310E+02  0.4983706E-09  0.4983706E-09  0.4983706E-09  0.5000000E-15
  1.000000000000000E-004
  CAR 
 unknown system                          
      9.00846557    -28.10610673  301     -0.46859425      1.00000000
    -28.106  0.0000E+00  0.0000E+00
    -27.982  0.0000E+00  0.0000E+00
    -27.859  0.0000E+00  0.0000E+00
    -27.735  0.0000E+00  0.0000E+00
    -27.611  0.0000E+00  0.0000E+00
    -27.488  0.0000E+00  0.0000E+00
    -27.364  0.0000E+00  0.0000E+00
    -27.240  0.0000E+00  0.0000E+00
    -27.116  0.0000E+00  0.0000E+00
    -26.993  0.0000E+00  0.0000E+00
    -26.869  0.0000E+00  0.0000E+00
    -26.745  0.0000E+00  0.0000E+00
    -26.622  0.3546E-07  0.4387E-08
    -26.498  0.1421E+00  0.1758E-01
    -26.374  0.1390E+02  0.1738E+01
    -26.250  0.2121E+01  0.2000E+01
    -26.127  0.3157E-04  0.2000E+01
    -26.003  0.0000E+00  0.2000E+01
    -25.879  0.0000E+00  0.2000E+01
    -25.756  0.0000E+00  0.2000E+01
    -25.632  0.0000E+00  0.2000E+01
    -25.508  0.0000E+00  0.2000E+01
    -25.384  0.0000E+00  0.2000E+01
    -25.261  0.0000E+00  0.2000E+01
    -25.137  0.0000E+00  0.2000E+01
    -25.013  0.0000E+00  0.2000E+01
    -24.890  0.0000E+00  0.2000E+01
    -24.766  0.0000E+00  0.2000E+01
    -24.642  0.0000E+00  0.2000E+01
    -24.518  0.0000E+00  0.2000E+01
    -24.395  0.0000E+00  0.2000E+01
    -24.271  0.0000E+00  0.2000E+01
    -24.147  0.0000E+00  0.2000E+01
    -24.024  0.0000E+00  0.2000E+01
    -23.900  0.0000E+00  0.2000E+01
    -23.776  0.0000E+00  0.2000E+01
    -23.652  0.0000E+00  0.2000E+01
    -23.529  0.0000E+00  0.2000E+01
    -23.405  0.0000E+00  0.2000E+01
    -23.281  0.0000E+00  0.2000E+01
    -23.157  0.0000E+00  0.2000E+01
    -23.034  0.0000E+00  0.2000E+01
    -22.910  0.0000E+00  0.2000E+01
    -22.786  0.0000E+00  0.2000E+01
    -22.663  0.0000E+00  0.2000E+01
    -22.539  0.0000E+00  0.2000E+01
    -22.415  0.0000E+00  0.2000E+01
    -22.291  0.0000E+00  0.2000E+01
    -22.168  0.0000E+00  0.2000E+01
    -22.044  0.0000E+00  0.2000E+01
    -21.920  0.0000E+00  0.2000E+01
    -21.797  0.0000E+00  0.2000E+01
    -21.673  0.0000E+00  0.2000E+01
    -21.549  0.0000E+00  0.2000E+01
    -21.425  0.0000E+00  0.2000E+01
    -21.302  0.0000E+00  0.2000E+01
    -21.178  0.0000E+00  0.2000E+01
    -21.054  0.0000E+00  0.2000E+01
    -20.931  0.0000E+00  0.2000E+01
    -20.807  0.0000E+00  0.2000E+01
    -20.683  0.0000E+00  0.2000E+01
    -20.559  0.0000E+00  0.2000E+01
    -20.436  0.0000E+00  0.2000E+01
    -20.312  0.0000E+00  0.2000E+01
    -20.188  0.0000E+00  0.2000E+01
    -20.065  0.0000E+00  0.2000E+01
    -19.941  0.0000E+00  0.2000E+01
    -19.817  0.0000E+00  0.2000E+01
    -19.693  0.0000E+00  0.2000E+01
    -19.570  0.0000E+00  0.2000E+01
    -19.446  0.0000E+00  0.2000E+01
    -19.322  0.0000E+00  0.2000E+01
    -19.199  0.0000E+00  0.2000E+01
    -19.075  0.0000E+00  0.2000E+01
    -18.951  0.0000E+00  0.2000E+01
    -18.827  0.0000E+00  0.2000E+01
    -18.704  0.0000E+00  0.2000E+01
    -18.580  0.0000E+00  0.2000E+01
    -18.456  0.0000E+00  0.2000E+01
    -18.333  0.0000E+00  0.2000E+01
    -18.209  0.0000E+00  0.2000E+01
    -18.085  0.0000E+00  0.2000E+01
    -17.961  0.0000E+00  0.2000E+01
    -17.838  0.0000E+00  0.2000E+01
    -17.714  0.0000E+00  0.2000E+01
    -17.590  0.0000E+00  0.2000E+01
    -17.467  0.0000E+00  0.2000E+01
    -17.343  0.0000E+00  0.2000E+01
    -17.219  0.0000E+00  0.2000E+01
    -17.095  0.0000E+00  0.2000E+01
    -16.972  0.0000E+00  0.2000E+01
    -16.848  0.0000E+00  0.2000E+01
    -16.724  0.0000E+00  0.2000E+01
    -16.601  0.0000E+00  0.2000E+01
    -16.477  0.0000E+00  0.2000E+01
    -16.353  0.0000E+00  0.2000E+01
    -16.229  0.0000E+00  0.2000E+01
    -16.106  0.0000E+00  0.2000E+01
    -15.982  0.0000E+00  0.2000E+01
    -15.858  0.0000E+00  0.2000E+01
    -15.735  0.0000E+00  0.2000E+01
    -15.611  0.0000E+00  0.2000E+01
    -15.487  0.0000E+00  0.2000E+01
    -15.363  0.0000E+00  0.2000E+01
    -15.240  0.0000E+00  0.2000E+01
    -15.116  0.0000E+00  0.2000E+01
    -14.992  0.0000E+00  0.2000E+01
    -14.869  0.0000E+00  0.2000E+01
    -14.745  0.0000E+00  0.2000E+01
    -14.621  0.0000E+00  0.2000E+01
    -14.497  0.0000E+00  0.2000E+01
    -14.374  0.0000E+00  0.2000E+01
    -14.250  0.0000E+00  0.2000E+01
    -14.126  0.0000E+00  0.2000E+01
    -14.003  0.0000E+00  0.2000E+01
    -13.879  0.0000E+00  0.2000E+01
    -13.755  0.0000E+00  0.2000E+01
    -13.631  0.0000E+00  0.2000E+01
    -13.508  0.0000E+00  0.2000E+01
    -13.384  0.0000E+00  0.2000E+01
    -13.260  0.0000E+00  0.2000E+01
    -13.137  0.0000E+00  0.2000E+01
    -13.013  0.0000E+00  0.2000E+01
    -12.889  0.0000E+00  0.2000E+01
    -12.765  0.0000E+00  0.2000E+01
    -12.642  0.0000E+00  0.2000E+01
    -12.518  0.0000E+00  0.2000E+01
    -12.394  0.0000E+00  0.2000E+01
    -12.271  0.0000E+00  0.2000E+01
    -12.147  0.0000E+00  0.2000E+01
    -12.023  0.0000E+00  0.2000E+01
    -11.899  0.0000E+00  0.2000E+01
    -11.776  0.0000E+00  0.2000E+01
    -11.652  0.0000E+00  0.2000E+01
    -11.528  0.0000E+00  0.2000E+01
    -11.405  0.0000E+00  0.2000E+01
    -11.281  0.0000E+00  0.2000E+01
    -11.157  0.0000E+00  0.2000E+01
    -11.033  0.2541E-11  0.2000E+01
    -10.910  0.3193E-03  0.2000E+01
    -10.786  0.9836E+00  0.2122E+01
    -10.662  0.1011E+02  0.3372E+01
    -10.539  0.2141E+02  0.6021E+01
    -10.415  0.1596E+02  0.7996E+01
    -10.291  0.3240E-01  0.8000E+01
    -10.167  0.2433E-08  0.8000E+01
    -10.044  0.0000E+00  0.8000E+01
     -9.920  0.0000E+00  0.8000E+01
     -9.796  0.0000E+00  0.8000E+01
     -9.673  0.0000E+00  0.8000E+01
     -9.549  0.0000E+00  0.8000E+01
     -9.425  0.0000E+00  0.8000E+01
     -9.301  0.0000E+00  0.8000E+01
     -9.178  0.0000E+00  0.8000E+01
     -9.054  0.3148E-11  0.8000E+01
     -8.930  0.1478E-03  0.8000E+01
     -8.807  0.1547E+00  0.8019E+01
     -8.683  0.8444E+00  0.8124E+01
     -8.559  0.5475E+01  0.8801E+01
     -8.435  0.8252E+01  0.9822E+01
     -8.312  0.1437E+01  0.1000E+02
     -8.188  0.2727E-02  0.1000E+02
     -8.064  0.2035E-09  0.1000E+02
     -7.941  0.0000E+00  0.1000E+02
     -7.817  0.0000E+00  0.1000E+02
     -7.693  0.0000E+00  0.1000E+02
     -7.569  0.0000E+00  0.1000E+02
     -7.446  0.0000E+00  0.1000E+02
     -7.322  0.0000E+00  0.1000E+02
     -7.198  0.0000E+00  0.1000E+02
     -7.075  0.0000E+00  0.1000E+02
     -6.951  0.0000E+00  0.1000E+02
     -6.827  0.0000E+00  0.1000E+02
     -6.703  0.0000E+00  0.1000E+02
     -6.580  0.0000E+00  0.1000E+02
     -6.456  0.0000E+00  0.1000E+02
     -6.332  0.0000E+00  0.1000E+02
     -6.209  0.0000E+00  0.1000E+02
     -6.085  0.0000E+00  0.1000E+02
     -5.961  0.0000E+00  0.1000E+02
     -5.837  0.0000E+00  0.1000E+02
     -5.714  0.0000E+00  0.1000E+02
     -5.590  0.0000E+00  0.1000E+02
     -5.466  0.0000E+00  0.1000E+02
     -5.343  0.0000E+00  0.1000E+02
     -5.219  0.0000E+00  0.1000E+02
     -5.095  0.0000E+00  0.1000E+02
     -4.971  0.0000E+00  0.1000E+02
     -4.848  0.0000E+00  0.1000E+02
     -4.724  0.0000E+00  0.1000E+02
     -4.600  0.0000E+00  0.1000E+02
     -4.476  0.0000E+00  0.1000E+02
     -4.353  0.0000E+00  0.1000E+02
     -4.229  0.0000E+00  0.1000E+02
     -4.105  0.0000E+00  0.1000E+02
     -3.982  0.0000E+00  0.1000E+02
     -3.858  0.0000E+00  0.1000E+02
     -3.734  0.0000E+00  0.1000E+02
     -3.610  0.0000E+00  0.1000E+02
     -3.487  0.0000E+00  0.1000E+02
     -3.363  0.0000E+00  0.1000E+02
     -3.239  0.0000E+00  0.1000E+02
     -3.116  0.0000E+00  0.1000E+02
     -2.992  0.0000E+00  0.1000E+02
     -2.868  0.0000E+00  0.1000E+02
     -2.744  0.0000E+00  0.1000E+02
     -2.621  0.0000E+00  0.1000E+02
     -2.497  0.0000E+00  0.1000E+02
     -2.373  0.0000E+00  0.1000E+02
     -2.250  0.0000E+00  0.1000E+02
     -2.126  0.0000E+00  0.1000E+02
     -2.002  0.0000E+00  0.1000E+02
     -1.878  0.0000E+00  0.1000E+02
     -1.755  0.4986E-16  0.1000E+02
     -1.631  0.4795E-06  0.1000E+02
     -1.507  0.4808E-01  0.1001E+02
     -1.384  0.1056E+01  0.1014E+02
     -1.260  0.1188E+01  0.1028E+02
     -1.136  0.4259E+01  0.1081E+02
     -1.012  0.3711E+01  0.1127E+02
     -0.889  0.3292E+01  0.1168E+02
     -0.765  0.2229E+01  0.1195E+02
     -0.641  0.3428E+01  0.1238E+02
     -0.518  0.8294E+01  0.1340E+02
     -0.394  0.1162E+02  0.1484E+02
     -0.270  0.6024E+01  0.1559E+02
     -0.146  0.2581E+01  0.1591E+02
     -0.023  0.7255E+00  0.1599E+02
      0.101  0.4146E-01  0.1600E+02
      0.225  0.2242E-05  0.1600E+02
      0.348  0.1263E-14  0.1600E+02
      0.472  0.0000E+00  0.1600E+02
      0.596  0.0000E+00  0.1600E+02
      0.720  0.0000E+00  0.1600E+02
      0.843  0.0000E+00  0.1600E+02
      0.967  0.0000E+00  0.1600E+02
      1.091  0.0000E+00  0.1600E+02
      1.214  0.0000E+00  0.1600E+02
      1.338  0.0000E+00  0.1600E+02
      1.462  0.0000E+00  0.1600E+02
      1.586  0.0000E+00  0.1600E+02
      1.709  0.0000E+00  0.1600E+02
      1.833  0.0000E+00  0.1600E+02
      1.957  0.0000E+00  0.1600E+02
      2.080  0.0000E+00  0.1600E+02
      2.204  0.0000E+00  0.1600E+02
      2.328  0.0000E+00  0.1600E+02
      2.452  0.0000E+00  0.1600E+02
      2.575  0.0000E+00  0.1600E+02
      2.699  0.0000E+00  0.1600E+02
      2.823  0.4487E-15  0.1600E+02
      2.946  0.1254E-05  0.1600E+02
      3.070  0.3149E-01  0.1600E+02
      3.194  0.1177E+00  0.1602E+02
      3.318  0.1288E+00  0.1603E+02
      3.441  0.2861E+00  0.1607E+02
      3.565  0.2729E+00  0.1610E+02
      3.689  0.6751E+00  0.1619E+02
      3.812  0.8788E+00  0.1630E+02
      3.936  0.1074E+01  0.1643E+02
      4.060  0.8953E+00  0.1654E+02
      4.184  0.9359E+00  0.1666E+02
      4.307  0.2533E+01  0.1697E+02
      4.431  0.2014E+01  0.1722E+02
      4.555  0.2631E+01  0.1754E+02
      4.678  0.1687E+01  0.1775E+02
      4.802  0.2155E+01  0.1802E+02
      4.926  0.1864E+01  0.1825E+02
      5.050  0.2998E+01  0.1862E+02
      5.173  0.3684E+01  0.1908E+02
      5.297  0.6741E+00  0.1916E+02
      5.421  0.2161E+01  0.1943E+02
      5.544  0.1616E+01  0.1963E+02
      5.668  0.2503E+01  0.1994E+02
      5.792  0.2100E+01  0.2020E+02
      5.916  0.2537E+01  0.2051E+02
      6.039  0.2077E+01  0.2077E+02
      6.163  0.1993E+01  0.2101E+02
      6.287  0.1835E+01  0.2124E+02
      6.410  0.3379E+01  0.2166E+02
      6.534  0.2262E+01  0.2194E+02
      6.658  0.2323E+01  0.2223E+02
      6.782  0.2038E+01  0.2248E+02
      6.905  0.1844E+01  0.2271E+02
      7.029  0.3831E+01  0.2318E+02
      7.153  0.3917E+01  0.2366E+02
      7.276  0.2071E+01  0.2392E+02
      7.400  0.6373E+00  0.2400E+02
      7.524  0.4373E-02  0.2400E+02
      7.648  0.9561E-09  0.2400E+02
      7.771  0.0000E+00  0.2400E+02
      7.895  0.0000E+00  0.2400E+02
      8.019  0.0000E+00  0.2400E+02
      8.142  0.0000E+00  0.2400E+02
      8.266  0.0000E+00  0.2400E+02
      8.390  0.0000E+00  0.2400E+02
      8.514  0.0000E+00  0.2400E+02
      8.637  0.0000E+00  0.2400E+02
      8.761  0.0000E+00  0.2400E+02
      8.885  0.0000E+00  0.2400E+02
      9.008  0.0000E+00  0.2400E+02
