  32  32   0   0
  0.2228071E+02  0.1327696E-08  0.1278495E-08  0.7862926E-09  0.5000000E-15
  1.000000000000000E-004
  CAR 
 unknown system                          
     10.59886693    -15.50515944  301      3.39850633      1.00000000
    -15.505  0.0000E+00  0.0000E+00
    -15.418  0.0000E+00  0.0000E+00
    -15.331  0.0000E+00  0.0000E+00
    -15.244  0.0000E+00  0.0000E+00
    -15.157  0.0000E+00  0.0000E+00
    -15.070  0.0000E+00  0.0000E+00
    -14.983  0.0000E+00  0.0000E+00
    -14.896  0.0000E+00  0.0000E+00
    -14.809  0.0000E+00  0.0000E+00
    -14.722  0.0000E+00  0.0000E+00
    -14.635  0.0000E+00  0.0000E+00
    -14.548  0.0000E+00  0.0000E+00
    -14.461  0.0000E+00  0.0000E+00
    -14.374  0.0000E+00  0.0000E+00
    -14.287  0.0000E+00  0.0000E+00
    -14.200  0.0000E+00  0.0000E+00
    -14.113  0.0000E+00  0.0000E+00
    -14.026  0.0000E+00  0.0000E+00
    -13.939  0.0000E+00  0.0000E+00
    -13.852  0.0000E+00  0.0000E+00
    -13.765  0.0000E+00  0.0000E+00
    -13.678  0.0000E+00  0.0000E+00
    -13.591  0.0000E+00  0.0000E+00
    -13.504  0.3876E-02  0.1691E-05
    -13.417  0.7634E+01  0.2862E+00
    -13.330  0.1830E+02  0.1504E+01
    -13.243  0.2334E+02  0.2753E+01
    -13.156  0.4629E+02  0.5988E+01
    -13.069  0.1890E+02  0.8000E+01
    -12.982  0.0000E+00  0.8000E+01
    -12.895  0.0000E+00  0.8000E+01
    -12.808  0.0000E+00  0.8000E+01
    -12.721  0.0000E+00  0.8000E+01
    -12.634  0.6999E-03  0.8000E+01
    -12.547  0.2545E+02  0.9785E+01
    -12.460  0.3749E+02  0.1214E+02
    -12.373  0.7882E+02  0.1626E+02
    -12.286  0.8906E+02  0.2205E+02
    -12.199  0.1491E+02  0.2400E+02
    -12.112  0.0000E+00  0.2400E+02
    -12.025  0.0000E+00  0.2400E+02
    -11.938  0.0000E+00  0.2400E+02
    -11.851  0.0000E+00  0.2400E+02
    -11.764  0.0000E+00  0.2400E+02
    -11.677  0.0000E+00  0.2400E+02
    -11.590  0.0000E+00  0.2400E+02
    -11.503  0.0000E+00  0.2400E+02
    -11.416  0.0000E+00  0.2400E+02
    -11.329  0.0000E+00  0.2400E+02
    -11.242  0.0000E+00  0.2400E+02
    -11.154  0.0000E+00  0.2400E+02
    -11.067  0.0000E+00  0.2400E+02
    -10.980  0.0000E+00  0.2400E+02
    -10.893  0.0000E+00  0.2400E+02
    -10.806  0.0000E+00  0.2400E+02
    -10.719  0.0000E+00  0.2400E+02
    -10.632  0.0000E+00  0.2400E+02
    -10.545  0.0000E+00  0.2400E+02
    -10.458  0.0000E+00  0.2400E+02
    -10.371  0.5189E+02  0.2626E+02
    -10.284  0.8606E+02  0.2911E+02
    -10.197  0.8923E+02  0.3466E+02
    -10.110  0.4090E+02  0.3874E+02
    -10.023  0.4699E+01  0.4000E+02
     -9.936  0.0000E+00  0.4000E+02
     -9.849  0.0000E+00  0.4000E+02
     -9.762  0.0000E+00  0.4000E+02
     -9.675  0.0000E+00  0.4000E+02
     -9.588  0.0000E+00  0.4000E+02
     -9.501  0.0000E+00  0.4000E+02
     -9.414  0.0000E+00  0.4000E+02
     -9.327  0.0000E+00  0.4000E+02
     -9.240  0.0000E+00  0.4000E+02
     -9.153  0.0000E+00  0.4000E+02
     -9.066  0.0000E+00  0.4000E+02
     -8.979  0.0000E+00  0.4000E+02
     -8.892  0.0000E+00  0.4000E+02
     -8.805  0.0000E+00  0.4000E+02
     -8.718  0.0000E+00  0.4000E+02
     -8.631  0.0000E+00  0.4000E+02
     -8.544  0.0000E+00  0.4000E+02
     -8.457  0.0000E+00  0.4000E+02
     -8.370  0.0000E+00  0.4000E+02
     -8.283  0.0000E+00  0.4000E+02
     -8.196  0.0000E+00  0.4000E+02
     -8.109  0.0000E+00  0.4000E+02
     -8.022  0.0000E+00  0.4000E+02
     -7.935  0.0000E+00  0.4000E+02
     -7.848  0.0000E+00  0.4000E+02
     -7.761  0.0000E+00  0.4000E+02
     -7.674  0.3997E-01  0.4000E+02
     -7.587  0.5637E+01  0.4020E+02
     -7.500  0.3468E+02  0.4172E+02
     -7.413  0.5091E+02  0.4503E+02
     -7.326  0.8445E+02  0.4896E+02
     -7.239  0.7152E+02  0.5339E+02
     -7.152  0.1456E+02  0.5560E+02
     -7.065  0.3069E+00  0.5600E+02
     -6.978  0.0000E+00  0.5600E+02
     -6.891  0.0000E+00  0.5600E+02
     -6.804  0.0000E+00  0.5600E+02
     -6.717  0.0000E+00  0.5600E+02
     -6.630  0.0000E+00  0.5600E+02
     -6.543  0.0000E+00  0.5600E+02
     -6.456  0.0000E+00  0.5600E+02
     -6.369  0.0000E+00  0.5600E+02
     -6.282  0.0000E+00  0.5600E+02
     -6.195  0.0000E+00  0.5600E+02
     -6.108  0.0000E+00  0.5600E+02
     -6.021  0.2006E+00  0.5600E+02
     -5.934  0.3442E+01  0.5615E+02
     -5.847  0.7195E+01  0.5657E+02
     -5.760  0.1180E+02  0.5749E+02
     -5.673  0.1411E+01  0.5798E+02
     -5.586  0.1190E+02  0.5836E+02
     -5.499  0.1022E+02  0.5945E+02
     -5.412  0.2815E+01  0.6000E+02
     -5.325  0.5723E+01  0.6026E+02
     -5.238  0.1565E+02  0.6129E+02
     -5.151  0.4383E+01  0.6183E+02
     -5.064  0.1954E+02  0.6350E+02
     -4.977  0.1009E+01  0.6399E+02
     -4.890  0.0000E+00  0.6400E+02
     -4.803  0.0000E+00  0.6400E+02
     -4.715  0.0000E+00  0.6400E+02
     -4.628  0.0000E+00  0.6400E+02
     -4.541  0.0000E+00  0.6400E+02
     -4.454  0.0000E+00  0.6400E+02
     -4.367  0.0000E+00  0.6400E+02
     -4.280  0.0000E+00  0.6400E+02
     -4.193  0.0000E+00  0.6400E+02
     -4.106  0.0000E+00  0.6400E+02
     -4.019  0.0000E+00  0.6400E+02
     -3.932  0.0000E+00  0.6400E+02
     -3.845  0.0000E+00  0.6400E+02
     -3.758  0.0000E+00  0.6400E+02
     -3.671  0.0000E+00  0.6400E+02
     -3.584  0.0000E+00  0.6400E+02
     -3.497  0.0000E+00  0.6400E+02
     -3.410  0.0000E+00  0.6400E+02
     -3.323  0.3719E+01  0.6406E+02
     -3.236  0.3706E+02  0.6547E+02
     -3.149  0.5161E+02  0.6841E+02
     -3.062  0.2581E+02  0.7199E+02
     -2.975  0.1803E+02  0.7336E+02
     -2.888  0.3932E+02  0.7529E+02
     -2.801  0.6901E+01  0.7608E+02
     -2.714  0.4454E+02  0.7843E+02
     -2.627  0.8871E+01  0.8010E+02
     -2.540  0.2534E+02  0.8149E+02
     -2.453  0.1483E+02  0.8304E+02
     -2.366  0.7346E+01  0.8414E+02
     -2.279  0.2201E+02  0.8514E+02
     -2.192  0.1485E+02  0.8671E+02
     -2.105  0.1069E+02  0.8773E+02
     -2.018  0.1218E+02  0.8884E+02
     -1.931  0.9064E+01  0.8972E+02
     -1.844  0.1288E+02  0.9059E+02
     -1.757  0.8147E+01  0.9161E+02
     -1.670  0.3489E+02  0.9346E+02
     -1.583  0.1833E+02  0.9515E+02
     -1.496  0.6611E+01  0.9602E+02
     -1.409  0.1702E+02  0.9735E+02
     -1.322  0.1437E+02  0.9824E+02
     -1.235  0.2186E+02  0.9987E+02
     -1.148  0.3401E+02  0.1019E+03
     -1.061  0.1931E+02  0.1044E+03
     -0.974  0.2614E+02  0.1065E+03
     -0.887  0.3112E+02  0.1082E+03
     -0.800  0.4731E+02  0.1107E+03
     -0.713  0.8661E+01  0.1121E+03
     -0.626  0.1846E+02  0.1140E+03
     -0.539  0.2855E+02  0.1159E+03
     -0.452  0.2461E+02  0.1178E+03
     -0.365  0.4653E+02  0.1201E+03
     -0.278  0.3738E+02  0.1226E+03
     -0.191  0.1152E+02  0.1241E+03
     -0.104  0.2095E+02  0.1258E+03
     -0.017  0.1660E+02  0.1278E+03
      0.070  0.1074E+02  0.1284E+03
      0.157  0.2304E+02  0.1302E+03
      0.244  0.1110E+02  0.1315E+03
      0.331  0.1214E+02  0.1323E+03
      0.418  0.1002E+02  0.1331E+03
      0.505  0.8704E+01  0.1340E+03
      0.592  0.7409E+01  0.1347E+03
      0.679  0.7394E+01  0.1353E+03
      0.766  0.3380E+01  0.1358E+03
      0.853  0.5853E+00  0.1360E+03
      0.940  0.3674E+00  0.1360E+03
      1.027  0.2141E+01  0.1361E+03
      1.114  0.5378E+01  0.1364E+03
      1.201  0.1632E+02  0.1374E+03
      1.288  0.1804E+02  0.1388E+03
      1.375  0.6321E+02  0.1410E+03
      1.462  0.2552E+02  0.1430E+03
      1.549  0.3694E+02  0.1460E+03
      1.636  0.1881E+02  0.1477E+03
      1.723  0.4056E+02  0.1499E+03
      1.811  0.3614E+02  0.1525E+03
      1.898  0.4949E+02  0.1562E+03
      1.985  0.4009E+02  0.1589E+03
      2.072  0.4123E+02  0.1621E+03
      2.159  0.3923E+02  0.1655E+03
      2.246  0.4752E+02  0.1687E+03
      2.333  0.4293E+02  0.1724E+03
      2.420  0.5799E+02  0.1760E+03
      2.507  0.4162E+02  0.1796E+03
      2.594  0.4353E+02  0.1830E+03
      2.681  0.3445E+02  0.1861E+03
      2.768  0.1062E+02  0.1880E+03
      2.855  0.6566E+01  0.1881E+03
      2.942  0.1548E+02  0.1893E+03
      3.029  0.3959E+01  0.1899E+03
      3.116  0.1232E+02  0.1910E+03
      3.203  0.5259E+01  0.1917E+03
      3.290  0.9076E+00  0.1920E+03
      3.377  0.0000E+00  0.1920E+03
      3.464  0.0000E+00  0.1920E+03
      3.551  0.0000E+00  0.1920E+03
      3.638  0.0000E+00  0.1920E+03
      3.725  0.0000E+00  0.1920E+03
      3.812  0.0000E+00  0.1920E+03
      3.899  0.0000E+00  0.1920E+03
      3.986  0.0000E+00  0.1920E+03
      4.073  0.0000E+00  0.1920E+03
      4.160  0.0000E+00  0.1920E+03
      4.247  0.0000E+00  0.1920E+03
      4.334  0.0000E+00  0.1920E+03
      4.421  0.0000E+00  0.1920E+03
      4.508  0.0000E+00  0.1920E+03
      4.595  0.0000E+00  0.1920E+03
      4.682  0.0000E+00  0.1920E+03
      4.769  0.0000E+00  0.1920E+03
      4.856  0.0000E+00  0.1920E+03
      4.943  0.0000E+00  0.1920E+03
      5.030  0.0000E+00  0.1920E+03
      5.117  0.3441E+01  0.1921E+03
      5.204  0.5499E+01  0.1924E+03
      5.291  0.1013E+02  0.1930E+03
      5.378  0.1910E+02  0.1945E+03
      5.465  0.1932E+02  0.1962E+03
      5.552  0.2001E+02  0.1978E+03
      5.639  0.3849E+02  0.2005E+03
      5.726  0.2418E+02  0.2023E+03
      5.813  0.1389E+02  0.2043E+03
      5.900  0.2337E+02  0.2061E+03
      5.987  0.1441E+02  0.2076E+03
      6.074  0.2138E+02  0.2094E+03
      6.161  0.1161E+02  0.2106E+03
      6.248  0.1359E+02  0.2118E+03
      6.335  0.2206E+02  0.2130E+03
      6.422  0.2764E+02  0.2152E+03
      6.509  0.3068E+02  0.2174E+03
      6.596  0.2474E+02  0.2198E+03
      6.683  0.2817E+02  0.2214E+03
      6.770  0.3147E+02  0.2237E+03
      6.857  0.2755E+02  0.2252E+03
      6.944  0.3380E+02  0.2279E+03
      7.031  0.2232E+02  0.2295E+03
      7.118  0.3906E+02  0.2321E+03
      7.205  0.3329E+02  0.2348E+03
      7.292  0.1987E+02  0.2362E+03
      7.379  0.4013E+02  0.2388E+03
      7.466  0.4220E+02  0.2411E+03
      7.553  0.3137E+02  0.2438E+03
      7.640  0.3577E+02  0.2458E+03
      7.727  0.1764E+02  0.2478E+03
      7.814  0.2464E+02  0.2494E+03
      7.901  0.1696E+02  0.2516E+03
      7.988  0.7744E+01  0.2524E+03
      8.075  0.1034E+02  0.2532E+03
      8.162  0.9345E+01  0.2540E+03
      8.250  0.8986E+01  0.2548E+03
      8.337  0.5541E+01  0.2555E+03
      8.424  0.2562E+01  0.2559E+03
      8.511  0.6765E+00  0.2560E+03
      8.598  0.1984E-03  0.2560E+03
      8.685  0.0000E+00  0.2560E+03
      8.772  0.0000E+00  0.2560E+03
      8.859  0.0000E+00  0.2560E+03
      8.946  0.0000E+00  0.2560E+03
      9.033  0.0000E+00  0.2560E+03
      9.120  0.0000E+00  0.2560E+03
      9.207  0.0000E+00  0.2560E+03
      9.294  0.0000E+00  0.2560E+03
      9.381  0.0000E+00  0.2560E+03
      9.468  0.0000E+00  0.2560E+03
      9.555  0.0000E+00  0.2560E+03
      9.642  0.0000E+00  0.2560E+03
      9.729  0.0000E+00  0.2560E+03
      9.816  0.0000E+00  0.2560E+03
      9.903  0.0000E+00  0.2560E+03
      9.990  0.0000E+00  0.2560E+03
     10.077  0.0000E+00  0.2560E+03
     10.164  0.0000E+00  0.2560E+03
     10.251  0.0000E+00  0.2560E+03
     10.338  0.0000E+00  0.2560E+03
     10.425  0.0000E+00  0.2560E+03
     10.512  0.0000E+00  0.2560E+03
     10.599  0.0000E+00  0.2560E+03
