       N       E                     dE             d eps       ncg     rms          rms(c)
DAV:   1     0.129785809021E+04    0.12979E+04   -0.97807E+04 19200   0.165E+03
DAV:   2    -0.980468206916E+01   -0.13077E+04   -0.12497E+04 23544   0.255E+02
DAV:   3    -0.137576958599E+03   -0.12777E+03   -0.12522E+03 23272   0.839E+01
DAV:   4    -0.141076093491E+03   -0.34991E+01   -0.34421E+01 23504   0.151E+01
DAV:   5    -0.141193006457E+03   -0.11691E+00   -0.11619E+00 23760   0.268E+00    0.651E+01
DAV:   6    -0.140391364010E+03    0.80164E+00   -0.39589E-01 22432   0.151E+00    0.392E+01
DAV:   7    -0.140066490251E+03    0.32487E+00   -0.72672E-01 21944   0.197E+00    0.726E-01
DAV:   8    -0.140064461838E+03    0.20284E-02   -0.42307E-02 22048   0.576E-01    0.554E-01
DAV:   9    -0.140064122579E+03    0.33926E-03   -0.32985E-03 23000   0.143E-01    0.264E-01
DAV:  10    -0.140064299209E+03   -0.17663E-03   -0.61023E-04 22784   0.600E-02    0.676E-02
DAV:  11    -0.140064340794E+03   -0.41585E-04   -0.88534E-05 23624   0.226E-02    0.408E-02
DAV:  12    -0.140064353256E+03   -0.12462E-04   -0.12682E-05 22456   0.957E-03    0.193E-02
DAV:  13    -0.140064362725E+03   -0.94686E-05   -0.10288E-05 22376   0.796E-03    0.110E-02
DAV:  14    -0.140064364254E+03   -0.15294E-05   -0.10564E-06 22664   0.275E-03    0.487E-03
DAV:  15    -0.140064364583E+03   -0.32904E-06   -0.41459E-07 22872   0.156E-03    0.176E-03
DAV:  16    -0.140064364486E+03    0.97110E-07   -0.45990E-08 21224   0.523E-04    0.820E-04
DAV:  17    -0.140064364542E+03   -0.55807E-07   -0.39046E-08 17992   0.489E-04    0.303E-04
DAV:  18    -0.140064364495E+03    0.47203E-07   -0.29951E-09 11032   0.147E-04    0.136E-04
DAV:  19    -0.140064364492E+03    0.25757E-08   -0.76580E-10 10704   0.669E-05
   1 F= -.14691428E+03 E0= -.14691428E+03  d E =0.000000E+00
