       N       E                     dE             d eps       ncg     rms          rms(c)
DAV:   1     0.118970630077E+03    0.11897E+03   -0.82720E+03 17496   0.133E+03
DAV:   2    -0.526454260887E+01   -0.12424E+03   -0.11934E+03 19592   0.323E+02
DAV:   3    -0.112528083724E+02   -0.59883E+01   -0.57563E+01 22408   0.707E+01
DAV:   4    -0.115368285337E+02   -0.28402E+00   -0.28243E+00 26400   0.134E+01
DAV:   5    -0.115427079419E+02   -0.58794E-02   -0.58777E-02 22484   0.184E+00    0.596E+00
DAV:   6    -0.107503888631E+02    0.79232E+00   -0.33491E+00 21632   0.118E+01    0.253E+00
DAV:   7    -0.107521866202E+02   -0.17978E-02   -0.22088E-01 24816   0.419E+00    0.139E+00
DAV:   8    -0.107545488428E+02   -0.23622E-02   -0.32189E-02 22308   0.205E+00    0.298E-01
DAV:   9    -0.107534632989E+02    0.10855E-02   -0.11425E-02 22556   0.805E-01    0.126E-01
DAV:  10    -0.107536187075E+02   -0.15541E-03   -0.76638E-04 23168   0.256E-01    0.444E-02
DAV:  11    -0.107536644626E+02   -0.45755E-04   -0.93333E-05 23024   0.838E-02    0.268E-02
DAV:  12    -0.107536541414E+02    0.10321E-04   -0.44801E-05 21852   0.598E-02    0.202E-03
DAV:  13    -0.107536542259E+02   -0.84542E-07   -0.30367E-06 22944   0.160E-02
   1 F= -.10753654E+02 E0= -.10751519E+02  d E =-.427132E-02
