Be4                                     
   1.00000000000000     
     3.5741024600000002    0.0000000000000000    0.0000000000000000
     0.0000000000000000    3.9200128500000000    0.0000000000000000
     0.0000000000000000    0.0000000000000000    2.2694627399999998
   Be
     4
Direct
     0.7500084599999965    0.3330479199999985    0.2498215600000009
     0.2499915400000035    0.6669520800000015    0.2498215600000009
     0.2500084599999965    0.1669520800000015    0.7501784399999991
     0.7499915400000035    0.8330479199999985    0.7501784399999991
 
  0.00000000E+00  0.00000000E+00  0.00000000E+00
  0.00000000E+00  0.00000000E+00  0.00000000E+00
  0.00000000E+00  0.00000000E+00  0.00000000E+00
  0.00000000E+00  0.00000000E+00  0.00000000E+00
