   4   4   0   0
  0.7949093E+01  0.3574103E-09  0.3920013E-09  0.2269463E-09  0.5000000E-15
  1.000000000000000E-004
  CAR 
 unknown system                          
     31.14414539   -101.02481934  301      5.29666849      1.00000000
   -101.025  0.0000E+00  0.0000E+00
   -100.584  0.0000E+00  0.0000E+00
   -100.144  0.0000E+00  0.0000E+00
    -99.703  0.0000E+00  0.0000E+00
    -99.263  0.0000E+00  0.0000E+00
    -98.822  0.0000E+00  0.0000E+00
    -98.381  0.0000E+00  0.0000E+00
    -97.941  0.0000E+00  0.0000E+00
    -97.500  0.0000E+00  0.0000E+00
    -97.060  0.0000E+00  0.0000E+00
    -96.619  0.0000E+00  0.0000E+00
    -96.179  0.0000E+00  0.0000E+00
    -95.738  0.0000E+00  0.0000E+00
    -95.297  0.4470E-15  0.1969E-15
    -94.857  0.1816E+02  0.7999E+01
    -94.416  0.0000E+00  0.8000E+01
    -93.976  0.0000E+00  0.8000E+01
    -93.535  0.0000E+00  0.8000E+01
    -93.095  0.0000E+00  0.8000E+01
    -92.654  0.0000E+00  0.8000E+01
    -92.214  0.0000E+00  0.8000E+01
    -91.773  0.0000E+00  0.8000E+01
    -91.332  0.0000E+00  0.8000E+01
    -90.892  0.0000E+00  0.8000E+01
    -90.451  0.0000E+00  0.8000E+01
    -90.011  0.0000E+00  0.8000E+01
    -89.570  0.0000E+00  0.8000E+01
    -89.130  0.0000E+00  0.8000E+01
    -88.689  0.0000E+00  0.8000E+01
    -88.248  0.0000E+00  0.8000E+01
    -87.808  0.0000E+00  0.8000E+01
    -87.367  0.0000E+00  0.8000E+01
    -86.927  0.0000E+00  0.8000E+01
    -86.486  0.0000E+00  0.8000E+01
    -86.046  0.0000E+00  0.8000E+01
    -85.605  0.0000E+00  0.8000E+01
    -85.165  0.0000E+00  0.8000E+01
    -84.724  0.0000E+00  0.8000E+01
    -84.283  0.0000E+00  0.8000E+01
    -83.843  0.0000E+00  0.8000E+01
    -83.402  0.0000E+00  0.8000E+01
    -82.962  0.0000E+00  0.8000E+01
    -82.521  0.0000E+00  0.8000E+01
    -82.081  0.0000E+00  0.8000E+01
    -81.640  0.0000E+00  0.8000E+01
    -81.199  0.0000E+00  0.8000E+01
    -80.759  0.0000E+00  0.8000E+01
    -80.318  0.0000E+00  0.8000E+01
    -79.878  0.0000E+00  0.8000E+01
    -79.437  0.0000E+00  0.8000E+01
    -78.997  0.0000E+00  0.8000E+01
    -78.556  0.0000E+00  0.8000E+01
    -78.116  0.0000E+00  0.8000E+01
    -77.675  0.0000E+00  0.8000E+01
    -77.234  0.0000E+00  0.8000E+01
    -76.794  0.0000E+00  0.8000E+01
    -76.353  0.0000E+00  0.8000E+01
    -75.913  0.0000E+00  0.8000E+01
    -75.472  0.0000E+00  0.8000E+01
    -75.032  0.0000E+00  0.8000E+01
    -74.591  0.0000E+00  0.8000E+01
    -74.150  0.0000E+00  0.8000E+01
    -73.710  0.0000E+00  0.8000E+01
    -73.269  0.0000E+00  0.8000E+01
    -72.829  0.0000E+00  0.8000E+01
    -72.388  0.0000E+00  0.8000E+01
    -71.948  0.0000E+00  0.8000E+01
    -71.507  0.0000E+00  0.8000E+01
    -71.067  0.0000E+00  0.8000E+01
    -70.626  0.0000E+00  0.8000E+01
    -70.185  0.0000E+00  0.8000E+01
    -69.745  0.0000E+00  0.8000E+01
    -69.304  0.0000E+00  0.8000E+01
    -68.864  0.0000E+00  0.8000E+01
    -68.423  0.0000E+00  0.8000E+01
    -67.983  0.0000E+00  0.8000E+01
    -67.542  0.0000E+00  0.8000E+01
    -67.101  0.0000E+00  0.8000E+01
    -66.661  0.0000E+00  0.8000E+01
    -66.220  0.0000E+00  0.8000E+01
    -65.780  0.0000E+00  0.8000E+01
    -65.339  0.0000E+00  0.8000E+01
    -64.899  0.0000E+00  0.8000E+01
    -64.458  0.0000E+00  0.8000E+01
    -64.018  0.0000E+00  0.8000E+01
    -63.577  0.0000E+00  0.8000E+01
    -63.136  0.0000E+00  0.8000E+01
    -62.696  0.0000E+00  0.8000E+01
    -62.255  0.0000E+00  0.8000E+01
    -61.815  0.0000E+00  0.8000E+01
    -61.374  0.0000E+00  0.8000E+01
    -60.934  0.0000E+00  0.8000E+01
    -60.493  0.0000E+00  0.8000E+01
    -60.052  0.0000E+00  0.8000E+01
    -59.612  0.0000E+00  0.8000E+01
    -59.171  0.0000E+00  0.8000E+01
    -58.731  0.0000E+00  0.8000E+01
    -58.290  0.0000E+00  0.8000E+01
    -57.850  0.0000E+00  0.8000E+01
    -57.409  0.0000E+00  0.8000E+01
    -56.968  0.0000E+00  0.8000E+01
    -56.528  0.0000E+00  0.8000E+01
    -56.087  0.0000E+00  0.8000E+01
    -55.647  0.0000E+00  0.8000E+01
    -55.206  0.0000E+00  0.8000E+01
    -54.766  0.0000E+00  0.8000E+01
    -54.325  0.0000E+00  0.8000E+01
    -53.885  0.0000E+00  0.8000E+01
    -53.444  0.0000E+00  0.8000E+01
    -53.003  0.0000E+00  0.8000E+01
    -52.563  0.0000E+00  0.8000E+01
    -52.122  0.0000E+00  0.8000E+01
    -51.682  0.0000E+00  0.8000E+01
    -51.241  0.0000E+00  0.8000E+01
    -50.801  0.0000E+00  0.8000E+01
    -50.360  0.0000E+00  0.8000E+01
    -49.919  0.0000E+00  0.8000E+01
    -49.479  0.0000E+00  0.8000E+01
    -49.038  0.0000E+00  0.8000E+01
    -48.598  0.0000E+00  0.8000E+01
    -48.157  0.0000E+00  0.8000E+01
    -47.717  0.0000E+00  0.8000E+01
    -47.276  0.0000E+00  0.8000E+01
    -46.836  0.0000E+00  0.8000E+01
    -46.395  0.0000E+00  0.8000E+01
    -45.954  0.0000E+00  0.8000E+01
    -45.514  0.0000E+00  0.8000E+01
    -45.073  0.0000E+00  0.8000E+01
    -44.633  0.0000E+00  0.8000E+01
    -44.192  0.0000E+00  0.8000E+01
    -43.752  0.0000E+00  0.8000E+01
    -43.311  0.0000E+00  0.8000E+01
    -42.870  0.0000E+00  0.8000E+01
    -42.430  0.0000E+00  0.8000E+01
    -41.989  0.0000E+00  0.8000E+01
    -41.549  0.0000E+00  0.8000E+01
    -41.108  0.0000E+00  0.8000E+01
    -40.668  0.0000E+00  0.8000E+01
    -40.227  0.0000E+00  0.8000E+01
    -39.787  0.0000E+00  0.8000E+01
    -39.346  0.0000E+00  0.8000E+01
    -38.905  0.0000E+00  0.8000E+01
    -38.465  0.0000E+00  0.8000E+01
    -38.024  0.0000E+00  0.8000E+01
    -37.584  0.0000E+00  0.8000E+01
    -37.143  0.0000E+00  0.8000E+01
    -36.703  0.0000E+00  0.8000E+01
    -36.262  0.0000E+00  0.8000E+01
    -35.821  0.0000E+00  0.8000E+01
    -35.381  0.0000E+00  0.8000E+01
    -34.940  0.0000E+00  0.8000E+01
    -34.500  0.0000E+00  0.8000E+01
    -34.059  0.0000E+00  0.8000E+01
    -33.619  0.0000E+00  0.8000E+01
    -33.178  0.0000E+00  0.8000E+01
    -32.738  0.0000E+00  0.8000E+01
    -32.297  0.0000E+00  0.8000E+01
    -31.856  0.0000E+00  0.8000E+01
    -31.416  0.0000E+00  0.8000E+01
    -30.975  0.0000E+00  0.8000E+01
    -30.535  0.0000E+00  0.8000E+01
    -30.094  0.0000E+00  0.8000E+01
    -29.654  0.0000E+00  0.8000E+01
    -29.213  0.0000E+00  0.8000E+01
    -28.772  0.0000E+00  0.8000E+01
    -28.332  0.0000E+00  0.8000E+01
    -27.891  0.0000E+00  0.8000E+01
    -27.451  0.0000E+00  0.8000E+01
    -27.010  0.0000E+00  0.8000E+01
    -26.570  0.0000E+00  0.8000E+01
    -26.129  0.0000E+00  0.8000E+01
    -25.689  0.0000E+00  0.8000E+01
    -25.248  0.0000E+00  0.8000E+01
    -24.807  0.0000E+00  0.8000E+01
    -24.367  0.0000E+00  0.8000E+01
    -23.926  0.0000E+00  0.8000E+01
    -23.486  0.0000E+00  0.8000E+01
    -23.045  0.0000E+00  0.8000E+01
    -22.605  0.0000E+00  0.8000E+01
    -22.164  0.0000E+00  0.8000E+01
    -21.723  0.0000E+00  0.8000E+01
    -21.283  0.0000E+00  0.8000E+01
    -20.842  0.0000E+00  0.8000E+01
    -20.402  0.0000E+00  0.8000E+01
    -19.961  0.0000E+00  0.8000E+01
    -19.521  0.0000E+00  0.8000E+01
    -19.080  0.0000E+00  0.8000E+01
    -18.639  0.0000E+00  0.8000E+01
    -18.199  0.0000E+00  0.8000E+01
    -17.758  0.0000E+00  0.8000E+01
    -17.318  0.0000E+00  0.8000E+01
    -16.877  0.0000E+00  0.8000E+01
    -16.437  0.0000E+00  0.8000E+01
    -15.996  0.0000E+00  0.8000E+01
    -15.556  0.0000E+00  0.8000E+01
    -15.115  0.0000E+00  0.8000E+01
    -14.674  0.0000E+00  0.8000E+01
    -14.234  0.0000E+00  0.8000E+01
    -13.793  0.0000E+00  0.8000E+01
    -13.353  0.0000E+00  0.8000E+01
    -12.912  0.0000E+00  0.8000E+01
    -12.472  0.0000E+00  0.8000E+01
    -12.031  0.0000E+00  0.8000E+01
    -11.590  0.0000E+00  0.8000E+01
    -11.150  0.0000E+00  0.8000E+01
    -10.709  0.0000E+00  0.8000E+01
    -10.269  0.0000E+00  0.8000E+01
     -9.828  0.0000E+00  0.8000E+01
     -9.388  0.0000E+00  0.8000E+01
     -8.947  0.0000E+00  0.8000E+01
     -8.507  0.0000E+00  0.8000E+01
     -8.066  0.0000E+00  0.8000E+01
     -7.625  0.0000E+00  0.8000E+01
     -7.185  0.0000E+00  0.8000E+01
     -6.744  0.0000E+00  0.8000E+01
     -6.304  0.3698E-03  0.8000E+01
     -5.863  0.1330E+00  0.8059E+01
     -5.423  0.2813E+00  0.8183E+01
     -4.982  0.2356E+00  0.8301E+01
     -4.541  0.4167E+00  0.8516E+01
     -4.101  0.4922E+00  0.8750E+01
     -3.660  0.4553E+00  0.8954E+01
     -3.220  0.5919E+00  0.9219E+01
     -2.779  0.4338E+00  0.9425E+01
     -2.339  0.6744E+00  0.9794E+01
     -1.898  0.6625E+00  0.1012E+02
     -1.458  0.5302E+00  0.1037E+02
     -1.017  0.8446E+00  0.1078E+02
     -0.576  0.7252E+00  0.1112E+02
     -0.136  0.1063E+01  0.1159E+02
      0.305  0.9764E+00  0.1204E+02
      0.745  0.8700E+00  0.1243E+02
      1.186  0.8989E+00  0.1291E+02
      1.626  0.1102E+01  0.1344E+02
      2.067  0.6729E+00  0.1379E+02
      2.508  0.1080E+01  0.1434E+02
      2.948  0.7996E+00  0.1474E+02
      3.389  0.9076E+00  0.1518E+02
      3.829  0.4904E+00  0.1541E+02
      4.270  0.7156E+00  0.1579E+02
      4.710  0.1910E+00  0.1589E+02
      5.151  0.2256E+00  0.1599E+02
      5.591  0.1995E+00  0.1608E+02
      6.032  0.3403E+00  0.1626E+02
      6.473  0.8189E+00  0.1662E+02
      6.913  0.1196E+01  0.1717E+02
      7.354  0.1584E+01  0.1791E+02
      7.794  0.1268E+01  0.1858E+02
      8.235  0.8453E+00  0.1898E+02
      8.675  0.8533E+00  0.1937E+02
      9.116  0.7687E+00  0.1975E+02
      9.557  0.5938E+00  0.2002E+02
      9.997  0.1645E+01  0.2076E+02
     10.438  0.4789E+00  0.2105E+02
     10.878  0.4987E+00  0.2131E+02
     11.319  0.1265E+01  0.2192E+02
     11.759  0.1269E+01  0.2257E+02
     12.200  0.1237E+01  0.2321E+02
     12.640  0.1327E+01  0.2385E+02
     13.081  0.1288E+01  0.2449E+02
     13.522  0.9302E+00  0.2496E+02
     13.962  0.1118E+01  0.2549E+02
     14.403  0.8814E+00  0.2591E+02
     14.843  0.1488E+01  0.2661E+02
     15.284  0.1482E+01  0.2729E+02
     15.724  0.6984E+00  0.2768E+02
     16.165  0.1302E+01  0.2833E+02
     16.606  0.9333E+00  0.2886E+02
     17.046  0.8115E+00  0.2929E+02
     17.487  0.1183E+01  0.2987E+02
     17.927  0.8310E+00  0.3028E+02
     18.368  0.1033E+01  0.3077E+02
     18.808  0.2033E+01  0.3170E+02
     19.249  0.1935E+01  0.3267E+02
     19.690  0.1853E+01  0.3361E+02
     20.130  0.1797E+01  0.3451E+02
     20.571  0.2042E+01  0.3551E+02
     21.011  0.2337E+01  0.3665E+02
     21.452  0.1882E+01  0.3762E+02
     21.892  0.8786E+00  0.3806E+02
     22.333  0.1230E+01  0.3866E+02
     22.773  0.8378E+00  0.3906E+02
     23.214  0.5519E+00  0.3935E+02
     23.655  0.4738E+00  0.3961E+02
     24.095  0.4093E+00  0.3982E+02
     24.536  0.1833E+00  0.3992E+02
     24.976  0.7292E-01  0.3999E+02
     25.417  0.2702E-01  0.4000E+02
     25.857  0.0000E+00  0.4000E+02
     26.298  0.0000E+00  0.4000E+02
     26.739  0.0000E+00  0.4000E+02
     27.179  0.0000E+00  0.4000E+02
     27.620  0.0000E+00  0.4000E+02
     28.060  0.0000E+00  0.4000E+02
     28.501  0.0000E+00  0.4000E+02
     28.941  0.0000E+00  0.4000E+02
     29.382  0.0000E+00  0.4000E+02
     29.822  0.0000E+00  0.4000E+02
     30.263  0.0000E+00  0.4000E+02
     30.704  0.0000E+00  0.4000E+02
     31.144  0.0000E+00  0.4000E+02
