       N       E                     dE             d eps       ncg     rms          rms(c)
DAV:   1     0.172555915817E+03    0.17256E+03   -0.94783E+03 34208   0.415E+03
DAV:   2    -0.220180308221E+01   -0.17476E+03   -0.16649E+03 29376   0.901E+02
DAV:   3    -0.128173175775E+02   -0.10616E+02   -0.10321E+02 31880   0.856E+01
DAV:   4    -0.149489051972E+02   -0.21316E+01   -0.21304E+01 42004   0.255E+01
DAV:   5    -0.149572194788E+02   -0.83143E-02   -0.83140E-02 30040   0.232E+00    0.224E+00
DAV:   6    -0.150292926537E+02   -0.72073E-01   -0.63690E-03 32284   0.104E+00    0.132E+00
DAV:   7    -0.150674796045E+02   -0.38187E-01   -0.14075E-02 31836   0.126E+00    0.890E-02
DAV:   8    -0.150674973156E+02   -0.17711E-04   -0.60002E-04 29272   0.258E-01    0.460E-02
DAV:   9    -0.150674775916E+02    0.19724E-04   -0.18825E-05 46540   0.740E-02    0.505E-03
DAV:  10    -0.150674788067E+02   -0.12151E-05   -0.57494E-07 21776   0.545E-03    0.245E-03
DAV:  11    -0.150674788771E+02   -0.70366E-07   -0.67673E-08 15680   0.781E-03
   1 F= -.15067479E+02 E0= -.15067399E+02  d E =-.159982E-03
