  18  18   0   0
  0.1668703E+02  0.5151144E-09  0.5151144E-09  0.1307114E-08  0.5000000E-15
  1.000000000000000E-004
  CAR 
 unknown system                          
     10.03177115    -62.65707884  301      3.74024594      1.00000000
    -62.657  0.0000E+00  0.0000E+00
    -62.415  0.0000E+00  0.0000E+00
    -62.172  0.0000E+00  0.0000E+00
    -61.930  0.0000E+00  0.0000E+00
    -61.688  0.0000E+00  0.0000E+00
    -61.446  0.0000E+00  0.0000E+00
    -61.203  0.0000E+00  0.0000E+00
    -60.961  0.0000E+00  0.0000E+00
    -60.719  0.0000E+00  0.0000E+00
    -60.476  0.0000E+00  0.0000E+00
    -60.234  0.0000E+00  0.0000E+00
    -59.992  0.0000E+00  0.0000E+00
    -59.750  0.0000E+00  0.0000E+00
    -59.507  0.2852E-03  0.6910E-04
    -59.265  0.1141E+03  0.2765E+02
    -59.023  0.3444E+02  0.3600E+02
    -58.780  0.0000E+00  0.3600E+02
    -58.538  0.0000E+00  0.3600E+02
    -58.296  0.0000E+00  0.3600E+02
    -58.053  0.0000E+00  0.3600E+02
    -57.811  0.0000E+00  0.3600E+02
    -57.569  0.0000E+00  0.3600E+02
    -57.327  0.0000E+00  0.3600E+02
    -57.084  0.0000E+00  0.3600E+02
    -56.842  0.0000E+00  0.3600E+02
    -56.600  0.0000E+00  0.3600E+02
    -56.357  0.0000E+00  0.3600E+02
    -56.115  0.0000E+00  0.3600E+02
    -55.873  0.0000E+00  0.3600E+02
    -55.630  0.0000E+00  0.3600E+02
    -55.388  0.0000E+00  0.3600E+02
    -55.146  0.0000E+00  0.3600E+02
    -54.904  0.0000E+00  0.3600E+02
    -54.661  0.0000E+00  0.3600E+02
    -54.419  0.0000E+00  0.3600E+02
    -54.177  0.0000E+00  0.3600E+02
    -53.934  0.0000E+00  0.3600E+02
    -53.692  0.0000E+00  0.3600E+02
    -53.450  0.0000E+00  0.3600E+02
    -53.208  0.0000E+00  0.3600E+02
    -52.965  0.0000E+00  0.3600E+02
    -52.723  0.0000E+00  0.3600E+02
    -52.481  0.0000E+00  0.3600E+02
    -52.238  0.0000E+00  0.3600E+02
    -51.996  0.0000E+00  0.3600E+02
    -51.754  0.0000E+00  0.3600E+02
    -51.511  0.0000E+00  0.3600E+02
    -51.269  0.0000E+00  0.3600E+02
    -51.027  0.0000E+00  0.3600E+02
    -50.785  0.0000E+00  0.3600E+02
    -50.542  0.0000E+00  0.3600E+02
    -50.300  0.0000E+00  0.3600E+02
    -50.058  0.0000E+00  0.3600E+02
    -49.815  0.0000E+00  0.3600E+02
    -49.573  0.0000E+00  0.3600E+02
    -49.331  0.0000E+00  0.3600E+02
    -49.088  0.0000E+00  0.3600E+02
    -48.846  0.0000E+00  0.3600E+02
    -48.604  0.0000E+00  0.3600E+02
    -48.362  0.0000E+00  0.3600E+02
    -48.119  0.0000E+00  0.3600E+02
    -47.877  0.0000E+00  0.3600E+02
    -47.635  0.0000E+00  0.3600E+02
    -47.392  0.0000E+00  0.3600E+02
    -47.150  0.0000E+00  0.3600E+02
    -46.908  0.0000E+00  0.3600E+02
    -46.666  0.0000E+00  0.3600E+02
    -46.423  0.0000E+00  0.3600E+02
    -46.181  0.0000E+00  0.3600E+02
    -45.939  0.0000E+00  0.3600E+02
    -45.696  0.0000E+00  0.3600E+02
    -45.454  0.0000E+00  0.3600E+02
    -45.212  0.0000E+00  0.3600E+02
    -44.969  0.0000E+00  0.3600E+02
    -44.727  0.0000E+00  0.3600E+02
    -44.485  0.0000E+00  0.3600E+02
    -44.243  0.0000E+00  0.3600E+02
    -44.000  0.0000E+00  0.3600E+02
    -43.758  0.0000E+00  0.3600E+02
    -43.516  0.0000E+00  0.3600E+02
    -43.273  0.0000E+00  0.3600E+02
    -43.031  0.0000E+00  0.3600E+02
    -42.789  0.0000E+00  0.3600E+02
    -42.546  0.0000E+00  0.3600E+02
    -42.304  0.0000E+00  0.3600E+02
    -42.062  0.0000E+00  0.3600E+02
    -41.820  0.0000E+00  0.3600E+02
    -41.577  0.0000E+00  0.3600E+02
    -41.335  0.0000E+00  0.3600E+02
    -41.093  0.0000E+00  0.3600E+02
    -40.850  0.0000E+00  0.3600E+02
    -40.608  0.0000E+00  0.3600E+02
    -40.366  0.0000E+00  0.3600E+02
    -40.124  0.0000E+00  0.3600E+02
    -39.881  0.0000E+00  0.3600E+02
    -39.639  0.0000E+00  0.3600E+02
    -39.397  0.0000E+00  0.3600E+02
    -39.154  0.0000E+00  0.3600E+02
    -38.912  0.0000E+00  0.3600E+02
    -38.670  0.0000E+00  0.3600E+02
    -38.427  0.1676E+00  0.3604E+02
    -38.185  0.2585E+03  0.9868E+02
    -37.943  0.3848E+02  0.1080E+03
    -37.701  0.0000E+00  0.1080E+03
    -37.458  0.0000E+00  0.1080E+03
    -37.216  0.0000E+00  0.1080E+03
    -36.974  0.0000E+00  0.1080E+03
    -36.731  0.0000E+00  0.1080E+03
    -36.489  0.0000E+00  0.1080E+03
    -36.247  0.0000E+00  0.1080E+03
    -36.005  0.0000E+00  0.1080E+03
    -35.762  0.0000E+00  0.1080E+03
    -35.520  0.0000E+00  0.1080E+03
    -35.278  0.0000E+00  0.1080E+03
    -35.035  0.0000E+00  0.1080E+03
    -34.793  0.0000E+00  0.1080E+03
    -34.551  0.0000E+00  0.1080E+03
    -34.308  0.0000E+00  0.1080E+03
    -34.066  0.0000E+00  0.1080E+03
    -33.824  0.0000E+00  0.1080E+03
    -33.582  0.0000E+00  0.1080E+03
    -33.339  0.0000E+00  0.1080E+03
    -33.097  0.0000E+00  0.1080E+03
    -32.855  0.0000E+00  0.1080E+03
    -32.612  0.0000E+00  0.1080E+03
    -32.370  0.0000E+00  0.1080E+03
    -32.128  0.0000E+00  0.1080E+03
    -31.885  0.0000E+00  0.1080E+03
    -31.643  0.0000E+00  0.1080E+03
    -31.401  0.0000E+00  0.1080E+03
    -31.159  0.0000E+00  0.1080E+03
    -30.916  0.0000E+00  0.1080E+03
    -30.674  0.0000E+00  0.1080E+03
    -30.432  0.0000E+00  0.1080E+03
    -30.189  0.0000E+00  0.1080E+03
    -29.947  0.0000E+00  0.1080E+03
    -29.705  0.0000E+00  0.1080E+03
    -29.463  0.0000E+00  0.1080E+03
    -29.220  0.0000E+00  0.1080E+03
    -28.978  0.0000E+00  0.1080E+03
    -28.736  0.0000E+00  0.1080E+03
    -28.493  0.0000E+00  0.1080E+03
    -28.251  0.0000E+00  0.1080E+03
    -28.009  0.0000E+00  0.1080E+03
    -27.766  0.0000E+00  0.1080E+03
    -27.524  0.0000E+00  0.1080E+03
    -27.282  0.0000E+00  0.1080E+03
    -27.040  0.0000E+00  0.1080E+03
    -26.797  0.0000E+00  0.1080E+03
    -26.555  0.0000E+00  0.1080E+03
    -26.313  0.0000E+00  0.1080E+03
    -26.070  0.0000E+00  0.1080E+03
    -25.828  0.0000E+00  0.1080E+03
    -25.586  0.0000E+00  0.1080E+03
    -25.343  0.0000E+00  0.1080E+03
    -25.101  0.0000E+00  0.1080E+03
    -24.859  0.0000E+00  0.1080E+03
    -24.617  0.0000E+00  0.1080E+03
    -24.374  0.0000E+00  0.1080E+03
    -24.132  0.0000E+00  0.1080E+03
    -23.890  0.0000E+00  0.1080E+03
    -23.647  0.0000E+00  0.1080E+03
    -23.405  0.0000E+00  0.1080E+03
    -23.163  0.0000E+00  0.1080E+03
    -22.921  0.0000E+00  0.1080E+03
    -22.678  0.0000E+00  0.1080E+03
    -22.436  0.0000E+00  0.1080E+03
    -22.194  0.0000E+00  0.1080E+03
    -21.951  0.0000E+00  0.1080E+03
    -21.709  0.0000E+00  0.1080E+03
    -21.467  0.0000E+00  0.1080E+03
    -21.224  0.0000E+00  0.1080E+03
    -20.982  0.0000E+00  0.1080E+03
    -20.740  0.0000E+00  0.1080E+03
    -20.498  0.0000E+00  0.1080E+03
    -20.255  0.0000E+00  0.1080E+03
    -20.013  0.0000E+00  0.1080E+03
    -19.771  0.0000E+00  0.1080E+03
    -19.528  0.0000E+00  0.1080E+03
    -19.286  0.0000E+00  0.1080E+03
    -19.044  0.0000E+00  0.1080E+03
    -18.801  0.0000E+00  0.1080E+03
    -18.559  0.0000E+00  0.1080E+03
    -18.317  0.0000E+00  0.1080E+03
    -18.075  0.0000E+00  0.1080E+03
    -17.832  0.0000E+00  0.1080E+03
    -17.590  0.0000E+00  0.1080E+03
    -17.348  0.0000E+00  0.1080E+03
    -17.105  0.0000E+00  0.1080E+03
    -16.863  0.0000E+00  0.1080E+03
    -16.621  0.0000E+00  0.1080E+03
    -16.379  0.0000E+00  0.1080E+03
    -16.136  0.0000E+00  0.1080E+03
    -15.894  0.0000E+00  0.1080E+03
    -15.652  0.0000E+00  0.1080E+03
    -15.409  0.0000E+00  0.1080E+03
    -15.167  0.0000E+00  0.1080E+03
    -14.925  0.0000E+00  0.1080E+03
    -14.682  0.0000E+00  0.1080E+03
    -14.440  0.0000E+00  0.1080E+03
    -14.198  0.0000E+00  0.1080E+03
    -13.956  0.0000E+00  0.1080E+03
    -13.713  0.0000E+00  0.1080E+03
    -13.471  0.0000E+00  0.1080E+03
    -13.229  0.0000E+00  0.1080E+03
    -12.986  0.0000E+00  0.1080E+03
    -12.744  0.0000E+00  0.1080E+03
    -12.502  0.0000E+00  0.1080E+03
    -12.259  0.0000E+00  0.1080E+03
    -12.017  0.0000E+00  0.1080E+03
    -11.775  0.0000E+00  0.1080E+03
    -11.533  0.0000E+00  0.1080E+03
    -11.290  0.0000E+00  0.1080E+03
    -11.048  0.0000E+00  0.1080E+03
    -10.806  0.0000E+00  0.1080E+03
    -10.563  0.0000E+00  0.1080E+03
    -10.321  0.0000E+00  0.1080E+03
    -10.079  0.0000E+00  0.1080E+03
     -9.837  0.0000E+00  0.1080E+03
     -9.594  0.0000E+00  0.1080E+03
     -9.352  0.0000E+00  0.1080E+03
     -9.110  0.0000E+00  0.1080E+03
     -8.867  0.0000E+00  0.1080E+03
     -8.625  0.0000E+00  0.1080E+03
     -8.383  0.0000E+00  0.1080E+03
     -8.140  0.0000E+00  0.1080E+03
     -7.898  0.0000E+00  0.1080E+03
     -7.656  0.0000E+00  0.1080E+03
     -7.414  0.0000E+00  0.1080E+03
     -7.171  0.0000E+00  0.1080E+03
     -6.929  0.0000E+00  0.1080E+03
     -6.687  0.0000E+00  0.1080E+03
     -6.444  0.0000E+00  0.1080E+03
     -6.202  0.0000E+00  0.1080E+03
     -5.960  0.0000E+00  0.1080E+03
     -5.717  0.0000E+00  0.1080E+03
     -5.475  0.0000E+00  0.1080E+03
     -5.233  0.0000E+00  0.1080E+03
     -4.991  0.0000E+00  0.1080E+03
     -4.748  0.0000E+00  0.1080E+03
     -4.506  0.0000E+00  0.1080E+03
     -4.264  0.0000E+00  0.1080E+03
     -4.021  0.1431E-09  0.1080E+03
     -3.779  0.1316E+00  0.1080E+03
     -3.537  0.4847E+00  0.1081E+03
     -3.295  0.1545E+01  0.1085E+03
     -3.052  0.1305E+01  0.1088E+03
     -2.810  0.1310E+01  0.1092E+03
     -2.568  0.4705E+01  0.1103E+03
     -2.325  0.2107E+01  0.1108E+03
     -2.083  0.5653E+00  0.1109E+03
     -1.841  0.2780E+01  0.1116E+03
     -1.598  0.4510E+01  0.1127E+03
     -1.356  0.2596E+01  0.1133E+03
     -1.114  0.3236E+01  0.1141E+03
     -0.872  0.4971E+01  0.1153E+03
     -0.629  0.3488E+01  0.1162E+03
     -0.387  0.1172E+01  0.1165E+03
     -0.145  0.4943E+01  0.1177E+03
      0.098  0.7140E+01  0.1194E+03
      0.340  0.5798E+01  0.1208E+03
      0.582  0.6206E+01  0.1223E+03
      0.825  0.7828E+01  0.1242E+03
      1.067  0.4802E+01  0.1254E+03
      1.309  0.1688E+02  0.1294E+03
      1.551  0.2379E+02  0.1352E+03
      1.794  0.2534E+02  0.1413E+03
      2.036  0.2896E+02  0.1484E+03
      2.278  0.4019E+02  0.1581E+03
      2.521  0.5733E+02  0.1720E+03
      2.763  0.1602E+02  0.1759E+03
      3.005  0.1763E+02  0.1801E+03
      3.247  0.2949E+02  0.1873E+03
      3.490  0.1027E+02  0.1898E+03
      3.732  0.8837E+01  0.1919E+03
      3.974  0.7515E+01  0.1937E+03
      4.217  0.9576E+01  0.1961E+03
      4.459  0.4645E+01  0.1972E+03
      4.701  0.4118E+01  0.1982E+03
      4.944  0.6104E+01  0.1997E+03
      5.186  0.8197E+01  0.2016E+03
      5.428  0.6403E+01  0.2032E+03
      5.670  0.6798E+01  0.2048E+03
      5.913  0.8077E+01  0.2068E+03
      6.155  0.3083E+01  0.2076E+03
      6.397  0.8578E+00  0.2078E+03
      6.640  0.1312E-01  0.2078E+03
      6.882  0.9774E+00  0.2080E+03
      7.124  0.1068E-05  0.2080E+03
      7.367  0.0000E+00  0.2080E+03
      7.609  0.0000E+00  0.2080E+03
      7.851  0.0000E+00  0.2080E+03
      8.093  0.0000E+00  0.2080E+03
      8.336  0.0000E+00  0.2080E+03
      8.578  0.0000E+00  0.2080E+03
      8.820  0.0000E+00  0.2080E+03
      9.063  0.0000E+00  0.2080E+03
      9.305  0.0000E+00  0.2080E+03
      9.547  0.0000E+00  0.2080E+03
      9.789  0.0000E+00  0.2080E+03
     10.032  0.0000E+00  0.2080E+03
