       N       E                     dE             d eps       ncg     rms          rms(c)
DAV:   1     0.263341726322E+04    0.26334E+04   -0.14344E+05 11304   0.239E+03
DAV:   2     0.125730409147E+03   -0.25077E+04   -0.24791E+04 10408   0.735E+02
DAV:   3    -0.467291321094E+02   -0.17246E+03   -0.16129E+03 12376   0.209E+02
DAV:   4    -0.587215312382E+02   -0.11992E+02   -0.11234E+02 12888   0.393E+01
DAV:   5    -0.592758379695E+02   -0.55431E+00   -0.53073E+00 12728   0.856E+00    0.233E+01
DAV:   6    -0.726515434151E+02   -0.13376E+02   -0.20115E+02 12488   0.714E+01    0.449E+01
DAV:   7    -0.549426209271E+02    0.17709E+02   -0.60497E+01 13088   0.424E+01    0.808E+00
DAV:   8    -0.544245290583E+02    0.51809E+00   -0.96560E+00 12992   0.134E+01    0.649E+00
DAV:   9    -0.545232552713E+02   -0.98726E-01   -0.31443E+00 13096   0.151E+01    0.834E+00
DAV:  10    -0.540937774622E+02    0.42948E+00   -0.19097E+00 13656   0.927E+00    0.157E+00
DAV:  11    -0.540935089858E+02    0.26848E-03   -0.15624E-01 11200   0.170E+00    0.112E+00
DAV:  12    -0.540893096624E+02    0.41993E-02   -0.31956E-02 13384   0.139E+00    0.726E-01
DAV:  13    -0.540869684618E+02    0.23412E-02   -0.43480E-02 13064   0.123E+00    0.405E-01
DAV:  14    -0.540863829006E+02    0.58556E-03   -0.16400E-02 12912   0.689E-01    0.301E-01
DAV:  15    -0.540863623344E+02    0.20566E-04   -0.14451E-03 13200   0.334E-01    0.283E-01
DAV:  16    -0.540858115443E+02    0.55079E-03   -0.15310E-03 11864   0.216E-01    0.926E-02
DAV:  17    -0.540857861943E+02    0.25350E-04   -0.20023E-04 12320   0.103E-01    0.645E-02
DAV:  18    -0.540857688290E+02    0.17365E-04   -0.92619E-05 11472   0.854E-02    0.277E-02
DAV:  19    -0.540857651305E+02    0.36984E-05   -0.30484E-05 11392   0.327E-02    0.688E-03
DAV:  20    -0.540857651126E+02    0.17913E-07   -0.30257E-06  8208   0.101E-02
   1 F= -.54085765E+02 E0= -.54079483E+02  d E =-.125651E-01
