  20  20   0   0
  0.1615869E+02  0.3251842E-09  0.4796631E-09  0.2202291E-08  0.5000000E-15
  1.000000000000000E-004
  CAR 
 unknown system                          
     20.03641121    -36.93363778  301      7.92760701      1.00000000
    -36.934  0.0000E+00  0.0000E+00
    -36.744  0.0000E+00  0.0000E+00
    -36.554  0.0000E+00  0.0000E+00
    -36.364  0.0000E+00  0.0000E+00
    -36.174  0.0000E+00  0.0000E+00
    -35.984  0.0000E+00  0.0000E+00
    -35.794  0.0000E+00  0.0000E+00
    -35.604  0.0000E+00  0.0000E+00
    -35.414  0.0000E+00  0.0000E+00
    -35.225  0.0000E+00  0.0000E+00
    -35.035  0.0000E+00  0.0000E+00
    -34.845  0.0000E+00  0.0000E+00
    -34.655  0.0000E+00  0.0000E+00
    -34.465  0.1503E-02  0.2854E-03
    -34.275  0.1189E+02  0.2257E+01
    -34.085  0.4813E+02  0.1140E+02
    -33.895  0.5148E+02  0.2117E+02
    -33.705  0.7408E+02  0.3524E+02
    -33.515  0.3999E+01  0.3600E+02
    -33.326  0.0000E+00  0.3600E+02
    -33.136  0.0000E+00  0.3600E+02
    -32.946  0.0000E+00  0.3600E+02
    -32.756  0.0000E+00  0.3600E+02
    -32.566  0.0000E+00  0.3600E+02
    -32.376  0.0000E+00  0.3600E+02
    -32.186  0.0000E+00  0.3600E+02
    -31.996  0.0000E+00  0.3600E+02
    -31.806  0.0000E+00  0.3600E+02
    -31.616  0.0000E+00  0.3600E+02
    -31.427  0.0000E+00  0.3600E+02
    -31.237  0.0000E+00  0.3600E+02
    -31.047  0.0000E+00  0.3600E+02
    -30.857  0.0000E+00  0.3600E+02
    -30.667  0.0000E+00  0.3600E+02
    -30.477  0.0000E+00  0.3600E+02
    -30.287  0.0000E+00  0.3600E+02
    -30.097  0.0000E+00  0.3600E+02
    -29.907  0.0000E+00  0.3600E+02
    -29.717  0.0000E+00  0.3600E+02
    -29.528  0.0000E+00  0.3600E+02
    -29.338  0.0000E+00  0.3600E+02
    -29.148  0.0000E+00  0.3600E+02
    -28.958  0.0000E+00  0.3600E+02
    -28.768  0.0000E+00  0.3600E+02
    -28.578  0.0000E+00  0.3600E+02
    -28.388  0.0000E+00  0.3600E+02
    -28.198  0.0000E+00  0.3600E+02
    -28.008  0.0000E+00  0.3600E+02
    -27.818  0.0000E+00  0.3600E+02
    -27.629  0.0000E+00  0.3600E+02
    -27.439  0.0000E+00  0.3600E+02
    -27.249  0.0000E+00  0.3600E+02
    -27.059  0.0000E+00  0.3600E+02
    -26.869  0.0000E+00  0.3600E+02
    -26.679  0.0000E+00  0.3600E+02
    -26.489  0.0000E+00  0.3600E+02
    -26.299  0.0000E+00  0.3600E+02
    -26.109  0.0000E+00  0.3600E+02
    -25.919  0.0000E+00  0.3600E+02
    -25.730  0.0000E+00  0.3600E+02
    -25.540  0.0000E+00  0.3600E+02
    -25.350  0.0000E+00  0.3600E+02
    -25.160  0.0000E+00  0.3600E+02
    -24.970  0.0000E+00  0.3600E+02
    -24.780  0.0000E+00  0.3600E+02
    -24.590  0.0000E+00  0.3600E+02
    -24.400  0.0000E+00  0.3600E+02
    -24.210  0.0000E+00  0.3600E+02
    -24.020  0.0000E+00  0.3600E+02
    -23.831  0.0000E+00  0.3600E+02
    -23.641  0.0000E+00  0.3600E+02
    -23.451  0.0000E+00  0.3600E+02
    -23.261  0.0000E+00  0.3600E+02
    -23.071  0.0000E+00  0.3600E+02
    -22.881  0.0000E+00  0.3600E+02
    -22.691  0.0000E+00  0.3600E+02
    -22.501  0.0000E+00  0.3600E+02
    -22.311  0.0000E+00  0.3600E+02
    -22.121  0.0000E+00  0.3600E+02
    -21.932  0.0000E+00  0.3600E+02
    -21.742  0.0000E+00  0.3600E+02
    -21.552  0.0000E+00  0.3600E+02
    -21.362  0.0000E+00  0.3600E+02
    -21.172  0.0000E+00  0.3600E+02
    -20.982  0.0000E+00  0.3600E+02
    -20.792  0.0000E+00  0.3600E+02
    -20.602  0.0000E+00  0.3600E+02
    -20.412  0.0000E+00  0.3600E+02
    -20.222  0.0000E+00  0.3600E+02
    -20.033  0.0000E+00  0.3600E+02
    -19.843  0.0000E+00  0.3600E+02
    -19.653  0.0000E+00  0.3600E+02
    -19.463  0.0000E+00  0.3600E+02
    -19.273  0.0000E+00  0.3600E+02
    -19.083  0.0000E+00  0.3600E+02
    -18.893  0.0000E+00  0.3600E+02
    -18.703  0.0000E+00  0.3600E+02
    -18.513  0.0000E+00  0.3600E+02
    -18.323  0.0000E+00  0.3600E+02
    -18.134  0.0000E+00  0.3600E+02
    -17.944  0.0000E+00  0.3600E+02
    -17.754  0.0000E+00  0.3600E+02
    -17.564  0.3248E-14  0.3600E+02
    -17.374  0.4870E-01  0.3601E+02
    -17.184  0.5125E+02  0.4574E+02
    -16.994  0.5747E+02  0.5666E+02
    -16.804  0.1921E+03  0.9313E+02
    -16.614  0.2339E+03  0.1375E+03
    -16.424  0.1991E+03  0.1753E+03
    -16.235  0.3429E+01  0.1760E+03
    -16.045  0.0000E+00  0.1760E+03
    -15.855  0.0000E+00  0.1760E+03
    -15.665  0.0000E+00  0.1760E+03
    -15.475  0.0000E+00  0.1760E+03
    -15.285  0.0000E+00  0.1760E+03
    -15.095  0.0000E+00  0.1760E+03
    -14.905  0.0000E+00  0.1760E+03
    -14.715  0.0000E+00  0.1760E+03
    -14.525  0.0000E+00  0.1760E+03
    -14.336  0.0000E+00  0.1760E+03
    -14.146  0.0000E+00  0.1760E+03
    -13.956  0.0000E+00  0.1760E+03
    -13.766  0.0000E+00  0.1760E+03
    -13.576  0.0000E+00  0.1760E+03
    -13.386  0.0000E+00  0.1760E+03
    -13.196  0.0000E+00  0.1760E+03
    -13.006  0.0000E+00  0.1760E+03
    -12.816  0.0000E+00  0.1760E+03
    -12.626  0.0000E+00  0.1760E+03
    -12.437  0.0000E+00  0.1760E+03
    -12.247  0.0000E+00  0.1760E+03
    -12.057  0.0000E+00  0.1760E+03
    -11.867  0.0000E+00  0.1760E+03
    -11.677  0.0000E+00  0.1760E+03
    -11.487  0.0000E+00  0.1760E+03
    -11.297  0.0000E+00  0.1760E+03
    -11.107  0.0000E+00  0.1760E+03
    -10.917  0.0000E+00  0.1760E+03
    -10.727  0.0000E+00  0.1760E+03
    -10.538  0.0000E+00  0.1760E+03
    -10.348  0.0000E+00  0.1760E+03
    -10.158  0.0000E+00  0.1760E+03
     -9.968  0.0000E+00  0.1760E+03
     -9.778  0.0000E+00  0.1760E+03
     -9.588  0.0000E+00  0.1760E+03
     -9.398  0.0000E+00  0.1760E+03
     -9.208  0.0000E+00  0.1760E+03
     -9.018  0.0000E+00  0.1760E+03
     -8.828  0.0000E+00  0.1760E+03
     -8.639  0.0000E+00  0.1760E+03
     -8.449  0.0000E+00  0.1760E+03
     -8.259  0.0000E+00  0.1760E+03
     -8.069  0.0000E+00  0.1760E+03
     -7.879  0.0000E+00  0.1760E+03
     -7.689  0.0000E+00  0.1760E+03
     -7.499  0.0000E+00  0.1760E+03
     -7.309  0.0000E+00  0.1760E+03
     -7.119  0.0000E+00  0.1760E+03
     -6.929  0.0000E+00  0.1760E+03
     -6.740  0.0000E+00  0.1760E+03
     -6.550  0.0000E+00  0.1760E+03
     -6.360  0.0000E+00  0.1760E+03
     -6.170  0.0000E+00  0.1760E+03
     -5.980  0.0000E+00  0.1760E+03
     -5.790  0.1143E-05  0.1760E+03
     -5.600  0.1635E+00  0.1760E+03
     -5.410  0.6803E+00  0.1762E+03
     -5.220  0.1227E+01  0.1764E+03
     -5.030  0.1165E+01  0.1766E+03
     -4.841  0.1810E+01  0.1770E+03
     -4.651  0.2205E+01  0.1774E+03
     -4.461  0.1511E+01  0.1777E+03
     -4.271  0.2355E+01  0.1781E+03
     -4.081  0.2709E+01  0.1786E+03
     -3.891  0.2686E+01  0.1791E+03
     -3.701  0.4386E+01  0.1800E+03
     -3.511  0.2244E+01  0.1804E+03
     -3.321  0.3618E+01  0.1811E+03
     -3.131  0.3627E+01  0.1818E+03
     -2.942  0.3705E+01  0.1825E+03
     -2.752  0.3874E+01  0.1832E+03
     -2.562  0.4252E+01  0.1840E+03
     -2.372  0.6532E+01  0.1853E+03
     -2.182  0.3847E+01  0.1860E+03
     -1.992  0.5600E+01  0.1871E+03
     -1.802  0.5129E+01  0.1880E+03
     -1.612  0.6240E+01  0.1892E+03
     -1.422  0.4569E+01  0.1901E+03
     -1.232  0.6951E+01  0.1914E+03
     -1.043  0.5795E+01  0.1925E+03
     -0.853  0.6308E+01  0.1937E+03
     -0.663  0.7184E+01  0.1951E+03
     -0.473  0.6707E+01  0.1963E+03
     -0.283  0.8696E+01  0.1980E+03
     -0.093  0.6291E+01  0.1992E+03
      0.097  0.6249E+01  0.2004E+03
      0.287  0.4439E+01  0.2012E+03
      0.477  0.3257E+01  0.2018E+03
      0.667  0.3679E+01  0.2025E+03
      0.856  0.9623E+00  0.2027E+03
      1.046  0.2384E+01  0.2032E+03
      1.236  0.2307E+01  0.2036E+03
      1.426  0.2598E+01  0.2041E+03
      1.616  0.1729E+01  0.2044E+03
      1.806  0.2884E+01  0.2050E+03
      1.996  0.3229E+01  0.2056E+03
      2.186  0.6923E+01  0.2069E+03
      2.376  0.9285E+01  0.2087E+03
      2.566  0.9628E+01  0.2105E+03
      2.755  0.6478E+01  0.2117E+03
      2.945  0.9423E+01  0.2135E+03
      3.135  0.9842E+01  0.2154E+03
      3.325  0.8972E+01  0.2171E+03
      3.515  0.6152E+01  0.2183E+03
      3.705  0.9980E+01  0.2201E+03
      3.895  0.9274E+01  0.2219E+03
      4.085  0.9149E+01  0.2236E+03
      4.275  0.1407E+02  0.2263E+03
      4.465  0.1303E+02  0.2288E+03
      4.654  0.1299E+02  0.2313E+03
      4.844  0.1738E+02  0.2346E+03
      5.034  0.1775E+02  0.2379E+03
      5.224  0.1732E+02  0.2412E+03
      5.414  0.1839E+02  0.2447E+03
      5.604  0.1957E+02  0.2484E+03
      5.794  0.1857E+02  0.2520E+03
      5.984  0.1819E+02  0.2554E+03
      6.174  0.1692E+02  0.2586E+03
      6.364  0.1502E+02  0.2615E+03
      6.553  0.1390E+02  0.2641E+03
      6.743  0.1335E+02  0.2666E+03
      6.933  0.1317E+02  0.2691E+03
      7.123  0.1011E+02  0.2711E+03
      7.313  0.3795E+01  0.2718E+03
      7.503  0.2754E+01  0.2723E+03
      7.693  0.4874E+01  0.2732E+03
      7.883  0.3192E+01  0.2738E+03
      8.073  0.5182E+01  0.2748E+03
      8.263  0.5981E+01  0.2760E+03
      8.453  0.6132E+01  0.2771E+03
      8.642  0.7340E+01  0.2785E+03
      8.832  0.6925E+01  0.2798E+03
      9.022  0.1060E+02  0.2818E+03
      9.212  0.1109E+02  0.2840E+03
      9.402  0.1298E+02  0.2864E+03
      9.592  0.8300E+01  0.2880E+03
      9.782  0.1219E+02  0.2903E+03
      9.972  0.1538E+02  0.2932E+03
     10.162  0.1069E+02  0.2953E+03
     10.352  0.9545E+01  0.2971E+03
     10.541  0.1518E+02  0.3000E+03
     10.731  0.9386E+01  0.3017E+03
     10.921  0.9951E+01  0.3036E+03
     11.111  0.8224E+01  0.3052E+03
     11.301  0.1010E+02  0.3071E+03
     11.491  0.1142E+02  0.3093E+03
     11.681  0.9326E+01  0.3110E+03
     11.871  0.1102E+02  0.3131E+03
     12.061  0.1014E+02  0.3151E+03
     12.251  0.1048E+02  0.3171E+03
     12.440  0.1143E+02  0.3192E+03
     12.630  0.7242E+01  0.3206E+03
     12.820  0.1031E+02  0.3226E+03
     13.010  0.1016E+02  0.3245E+03
     13.200  0.1147E+02  0.3267E+03
     13.390  0.1278E+02  0.3291E+03
     13.580  0.1010E+02  0.3310E+03
     13.770  0.1028E+02  0.3330E+03
     13.960  0.1525E+02  0.3359E+03
     14.150  0.1061E+02  0.3379E+03
     14.339  0.1028E+02  0.3398E+03
     14.529  0.8138E+01  0.3414E+03
     14.719  0.1215E+02  0.3437E+03
     14.909  0.1225E+02  0.3460E+03
     15.099  0.1246E+02  0.3484E+03
     15.289  0.1007E+02  0.3503E+03
     15.479  0.8497E+01  0.3519E+03
     15.669  0.5216E+01  0.3529E+03
     15.859  0.7663E+01  0.3543E+03
     16.049  0.6215E+01  0.3555E+03
     16.238  0.6861E+01  0.3568E+03
     16.428  0.6205E+01  0.3580E+03
     16.618  0.3676E+01  0.3587E+03
     16.808  0.3917E+01  0.3594E+03
     16.998  0.1449E+01  0.3597E+03
     17.188  0.5350E+00  0.3598E+03
     17.378  0.6682E+00  0.3599E+03
     17.568  0.2705E+00  0.3600E+03
     17.758  0.6151E-04  0.3600E+03
     17.948  0.0000E+00  0.3600E+03
     18.137  0.0000E+00  0.3600E+03
     18.327  0.0000E+00  0.3600E+03
     18.517  0.0000E+00  0.3600E+03
     18.707  0.0000E+00  0.3600E+03
     18.897  0.0000E+00  0.3600E+03
     19.087  0.0000E+00  0.3600E+03
     19.277  0.0000E+00  0.3600E+03
     19.467  0.0000E+00  0.3600E+03
     19.657  0.0000E+00  0.3600E+03
     19.847  0.0000E+00  0.3600E+03
     20.036  0.0000E+00  0.3600E+03
