       N       E                     dE             d eps       ncg     rms          rms(c)
DAV:   1     0.569066514170E+04    0.56907E+04   -0.96175E+04 21556   0.453E+03
DAV:   2     0.122985243387E+04   -0.44608E+04   -0.41965E+04 26320   0.150E+03
DAV:   3     0.911996220672E+02   -0.11387E+04   -0.10392E+04 29452   0.479E+02
DAV:   4    -0.116098272561E+03   -0.20730E+03   -0.18327E+03 37572   0.248E+02
DAV:   5    -0.138246282529E+03   -0.22148E+02   -0.20305E+02 31152   0.102E+02    0.724E+01
DAV:   6    -0.138172332783E+03    0.73950E-01   -0.36357E+01 37424   0.417E+01    0.184E+01
DAV:   7    -0.137881189973E+03    0.29114E+00   -0.39324E+00 30920   0.172E+01    0.151E+01
DAV:   8    -0.137622245145E+03    0.25894E+00   -0.81543E-01 33264   0.963E+00    0.684E+00
DAV:   9    -0.137675233099E+03   -0.52988E-01   -0.94138E-01 32824   0.676E+00    0.236E+00
DAV:  10    -0.137606423866E+03    0.68809E-01   -0.97191E-01 32064   0.598E+00    0.144E+00
DAV:  11    -0.137591514214E+03    0.14910E-01   -0.12856E-01 31352   0.260E+00    0.730E-01
DAV:  12    -0.137593486329E+03   -0.19721E-02   -0.25884E-02 31960   0.993E-01    0.429E-01
DAV:  13    -0.137592835834E+03    0.65049E-03   -0.64567E-03 29960   0.825E-01    0.272E-01
DAV:  14    -0.137592762518E+03    0.73316E-04   -0.21198E-03 29696   0.572E-01    0.248E-01
DAV:  15    -0.137592759266E+03    0.32529E-05   -0.77554E-04 33208   0.346E-01    0.183E-01
DAV:  16    -0.137592712394E+03    0.46871E-04   -0.44651E-04 30136   0.222E-01    0.682E-02
DAV:  17    -0.137592704132E+03    0.82621E-05   -0.12382E-04 32280   0.104E-01    0.403E-02
DAV:  18    -0.137592705371E+03   -0.12384E-05   -0.30490E-05 29480   0.474E-02    0.363E-02
DAV:  19    -0.137592704457E+03    0.91307E-06   -0.34555E-06 15544   0.417E-02
   1 F= -.13759270E+03 E0= -.13759057E+03  d E =-.426116E-02
