Ca24 N16                                
   1.00000000000000     
     9.1481138116471410    0.0000003450229838   -3.2343466552482161
    -4.5740571352842521    7.9224988209112972   -3.2343466413410749
     0.0000000465834727    0.0000000611255727    9.7030399890432655
   Ca   N 
    24    16
Direct
     0.0454224442292682    0.2724569859359466    0.0085523612721672
     0.2729654613569761    0.7360953738434134    0.2275430119932289
     0.7639046169856608    0.0368700813701119    0.4914476317393981
     0.4545775502899934    0.4631299156363828    0.2270345387168999
     0.2270345386417706    0.4545775500882910    0.4631299149819653
     0.2724569863892449    0.0085523621043538    0.0454224449095447
     0.2275430118002042    0.2729654610010631    0.7360953735585044
     0.0368700814358427    0.4914476319509973    0.7639046171166837
     0.4914476317725961    0.7639046170861764    0.0368700810901751
     0.7360953737780510    0.2275430120465720    0.2729654612972930
     0.0085523619374526    0.0454224449219627    0.2724569862110885
     0.4631299155879294    0.2270345387311393    0.4545775503655799
     0.9631299185785662    0.5085523680425093    0.2360953828896633
     0.7724569881918295    0.7270345390120359    0.2639046264258713
     0.7275430136224792    0.9914476378956226    0.9545775551071310
     0.7729654613691637    0.5454224499237809    0.5368700850291710
     0.5454224497147091    0.5368700843755204    0.7729654612750581
     0.2360953829892815    0.9631299186211612    0.5085523682636625
     0.7270345386219237    0.2639046261356314    0.7724569880049661
     0.9545775557533297    0.7275430140293120    0.9914476387117627
     0.5085523682387365    0.2360953829343095    0.9631299189190002
     0.2639046262570858    0.7724569879846589    0.7270345387244130
     0.9914476380516880    0.9545775550589493    0.7275430137743546
     0.5368700843939604    0.7729654612612159    0.5454224496163937
     0.2500000042464969    0.7098566819843029    0.4598566814725671
     0.0401433181886990    0.7499999967754728    0.7901433161369393
     0.7901433142474178    0.0401433171020069    0.7499999959310671
     0.4598566812435527    0.2500000038075900    0.7098566825533902
     0.7098566825810783    0.4598566821418469    0.2500000054939659
     0.7499999966547939    0.7901433153262021    0.0401433179927704
     0.7499999957554943    0.2901433180350128    0.5401433185497767
     0.9598566818413616    0.2500000032267101    0.2098566838877326
     0.2098566857412042    0.9598566828768283    0.2500000040660780
     0.5401433187319421    0.7499999961922950    0.2901433174250265
     0.2901433174392289    0.5401433178819409    0.7499999945199888
     0.2500000033420190    0.2098566846566134    0.9598566819807168
     0.9999999999905793    0.4999999999734369    0.9999999999922227
     0.5000000000190375    0.0000000000271869    0.0000000000166555
     0.9999999999863359    0.0000000000013384    0.4999999999995016
     0.5000000000030156    0.5000000000000990    0.4999999999876240
 
  0.00000000E+00  0.00000000E+00  0.00000000E+00
  0.00000000E+00  0.00000000E+00  0.00000000E+00
  0.00000000E+00  0.00000000E+00  0.00000000E+00
  0.00000000E+00  0.00000000E+00  0.00000000E+00
  0.00000000E+00  0.00000000E+00  0.00000000E+00
  0.00000000E+00  0.00000000E+00  0.00000000E+00
  0.00000000E+00  0.00000000E+00  0.00000000E+00
  0.00000000E+00  0.00000000E+00  0.00000000E+00
  0.00000000E+00  0.00000000E+00  0.00000000E+00
  0.00000000E+00  0.00000000E+00  0.00000000E+00
  0.00000000E+00  0.00000000E+00  0.00000000E+00
  0.00000000E+00  0.00000000E+00  0.00000000E+00
  0.00000000E+00  0.00000000E+00  0.00000000E+00
  0.00000000E+00  0.00000000E+00  0.00000000E+00
  0.00000000E+00  0.00000000E+00  0.00000000E+00
  0.00000000E+00  0.00000000E+00  0.00000000E+00
  0.00000000E+00  0.00000000E+00  0.00000000E+00
  0.00000000E+00  0.00000000E+00  0.00000000E+00
  0.00000000E+00  0.00000000E+00  0.00000000E+00
  0.00000000E+00  0.00000000E+00  0.00000000E+00
  0.00000000E+00  0.00000000E+00  0.00000000E+00
  0.00000000E+00  0.00000000E+00  0.00000000E+00
  0.00000000E+00  0.00000000E+00  0.00000000E+00
  0.00000000E+00  0.00000000E+00  0.00000000E+00
  0.00000000E+00  0.00000000E+00  0.00000000E+00
  0.00000000E+00  0.00000000E+00  0.00000000E+00
  0.00000000E+00  0.00000000E+00  0.00000000E+00
  0.00000000E+00  0.00000000E+00  0.00000000E+00
  0.00000000E+00  0.00000000E+00  0.00000000E+00
  0.00000000E+00  0.00000000E+00  0.00000000E+00
  0.00000000E+00  0.00000000E+00  0.00000000E+00
  0.00000000E+00  0.00000000E+00  0.00000000E+00
  0.00000000E+00  0.00000000E+00  0.00000000E+00
  0.00000000E+00  0.00000000E+00  0.00000000E+00
  0.00000000E+00  0.00000000E+00  0.00000000E+00
  0.00000000E+00  0.00000000E+00  0.00000000E+00
  0.00000000E+00  0.00000000E+00  0.00000000E+00
  0.00000000E+00  0.00000000E+00  0.00000000E+00
  0.00000000E+00  0.00000000E+00  0.00000000E+00
  0.00000000E+00  0.00000000E+00  0.00000000E+00
