unknown system                          
           1
     9.148114    0.000000   -3.234347
    -4.574057    7.922499   -3.234347
     0.000000    0.000000    9.703040
   Ca   N 
    24    16
Direct configuration=     1
   0.04542244  0.27245699  0.00855236
   0.27296546  0.73609537  0.22754301
   0.76390462  0.03687008  0.49144763
   0.45457755  0.46312992  0.22703454
   0.22703454  0.45457755  0.46312991
   0.27245699  0.00855236  0.04542244
   0.22754301  0.27296546  0.73609537
   0.03687008  0.49144763  0.76390462
   0.49144763  0.76390462  0.03687008
   0.73609537  0.22754301  0.27296546
   0.00855236  0.04542244  0.27245699
   0.46312992  0.22703454  0.45457755
   0.96312992  0.50855237  0.23609538
   0.77245699  0.72703454  0.26390463
   0.72754301  0.99144764  0.95457756
   0.77296546  0.54542245  0.53687009
   0.54542245  0.53687008  0.77296546
   0.23609538  0.96312992  0.50855237
   0.72703454  0.26390463  0.77245699
   0.95457756  0.72754301  0.99144764
   0.50855237  0.23609538  0.96312992
   0.26390463  0.77245699  0.72703454
   0.99144764  0.95457756  0.72754301
   0.53687008  0.77296546  0.54542245
   0.25000000  0.70985668  0.45985668
   0.04014332  0.75000000  0.79014332
   0.79014331  0.04014332  0.75000000
   0.45985668  0.25000000  0.70985668
   0.70985668  0.45985668  0.25000001
   0.75000000  0.79014332  0.04014332
   0.75000000  0.29014332  0.54014332
   0.95985668  0.25000000  0.20985668
   0.20985669  0.95985668  0.25000000
   0.54014332  0.75000000  0.29014332
   0.29014332  0.54014332  0.74999999
   0.25000000  0.20985668  0.95985668
   1.00000000  0.50000000  1.00000000
   0.50000000  0.00000000  0.00000000
   1.00000000  0.00000000  0.50000000
   0.50000000  0.50000000  0.50000000
