unknown system                          
           1
     6.126698    0.000000    0.000000
     0.000000    8.078885    0.000000
     0.000000    0.000000    9.512086
   Li   P 
     4    20
Direct configuration=     1
   0.23486300  0.63158800  0.63629200
   0.23486300  0.86841200  0.13629200
   0.73486300  0.13158800  0.86370800
   0.73486300  0.36841200  0.36370800
   0.14273600  0.50923400  0.88612800
   0.14273600  0.99076600  0.38612800
   0.28140500  0.55416000  0.10275400
   0.07150600  0.14187400  0.04418300
   0.28936400  0.24813700  0.38489800
   0.07150600  0.35812600  0.54418300
   0.28936400  0.25186300  0.88489800
   0.28140500  0.94584000  0.60275400
   0.59812600  0.65809600  0.80036400
   0.59812600  0.84190400  0.30036400
   0.64273600  0.00923400  0.61387200
   0.64273600  0.49076600  0.11387200
   0.78936400  0.74813700  0.11510200
   0.78140500  0.44584000  0.89724600
   0.57150600  0.85812600  0.95581700
   0.78936400  0.75186300  0.61510200
   0.78140500  0.05416000  0.39724600
   0.57150600  0.64187400  0.45581700
   0.09812600  0.15809600  0.69963600
   0.09812600  0.34190400  0.19963600
