       N       E                     dE             d eps       ncg     rms          rms(c)
DAV:   1     0.130416582212E+04    0.13042E+04   -0.86011E+04  4096   0.142E+03
DAV:   2     0.590809935286E+01   -0.12983E+04   -0.12468E+04  5128   0.242E+02
DAV:   3    -0.128844865415E+03   -0.13475E+03   -0.13250E+03  4896   0.842E+01
DAV:   4    -0.132684418125E+03   -0.38396E+01   -0.37815E+01  4960   0.155E+01
DAV:   5    -0.132813182521E+03   -0.12876E+00   -0.12803E+00  5080   0.281E+00    0.638E+01
DAV:   6    -0.132065862184E+03    0.74732E+00   -0.50383E-01  4784   0.159E+00    0.386E+01
DAV:   7    -0.131792211722E+03    0.27365E+00   -0.87782E-01  4752   0.206E+00    0.865E-01
DAV:   8    -0.131793106019E+03   -0.89430E-03   -0.54203E-02  4640   0.588E-01    0.611E-01
DAV:   9    -0.131794043320E+03   -0.93730E-03   -0.31034E-03  5016   0.139E-01    0.244E-01
DAV:  10    -0.131794935411E+03   -0.89209E-03   -0.62504E-04  4528   0.667E-02    0.682E-02
DAV:  11    -0.131795083678E+03   -0.14827E-03   -0.10780E-04  5192   0.255E-02    0.334E-02
DAV:  12    -0.131795136242E+03   -0.52564E-04   -0.33527E-05  4464   0.156E-02    0.130E-02
DAV:  13    -0.131795149918E+03   -0.13676E-04   -0.99588E-06  4424   0.843E-03    0.605E-03
DAV:  14    -0.131795152029E+03   -0.21106E-05   -0.11842E-06  2880   0.346E-03    0.329E-03
DAV:  15    -0.131795152175E+03   -0.14622E-06   -0.54875E-07  2216   0.203E-03
   1 F= -.13179515E+03 E0= -.13179515E+03  d E =-.612033E-16
