unknown system                          
           1
     0.001313    6.670505   12.326829
     5.402025    0.003579   12.324930
     5.401945    6.665950    0.001540
   S 
    32
Direct configuration=     1
   0.85739228  0.04569055  0.74349742
   0.85410773  0.74148466  0.04675447
   0.74454946  0.85178033  0.85632756
   0.04595053  0.85674568  0.85546557
   0.14269776  0.95267344  0.25773972
   0.14664687  0.25622787  0.95462229
   0.25861388  0.14424730  0.14324542
   0.95291388  0.14273503  0.14750709
   0.74077595  0.26855647  0.80483658
   0.68494475  0.80472585  0.26904845
   0.80720444  0.68333728  0.73939620
   0.26938489  0.73871001  0.68779967
   0.25957677  0.73017661  0.19422587
   0.31413496  0.19469126  0.73143777
   0.19718570  0.31162823  0.26044548
   0.73033792  0.25949929  0.31619846
   0.83961947  0.31440309  0.61191891
   0.73256531  0.61221335  0.31645542
   0.61420483  0.73175476  0.83587063
   0.31715968  0.83569929  0.73562837
   0.16288911  0.68187637  0.38658589
   0.26562404  0.38779290  0.68478390
   0.38987664  0.26367649  0.16195637
   0.68281618  0.16224169  0.26841262
   0.01385597  0.24639098  0.67392574
   0.56524713  0.67334950  0.24749916
   0.67443429  0.56444180  0.01078982
   0.25072513  0.00917198  0.56682981
   0.98782472  0.75048787  0.32582951
   0.43427967  0.32602787  0.75132661
   0.32753992  0.43272279  0.98856304
   0.75149415  0.98690540  0.43550320
