Ta1 P1                                  
   1.00000000000000     
     1.6601512700000001   -2.8754659500000002    0.0000000000000000
     1.6601512700000001    2.8754659500000002    0.0000000000000000
     0.0000000000000000    0.0000000000000000    3.3120109499999999
   Ta   P 
     1     1
Direct
     0.6666669999999968    0.3333330000000032    0.0000000000000000
     0.0000000000000000    0.0000000000000000    0.5000000000000000
 
  0.00000000E+00  0.00000000E+00  0.00000000E+00
  0.00000000E+00  0.00000000E+00  0.00000000E+00
