   2   2   0   0
  0.1581057E+02  0.3320302E-09  0.3320302E-09  0.3312011E-09  0.5000000E-15
  1.000000000000000E-004
  CAR 
 unknown system                          
     23.98658117    -29.44759025  301      7.66478251      1.00000000
    -29.448  0.0000E+00  0.0000E+00
    -29.269  0.0000E+00  0.0000E+00
    -29.091  0.0000E+00  0.0000E+00
    -28.913  0.0000E+00  0.0000E+00
    -28.735  0.0000E+00  0.0000E+00
    -28.557  0.0000E+00  0.0000E+00
    -28.379  0.0000E+00  0.0000E+00
    -28.201  0.0000E+00  0.0000E+00
    -28.023  0.0000E+00  0.0000E+00
    -27.845  0.0000E+00  0.0000E+00
    -27.666  0.0000E+00  0.0000E+00
    -27.488  0.0000E+00  0.0000E+00
    -27.310  0.3420E-17  0.6092E-18
    -27.132  0.1004E-03  0.1788E-04
    -26.954  0.2693E+01  0.4797E+00
    -26.776  0.1647E+02  0.3413E+01
    -26.598  0.1431E+02  0.5962E+01
    -26.420  0.2118E+00  0.6000E+01
    -26.242  0.4396E-09  0.6000E+01
    -26.063  0.0000E+00  0.6000E+01
    -25.885  0.0000E+00  0.6000E+01
    -25.707  0.0000E+00  0.6000E+01
    -25.529  0.0000E+00  0.6000E+01
    -25.351  0.0000E+00  0.6000E+01
    -25.173  0.0000E+00  0.6000E+01
    -24.995  0.0000E+00  0.6000E+01
    -24.817  0.0000E+00  0.6000E+01
    -24.639  0.0000E+00  0.6000E+01
    -24.460  0.0000E+00  0.6000E+01
    -24.282  0.0000E+00  0.6000E+01
    -24.104  0.0000E+00  0.6000E+01
    -23.926  0.0000E+00  0.6000E+01
    -23.748  0.0000E+00  0.6000E+01
    -23.570  0.0000E+00  0.6000E+01
    -23.392  0.0000E+00  0.6000E+01
    -23.214  0.0000E+00  0.6000E+01
    -23.035  0.0000E+00  0.6000E+01
    -22.857  0.0000E+00  0.6000E+01
    -22.679  0.0000E+00  0.6000E+01
    -22.501  0.0000E+00  0.6000E+01
    -22.323  0.0000E+00  0.6000E+01
    -22.145  0.0000E+00  0.6000E+01
    -21.967  0.0000E+00  0.6000E+01
    -21.789  0.0000E+00  0.6000E+01
    -21.611  0.0000E+00  0.6000E+01
    -21.432  0.0000E+00  0.6000E+01
    -21.254  0.0000E+00  0.6000E+01
    -21.076  0.0000E+00  0.6000E+01
    -20.898  0.0000E+00  0.6000E+01
    -20.720  0.0000E+00  0.6000E+01
    -20.542  0.0000E+00  0.6000E+01
    -20.364  0.0000E+00  0.6000E+01
    -20.186  0.0000E+00  0.6000E+01
    -20.008  0.0000E+00  0.6000E+01
    -19.829  0.0000E+00  0.6000E+01
    -19.651  0.0000E+00  0.6000E+01
    -19.473  0.0000E+00  0.6000E+01
    -19.295  0.0000E+00  0.6000E+01
    -19.117  0.0000E+00  0.6000E+01
    -18.939  0.0000E+00  0.6000E+01
    -18.761  0.0000E+00  0.6000E+01
    -18.583  0.0000E+00  0.6000E+01
    -18.405  0.0000E+00  0.6000E+01
    -18.226  0.0000E+00  0.6000E+01
    -18.048  0.0000E+00  0.6000E+01
    -17.870  0.0000E+00  0.6000E+01
    -17.692  0.0000E+00  0.6000E+01
    -17.514  0.0000E+00  0.6000E+01
    -17.336  0.0000E+00  0.6000E+01
    -17.158  0.0000E+00  0.6000E+01
    -16.980  0.0000E+00  0.6000E+01
    -16.802  0.0000E+00  0.6000E+01
    -16.623  0.0000E+00  0.6000E+01
    -16.445  0.0000E+00  0.6000E+01
    -16.267  0.0000E+00  0.6000E+01
    -16.089  0.0000E+00  0.6000E+01
    -15.911  0.0000E+00  0.6000E+01
    -15.733  0.0000E+00  0.6000E+01
    -15.555  0.0000E+00  0.6000E+01
    -15.377  0.0000E+00  0.6000E+01
    -15.198  0.0000E+00  0.6000E+01
    -15.020  0.0000E+00  0.6000E+01
    -14.842  0.0000E+00  0.6000E+01
    -14.664  0.0000E+00  0.6000E+01
    -14.486  0.0000E+00  0.6000E+01
    -14.308  0.0000E+00  0.6000E+01
    -14.130  0.0000E+00  0.6000E+01
    -13.952  0.0000E+00  0.6000E+01
    -13.774  0.0000E+00  0.6000E+01
    -13.595  0.0000E+00  0.6000E+01
    -13.417  0.0000E+00  0.6000E+01
    -13.239  0.0000E+00  0.6000E+01
    -13.061  0.0000E+00  0.6000E+01
    -12.883  0.0000E+00  0.6000E+01
    -12.705  0.0000E+00  0.6000E+01
    -12.527  0.0000E+00  0.6000E+01
    -12.349  0.0000E+00  0.6000E+01
    -12.171  0.0000E+00  0.6000E+01
    -11.992  0.0000E+00  0.6000E+01
    -11.814  0.0000E+00  0.6000E+01
    -11.636  0.0000E+00  0.6000E+01
    -11.458  0.0000E+00  0.6000E+01
    -11.280  0.0000E+00  0.6000E+01
    -11.102  0.0000E+00  0.6000E+01
    -10.924  0.0000E+00  0.6000E+01
    -10.746  0.0000E+00  0.6000E+01
    -10.568  0.0000E+00  0.6000E+01
    -10.389  0.0000E+00  0.6000E+01
    -10.211  0.0000E+00  0.6000E+01
    -10.033  0.0000E+00  0.6000E+01
     -9.855  0.0000E+00  0.6000E+01
     -9.677  0.0000E+00  0.6000E+01
     -9.499  0.0000E+00  0.6000E+01
     -9.321  0.0000E+00  0.6000E+01
     -9.143  0.0000E+00  0.6000E+01
     -8.964  0.0000E+00  0.6000E+01
     -8.786  0.0000E+00  0.6000E+01
     -8.608  0.0000E+00  0.6000E+01
     -8.430  0.0000E+00  0.6000E+01
     -8.252  0.0000E+00  0.6000E+01
     -8.074  0.0000E+00  0.6000E+01
     -7.896  0.0000E+00  0.6000E+01
     -7.718  0.0000E+00  0.6000E+01
     -7.540  0.0000E+00  0.6000E+01
     -7.361  0.0000E+00  0.6000E+01
     -7.183  0.0000E+00  0.6000E+01
     -7.005  0.0000E+00  0.6000E+01
     -6.827  0.0000E+00  0.6000E+01
     -6.649  0.0000E+00  0.6000E+01
     -6.471  0.0000E+00  0.6000E+01
     -6.293  0.0000E+00  0.6000E+01
     -6.115  0.8550E-17  0.6000E+01
     -5.937  0.2207E-04  0.6000E+01
     -5.758  0.1508E-01  0.6003E+01
     -5.580  0.9722E-01  0.6020E+01
     -5.402  0.1357E+00  0.6044E+01
     -5.224  0.8122E-01  0.6059E+01
     -5.046  0.1200E+00  0.6080E+01
     -4.868  0.3646E+00  0.6145E+01
     -4.690  0.2796E+00  0.6195E+01
     -4.512  0.8140E-01  0.6209E+01
     -4.334  0.3920E+00  0.6279E+01
     -4.155  0.4821E+00  0.6365E+01
     -3.977  0.3161E+00  0.6421E+01
     -3.799  0.6541E+00  0.6538E+01
     -3.621  0.3717E+00  0.6604E+01
     -3.443  0.6519E+00  0.6720E+01
     -3.265  0.1117E+01  0.6919E+01
     -3.087  0.1170E+01  0.7127E+01
     -2.909  0.1849E+01  0.7457E+01
     -2.731  0.2183E+01  0.7845E+01
     -2.552  0.8540E+00  0.7998E+01
     -2.374  0.1393E-01  0.8000E+01
     -2.196  0.2208E-10  0.8000E+01
     -2.018  0.0000E+00  0.8000E+01
     -1.840  0.0000E+00  0.8000E+01
     -1.662  0.0000E+00  0.8000E+01
     -1.484  0.0000E+00  0.8000E+01
     -1.306  0.0000E+00  0.8000E+01
     -1.127  0.0000E+00  0.8000E+01
     -0.949  0.0000E+00  0.8000E+01
     -0.771  0.0000E+00  0.8000E+01
     -0.593  0.0000E+00  0.8000E+01
     -0.415  0.0000E+00  0.8000E+01
     -0.237  0.1197E-15  0.8000E+01
     -0.059  0.9647E-04  0.8000E+01
      0.119  0.3038E-01  0.8005E+01
      0.297  0.1018E+00  0.8024E+01
      0.476  0.8334E-01  0.8038E+01
      0.654  0.2107E-03  0.8038E+01
      0.832  0.1803E+00  0.8071E+01
      1.010  0.2877E+00  0.8122E+01
      1.188  0.4585E+00  0.8203E+01
      1.366  0.5140E+00  0.8295E+01
      1.544  0.1111E+01  0.8493E+01
      1.722  0.1136E+01  0.8695E+01
      1.900  0.9882E+00  0.8871E+01
      2.079  0.2338E+01  0.9288E+01
      2.257  0.1181E+01  0.9498E+01
      2.435  0.1486E+00  0.9524E+01
      2.613  0.9115E+00  0.9687E+01
      2.791  0.1019E+01  0.9868E+01
      2.969  0.9849E+00  0.1004E+02
      3.147  0.9460E+00  0.1021E+02
      3.325  0.1096E+01  0.1041E+02
      3.503  0.8043E+00  0.1055E+02
      3.682  0.1686E+01  0.1085E+02
      3.860  0.1455E+01  0.1111E+02
      4.038  0.1065E+01  0.1130E+02
      4.216  0.1005E+01  0.1148E+02
      4.394  0.1083E+01  0.1167E+02
      4.572  0.2337E+01  0.1209E+02
      4.750  0.2179E+01  0.1248E+02
      4.928  0.1907E+01  0.1282E+02
      5.107  0.1143E+01  0.1302E+02
      5.285  0.1193E+01  0.1323E+02
      5.463  0.1565E+01  0.1351E+02
      5.641  0.1021E+01  0.1369E+02
      5.819  0.1202E+01  0.1391E+02
      5.997  0.6162E+00  0.1402E+02
      6.175  0.4399E+00  0.1409E+02
      6.353  0.9686E+00  0.1427E+02
      6.531  0.1593E+01  0.1455E+02
      6.710  0.3190E+01  0.1512E+02
      6.888  0.1265E+01  0.1534E+02
      7.066  0.1905E+01  0.1568E+02
      7.244  0.1280E+01  0.1591E+02
      7.422  0.2409E+00  0.1595E+02
      7.600  0.9753E-01  0.1597E+02
      7.778  0.3725E+00  0.1604E+02
      7.956  0.3146E+00  0.1609E+02
      8.134  0.4762E+00  0.1618E+02
      8.313  0.4709E+00  0.1626E+02
      8.491  0.7247E+00  0.1639E+02
      8.669  0.8834E+00  0.1655E+02
      8.847  0.3386E+00  0.1661E+02
      9.025  0.1498E+01  0.1688E+02
      9.203  0.7604E+00  0.1701E+02
      9.381  0.1007E+01  0.1719E+02
      9.559  0.6322E+00  0.1730E+02
      9.737  0.1140E+01  0.1751E+02
      9.916  0.5456E+00  0.1760E+02
     10.094  0.1259E+01  0.1783E+02
     10.272  0.1558E+01  0.1811E+02
     10.450  0.1017E+01  0.1829E+02
     10.628  0.2273E+01  0.1869E+02
     10.806  0.1824E+01  0.1902E+02
     10.984  0.1643E+01  0.1931E+02
     11.162  0.1882E+01  0.1964E+02
     11.340  0.1491E+01  0.1991E+02
     11.519  0.2137E+01  0.2029E+02
     11.697  0.2210E+01  0.2068E+02
     11.875  0.2580E+01  0.2114E+02
     12.053  0.2325E+01  0.2156E+02
     12.231  0.1860E+01  0.2189E+02
     12.409  0.1714E+01  0.2219E+02
     12.587  0.1339E+01  0.2243E+02
     12.765  0.1227E+01  0.2265E+02
     12.944  0.8940E+00  0.2281E+02
     13.122  0.9958E+00  0.2299E+02
     13.300  0.1571E+01  0.2327E+02
     13.478  0.1505E+01  0.2354E+02
     13.656  0.8459E+00  0.2369E+02
     13.834  0.1341E+00  0.2371E+02
     14.012  0.8384E+00  0.2386E+02
     14.190  0.8073E+00  0.2400E+02
     14.368  0.4563E+00  0.2409E+02
     14.547  0.1110E+01  0.2428E+02
     14.725  0.8145E+00  0.2443E+02
     14.903  0.9112E+00  0.2459E+02
     15.081  0.2175E+01  0.2498E+02
     15.259  0.1566E+01  0.2526E+02
     15.437  0.1250E+01  0.2548E+02
     15.615  0.1078E+01  0.2567E+02
     15.793  0.1119E+01  0.2587E+02
     15.971  0.7309E+00  0.2600E+02
     16.150  0.1012E+01  0.2618E+02
     16.328  0.9963E+00  0.2636E+02
     16.506  0.8842E+00  0.2652E+02
     16.684  0.6048E+00  0.2662E+02
     16.862  0.1405E+01  0.2687E+02
     17.040  0.1662E+01  0.2717E+02
     17.218  0.2031E+01  0.2753E+02
     17.396  0.1495E+01  0.2780E+02
     17.574  0.3447E+00  0.2786E+02
     17.753  0.1371E+01  0.2810E+02
     17.931  0.1360E+01  0.2835E+02
     18.109  0.5353E+00  0.2844E+02
     18.287  0.1456E+01  0.2870E+02
     18.465  0.9341E+00  0.2887E+02
     18.643  0.1125E+01  0.2907E+02
     18.821  0.8825E+00  0.2922E+02
     18.999  0.1924E+01  0.2957E+02
     19.178  0.4609E+00  0.2965E+02
     19.356  0.2372E+01  0.3007E+02
     19.534  0.9525E+00  0.3024E+02
     19.712  0.1795E+01  0.3056E+02
     19.890  0.9479E+00  0.3073E+02
     20.068  0.1111E+01  0.3093E+02
     20.246  0.1245E+01  0.3115E+02
     20.424  0.1493E+01  0.3142E+02
     20.602  0.9392E+00  0.3158E+02
     20.781  0.6155E+00  0.3169E+02
     20.959  0.2164E+00  0.3173E+02
     21.137  0.3893E+00  0.3180E+02
     21.315  0.2576E+00  0.3185E+02
     21.493  0.1103E+00  0.3187E+02
     21.671  0.7522E+00  0.3200E+02
     21.849  0.1455E-03  0.3200E+02
     22.027  0.0000E+00  0.3200E+02
     22.205  0.0000E+00  0.3200E+02
     22.384  0.0000E+00  0.3200E+02
     22.562  0.0000E+00  0.3200E+02
     22.740  0.0000E+00  0.3200E+02
     22.918  0.0000E+00  0.3200E+02
     23.096  0.0000E+00  0.3200E+02
     23.274  0.0000E+00  0.3200E+02
     23.452  0.0000E+00  0.3200E+02
     23.630  0.0000E+00  0.3200E+02
     23.808  0.0000E+00  0.3200E+02
     23.987  0.0000E+00  0.3200E+02
