       N       E                     dE             d eps       ncg     rms          rms(c)
DAV:   1     0.968483231643E+02    0.96848E+02   -0.90375E+03 23336   0.109E+03
DAV:   2    -0.173465545950E+02   -0.11419E+03   -0.10870E+03 29888   0.281E+02
DAV:   3    -0.201475166339E+02   -0.28010E+01   -0.27875E+01 28432   0.387E+01
DAV:   4    -0.201639733096E+02   -0.16457E-01   -0.16455E-01 29832   0.334E+00
DAV:   5    -0.201641437293E+02   -0.17042E-03   -0.17042E-03 28760   0.338E-01    0.177E+01
DAV:   6    -0.191329942706E+02    0.10311E+01   -0.11451E+00 28896   0.108E+01    0.767E+00
DAV:   7    -0.190912910832E+02    0.41703E-01   -0.18739E-01 29512   0.328E+00    0.313E+00
DAV:   8    -0.190814429444E+02    0.98481E-02   -0.18572E-02 26864   0.842E-01    0.306E-01
DAV:   9    -0.190808630648E+02    0.57988E-03   -0.17207E-03 28904   0.306E-01    0.155E-01
DAV:  10    -0.190809064723E+02   -0.43407E-04   -0.25937E-04 29136   0.160E-01    0.294E-02
DAV:  11    -0.190808866174E+02    0.19855E-04   -0.31485E-05 29600   0.621E-02    0.117E-02
DAV:  12    -0.190808857596E+02    0.85779E-06   -0.31999E-06 29552   0.129E-02
   1 F= -.19080886E+02 E0= -.19080459E+02  d E =-.853657E-03
