       N       E                     dE             d eps       ncg     rms          rms(c)
DAV:   1     0.884045925270E+02    0.88405E+02   -0.98841E+03 48272   0.150E+03
DAV:   2    -0.198659452322E+02   -0.10827E+03   -0.10145E+03 50944   0.512E+02
DAV:   3    -0.219160417587E+02   -0.20501E+01   -0.20435E+01 43600   0.637E+01
DAV:   4    -0.219232365296E+02   -0.71948E-02   -0.71931E-02 41504   0.240E+00
DAV:   5    -0.219233552333E+02   -0.11870E-03   -0.11870E-03 44408   0.353E-01    0.393E+01
DAV:   6    -0.197482524746E+02    0.21751E+01   -0.41413E+00 58384   0.603E+01    0.921E+00
DAV:   7    -0.194583693310E+02    0.28988E+00   -0.62340E-01 54352   0.219E+01    0.105E+01
DAV:   8    -0.193947466242E+02    0.63623E-01   -0.14093E-01 52776   0.100E+01    0.968E-01
DAV:   9    -0.193920540538E+02    0.26926E-02   -0.64736E-03 49968   0.199E+00    0.117E-01
DAV:  10    -0.193920236779E+02    0.30376E-04   -0.37356E-04 47752   0.251E-01    0.390E-02
DAV:  11    -0.193920011879E+02    0.22490E-04   -0.20822E-05 53744   0.114E-01    0.230E-02
DAV:  12    -0.193919983354E+02    0.28525E-05   -0.16699E-06 32728   0.141E-02    0.945E-03
DAV:  13    -0.193919985350E+02   -0.19968E-06   -0.21570E-07 20424   0.167E-02
   1 F= -.19391999E+02 E0= -.19390598E+02  d E =-.280123E-02
