       N       E                     dE             d eps       ncg     rms          rms(c)
DAV:   1     0.505744244204E+02    0.50574E+02   -0.38350E+03  3456   0.949E+02
DAV:   2     0.638753834473E+00   -0.49936E+02   -0.49271E+02  3496   0.220E+02
DAV:   3    -0.993701294270E+00   -0.16325E+01   -0.16273E+01  5496   0.371E+01
DAV:   4    -0.103662054654E+01   -0.42919E-01   -0.42505E-01  5120   0.469E+00
DAV:   5    -0.103727566393E+01   -0.65512E-03   -0.65502E-03  5920   0.383E-01    0.185E+00
DAV:   6    -0.103759869628E+01   -0.32303E-03   -0.12120E-03  5584   0.267E-01    0.114E+00
DAV:   7    -0.103804664971E+01   -0.44795E-03   -0.26536E-03  5256   0.411E-01    0.498E-02
DAV:   8    -0.103811256087E+01   -0.65911E-04   -0.12064E-04  5176   0.147E-01    0.179E-02
DAV:   9    -0.103812399880E+01   -0.11438E-04   -0.11924E-05  5224   0.322E-02    0.748E-03
DAV:  10    -0.103812284595E+01    0.11529E-05   -0.27104E-06  5528   0.161E-02    0.113E-03
DAV:  11    -0.103812288744E+01   -0.41490E-07   -0.56933E-08  3080   0.235E-03
   1 F= -.10381229E+01 E0= -.10369919E+01  d E =-.226188E-02
