       N       E                     dE             d eps       ncg     rms          rms(c)
DAV:   1     0.400677554436E+03    0.40068E+03   -0.40670E+04 15872   0.754E+02
DAV:   2    -0.157982197417E+03   -0.55866E+03   -0.50130E+03 17604   0.209E+02
DAV:   3    -0.188983671818E+03   -0.31001E+02   -0.29750E+02 19144   0.431E+01
DAV:   4    -0.189340474938E+03   -0.35680E+00   -0.35568E+00 18216   0.492E+00
DAV:   5    -0.189343372879E+03   -0.28979E-02   -0.28975E-02 18656   0.443E-01    0.760E+01
DAV:   6    -0.181674811903E+03    0.76686E+01   -0.42135E+00 20268   0.637E+00    0.334E+01
DAV:   7    -0.180381341832E+03    0.12935E+01   -0.34253E+00 21268   0.518E+00    0.955E+00
DAV:   8    -0.179876009658E+03    0.50533E+00   -0.12603E+00 20812   0.366E+00    0.447E+00
DAV:   9    -0.179816214437E+03    0.59795E-01   -0.14864E-01 20708   0.127E+00    0.193E+00
DAV:  10    -0.179808770485E+03    0.74440E-02   -0.27585E-02 20996   0.603E-01    0.118E+00
DAV:  11    -0.179803964354E+03    0.48061E-02   -0.63699E-03 20452   0.272E-01    0.610E-01
DAV:  12    -0.179803819235E+03    0.14512E-03   -0.18544E-03 18412   0.900E-02    0.106E-01
DAV:  13    -0.179803739032E+03    0.80204E-04   -0.11401E-04 20368   0.391E-02    0.802E-02
DAV:  14    -0.179803727832E+03    0.11200E-04   -0.14760E-05 18284   0.917E-03    0.282E-02
DAV:  15    -0.179803716612E+03    0.11219E-04   -0.39514E-06 18548   0.541E-03    0.980E-03
DAV:  16    -0.179803715074E+03    0.15379E-05   -0.83123E-07 10196   0.331E-03    0.589E-03
DAV:  17    -0.179803714772E+03    0.30244E-06   -0.13728E-07  8888   0.976E-04
   1 F= -.17980371E+03 E0= -.17979920E+03  d E =-.902523E-02
