P4W12
1.0
     -4.9417750       4.9417750       2.4309380
      4.9417750      -4.9417750       2.4309380
      4.9417750       4.9417750      -2.4309380
  P     W   
  4     12  
Direct
      0.2923850       0.0000000       0.2923850
      0.7076150       0.0000000       0.7076150
      0.0000000       0.7076150       0.7076150
      0.0000000       0.2923850       0.2923850
      0.3623620       0.3623620       0.1882890
      0.1740720       0.1740720       0.8117110
      0.8259280       0.6376380       0.0000000
      0.6376380       0.8259280       0.0000000
      0.5735210       0.5735210       0.6012660
      0.9722550       0.9722550       0.3987340
      0.0277450       0.4264790       0.0000000
      0.4264790       0.0277450       0.0000000
      0.8541460       0.5000000       0.3541460
      0.1458540       0.5000000       0.6458540
      0.5000000       0.1458540       0.6458540
      0.5000000       0.8541460       0.3541460
