Ba3 Ca1                                 
   1.00000000000000     
    -3.0778836599999999    3.0778836599999999    6.3976139999999999
     3.0778836599999999   -3.0778836599999999    6.3976139999999999
     3.0778836599999999    3.0778836599999999   -6.3976139999999999
   Ba   Ca
     3     1
Direct
     0.7500000000000000    0.2500000000000000    0.5000000000000000
     0.2500000000000000    0.7500000000000000    0.5000000000000000
     0.5000000000000000    0.5000000000000000    0.0000000000000000
     0.0000000000000000    0.0000000000000000    0.0000000000000000
 
  0.00000000E+00  0.00000000E+00  0.00000000E+00
  0.00000000E+00  0.00000000E+00  0.00000000E+00
  0.00000000E+00  0.00000000E+00  0.00000000E+00
  0.00000000E+00  0.00000000E+00  0.00000000E+00
