   4   4   0   0
  0.6060695E+02  0.7737971E-09  0.7737971E-09  0.7737971E-09  0.5000000E-15
  1.000000000000000E-004
  CAR 
 unknown system                          
      3.77911196    -43.10672688  301      1.92321417      1.00000000
    -43.107  0.0000E+00  0.0000E+00
    -42.950  0.0000E+00  0.0000E+00
    -42.794  0.0000E+00  0.0000E+00
    -42.638  0.0000E+00  0.0000E+00
    -42.482  0.0000E+00  0.0000E+00
    -42.325  0.0000E+00  0.0000E+00
    -42.169  0.0000E+00  0.0000E+00
    -42.013  0.0000E+00  0.0000E+00
    -41.856  0.0000E+00  0.0000E+00
    -41.700  0.0000E+00  0.0000E+00
    -41.544  0.0000E+00  0.0000E+00
    -41.388  0.0000E+00  0.0000E+00
    -41.231  0.3011E-11  0.4706E-12
    -41.075  0.3140E-01  0.4907E-02
    -40.919  0.1207E+02  0.1892E+01
    -40.762  0.6909E+00  0.2000E+01
    -40.606  0.1063E-07  0.2000E+01
    -40.450  0.0000E+00  0.2000E+01
    -40.294  0.0000E+00  0.2000E+01
    -40.137  0.0000E+00  0.2000E+01
    -39.981  0.0000E+00  0.2000E+01
    -39.825  0.0000E+00  0.2000E+01
    -39.668  0.0000E+00  0.2000E+01
    -39.512  0.0000E+00  0.2000E+01
    -39.356  0.0000E+00  0.2000E+01
    -39.200  0.0000E+00  0.2000E+01
    -39.043  0.0000E+00  0.2000E+01
    -38.887  0.0000E+00  0.2000E+01
    -38.731  0.0000E+00  0.2000E+01
    -38.574  0.0000E+00  0.2000E+01
    -38.418  0.0000E+00  0.2000E+01
    -38.262  0.0000E+00  0.2000E+01
    -38.106  0.0000E+00  0.2000E+01
    -37.949  0.0000E+00  0.2000E+01
    -37.793  0.0000E+00  0.2000E+01
    -37.637  0.0000E+00  0.2000E+01
    -37.480  0.0000E+00  0.2000E+01
    -37.324  0.0000E+00  0.2000E+01
    -37.168  0.0000E+00  0.2000E+01
    -37.012  0.0000E+00  0.2000E+01
    -36.855  0.0000E+00  0.2000E+01
    -36.699  0.0000E+00  0.2000E+01
    -36.543  0.0000E+00  0.2000E+01
    -36.386  0.0000E+00  0.2000E+01
    -36.230  0.0000E+00  0.2000E+01
    -36.074  0.0000E+00  0.2000E+01
    -35.918  0.0000E+00  0.2000E+01
    -35.761  0.0000E+00  0.2000E+01
    -35.605  0.0000E+00  0.2000E+01
    -35.449  0.0000E+00  0.2000E+01
    -35.292  0.0000E+00  0.2000E+01
    -35.136  0.0000E+00  0.2000E+01
    -34.980  0.0000E+00  0.2000E+01
    -34.824  0.0000E+00  0.2000E+01
    -34.667  0.0000E+00  0.2000E+01
    -34.511  0.0000E+00  0.2000E+01
    -34.355  0.0000E+00  0.2000E+01
    -34.198  0.0000E+00  0.2000E+01
    -34.042  0.0000E+00  0.2000E+01
    -33.886  0.0000E+00  0.2000E+01
    -33.730  0.0000E+00  0.2000E+01
    -33.573  0.0000E+00  0.2000E+01
    -33.417  0.0000E+00  0.2000E+01
    -33.261  0.0000E+00  0.2000E+01
    -33.104  0.0000E+00  0.2000E+01
    -32.948  0.0000E+00  0.2000E+01
    -32.792  0.0000E+00  0.2000E+01
    -32.636  0.0000E+00  0.2000E+01
    -32.479  0.0000E+00  0.2000E+01
    -32.323  0.0000E+00  0.2000E+01
    -32.167  0.0000E+00  0.2000E+01
    -32.010  0.0000E+00  0.2000E+01
    -31.854  0.0000E+00  0.2000E+01
    -31.698  0.0000E+00  0.2000E+01
    -31.542  0.0000E+00  0.2000E+01
    -31.385  0.0000E+00  0.2000E+01
    -31.229  0.0000E+00  0.2000E+01
    -31.073  0.0000E+00  0.2000E+01
    -30.916  0.0000E+00  0.2000E+01
    -30.760  0.0000E+00  0.2000E+01
    -30.604  0.0000E+00  0.2000E+01
    -30.448  0.0000E+00  0.2000E+01
    -30.291  0.0000E+00  0.2000E+01
    -30.135  0.0000E+00  0.2000E+01
    -29.979  0.0000E+00  0.2000E+01
    -29.822  0.0000E+00  0.2000E+01
    -29.666  0.0000E+00  0.2000E+01
    -29.510  0.0000E+00  0.2000E+01
    -29.354  0.0000E+00  0.2000E+01
    -29.197  0.0000E+00  0.2000E+01
    -29.041  0.0000E+00  0.2000E+01
    -28.885  0.0000E+00  0.2000E+01
    -28.728  0.0000E+00  0.2000E+01
    -28.572  0.0000E+00  0.2000E+01
    -28.416  0.0000E+00  0.2000E+01
    -28.260  0.0000E+00  0.2000E+01
    -28.103  0.0000E+00  0.2000E+01
    -27.947  0.0000E+00  0.2000E+01
    -27.791  0.0000E+00  0.2000E+01
    -27.634  0.3929E-14  0.2000E+01
    -27.478  0.1321E-02  0.2000E+01
    -27.322  0.2099E+02  0.5281E+01
    -27.166  0.1740E+02  0.8000E+01
    -27.009  0.3447E-03  0.8000E+01
    -26.853  0.0000E+00  0.8000E+01
    -26.697  0.0000E+00  0.8000E+01
    -26.540  0.0000E+00  0.8000E+01
    -26.384  0.0000E+00  0.8000E+01
    -26.228  0.0000E+00  0.8000E+01
    -26.072  0.0000E+00  0.8000E+01
    -25.915  0.0000E+00  0.8000E+01
    -25.759  0.0000E+00  0.8000E+01
    -25.603  0.0000E+00  0.8000E+01
    -25.446  0.0000E+00  0.8000E+01
    -25.290  0.0000E+00  0.8000E+01
    -25.134  0.0000E+00  0.8000E+01
    -24.978  0.0000E+00  0.8000E+01
    -24.821  0.0000E+00  0.8000E+01
    -24.665  0.0000E+00  0.8000E+01
    -24.509  0.0000E+00  0.8000E+01
    -24.352  0.0000E+00  0.8000E+01
    -24.196  0.0000E+00  0.8000E+01
    -24.040  0.0000E+00  0.8000E+01
    -23.884  0.0000E+00  0.8000E+01
    -23.727  0.0000E+00  0.8000E+01
    -23.571  0.0000E+00  0.8000E+01
    -23.415  0.0000E+00  0.8000E+01
    -23.258  0.0000E+00  0.8000E+01
    -23.102  0.0000E+00  0.8000E+01
    -22.946  0.0000E+00  0.8000E+01
    -22.790  0.0000E+00  0.8000E+01
    -22.633  0.0000E+00  0.8000E+01
    -22.477  0.0000E+00  0.8000E+01
    -22.321  0.0000E+00  0.8000E+01
    -22.164  0.7210E-08  0.8000E+01
    -22.008  0.1235E+01  0.8193E+01
    -21.852  0.3696E+02  0.1397E+02
    -21.696  0.1989E+00  0.1400E+02
    -21.539  0.0000E+00  0.1400E+02
    -21.383  0.0000E+00  0.1400E+02
    -21.227  0.0000E+00  0.1400E+02
    -21.070  0.0000E+00  0.1400E+02
    -20.914  0.0000E+00  0.1400E+02
    -20.758  0.0000E+00  0.1400E+02
    -20.602  0.0000E+00  0.1400E+02
    -20.445  0.0000E+00  0.1400E+02
    -20.289  0.0000E+00  0.1400E+02
    -20.133  0.0000E+00  0.1400E+02
    -19.976  0.0000E+00  0.1400E+02
    -19.820  0.0000E+00  0.1400E+02
    -19.664  0.0000E+00  0.1400E+02
    -19.508  0.0000E+00  0.1400E+02
    -19.351  0.0000E+00  0.1400E+02
    -19.195  0.0000E+00  0.1400E+02
    -19.039  0.0000E+00  0.1400E+02
    -18.882  0.0000E+00  0.1400E+02
    -18.726  0.0000E+00  0.1400E+02
    -18.570  0.0000E+00  0.1400E+02
    -18.414  0.0000E+00  0.1400E+02
    -18.257  0.0000E+00  0.1400E+02
    -18.101  0.0000E+00  0.1400E+02
    -17.945  0.0000E+00  0.1400E+02
    -17.788  0.0000E+00  0.1400E+02
    -17.632  0.0000E+00  0.1400E+02
    -17.476  0.0000E+00  0.1400E+02
    -17.320  0.0000E+00  0.1400E+02
    -17.163  0.0000E+00  0.1400E+02
    -17.007  0.0000E+00  0.1400E+02
    -16.851  0.0000E+00  0.1400E+02
    -16.694  0.0000E+00  0.1400E+02
    -16.538  0.0000E+00  0.1400E+02
    -16.382  0.0000E+00  0.1400E+02
    -16.226  0.0000E+00  0.1400E+02
    -16.069  0.0000E+00  0.1400E+02
    -15.913  0.0000E+00  0.1400E+02
    -15.757  0.0000E+00  0.1400E+02
    -15.600  0.0000E+00  0.1400E+02
    -15.444  0.0000E+00  0.1400E+02
    -15.288  0.0000E+00  0.1400E+02
    -15.132  0.0000E+00  0.1400E+02
    -14.975  0.0000E+00  0.1400E+02
    -14.819  0.0000E+00  0.1400E+02
    -14.663  0.0000E+00  0.1400E+02
    -14.506  0.0000E+00  0.1400E+02
    -14.350  0.0000E+00  0.1400E+02
    -14.194  0.0000E+00  0.1400E+02
    -14.038  0.0000E+00  0.1400E+02
    -13.881  0.0000E+00  0.1400E+02
    -13.725  0.0000E+00  0.1400E+02
    -13.569  0.0000E+00  0.1400E+02
    -13.412  0.0000E+00  0.1400E+02
    -13.256  0.0000E+00  0.1400E+02
    -13.100  0.0000E+00  0.1400E+02
    -12.944  0.4009E-06  0.1400E+02
    -12.787  0.4739E+00  0.1407E+02
    -12.631  0.2225E+02  0.1755E+02
    -12.475  0.4075E+02  0.2392E+02
    -12.318  0.4994E+02  0.3172E+02
    -12.162  0.1767E+01  0.3200E+02
    -12.006  0.1507E-06  0.3200E+02
    -11.850  0.0000E+00  0.3200E+02
    -11.693  0.0000E+00  0.3200E+02
    -11.537  0.0000E+00  0.3200E+02
    -11.381  0.0000E+00  0.3200E+02
    -11.224  0.0000E+00  0.3200E+02
    -11.068  0.0000E+00  0.3200E+02
    -10.912  0.0000E+00  0.3200E+02
    -10.755  0.0000E+00  0.3200E+02
    -10.599  0.0000E+00  0.3200E+02
    -10.443  0.0000E+00  0.3200E+02
    -10.287  0.0000E+00  0.3200E+02
    -10.130  0.0000E+00  0.3200E+02
     -9.974  0.0000E+00  0.3200E+02
     -9.818  0.0000E+00  0.3200E+02
     -9.661  0.0000E+00  0.3200E+02
     -9.505  0.0000E+00  0.3200E+02
     -9.349  0.0000E+00  0.3200E+02
     -9.193  0.0000E+00  0.3200E+02
     -9.036  0.0000E+00  0.3200E+02
     -8.880  0.0000E+00  0.3200E+02
     -8.724  0.0000E+00  0.3200E+02
     -8.567  0.0000E+00  0.3200E+02
     -8.411  0.0000E+00  0.3200E+02
     -8.255  0.0000E+00  0.3200E+02
     -8.099  0.0000E+00  0.3200E+02
     -7.942  0.0000E+00  0.3200E+02
     -7.786  0.0000E+00  0.3200E+02
     -7.630  0.0000E+00  0.3200E+02
     -7.473  0.0000E+00  0.3200E+02
     -7.317  0.0000E+00  0.3200E+02
     -7.161  0.0000E+00  0.3200E+02
     -7.005  0.0000E+00  0.3200E+02
     -6.848  0.0000E+00  0.3200E+02
     -6.692  0.0000E+00  0.3200E+02
     -6.536  0.0000E+00  0.3200E+02
     -6.379  0.0000E+00  0.3200E+02
     -6.223  0.0000E+00  0.3200E+02
     -6.067  0.0000E+00  0.3200E+02
     -5.911  0.0000E+00  0.3200E+02
     -5.754  0.0000E+00  0.3200E+02
     -5.598  0.0000E+00  0.3200E+02
     -5.442  0.0000E+00  0.3200E+02
     -5.285  0.0000E+00  0.3200E+02
     -5.129  0.0000E+00  0.3200E+02
     -4.973  0.0000E+00  0.3200E+02
     -4.817  0.0000E+00  0.3200E+02
     -4.660  0.0000E+00  0.3200E+02
     -4.504  0.0000E+00  0.3200E+02
     -4.348  0.0000E+00  0.3200E+02
     -4.191  0.0000E+00  0.3200E+02
     -4.035  0.0000E+00  0.3200E+02
     -3.879  0.0000E+00  0.3200E+02
     -3.723  0.0000E+00  0.3200E+02
     -3.566  0.0000E+00  0.3200E+02
     -3.410  0.0000E+00  0.3200E+02
     -3.254  0.0000E+00  0.3200E+02
     -3.097  0.0000E+00  0.3200E+02
     -2.941  0.0000E+00  0.3200E+02
     -2.785  0.0000E+00  0.3200E+02
     -2.629  0.0000E+00  0.3200E+02
     -2.472  0.0000E+00  0.3200E+02
     -2.316  0.0000E+00  0.3200E+02
     -2.160  0.0000E+00  0.3200E+02
     -2.003  0.0000E+00  0.3200E+02
     -1.847  0.0000E+00  0.3200E+02
     -1.691  0.0000E+00  0.3200E+02
     -1.535  0.1387E-05  0.3200E+02
     -1.378  0.1880E+00  0.3203E+02
     -1.222  0.2126E+00  0.3206E+02
     -1.066  0.7165E+00  0.3217E+02
     -0.909  0.8884E-01  0.3219E+02
     -0.753  0.2194E+01  0.3253E+02
     -0.597  0.1399E+01  0.3275E+02
     -0.441  0.1381E-03  0.3275E+02
     -0.284  0.4674E+00  0.3282E+02
     -0.128  0.3246E+01  0.3333E+02
      0.028  0.2481E+01  0.3372E+02
      0.185  0.2770E+01  0.3415E+02
      0.341  0.2510E+01  0.3454E+02
      0.497  0.2153E+01  0.3488E+02
      0.653  0.2225E+01  0.3523E+02
      0.810  0.4147E+01  0.3588E+02
      0.966  0.3770E+01  0.3646E+02
      1.122  0.7436E+01  0.3763E+02
      1.279  0.4394E+01  0.3831E+02
      1.435  0.4919E+01  0.3908E+02
      1.591  0.3474E+01  0.3963E+02
      1.747  0.2397E+01  0.4000E+02
      1.904  0.1022E-02  0.4000E+02
      2.060  0.0000E+00  0.4000E+02
      2.216  0.0000E+00  0.4000E+02
      2.373  0.0000E+00  0.4000E+02
      2.529  0.0000E+00  0.4000E+02
      2.685  0.0000E+00  0.4000E+02
      2.841  0.0000E+00  0.4000E+02
      2.998  0.0000E+00  0.4000E+02
      3.154  0.0000E+00  0.4000E+02
      3.310  0.0000E+00  0.4000E+02
      3.467  0.0000E+00  0.4000E+02
      3.623  0.0000E+00  0.4000E+02
      3.779  0.0000E+00  0.4000E+02
