Ba3 Ca1
1.0
  -3.0778836599999999    3.0778836599999999    6.3976139999999999
   3.0778836599999999   -3.0778836599999999    6.3976139999999999
   3.0778836599999999    3.0778836599999999   -6.3976139999999999
Ba Ca
3 1
direct
   0.7500000000000000    0.2500000000000000    0.5000000000000000 Ba
   0.2500000000000000    0.7500000000000000    0.5000000000000000 Ba
   0.5000000000000000    0.5000000000000000    0.0000000000000000 Ba
   0.0000000000000000    0.0000000000000000    0.0000000000000000 Ca
