Ba8 Pd2                                 
   1.00000000000000     
     0.0000000000000000    6.7023469999999996    6.7023469999999996
     6.7023469999999996    0.0000000000000000    6.7023469999999996
     6.7023469999999996    6.7023469999999996    0.0000000000000000
   Ba   Pd
     8     2
Direct
     0.3785430000000005    0.3785430000000005    0.3785430000000005
     0.3785430000000005    0.3785430000000005    0.8643709999999984
     0.3785430000000005    0.8643709999999984    0.3785430000000005
     0.8714569999999995    0.8714569999999995    0.3856290000000016
     0.8714569999999995    0.8714569999999995    0.8714569999999995
     0.8643709999999984    0.3785430000000005    0.3785430000000005
     0.8714569999999995    0.3856290000000016    0.8714569999999995
     0.3856290000000016    0.8714569999999995    0.8714569999999995
     0.0000000000000000    0.0000000000000000    0.0000000000000000
     0.2500000000000000    0.2500000000000000    0.2500000000000000
 
  0.00000000E+00  0.00000000E+00  0.00000000E+00
  0.00000000E+00  0.00000000E+00  0.00000000E+00
  0.00000000E+00  0.00000000E+00  0.00000000E+00
  0.00000000E+00  0.00000000E+00  0.00000000E+00
  0.00000000E+00  0.00000000E+00  0.00000000E+00
  0.00000000E+00  0.00000000E+00  0.00000000E+00
  0.00000000E+00  0.00000000E+00  0.00000000E+00
  0.00000000E+00  0.00000000E+00  0.00000000E+00
  0.00000000E+00  0.00000000E+00  0.00000000E+00
  0.00000000E+00  0.00000000E+00  0.00000000E+00
