       N       E                     dE             d eps       ncg     rms          rms(c)
DAV:   1     0.883619563740E+03    0.88362E+03   -0.43111E+04  3240   0.153E+03
DAV:   2     0.534948092339E+02   -0.83012E+03   -0.81286E+03  4584   0.295E+02
DAV:   3    -0.255766366185E+02   -0.79071E+02   -0.77908E+02  4392   0.922E+01
DAV:   4    -0.284487677508E+02   -0.28721E+01   -0.28452E+01  4872   0.138E+01
DAV:   5    -0.285276704917E+02   -0.78903E-01   -0.78560E-01  4512   0.229E+00    0.709E+00
DAV:   6    -0.266620390823E+02    0.18656E+01   -0.12525E+01  3988   0.763E+00    0.653E+00
DAV:   7    -0.263588685274E+02    0.30317E+00   -0.35598E+00  4076   0.496E+00    0.244E+00
DAV:   8    -0.262379449865E+02    0.12092E+00   -0.55314E-01  4180   0.184E+00    0.100E+00
DAV:   9    -0.262375267693E+02    0.41822E-03   -0.75194E-02  4252   0.929E-01    0.214E-01
DAV:  10    -0.262376426109E+02   -0.11584E-03   -0.82763E-03  4092   0.250E-01    0.123E-01
DAV:  11    -0.262377253592E+02   -0.82748E-04   -0.16660E-03  4108   0.136E-01    0.268E-02
DAV:  12    -0.262377464098E+02   -0.21051E-04   -0.15986E-04  4436   0.475E-02    0.197E-02
DAV:  13    -0.262377475231E+02   -0.11133E-05   -0.24519E-05  3344   0.215E-02    0.866E-03
DAV:  14    -0.262377491473E+02   -0.16243E-05   -0.62942E-06  3232   0.960E-03    0.183E-03
DAV:  15    -0.262377491199E+02    0.27452E-07   -0.53464E-07  2224   0.347E-03
   1 F= -.26237749E+02 E0= -.26231741E+02  d E =-.120155E-01
