       N       E                     dE             d eps       ncg     rms          rms(c)
DAV:   1     0.763457324560E+03    0.76346E+03   -0.36338E+04  9000   0.200E+03
DAV:   2     0.655561832518E+02   -0.69790E+03   -0.68544E+03  9308   0.537E+02
DAV:   3    -0.267029095854E+02   -0.92259E+02   -0.88827E+02 13984   0.144E+02
DAV:   4    -0.329881267004E+02   -0.62852E+01   -0.59400E+01 13184   0.366E+01
DAV:   5    -0.333252253733E+02   -0.33710E+00   -0.32993E+00 14288   0.693E+00    0.179E+01
DAV:   6    -0.431529777438E+02   -0.98278E+01   -0.10612E+02 11132   0.306E+01    0.320E+01
DAV:   7    -0.286789223051E+02    0.14474E+02   -0.60520E+01 10420   0.270E+01    0.420E+00
DAV:   8    -0.287408312851E+02   -0.61909E-01   -0.20103E+00 10524   0.619E+00    0.276E+00
DAV:   9    -0.288370550063E+02   -0.96224E-01   -0.10737E+00 13660   0.433E+00    0.605E+00
DAV:  10    -0.286389497724E+02    0.19811E+00   -0.34548E-01 12704   0.246E+00    0.111E+00
DAV:  11    -0.286434266304E+02   -0.44769E-02   -0.32295E-02 12300   0.789E-01    0.106E+00
DAV:  12    -0.286399445703E+02    0.34821E-02   -0.58758E-03 12300   0.355E-01    0.611E-01
DAV:  13    -0.286396941138E+02    0.25046E-03   -0.98630E-03  9652   0.569E-01    0.425E-01
DAV:  14    -0.286400294386E+02   -0.33532E-03   -0.58403E-03 11740   0.367E-01    0.302E-01
DAV:  15    -0.286398448565E+02    0.18458E-03   -0.74105E-04 13796   0.125E-01    0.155E-01
DAV:  16    -0.286397025150E+02    0.14234E-03   -0.77475E-04 10704   0.127E-01    0.779E-02
DAV:  17    -0.286396337892E+02    0.68726E-04   -0.10681E-04 11384   0.598E-02    0.220E-02
DAV:  18    -0.286396295948E+02    0.41944E-05   -0.11500E-05 10472   0.221E-02    0.102E-02
DAV:  19    -0.286396275943E+02    0.20005E-05   -0.52872E-06  8004   0.118E-02    0.441E-03
DAV:  20    -0.286396271197E+02    0.47459E-06   -0.44049E-07  5004   0.530E-03
   1 F= -.28639627E+02 E0= -.28628076E+02  d E =-.231021E-01
