unknown system                          
           1
     3.974914    3.974914    0.000000
     0.000000    3.974914    3.974914
     3.974914    0.000000    3.974914
   Ca   O 
     4     4
Direct configuration=     1
   0.00000000  0.50000000  0.00000000
   0.00000000  0.00000000  0.50000000
   0.50000000  0.00000000  0.00000000
   0.00000000  0.00000000  0.00000000
   0.50000000  0.00000000  0.50000000
   0.50000000  0.50000000  0.00000000
   0.00000000  0.50000000  0.50000000
   0.50000000  0.50000000  0.50000000
