Cs4P28
1.0
      0.0000000      -9.2593004       0.0000000
     -9.6312983       0.0000000       0.0000000
      0.0000000       0.0000000      -9.7239944
  Cs    P   
  4     28  
Direct
      0.2853588       0.7472464       0.7462945
      0.7146412       0.2527536       0.2462945
      0.7146412       0.2472464       0.7462945
      0.2853588       0.7527536       0.2462945
      0.6639951       0.8687711       0.6140473
      0.3360049       0.1312289       0.1140473
      0.3360049       0.3687711       0.6140473
      0.6639951       0.6312289       0.1140473
      0.8911067       0.6810995       0.8407681
      0.1088933       0.3189005       0.3407681
      0.1088933       0.1810995       0.8407681
      0.8911067       0.8189005       0.3407681
      0.9356376       0.8388735       0.9994623
      0.0643624       0.1611265       0.4994623
      0.0643624       0.3388735       0.9994623
      0.9356376       0.6611265       0.4994623
      0.5853439       0.8175100       0.9991482
      0.4146561       0.1824900       0.4991482
      0.4146561       0.3175100       0.9991482
      0.5853439       0.6824900       0.4991482
      0.7505104       0.9712946       0.9993231
      0.2494896       0.0287054       0.4993231
      0.2494896       0.4712946       0.9993231
      0.7505104       0.5287054       0.4993231
      0.8909380       0.8184464       0.6585176
      0.1090620       0.1815536       0.1585176
      0.1090620       0.3184464       0.6585176
      0.8909380       0.6815536       0.1585176
      0.6641685       0.6305953       0.8852398
      0.3358315       0.3694047       0.3852398
      0.3358315       0.1305953       0.8852398
      0.6641685       0.8694047       0.3852398
