unknown system                          
           1
     0.000000   -9.259300    0.000000
    -9.631298    0.000000    0.000000
     0.000000    0.000000   -9.723994
   Cs   P 
     4    28
Direct configuration=     1
   0.28535883  0.74724638  0.74629452
   0.71464117  0.25275362  0.24629452
   0.71464117  0.24724638  0.74629452
   0.28535883  0.75275362  0.24629452
   0.66399514  0.86877112  0.61404733
   0.33600486  0.13122888  0.11404733
   0.33600486  0.36877112  0.61404733
   0.66399514  0.63122888  0.11404733
   0.89110672  0.68109950  0.84076810
   0.10889328  0.31890050  0.34076810
   0.10889328  0.18109950  0.84076810
   0.89110672  0.81890050  0.34076810
   0.93563761  0.83887351  0.99946229
   0.06436239  0.16112649  0.49946229
   0.06436239  0.33887351  0.99946229
   0.93563761  0.66112649  0.49946229
   0.58534393  0.81750996  0.99914819
   0.41465607  0.18249004  0.49914819
   0.41465607  0.31750996  0.99914819
   0.58534393  0.68249004  0.49914819
   0.75051042  0.97129457  0.99932314
   0.24948958  0.02870543  0.49932314
   0.24948958  0.47129457  0.99932314
   0.75051042  0.52870543  0.49932314
   0.89093801  0.81844642  0.65851761
   0.10906199  0.18155358  0.15851761
   0.10906199  0.31844642  0.65851761
   0.89093801  0.68155358  0.15851761
   0.66416847  0.63059528  0.88523983
   0.33583153  0.36940472  0.38523983
   0.33583153  0.13059528  0.88523983
   0.66416847  0.86940472  0.38523983
