   4   4   0   0
  0.2542713E+02  0.4574744E-09  0.4574744E-09  0.5611684E-09  0.5000000E-15
  1.000000000000000E-004
  CAR 
 unknown system                          
      9.06436901    -26.45901331  301      1.25662560      1.00000000
    -26.459  0.0000E+00  0.0000E+00
    -26.341  0.0000E+00  0.0000E+00
    -26.222  0.0000E+00  0.0000E+00
    -26.104  0.0000E+00  0.0000E+00
    -25.985  0.0000E+00  0.0000E+00
    -25.867  0.0000E+00  0.0000E+00
    -25.749  0.0000E+00  0.0000E+00
    -25.630  0.0000E+00  0.0000E+00
    -25.512  0.0000E+00  0.0000E+00
    -25.393  0.0000E+00  0.0000E+00
    -25.275  0.0000E+00  0.0000E+00
    -25.156  0.0000E+00  0.0000E+00
    -25.038  0.2141E-08  0.2535E-09
    -24.920  0.3104E-02  0.3676E-03
    -24.801  0.1345E+01  0.1596E+00
    -24.683  0.1140E+02  0.1509E+01
    -24.564  0.1889E+02  0.3747E+01
    -24.446  0.2139E+01  0.4000E+01
    -24.328  0.7873E-03  0.4000E+01
    -24.209  0.3141E-10  0.4000E+01
    -24.091  0.0000E+00  0.4000E+01
    -23.972  0.0000E+00  0.4000E+01
    -23.854  0.0000E+00  0.4000E+01
    -23.736  0.0000E+00  0.4000E+01
    -23.617  0.0000E+00  0.4000E+01
    -23.499  0.0000E+00  0.4000E+01
    -23.380  0.0000E+00  0.4000E+01
    -23.262  0.0000E+00  0.4000E+01
    -23.143  0.0000E+00  0.4000E+01
    -23.025  0.0000E+00  0.4000E+01
    -22.907  0.0000E+00  0.4000E+01
    -22.788  0.0000E+00  0.4000E+01
    -22.670  0.0000E+00  0.4000E+01
    -22.551  0.0000E+00  0.4000E+01
    -22.433  0.0000E+00  0.4000E+01
    -22.315  0.0000E+00  0.4000E+01
    -22.196  0.0000E+00  0.4000E+01
    -22.078  0.0000E+00  0.4000E+01
    -21.959  0.0000E+00  0.4000E+01
    -21.841  0.0000E+00  0.4000E+01
    -21.723  0.0000E+00  0.4000E+01
    -21.604  0.0000E+00  0.4000E+01
    -21.486  0.0000E+00  0.4000E+01
    -21.367  0.0000E+00  0.4000E+01
    -21.249  0.0000E+00  0.4000E+01
    -21.131  0.0000E+00  0.4000E+01
    -21.012  0.0000E+00  0.4000E+01
    -20.894  0.0000E+00  0.4000E+01
    -20.775  0.0000E+00  0.4000E+01
    -20.657  0.0000E+00  0.4000E+01
    -20.538  0.0000E+00  0.4000E+01
    -20.420  0.0000E+00  0.4000E+01
    -20.302  0.0000E+00  0.4000E+01
    -20.183  0.0000E+00  0.4000E+01
    -20.065  0.0000E+00  0.4000E+01
    -19.946  0.0000E+00  0.4000E+01
    -19.828  0.0000E+00  0.4000E+01
    -19.710  0.0000E+00  0.4000E+01
    -19.591  0.0000E+00  0.4000E+01
    -19.473  0.0000E+00  0.4000E+01
    -19.354  0.0000E+00  0.4000E+01
    -19.236  0.0000E+00  0.4000E+01
    -19.118  0.0000E+00  0.4000E+01
    -18.999  0.0000E+00  0.4000E+01
    -18.881  0.0000E+00  0.4000E+01
    -18.762  0.0000E+00  0.4000E+01
    -18.644  0.0000E+00  0.4000E+01
    -18.525  0.0000E+00  0.4000E+01
    -18.407  0.0000E+00  0.4000E+01
    -18.289  0.0000E+00  0.4000E+01
    -18.170  0.0000E+00  0.4000E+01
    -18.052  0.0000E+00  0.4000E+01
    -17.933  0.0000E+00  0.4000E+01
    -17.815  0.0000E+00  0.4000E+01
    -17.697  0.0000E+00  0.4000E+01
    -17.578  0.0000E+00  0.4000E+01
    -17.460  0.0000E+00  0.4000E+01
    -17.341  0.0000E+00  0.4000E+01
    -17.223  0.0000E+00  0.4000E+01
    -17.105  0.0000E+00  0.4000E+01
    -16.986  0.0000E+00  0.4000E+01
    -16.868  0.0000E+00  0.4000E+01
    -16.749  0.0000E+00  0.4000E+01
    -16.631  0.0000E+00  0.4000E+01
    -16.512  0.0000E+00  0.4000E+01
    -16.394  0.0000E+00  0.4000E+01
    -16.276  0.0000E+00  0.4000E+01
    -16.157  0.0000E+00  0.4000E+01
    -16.039  0.0000E+00  0.4000E+01
    -15.920  0.0000E+00  0.4000E+01
    -15.802  0.0000E+00  0.4000E+01
    -15.684  0.0000E+00  0.4000E+01
    -15.565  0.0000E+00  0.4000E+01
    -15.447  0.0000E+00  0.4000E+01
    -15.328  0.0000E+00  0.4000E+01
    -15.210  0.0000E+00  0.4000E+01
    -15.092  0.0000E+00  0.4000E+01
    -14.973  0.2084E-15  0.4000E+01
    -14.855  0.8227E-06  0.4000E+01
    -14.736  0.9749E-01  0.4012E+01
    -14.618  0.5626E+01  0.4678E+01
    -14.499  0.1180E+02  0.6075E+01
    -14.381  0.7837E+01  0.7003E+01
    -14.263  0.5341E+01  0.7636E+01
    -14.144  0.2141E+01  0.7889E+01
    -14.026  0.8294E+00  0.7987E+01
    -13.907  0.1052E+00  0.8000E+01
    -13.789  0.7228E-03  0.8000E+01
    -13.671  0.3670E-09  0.8000E+01
    -13.552  0.0000E+00  0.8000E+01
    -13.434  0.0000E+00  0.8000E+01
    -13.315  0.0000E+00  0.8000E+01
    -13.197  0.0000E+00  0.8000E+01
    -13.079  0.0000E+00  0.8000E+01
    -12.960  0.0000E+00  0.8000E+01
    -12.842  0.0000E+00  0.8000E+01
    -12.723  0.0000E+00  0.8000E+01
    -12.605  0.0000E+00  0.8000E+01
    -12.486  0.0000E+00  0.8000E+01
    -12.368  0.0000E+00  0.8000E+01
    -12.250  0.0000E+00  0.8000E+01
    -12.131  0.0000E+00  0.8000E+01
    -12.013  0.0000E+00  0.8000E+01
    -11.894  0.0000E+00  0.8000E+01
    -11.776  0.0000E+00  0.8000E+01
    -11.658  0.0000E+00  0.8000E+01
    -11.539  0.0000E+00  0.8000E+01
    -11.421  0.0000E+00  0.8000E+01
    -11.302  0.0000E+00  0.8000E+01
    -11.184  0.0000E+00  0.8000E+01
    -11.066  0.0000E+00  0.8000E+01
    -10.947  0.6057E-08  0.8000E+01
    -10.829  0.2518E-02  0.8000E+01
    -10.710  0.1984E+00  0.8024E+01
    -10.592  0.5239E+00  0.8086E+01
    -10.473  0.1829E+01  0.8302E+01
    -10.355  0.4555E+01  0.8842E+01
    -10.237  0.7596E+01  0.9741E+01
    -10.118  0.6746E+01  0.1054E+02
    -10.000  0.7291E+01  0.1140E+02
     -9.881  0.8529E+01  0.1241E+02
     -9.763  0.1394E+02  0.1406E+02
     -9.645  0.1630E+02  0.1599E+02
     -9.526  0.1373E+02  0.1762E+02
     -9.408  0.1091E+02  0.1891E+02
     -9.289  0.7276E+01  0.1977E+02
     -9.171  0.1919E+01  0.2000E+02
     -9.053  0.6933E-03  0.2000E+02
     -8.934  0.1071E-10  0.2000E+02
     -8.816  0.0000E+00  0.2000E+02
     -8.697  0.0000E+00  0.2000E+02
     -8.579  0.0000E+00  0.2000E+02
     -8.460  0.0000E+00  0.2000E+02
     -8.342  0.0000E+00  0.2000E+02
     -8.224  0.0000E+00  0.2000E+02
     -8.105  0.0000E+00  0.2000E+02
     -7.987  0.0000E+00  0.2000E+02
     -7.868  0.0000E+00  0.2000E+02
     -7.750  0.0000E+00  0.2000E+02
     -7.632  0.0000E+00  0.2000E+02
     -7.513  0.0000E+00  0.2000E+02
     -7.395  0.0000E+00  0.2000E+02
     -7.276  0.0000E+00  0.2000E+02
     -7.158  0.0000E+00  0.2000E+02
     -7.040  0.0000E+00  0.2000E+02
     -6.921  0.0000E+00  0.2000E+02
     -6.803  0.0000E+00  0.2000E+02
     -6.684  0.0000E+00  0.2000E+02
     -6.566  0.0000E+00  0.2000E+02
     -6.448  0.0000E+00  0.2000E+02
     -6.329  0.0000E+00  0.2000E+02
     -6.211  0.0000E+00  0.2000E+02
     -6.092  0.0000E+00  0.2000E+02
     -5.974  0.0000E+00  0.2000E+02
     -5.855  0.0000E+00  0.2000E+02
     -5.737  0.0000E+00  0.2000E+02
     -5.619  0.0000E+00  0.2000E+02
     -5.500  0.0000E+00  0.2000E+02
     -5.382  0.0000E+00  0.2000E+02
     -5.263  0.0000E+00  0.2000E+02
     -5.145  0.0000E+00  0.2000E+02
     -5.027  0.0000E+00  0.2000E+02
     -4.908  0.0000E+00  0.2000E+02
     -4.790  0.0000E+00  0.2000E+02
     -4.671  0.0000E+00  0.2000E+02
     -4.553  0.0000E+00  0.2000E+02
     -4.435  0.0000E+00  0.2000E+02
     -4.316  0.0000E+00  0.2000E+02
     -4.198  0.0000E+00  0.2000E+02
     -4.079  0.0000E+00  0.2000E+02
     -3.961  0.0000E+00  0.2000E+02
     -3.842  0.0000E+00  0.2000E+02
     -3.724  0.0000E+00  0.2000E+02
     -3.606  0.0000E+00  0.2000E+02
     -3.487  0.0000E+00  0.2000E+02
     -3.369  0.0000E+00  0.2000E+02
     -3.250  0.0000E+00  0.2000E+02
     -3.132  0.0000E+00  0.2000E+02
     -3.014  0.0000E+00  0.2000E+02
     -2.895  0.0000E+00  0.2000E+02
     -2.777  0.0000E+00  0.2000E+02
     -2.658  0.0000E+00  0.2000E+02
     -2.540  0.0000E+00  0.2000E+02
     -2.422  0.0000E+00  0.2000E+02
     -2.303  0.0000E+00  0.2000E+02
     -2.185  0.0000E+00  0.2000E+02
     -2.066  0.0000E+00  0.2000E+02
     -1.948  0.0000E+00  0.2000E+02
     -1.829  0.0000E+00  0.2000E+02
     -1.711  0.0000E+00  0.2000E+02
     -1.593  0.0000E+00  0.2000E+02
     -1.474  0.0000E+00  0.2000E+02
     -1.356  0.0000E+00  0.2000E+02
     -1.237  0.0000E+00  0.2000E+02
     -1.119  0.0000E+00  0.2000E+02
     -1.001  0.0000E+00  0.2000E+02
     -0.882  0.0000E+00  0.2000E+02
     -0.764  0.2170E-11  0.2000E+02
     -0.645  0.3259E-03  0.2000E+02
     -0.527  0.1635E+01  0.2019E+02
     -0.409  0.8193E+01  0.2116E+02
     -0.290  0.7504E+01  0.2205E+02
     -0.172  0.7825E+01  0.2298E+02
     -0.053  0.1646E+02  0.2493E+02
      0.065  0.9976E+01  0.2611E+02
      0.184  0.8669E+01  0.2714E+02
      0.302  0.8629E+01  0.2816E+02
      0.420  0.5006E+01  0.2875E+02
      0.539  0.6762E+01  0.2955E+02
      0.657  0.1034E+02  0.3078E+02
      0.776  0.5745E+01  0.3146E+02
      0.894  0.3556E+01  0.3188E+02
      1.012  0.9919E+00  0.3199E+02
      1.131  0.4409E-01  0.3200E+02
      1.249  0.1407E-05  0.3200E+02
      1.368  0.1313E-14  0.3200E+02
      1.486  0.0000E+00  0.3200E+02
      1.604  0.0000E+00  0.3200E+02
      1.723  0.0000E+00  0.3200E+02
      1.841  0.0000E+00  0.3200E+02
      1.960  0.0000E+00  0.3200E+02
      2.078  0.0000E+00  0.3200E+02
      2.197  0.0000E+00  0.3200E+02
      2.315  0.0000E+00  0.3200E+02
      2.433  0.0000E+00  0.3200E+02
      2.552  0.0000E+00  0.3200E+02
      2.670  0.0000E+00  0.3200E+02
      2.789  0.0000E+00  0.3200E+02
      2.907  0.0000E+00  0.3200E+02
      3.025  0.4102E-11  0.3200E+02
      3.144  0.7979E-04  0.3200E+02
      3.262  0.5468E-01  0.3201E+02
      3.381  0.4202E-01  0.3201E+02
      3.499  0.1657E+00  0.3203E+02
      3.617  0.1833E+00  0.3205E+02
      3.736  0.4281E-01  0.3206E+02
      3.854  0.1243E+01  0.3221E+02
      3.973  0.1192E+01  0.3235E+02
      4.091  0.2026E+00  0.3237E+02
      4.210  0.2758E+01  0.3270E+02
      4.328  0.2434E+01  0.3299E+02
      4.446  0.2756E+01  0.3331E+02
      4.565  0.1253E+01  0.3346E+02
      4.683  0.3636E+01  0.3389E+02
      4.802  0.5949E+01  0.3459E+02
      4.920  0.3407E+01  0.3500E+02
      5.038  0.6444E+00  0.3507E+02
      5.157  0.3631E+01  0.3550E+02
      5.275  0.1848E+01  0.3572E+02
      5.394  0.2337E+01  0.3600E+02
      5.512  0.1488E+01  0.3618E+02
      5.630  0.2408E+00  0.3620E+02
      5.749  0.1964E+01  0.3644E+02
      5.867  0.1693E+01  0.3664E+02
      5.986  0.5803E+00  0.3671E+02
      6.104  0.2756E+01  0.3703E+02
      6.222  0.1501E+01  0.3721E+02
      6.341  0.9755E+00  0.3733E+02
      6.459  0.3720E+00  0.3737E+02
      6.578  0.4284E+01  0.3788E+02
      6.696  0.2294E+01  0.3815E+02
      6.815  0.2541E+01  0.3845E+02
      6.933  0.3106E+01  0.3882E+02
      7.051  0.4962E+01  0.3940E+02
      7.170  0.2929E+01  0.3975E+02
      7.288  0.4786E+00  0.3981E+02
      7.407  0.6551E+00  0.3989E+02
      7.525  0.9501E+00  0.4000E+02
      7.643  0.1165E-01  0.4000E+02
      7.762  0.8922E-08  0.4000E+02
      7.880  0.0000E+00  0.4000E+02
      7.999  0.0000E+00  0.4000E+02
      8.117  0.0000E+00  0.4000E+02
      8.235  0.0000E+00  0.4000E+02
      8.354  0.0000E+00  0.4000E+02
      8.472  0.0000E+00  0.4000E+02
      8.591  0.0000E+00  0.4000E+02
      8.709  0.0000E+00  0.4000E+02
      8.828  0.0000E+00  0.4000E+02
      8.946  0.0000E+00  0.4000E+02
      9.064  0.0000E+00  0.4000E+02
