Ca1 O1                                  
   1.00000000000000     
     3.4316388695689830    0.8578344399083903    0.8578348006989179
     0.8578344740667064    3.4316388943690117    0.8578348764437942
     0.8578346704200112    0.8578347029416101    3.4316391349095161
   Ca   O 
     1     1
Direct
     0.9999962458126695    0.9999962471659513    0.9999962467604733
     0.2500037541873303    0.2500037528340487    0.2500037532395267
 
  0.00000000E+00  0.00000000E+00  0.00000000E+00
  0.00000000E+00  0.00000000E+00  0.00000000E+00
