Ca1 O1                                  
   1.00000000000000     
     3.4316484652590220    0.8578387198051671    0.8578390551299074
     0.8578387550093600    3.4316484866265324    0.8578391270614419
     0.8578389379954221    0.8578389650636684    3.4316487102728428
   Ca   O 
     1     1
Direct
     0.9999964941874112    0.9999964952403596    0.9999964950279656
     0.2500035058125887    0.2500035047596405    0.2500035049720343
 
  0.00000000E+00  0.00000000E+00  0.00000000E+00
  0.00000000E+00  0.00000000E+00  0.00000000E+00
