   2   2   0   0
  0.1704909E+02  0.3639767E-09  0.3639767E-09  0.3639768E-09  0.5000000E-15
  1.000000000000000E-004
  CAR 
 unknown system                          
     12.75456790    -38.58364350  301      0.51896085      1.00000000
    -38.584  0.0000E+00  0.0000E+00
    -38.413  0.0000E+00  0.0000E+00
    -38.241  0.0000E+00  0.0000E+00
    -38.070  0.0000E+00  0.0000E+00
    -37.899  0.0000E+00  0.0000E+00
    -37.728  0.0000E+00  0.0000E+00
    -37.557  0.0000E+00  0.0000E+00
    -37.386  0.0000E+00  0.0000E+00
    -37.215  0.0000E+00  0.0000E+00
    -37.043  0.0000E+00  0.0000E+00
    -36.872  0.0000E+00  0.0000E+00
    -36.701  0.0000E+00  0.0000E+00
    -36.530  0.0000E+00  0.0000E+00
    -36.359  0.0000E+00  0.0000E+00
    -36.188  0.6389E+02  0.1093E+01
    -36.017  0.3925E+01  0.2000E+01
    -35.846  0.0000E+00  0.2000E+01
    -35.674  0.0000E+00  0.2000E+01
    -35.503  0.0000E+00  0.2000E+01
    -35.332  0.0000E+00  0.2000E+01
    -35.161  0.0000E+00  0.2000E+01
    -34.990  0.0000E+00  0.2000E+01
    -34.819  0.0000E+00  0.2000E+01
    -34.648  0.0000E+00  0.2000E+01
    -34.477  0.0000E+00  0.2000E+01
    -34.305  0.0000E+00  0.2000E+01
    -34.134  0.0000E+00  0.2000E+01
    -33.963  0.0000E+00  0.2000E+01
    -33.792  0.0000E+00  0.2000E+01
    -33.621  0.0000E+00  0.2000E+01
    -33.450  0.0000E+00  0.2000E+01
    -33.279  0.0000E+00  0.2000E+01
    -33.108  0.0000E+00  0.2000E+01
    -32.936  0.0000E+00  0.2000E+01
    -32.765  0.0000E+00  0.2000E+01
    -32.594  0.0000E+00  0.2000E+01
    -32.423  0.0000E+00  0.2000E+01
    -32.252  0.0000E+00  0.2000E+01
    -32.081  0.0000E+00  0.2000E+01
    -31.910  0.0000E+00  0.2000E+01
    -31.739  0.0000E+00  0.2000E+01
    -31.567  0.0000E+00  0.2000E+01
    -31.396  0.0000E+00  0.2000E+01
    -31.225  0.0000E+00  0.2000E+01
    -31.054  0.0000E+00  0.2000E+01
    -30.883  0.0000E+00  0.2000E+01
    -30.712  0.0000E+00  0.2000E+01
    -30.541  0.0000E+00  0.2000E+01
    -30.370  0.0000E+00  0.2000E+01
    -30.198  0.0000E+00  0.2000E+01
    -30.027  0.0000E+00  0.2000E+01
    -29.856  0.0000E+00  0.2000E+01
    -29.685  0.0000E+00  0.2000E+01
    -29.514  0.0000E+00  0.2000E+01
    -29.343  0.0000E+00  0.2000E+01
    -29.172  0.0000E+00  0.2000E+01
    -29.001  0.0000E+00  0.2000E+01
    -28.829  0.0000E+00  0.2000E+01
    -28.658  0.0000E+00  0.2000E+01
    -28.487  0.0000E+00  0.2000E+01
    -28.316  0.0000E+00  0.2000E+01
    -28.145  0.0000E+00  0.2000E+01
    -27.974  0.0000E+00  0.2000E+01
    -27.803  0.0000E+00  0.2000E+01
    -27.631  0.0000E+00  0.2000E+01
    -27.460  0.0000E+00  0.2000E+01
    -27.289  0.0000E+00  0.2000E+01
    -27.118  0.0000E+00  0.2000E+01
    -26.947  0.0000E+00  0.2000E+01
    -26.776  0.0000E+00  0.2000E+01
    -26.605  0.0000E+00  0.2000E+01
    -26.434  0.0000E+00  0.2000E+01
    -26.262  0.0000E+00  0.2000E+01
    -26.091  0.0000E+00  0.2000E+01
    -25.920  0.0000E+00  0.2000E+01
    -25.749  0.0000E+00  0.2000E+01
    -25.578  0.0000E+00  0.2000E+01
    -25.407  0.0000E+00  0.2000E+01
    -25.236  0.0000E+00  0.2000E+01
    -25.065  0.0000E+00  0.2000E+01
    -24.893  0.0000E+00  0.2000E+01
    -24.722  0.0000E+00  0.2000E+01
    -24.551  0.0000E+00  0.2000E+01
    -24.380  0.0000E+00  0.2000E+01
    -24.209  0.0000E+00  0.2000E+01
    -24.038  0.0000E+00  0.2000E+01
    -23.867  0.0000E+00  0.2000E+01
    -23.696  0.0000E+00  0.2000E+01
    -23.524  0.0000E+00  0.2000E+01
    -23.353  0.0000E+00  0.2000E+01
    -23.182  0.0000E+00  0.2000E+01
    -23.011  0.0000E+00  0.2000E+01
    -22.840  0.0000E+00  0.2000E+01
    -22.669  0.0000E+00  0.2000E+01
    -22.498  0.0000E+00  0.2000E+01
    -22.327  0.0000E+00  0.2000E+01
    -22.155  0.0000E+00  0.2000E+01
    -21.984  0.0000E+00  0.2000E+01
    -21.813  0.0000E+00  0.2000E+01
    -21.642  0.0000E+00  0.2000E+01
    -21.471  0.0000E+00  0.2000E+01
    -21.300  0.0000E+00  0.2000E+01
    -21.129  0.0000E+00  0.2000E+01
    -20.958  0.0000E+00  0.2000E+01
    -20.786  0.0000E+00  0.2000E+01
    -20.615  0.0000E+00  0.2000E+01
    -20.444  0.0000E+00  0.2000E+01
    -20.273  0.0000E+00  0.2000E+01
    -20.102  0.0000E+00  0.2000E+01
    -19.931  0.0000E+00  0.2000E+01
    -19.760  0.0000E+00  0.2000E+01
    -19.589  0.0000E+00  0.2000E+01
    -19.417  0.0000E+00  0.2000E+01
    -19.246  0.0000E+00  0.2000E+01
    -19.075  0.0000E+00  0.2000E+01
    -18.904  0.0000E+00  0.2000E+01
    -18.733  0.0000E+00  0.2000E+01
    -18.562  0.0000E+00  0.2000E+01
    -18.391  0.0000E+00  0.2000E+01
    -18.219  0.0000E+00  0.2000E+01
    -18.048  0.1085E+02  0.3100E+01
    -17.877  0.2265E+01  0.3640E+01
    -17.706  0.8237E+00  0.3842E+01
    -17.535  0.4273E+00  0.3944E+01
    -17.364  0.3442E+02  0.6414E+01
    -17.193  0.6638E+01  0.8000E+01
    -17.022  0.0000E+00  0.8000E+01
    -16.850  0.0000E+00  0.8000E+01
    -16.679  0.0000E+00  0.8000E+01
    -16.508  0.0000E+00  0.8000E+01
    -16.337  0.0000E+00  0.8000E+01
    -16.166  0.0000E+00  0.8000E+01
    -15.995  0.0000E+00  0.8000E+01
    -15.824  0.0000E+00  0.8000E+01
    -15.653  0.0000E+00  0.8000E+01
    -15.481  0.0000E+00  0.8000E+01
    -15.310  0.0000E+00  0.8000E+01
    -15.139  0.0000E+00  0.8000E+01
    -14.968  0.0000E+00  0.8000E+01
    -14.797  0.0000E+00  0.8000E+01
    -14.626  0.0000E+00  0.8000E+01
    -14.455  0.0000E+00  0.8000E+01
    -14.284  0.0000E+00  0.8000E+01
    -14.112  0.2367E+00  0.8014E+01
    -13.941  0.4574E+00  0.8070E+01
    -13.770  0.8542E+00  0.8177E+01
    -13.599  0.1672E+01  0.8380E+01
    -13.428  0.4769E+01  0.8864E+01
    -13.257  0.9928E+01  0.9781E+01
    -13.086  0.6234E+00  0.1000E+02
    -12.915  0.0000E+00  0.1000E+02
    -12.743  0.0000E+00  0.1000E+02
    -12.572  0.0000E+00  0.1000E+02
    -12.401  0.0000E+00  0.1000E+02
    -12.230  0.0000E+00  0.1000E+02
    -12.059  0.0000E+00  0.1000E+02
    -11.888  0.0000E+00  0.1000E+02
    -11.717  0.0000E+00  0.1000E+02
    -11.546  0.0000E+00  0.1000E+02
    -11.374  0.0000E+00  0.1000E+02
    -11.203  0.0000E+00  0.1000E+02
    -11.032  0.0000E+00  0.1000E+02
    -10.861  0.0000E+00  0.1000E+02
    -10.690  0.0000E+00  0.1000E+02
    -10.519  0.0000E+00  0.1000E+02
    -10.348  0.0000E+00  0.1000E+02
    -10.176  0.0000E+00  0.1000E+02
    -10.005  0.0000E+00  0.1000E+02
     -9.834  0.0000E+00  0.1000E+02
     -9.663  0.0000E+00  0.1000E+02
     -9.492  0.0000E+00  0.1000E+02
     -9.321  0.0000E+00  0.1000E+02
     -9.150  0.0000E+00  0.1000E+02
     -8.979  0.0000E+00  0.1000E+02
     -8.807  0.0000E+00  0.1000E+02
     -8.636  0.0000E+00  0.1000E+02
     -8.465  0.0000E+00  0.1000E+02
     -8.294  0.0000E+00  0.1000E+02
     -8.123  0.0000E+00  0.1000E+02
     -7.952  0.0000E+00  0.1000E+02
     -7.781  0.0000E+00  0.1000E+02
     -7.610  0.0000E+00  0.1000E+02
     -7.438  0.0000E+00  0.1000E+02
     -7.267  0.0000E+00  0.1000E+02
     -7.096  0.0000E+00  0.1000E+02
     -6.925  0.0000E+00  0.1000E+02
     -6.754  0.0000E+00  0.1000E+02
     -6.583  0.0000E+00  0.1000E+02
     -6.412  0.0000E+00  0.1000E+02
     -6.241  0.0000E+00  0.1000E+02
     -6.069  0.0000E+00  0.1000E+02
     -5.898  0.0000E+00  0.1000E+02
     -5.727  0.0000E+00  0.1000E+02
     -5.556  0.0000E+00  0.1000E+02
     -5.385  0.0000E+00  0.1000E+02
     -5.214  0.0000E+00  0.1000E+02
     -5.043  0.0000E+00  0.1000E+02
     -4.872  0.0000E+00  0.1000E+02
     -4.700  0.0000E+00  0.1000E+02
     -4.529  0.0000E+00  0.1000E+02
     -4.358  0.0000E+00  0.1000E+02
     -4.187  0.0000E+00  0.1000E+02
     -4.016  0.0000E+00  0.1000E+02
     -3.845  0.0000E+00  0.1000E+02
     -3.674  0.0000E+00  0.1000E+02
     -3.503  0.0000E+00  0.1000E+02
     -3.331  0.0000E+00  0.1000E+02
     -3.160  0.0000E+00  0.1000E+02
     -2.989  0.0000E+00  0.1000E+02
     -2.818  0.0000E+00  0.1000E+02
     -2.647  0.0000E+00  0.1000E+02
     -2.476  0.0000E+00  0.1000E+02
     -2.305  0.0000E+00  0.1000E+02
     -2.134  0.0000E+00  0.1000E+02
     -1.962  0.0000E+00  0.1000E+02
     -1.791  0.0000E+00  0.1000E+02
     -1.620  0.0000E+00  0.1000E+02
     -1.449  0.0000E+00  0.1000E+02
     -1.278  0.0000E+00  0.1000E+02
     -1.107  0.0000E+00  0.1000E+02
     -0.936  0.1145E+01  0.1007E+02
     -0.764  0.2246E+01  0.1033E+02
     -0.593  0.6343E+01  0.1092E+02
     -0.422  0.5432E+01  0.1178E+02
     -0.251  0.4817E+00  0.1200E+02
     -0.080  0.8031E+01  0.1231E+02
      0.091  0.1112E+02  0.1391E+02
      0.262  0.6057E+01  0.1496E+02
      0.433  0.6099E+01  0.1576E+02
      0.605  0.2898E+00  0.1600E+02
      0.776  0.0000E+00  0.1600E+02
      0.947  0.0000E+00  0.1600E+02
      1.118  0.0000E+00  0.1600E+02
      1.289  0.0000E+00  0.1600E+02
      1.460  0.0000E+00  0.1600E+02
      1.631  0.0000E+00  0.1600E+02
      1.802  0.0000E+00  0.1600E+02
      1.974  0.0000E+00  0.1600E+02
      2.145  0.0000E+00  0.1600E+02
      2.316  0.0000E+00  0.1600E+02
      2.487  0.0000E+00  0.1600E+02
      2.658  0.0000E+00  0.1600E+02
      2.829  0.0000E+00  0.1600E+02
      3.000  0.0000E+00  0.1600E+02
      3.171  0.0000E+00  0.1600E+02
      3.343  0.0000E+00  0.1600E+02
      3.514  0.0000E+00  0.1600E+02
      3.685  0.0000E+00  0.1600E+02
      3.856  0.2247E-03  0.1600E+02
      4.027  0.1645E-01  0.1600E+02
      4.198  0.4154E-01  0.1601E+02
      4.369  0.5383E-01  0.1601E+02
      4.540  0.6962E-01  0.1603E+02
      4.712  0.8695E-01  0.1604E+02
      4.883  0.1058E+00  0.1606E+02
      5.054  0.1259E+00  0.1607E+02
      5.225  0.1474E+00  0.1610E+02
      5.396  0.1749E+00  0.1613E+02
      5.567  0.2313E+01  0.1641E+02
      5.738  0.1667E+01  0.1671E+02
      5.909  0.1767E+01  0.1700E+02
      6.081  0.2206E+01  0.1733E+02
      6.252  0.1944E+01  0.1773E+02
      6.423  0.6982E+00  0.1792E+02
      6.594  0.2251E+00  0.1799E+02
      6.765  0.0000E+00  0.1800E+02
      6.936  0.5523E-01  0.1800E+02
      7.107  0.2423E+01  0.1814E+02
      7.278  0.3436E+01  0.1879E+02
      7.450  0.1650E+01  0.1912E+02
      7.621  0.1420E+01  0.1938E+02
      7.792  0.1243E+01  0.1961E+02
      7.963  0.8676E+00  0.1980E+02
      8.134  0.5851E+00  0.1992E+02
      8.305  0.9180E+00  0.2003E+02
      8.476  0.2231E+01  0.2029E+02
      8.648  0.2338E+01  0.2072E+02
      8.819  0.1892E+01  0.2107E+02
      8.990  0.1686E+01  0.2137E+02
      9.161  0.1754E+01  0.2166E+02
      9.332  0.1087E+01  0.2189E+02
      9.503  0.9883E+00  0.2207E+02
      9.674  0.1159E+01  0.2224E+02
      9.845  0.1945E+01  0.2251E+02
     10.017  0.1906E+01  0.2283E+02
     10.188  0.5140E+01  0.2338E+02
     10.359  0.1770E+01  0.2400E+02
     10.530  0.0000E+00  0.2400E+02
     10.701  0.0000E+00  0.2400E+02
     10.872  0.0000E+00  0.2400E+02
     11.043  0.0000E+00  0.2400E+02
     11.214  0.0000E+00  0.2400E+02
     11.386  0.0000E+00  0.2400E+02
     11.557  0.0000E+00  0.2400E+02
     11.728  0.0000E+00  0.2400E+02
     11.899  0.0000E+00  0.2400E+02
     12.070  0.0000E+00  0.2400E+02
     12.241  0.0000E+00  0.2400E+02
     12.412  0.0000E+00  0.2400E+02
     12.583  0.0000E+00  0.2400E+02
     12.755  0.0000E+00  0.2400E+02
