   5   5   0   0
  0.2530927E+02  0.6757074E-09  0.6757074E-09  0.6757074E-09  0.5000000E-15
  1.000000000000000E-004
  CAR 
 unknown system                          
     13.22532167    -13.61719495  301      3.38865777      1.00000000
    -13.617  0.0000E+00  0.0000E+00
    -13.528  0.0000E+00  0.0000E+00
    -13.438  0.0000E+00  0.0000E+00
    -13.349  0.0000E+00  0.0000E+00
    -13.259  0.0000E+00  0.0000E+00
    -13.170  0.0000E+00  0.0000E+00
    -13.080  0.0000E+00  0.0000E+00
    -12.991  0.0000E+00  0.0000E+00
    -12.901  0.0000E+00  0.0000E+00
    -12.812  0.0000E+00  0.0000E+00
    -12.722  0.0000E+00  0.0000E+00
    -12.633  0.4561E-10  0.4081E-11
    -12.543  0.1027E-03  0.9187E-05
    -12.454  0.6448E+00  0.5770E-01
    -12.365  0.2329E+02  0.2142E+01
    -12.275  0.3303E+02  0.5097E+01
    -12.186  0.3876E+02  0.8565E+01
    -12.096  0.9991E+02  0.1750E+02
    -12.007  0.2774E+02  0.1999E+02
    -11.917  0.1472E+00  0.2000E+02
    -11.828  0.3329E-05  0.2000E+02
    -11.738  0.1917E-12  0.2000E+02
    -11.649  0.0000E+00  0.2000E+02
    -11.559  0.5956E-16  0.2000E+02
    -11.470  0.2477E-08  0.2000E+02
    -11.380  0.2226E-03  0.2000E+02
    -11.291  0.5551E-01  0.2000E+02
    -11.201  0.2091E+00  0.2002E+02
    -11.112  0.7082E+00  0.2009E+02
    -11.022  0.3363E+00  0.2012E+02
    -10.933  0.1281E+01  0.2023E+02
    -10.843  0.1235E+01  0.2034E+02
    -10.754  0.2669E+01  0.2058E+02
    -10.665  0.1026E+01  0.2067E+02
    -10.575  0.2284E+01  0.2088E+02
    -10.486  0.1608E+01  0.2102E+02
    -10.396  0.1447E+01  0.2115E+02
    -10.307  0.1175E+01  0.2126E+02
    -10.217  0.2573E+01  0.2149E+02
    -10.128  0.3243E+01  0.2178E+02
    -10.038  0.4770E+01  0.2220E+02
     -9.949  0.4522E+01  0.2261E+02
     -9.859  0.3727E+01  0.2294E+02
     -9.770  0.4617E+01  0.2335E+02
     -9.680  0.4460E+01  0.2375E+02
     -9.591  0.2531E+01  0.2398E+02
     -9.501  0.2270E+00  0.2400E+02
     -9.412  0.2087E+00  0.2402E+02
     -9.322  0.2342E+01  0.2423E+02
     -9.233  0.6288E+01  0.2479E+02
     -9.143  0.7408E+01  0.2545E+02
     -9.054  0.5279E+01  0.2593E+02
     -8.964  0.8244E+00  0.2600E+02
     -8.875  0.3143E-02  0.2600E+02
     -8.786  0.4922E-07  0.2600E+02
     -8.696  0.1707E-14  0.2600E+02
     -8.607  0.0000E+00  0.2600E+02
     -8.517  0.0000E+00  0.2600E+02
     -8.428  0.0000E+00  0.2600E+02
     -8.338  0.0000E+00  0.2600E+02
     -8.249  0.0000E+00  0.2600E+02
     -8.159  0.0000E+00  0.2600E+02
     -8.070  0.0000E+00  0.2600E+02
     -7.980  0.0000E+00  0.2600E+02
     -7.891  0.0000E+00  0.2600E+02
     -7.801  0.0000E+00  0.2600E+02
     -7.712  0.0000E+00  0.2600E+02
     -7.622  0.0000E+00  0.2600E+02
     -7.533  0.0000E+00  0.2600E+02
     -7.443  0.0000E+00  0.2600E+02
     -7.354  0.0000E+00  0.2600E+02
     -7.264  0.0000E+00  0.2600E+02
     -7.175  0.0000E+00  0.2600E+02
     -7.086  0.0000E+00  0.2600E+02
     -6.996  0.0000E+00  0.2600E+02
     -6.907  0.0000E+00  0.2600E+02
     -6.817  0.0000E+00  0.2600E+02
     -6.728  0.0000E+00  0.2600E+02
     -6.638  0.0000E+00  0.2600E+02
     -6.549  0.0000E+00  0.2600E+02
     -6.459  0.0000E+00  0.2600E+02
     -6.370  0.0000E+00  0.2600E+02
     -6.280  0.0000E+00  0.2600E+02
     -6.191  0.0000E+00  0.2600E+02
     -6.101  0.0000E+00  0.2600E+02
     -6.012  0.0000E+00  0.2600E+02
     -5.922  0.0000E+00  0.2600E+02
     -5.833  0.0000E+00  0.2600E+02
     -5.743  0.0000E+00  0.2600E+02
     -5.654  0.0000E+00  0.2600E+02
     -5.564  0.0000E+00  0.2600E+02
     -5.475  0.0000E+00  0.2600E+02
     -5.385  0.0000E+00  0.2600E+02
     -5.296  0.0000E+00  0.2600E+02
     -5.207  0.0000E+00  0.2600E+02
     -5.117  0.0000E+00  0.2600E+02
     -5.028  0.0000E+00  0.2600E+02
     -4.938  0.0000E+00  0.2600E+02
     -4.849  0.0000E+00  0.2600E+02
     -4.759  0.0000E+00  0.2600E+02
     -4.670  0.0000E+00  0.2600E+02
     -4.580  0.0000E+00  0.2600E+02
     -4.491  0.1249E-13  0.2600E+02
     -4.401  0.1361E-06  0.2600E+02
     -4.312  0.3284E-02  0.2600E+02
     -4.222  0.4077E+00  0.2604E+02
     -4.133  0.2890E+01  0.2630E+02
     -4.043  0.3759E+01  0.2663E+02
     -3.954  0.3563E+01  0.2695E+02
     -3.864  0.3018E+01  0.2722E+02
     -3.775  0.4048E+01  0.2758E+02
     -3.685  0.3758E+01  0.2792E+02
     -3.596  0.3201E+01  0.2821E+02
     -3.507  0.1114E+01  0.2831E+02
     -3.417  0.2196E+01  0.2850E+02
     -3.328  0.1698E+01  0.2865E+02
     -3.238  0.9122E+00  0.2874E+02
     -3.149  0.1162E+01  0.2884E+02
     -3.059  0.2738E+00  0.2886E+02
     -2.970  0.2812E-01  0.2887E+02
     -2.880  0.1138E+01  0.2897E+02
     -2.791  0.1996E+01  0.2915E+02
     -2.701  0.1883E+01  0.2931E+02
     -2.612  0.9597E+00  0.2940E+02
     -2.522  0.5849E+00  0.2945E+02
     -2.433  0.1749E+01  0.2961E+02
     -2.343  0.1503E+01  0.2974E+02
     -2.254  0.1225E+01  0.2985E+02
     -2.164  0.1141E+00  0.2986E+02
     -2.075  0.3382E+00  0.2989E+02
     -1.985  0.6363E+00  0.2995E+02
     -1.896  0.3456E+00  0.2998E+02
     -1.806  0.2262E-01  0.2998E+02
     -1.717  0.5362E-01  0.2999E+02
     -1.628  0.1211E+00  0.3000E+02
     -1.538  0.1059E+00  0.3001E+02
     -1.449  0.1334E+01  0.3013E+02
     -1.359  0.3073E+01  0.3040E+02
     -1.270  0.3619E+01  0.3073E+02
     -1.180  0.1871E+01  0.3089E+02
     -1.091  0.2226E+01  0.3109E+02
     -1.001  0.5461E+01  0.3158E+02
     -0.912  0.5813E+01  0.3210E+02
     -0.822  0.2802E+01  0.3235E+02
     -0.733  0.3211E+01  0.3264E+02
     -0.643  0.2512E+01  0.3287E+02
     -0.554  0.2399E+01  0.3308E+02
     -0.464  0.2557E+01  0.3331E+02
     -0.375  0.4136E+01  0.3368E+02
     -0.285  0.5856E+01  0.3420E+02
     -0.196  0.3667E+01  0.3453E+02
     -0.106  0.3250E+01  0.3482E+02
     -0.017  0.4268E+01  0.3520E+02
      0.072  0.3068E+01  0.3548E+02
      0.162  0.5233E+01  0.3595E+02
      0.251  0.5129E+01  0.3641E+02
      0.341  0.4365E+01  0.3680E+02
      0.430  0.4274E+01  0.3718E+02
      0.520  0.3497E+01  0.3749E+02
      0.609  0.3361E+01  0.3779E+02
      0.699  0.2688E+01  0.3803E+02
      0.788  0.1252E+01  0.3814E+02
      0.878  0.4463E+01  0.3854E+02
      0.967  0.6408E+01  0.3912E+02
      1.057  0.4977E+01  0.3956E+02
      1.146  0.3567E+01  0.3988E+02
      1.236  0.3046E+01  0.4015E+02
      1.325  0.5863E+01  0.4068E+02
      1.415  0.6606E+01  0.4127E+02
      1.504  0.4146E+01  0.4164E+02
      1.594  0.3194E+01  0.4193E+02
      1.683  0.2533E+01  0.4215E+02
      1.773  0.2162E+01  0.4235E+02
      1.862  0.1557E+01  0.4249E+02
      1.951  0.2477E+01  0.4271E+02
      2.041  0.6822E+00  0.4277E+02
      2.130  0.6925E+00  0.4283E+02
      2.220  0.1798E+01  0.4299E+02
      2.309  0.3228E+01  0.4328E+02
      2.399  0.3284E+01  0.4357E+02
      2.488  0.2863E+00  0.4360E+02
      2.578  0.2693E-03  0.4360E+02
      2.667  0.5549E-04  0.4360E+02
      2.757  0.6292E-01  0.4361E+02
      2.846  0.8758E+00  0.4368E+02
      2.936  0.1382E+01  0.4381E+02
      3.025  0.1030E+01  0.4390E+02
      3.115  0.9008E+00  0.4398E+02
      3.204  0.2166E+00  0.4400E+02
      3.294  0.2595E-02  0.4400E+02
      3.383  0.1161E-06  0.4400E+02
      3.473  0.1096E-13  0.4400E+02
      3.562  0.4185E-08  0.4400E+02
      3.651  0.3008E-03  0.4400E+02
      3.741  0.6121E-01  0.4401E+02
      3.830  0.1143E+00  0.4402E+02
      3.920  0.2972E-02  0.4402E+02
      4.009  0.6406E-06  0.4402E+02
      4.099  0.6521E-02  0.4402E+02
      4.188  0.4009E+00  0.4405E+02
      4.278  0.4706E+00  0.4409E+02
      4.367  0.2560E+00  0.4412E+02
      4.457  0.9160E+00  0.4420E+02
      4.546  0.1535E+01  0.4434E+02
      4.636  0.8491E+00  0.4441E+02
      4.725  0.8850E+00  0.4449E+02
      4.815  0.1317E+01  0.4461E+02
      4.904  0.1175E+01  0.4471E+02
      4.994  0.2916E+01  0.4498E+02
      5.083  0.4312E+01  0.4536E+02
      5.173  0.5845E+01  0.4588E+02
      5.262  0.6780E+01  0.4649E+02
      5.352  0.4266E+01  0.4687E+02
      5.441  0.3687E+01  0.4720E+02
      5.530  0.4477E+01  0.4760E+02
      5.620  0.8772E+00  0.4768E+02
      5.709  0.9675E+00  0.4777E+02
      5.799  0.2265E+01  0.4797E+02
      5.888  0.2085E+01  0.4816E+02
      5.978  0.2003E+01  0.4834E+02
      6.067  0.9562E+00  0.4842E+02
      6.157  0.1224E+01  0.4853E+02
      6.246  0.1246E+01  0.4864E+02
      6.336  0.1976E+01  0.4882E+02
      6.425  0.1462E+01  0.4895E+02
      6.515  0.2367E+01  0.4916E+02
      6.604  0.9741E+00  0.4925E+02
      6.694  0.1308E+01  0.4937E+02
      6.783  0.4136E+01  0.4974E+02
      6.873  0.3303E+01  0.5003E+02
      6.962  0.3409E+01  0.5034E+02
      7.052  0.1927E+01  0.5051E+02
      7.141  0.2277E+01  0.5071E+02
      7.230  0.2971E+01  0.5098E+02
      7.320  0.3700E+01  0.5131E+02
      7.409  0.3591E+01  0.5163E+02
      7.499  0.2887E+01  0.5189E+02
      7.588  0.5227E+01  0.5236E+02
      7.678  0.3228E+01  0.5265E+02
      7.767  0.3205E+01  0.5293E+02
      7.857  0.3088E+01  0.5321E+02
      7.946  0.2507E+01  0.5343E+02
      8.036  0.3921E+01  0.5379E+02
      8.125  0.2696E+01  0.5403E+02
      8.215  0.2149E+01  0.5422E+02
      8.304  0.3613E+01  0.5454E+02
      8.394  0.4784E+01  0.5497E+02
      8.483  0.1614E+01  0.5511E+02
      8.573  0.1074E+01  0.5521E+02
      8.662  0.2492E+01  0.5543E+02
      8.752  0.2729E+01  0.5568E+02
      8.841  0.2841E+01  0.5593E+02
      8.931  0.3705E+01  0.5626E+02
      9.020  0.6544E+01  0.5685E+02
      9.109  0.2944E+01  0.5711E+02
      9.199  0.3925E+01  0.5746E+02
      9.288  0.4052E+01  0.5783E+02
      9.378  0.6159E+01  0.5838E+02
      9.467  0.3887E+01  0.5872E+02
      9.557  0.2051E+01  0.5891E+02
      9.646  0.2216E+01  0.5911E+02
      9.736  0.2154E+01  0.5930E+02
      9.825  0.2626E+01  0.5953E+02
      9.915  0.3313E+01  0.5983E+02
     10.004  0.2121E+01  0.6002E+02
     10.094  0.2941E+01  0.6028E+02
     10.183  0.2767E+01  0.6053E+02
     10.273  0.2130E+01  0.6072E+02
     10.362  0.2113E+01  0.6091E+02
     10.452  0.3935E+01  0.6126E+02
     10.541  0.1492E+01  0.6140E+02
     10.631  0.4186E+01  0.6177E+02
     10.720  0.3248E+01  0.6206E+02
     10.809  0.1068E+01  0.6216E+02
     10.899  0.3986E+01  0.6251E+02
     10.988  0.3030E+01  0.6278E+02
     11.078  0.2742E+01  0.6303E+02
     11.167  0.2573E+01  0.6326E+02
     11.257  0.1118E+01  0.6336E+02
     11.346  0.6505E+00  0.6342E+02
     11.436  0.1206E+01  0.6353E+02
     11.525  0.1720E+01  0.6368E+02
     11.615  0.1055E+01  0.6377E+02
     11.704  0.4885E+00  0.6382E+02
     11.794  0.8661E+00  0.6390E+02
     11.883  0.4392E+00  0.6394E+02
     11.973  0.1360E+00  0.6395E+02
     12.062  0.5490E+00  0.6400E+02
     12.152  0.3829E-01  0.6400E+02
     12.241  0.1231E-04  0.6400E+02
     12.331  0.8975E-11  0.6400E+02
     12.420  0.0000E+00  0.6400E+02
     12.510  0.0000E+00  0.6400E+02
     12.599  0.0000E+00  0.6400E+02
     12.688  0.0000E+00  0.6400E+02
     12.778  0.0000E+00  0.6400E+02
     12.867  0.0000E+00  0.6400E+02
     12.957  0.0000E+00  0.6400E+02
     13.046  0.0000E+00  0.6400E+02
     13.136  0.0000E+00  0.6400E+02
     13.225  0.0000E+00  0.6400E+02
