Ga2 Se3
1.0
  -1.9287282200000000    2.8117278300000002    5.8337154599999996
   1.9287282200000000   -2.8117278300000002    5.8337154599999996
   1.9287282200000000    2.8117278300000002   -5.8337154599999996
Ga Se
2 3
direct
   0.3308828800000000    0.3399009700000000    0.9909819200000000 Ga
   0.6510819500000000    0.6600990300000000    0.9909819200000000 Ga
   0.6023662000000000    0.8387918100000000    0.7635753900000000 Se
   0.9247835700000000    0.1612081900000000    0.7635753900000000 Se
   0.2408863900000000    0.5000000000000000    0.7408863900000000 Se
