Al6W3
1.0
      2.4364340      -4.2200280       0.0000000
      2.4364340       4.2200280       0.0000000
      0.0000000       0.0000000       6.7867910
  Al    W   
  6     3   
Direct
      0.1685450       0.8314550       0.1666670
      0.3370890       0.1685450       0.8333330
      0.8314550       0.6629110       0.5000000
      0.8314550       0.1685450       0.1666670
      0.6629110       0.8314550       0.8333330
      0.1685450       0.3370890       0.5000000
      0.5000000       0.0000000       0.5000000
      0.0000000       0.5000000       0.8333330
      0.5000000       0.5000000       0.1666670
