   6   6   0   0
  0.1573219E+02  0.3114085E-09  0.4762351E-09  0.6951606E-09  0.5000000E-15
  1.000000000000000E-004
  CAR 
 unknown system                          
     22.67039692    -40.38031365  301      8.47190715      1.00000000
    -40.380  0.0000E+00  0.0000E+00
    -40.170  0.0000E+00  0.0000E+00
    -39.960  0.0000E+00  0.0000E+00
    -39.750  0.0000E+00  0.0000E+00
    -39.540  0.0000E+00  0.0000E+00
    -39.329  0.0000E+00  0.0000E+00
    -39.119  0.0000E+00  0.0000E+00
    -38.909  0.0000E+00  0.0000E+00
    -38.699  0.0000E+00  0.0000E+00
    -38.489  0.0000E+00  0.0000E+00
    -38.279  0.0000E+00  0.0000E+00
    -38.068  0.0000E+00  0.0000E+00
    -37.858  0.0000E+00  0.0000E+00
    -37.648  0.2090E-03  0.4392E-04
    -37.438  0.1788E+02  0.3758E+01
    -37.228  0.2524E+02  0.9063E+01
    -37.018  0.1398E+02  0.1200E+02
    -36.807  0.1694E-05  0.1200E+02
    -36.597  0.0000E+00  0.1200E+02
    -36.387  0.0000E+00  0.1200E+02
    -36.177  0.0000E+00  0.1200E+02
    -35.967  0.0000E+00  0.1200E+02
    -35.757  0.0000E+00  0.1200E+02
    -35.546  0.0000E+00  0.1200E+02
    -35.336  0.0000E+00  0.1200E+02
    -35.126  0.0000E+00  0.1200E+02
    -34.916  0.0000E+00  0.1200E+02
    -34.706  0.0000E+00  0.1200E+02
    -34.496  0.0000E+00  0.1200E+02
    -34.285  0.0000E+00  0.1200E+02
    -34.075  0.0000E+00  0.1200E+02
    -33.865  0.0000E+00  0.1200E+02
    -33.655  0.0000E+00  0.1200E+02
    -33.445  0.0000E+00  0.1200E+02
    -33.235  0.0000E+00  0.1200E+02
    -33.024  0.0000E+00  0.1200E+02
    -32.814  0.0000E+00  0.1200E+02
    -32.604  0.0000E+00  0.1200E+02
    -32.394  0.0000E+00  0.1200E+02
    -32.184  0.0000E+00  0.1200E+02
    -31.974  0.0000E+00  0.1200E+02
    -31.763  0.0000E+00  0.1200E+02
    -31.553  0.0000E+00  0.1200E+02
    -31.343  0.0000E+00  0.1200E+02
    -31.133  0.0000E+00  0.1200E+02
    -30.923  0.0000E+00  0.1200E+02
    -30.713  0.0000E+00  0.1200E+02
    -30.502  0.0000E+00  0.1200E+02
    -30.292  0.0000E+00  0.1200E+02
    -30.082  0.0000E+00  0.1200E+02
    -29.872  0.0000E+00  0.1200E+02
    -29.662  0.0000E+00  0.1200E+02
    -29.452  0.0000E+00  0.1200E+02
    -29.241  0.0000E+00  0.1200E+02
    -29.031  0.0000E+00  0.1200E+02
    -28.821  0.0000E+00  0.1200E+02
    -28.611  0.0000E+00  0.1200E+02
    -28.401  0.0000E+00  0.1200E+02
    -28.191  0.0000E+00  0.1200E+02
    -27.980  0.0000E+00  0.1200E+02
    -27.770  0.0000E+00  0.1200E+02
    -27.560  0.0000E+00  0.1200E+02
    -27.350  0.0000E+00  0.1200E+02
    -27.140  0.0000E+00  0.1200E+02
    -26.929  0.0000E+00  0.1200E+02
    -26.719  0.0000E+00  0.1200E+02
    -26.509  0.0000E+00  0.1200E+02
    -26.299  0.0000E+00  0.1200E+02
    -26.089  0.0000E+00  0.1200E+02
    -25.879  0.0000E+00  0.1200E+02
    -25.668  0.0000E+00  0.1200E+02
    -25.458  0.0000E+00  0.1200E+02
    -25.248  0.0000E+00  0.1200E+02
    -25.038  0.0000E+00  0.1200E+02
    -24.828  0.0000E+00  0.1200E+02
    -24.618  0.0000E+00  0.1200E+02
    -24.407  0.0000E+00  0.1200E+02
    -24.197  0.0000E+00  0.1200E+02
    -23.987  0.0000E+00  0.1200E+02
    -23.777  0.0000E+00  0.1200E+02
    -23.567  0.0000E+00  0.1200E+02
    -23.357  0.0000E+00  0.1200E+02
    -23.146  0.0000E+00  0.1200E+02
    -22.936  0.0000E+00  0.1200E+02
    -22.726  0.0000E+00  0.1200E+02
    -22.516  0.0000E+00  0.1200E+02
    -22.306  0.0000E+00  0.1200E+02
    -22.096  0.0000E+00  0.1200E+02
    -21.885  0.0000E+00  0.1200E+02
    -21.675  0.0000E+00  0.1200E+02
    -21.465  0.0000E+00  0.1200E+02
    -21.255  0.0000E+00  0.1200E+02
    -21.045  0.0000E+00  0.1200E+02
    -20.835  0.0000E+00  0.1200E+02
    -20.624  0.0000E+00  0.1200E+02
    -20.414  0.0000E+00  0.1200E+02
    -20.204  0.0000E+00  0.1200E+02
    -19.994  0.0000E+00  0.1200E+02
    -19.784  0.0000E+00  0.1200E+02
    -19.574  0.0000E+00  0.1200E+02
    -19.363  0.0000E+00  0.1200E+02
    -19.153  0.0000E+00  0.1200E+02
    -18.943  0.0000E+00  0.1200E+02
    -18.733  0.0000E+00  0.1200E+02
    -18.523  0.0000E+00  0.1200E+02
    -18.313  0.0000E+00  0.1200E+02
    -18.102  0.0000E+00  0.1200E+02
    -17.892  0.0000E+00  0.1200E+02
    -17.682  0.0000E+00  0.1200E+02
    -17.472  0.0000E+00  0.1200E+02
    -17.262  0.0000E+00  0.1200E+02
    -17.052  0.0000E+00  0.1200E+02
    -16.841  0.1319E-07  0.1200E+02
    -16.631  0.3882E+01  0.1282E+02
    -16.421  0.1015E+03  0.3415E+02
    -16.211  0.8483E+02  0.5198E+02
    -16.001  0.7906E-01  0.5200E+02
    -15.791  0.0000E+00  0.5200E+02
    -15.580  0.0000E+00  0.5200E+02
    -15.370  0.0000E+00  0.5200E+02
    -15.160  0.0000E+00  0.5200E+02
    -14.950  0.0000E+00  0.5200E+02
    -14.740  0.0000E+00  0.5200E+02
    -14.530  0.0000E+00  0.5200E+02
    -14.319  0.0000E+00  0.5200E+02
    -14.109  0.0000E+00  0.5200E+02
    -13.899  0.0000E+00  0.5200E+02
    -13.689  0.0000E+00  0.5200E+02
    -13.479  0.0000E+00  0.5200E+02
    -13.269  0.0000E+00  0.5200E+02
    -13.058  0.0000E+00  0.5200E+02
    -12.848  0.0000E+00  0.5200E+02
    -12.638  0.0000E+00  0.5200E+02
    -12.428  0.0000E+00  0.5200E+02
    -12.218  0.0000E+00  0.5200E+02
    -12.007  0.0000E+00  0.5200E+02
    -11.797  0.0000E+00  0.5200E+02
    -11.587  0.0000E+00  0.5200E+02
    -11.377  0.0000E+00  0.5200E+02
    -11.167  0.0000E+00  0.5200E+02
    -10.957  0.0000E+00  0.5200E+02
    -10.746  0.0000E+00  0.5200E+02
    -10.536  0.0000E+00  0.5200E+02
    -10.326  0.0000E+00  0.5200E+02
    -10.116  0.0000E+00  0.5200E+02
     -9.906  0.0000E+00  0.5200E+02
     -9.696  0.0000E+00  0.5200E+02
     -9.485  0.0000E+00  0.5200E+02
     -9.275  0.0000E+00  0.5200E+02
     -9.065  0.0000E+00  0.5200E+02
     -8.855  0.0000E+00  0.5200E+02
     -8.645  0.0000E+00  0.5200E+02
     -8.435  0.0000E+00  0.5200E+02
     -8.224  0.0000E+00  0.5200E+02
     -8.014  0.0000E+00  0.5200E+02
     -7.804  0.0000E+00  0.5200E+02
     -7.594  0.0000E+00  0.5200E+02
     -7.384  0.0000E+00  0.5200E+02
     -7.174  0.0000E+00  0.5200E+02
     -6.963  0.0000E+00  0.5200E+02
     -6.753  0.0000E+00  0.5200E+02
     -6.543  0.0000E+00  0.5200E+02
     -6.333  0.0000E+00  0.5200E+02
     -6.123  0.0000E+00  0.5200E+02
     -5.913  0.0000E+00  0.5200E+02
     -5.702  0.0000E+00  0.5200E+02
     -5.492  0.8046E-05  0.5200E+02
     -5.282  0.4368E-01  0.5201E+02
     -5.072  0.2771E+00  0.5207E+02
     -4.862  0.4238E+00  0.5216E+02
     -4.652  0.2804E+00  0.5222E+02
     -4.441  0.8580E+00  0.5240E+02
     -4.231  0.3925E+00  0.5248E+02
     -4.021  0.9538E+00  0.5268E+02
     -3.811  0.6674E+00  0.5282E+02
     -3.601  0.6117E+00  0.5295E+02
     -3.391  0.9343E+00  0.5314E+02
     -3.180  0.1342E+01  0.5343E+02
     -2.970  0.1245E+01  0.5369E+02
     -2.760  0.8783E+00  0.5387E+02
     -2.550  0.1241E+01  0.5413E+02
     -2.340  0.1514E+01  0.5445E+02
     -2.130  0.1358E+01  0.5474E+02
     -1.919  0.1507E+01  0.5505E+02
     -1.709  0.1716E+01  0.5541E+02
     -1.499  0.1847E+01  0.5580E+02
     -1.289  0.1815E+01  0.5618E+02
     -1.079  0.1444E+01  0.5649E+02
     -0.869  0.1661E+01  0.5684E+02
     -0.658  0.1570E+01  0.5717E+02
     -0.448  0.2467E+01  0.5768E+02
     -0.238  0.2111E+01  0.5813E+02
     -0.028  0.1414E+01  0.5843E+02
      0.182  0.2031E+01  0.5885E+02
      0.392  0.1752E+01  0.5922E+02
      0.603  0.5688E+00  0.5934E+02
      0.813  0.7074E+00  0.5949E+02
      1.023  0.1017E+01  0.5970E+02
      1.233  0.6421E+00  0.5984E+02
      1.443  0.9351E+00  0.6003E+02
      1.653  0.7743E+00  0.6020E+02
      1.864  0.1061E+01  0.6042E+02
      2.074  0.1344E+01  0.6070E+02
      2.284  0.1998E+01  0.6112E+02
      2.494  0.2336E+01  0.6161E+02
      2.704  0.3095E+01  0.6226E+02
      2.915  0.3146E+01  0.6292E+02
      3.125  0.2301E+01  0.6341E+02
      3.335  0.2096E+01  0.6385E+02
      3.545  0.2711E+01  0.6442E+02
      3.755  0.3042E+01  0.6506E+02
      3.965  0.3758E+01  0.6585E+02
      4.176  0.3990E+01  0.6669E+02
      4.386  0.5175E+01  0.6777E+02
      4.596  0.4225E+01  0.6866E+02
      4.806  0.5410E+01  0.6980E+02
      5.016  0.5250E+01  0.7090E+02
      5.226  0.6139E+01  0.7219E+02
      5.437  0.5970E+01  0.7345E+02
      5.647  0.5961E+01  0.7470E+02
      5.857  0.6253E+01  0.7601E+02
      6.067  0.5104E+01  0.7709E+02
      6.277  0.6270E+01  0.7840E+02
      6.487  0.4737E+01  0.7940E+02
      6.698  0.4791E+01  0.8041E+02
      6.908  0.3919E+01  0.8123E+02
      7.118  0.3446E+01  0.8195E+02
      7.328  0.3537E+01  0.8270E+02
      7.538  0.1540E+01  0.8302E+02
      7.748  0.1592E+01  0.8336E+02
      7.959  0.1227E+01  0.8361E+02
      8.169  0.7573E+00  0.8377E+02
      8.379  0.5920E+00  0.8390E+02
      8.589  0.1069E+01  0.8412E+02
      8.799  0.8471E+00  0.8430E+02
      9.009  0.2425E+01  0.8481E+02
      9.220  0.3695E+01  0.8559E+02
      9.430  0.2795E+01  0.8617E+02
      9.640  0.3194E+01  0.8685E+02
      9.850  0.3188E+01  0.8752E+02
     10.060  0.2653E+01  0.8807E+02
     10.270  0.3732E+01  0.8886E+02
     10.481  0.3207E+01  0.8953E+02
     10.691  0.2928E+01  0.9015E+02
     10.901  0.4033E+01  0.9099E+02
     11.111  0.3347E+01  0.9170E+02
     11.321  0.2673E+01  0.9226E+02
     11.531  0.1651E+01  0.9261E+02
     11.742  0.2605E+01  0.9315E+02
     11.952  0.3539E+01  0.9390E+02
     12.162  0.3339E+01  0.9460E+02
     12.372  0.3145E+01  0.9526E+02
     12.582  0.3559E+01  0.9601E+02
     12.792  0.2870E+01  0.9661E+02
     13.003  0.2742E+01  0.9719E+02
     13.213  0.2621E+01  0.9774E+02
     13.423  0.2988E+01  0.9837E+02
     13.633  0.3087E+01  0.9902E+02
     13.843  0.3948E+01  0.9985E+02
     14.053  0.2482E+01  0.1004E+03
     14.264  0.2324E+01  0.1009E+03
     14.474  0.2954E+01  0.1015E+03
     14.684  0.3338E+01  0.1022E+03
     14.894  0.3139E+01  0.1028E+03
     15.104  0.3254E+01  0.1035E+03
     15.314  0.3546E+01  0.1043E+03
     15.525  0.2823E+01  0.1049E+03
     15.735  0.1947E+01  0.1053E+03
     15.945  0.2037E+01  0.1057E+03
     16.155  0.2168E+01  0.1062E+03
     16.365  0.1606E+01  0.1065E+03
     16.575  0.2496E+01  0.1070E+03
     16.786  0.2408E+01  0.1075E+03
     16.996  0.2598E+01  0.1081E+03
     17.206  0.2929E+01  0.1087E+03
     17.416  0.1904E+01  0.1091E+03
     17.626  0.2079E+01  0.1095E+03
     17.837  0.2707E+01  0.1101E+03
     18.047  0.2064E+01  0.1105E+03
     18.257  0.1738E+01  0.1109E+03
     18.467  0.1974E+01  0.1113E+03
     18.677  0.1244E+01  0.1116E+03
     18.887  0.8539E+00  0.1117E+03
     19.098  0.5836E+00  0.1119E+03
     19.308  0.2018E+00  0.1119E+03
     19.518  0.1691E+00  0.1119E+03
     19.728  0.1775E+00  0.1120E+03
     19.938  0.8705E-01  0.1120E+03
     20.148  0.6830E-05  0.1120E+03
     20.359  0.0000E+00  0.1120E+03
     20.569  0.0000E+00  0.1120E+03
     20.779  0.0000E+00  0.1120E+03
     20.989  0.0000E+00  0.1120E+03
     21.199  0.0000E+00  0.1120E+03
     21.409  0.0000E+00  0.1120E+03
     21.620  0.0000E+00  0.1120E+03
     21.830  0.0000E+00  0.1120E+03
     22.040  0.0000E+00  0.1120E+03
     22.250  0.0000E+00  0.1120E+03
     22.460  0.0000E+00  0.1120E+03
     22.670  0.0000E+00  0.1120E+03
