Ge4 Os2
1.0
   3.0354395699999999   -0.0000000000000000    0.6954359500000000
   1.4070232400000000    4.4732420900000003    0.8308896300000000
   0.0047368000000000   -0.0112153900000000    6.9515947999999996
Ge Os
4 2
direct
   0.8560604700000000    0.7558439500000000    0.5320361100000000 Ge
   0.1439395300000000    0.2441560500000000    0.4679638900000000 Ge
   0.6012624100000000    0.6889067900000000    0.1085693800000000 Ge
   0.3987375900000000    0.3110932100000000    0.8914306200000000 Ge
   0.1547272200000000    0.8919617200000000    0.7985828300000000 Os
   0.8452727799999999    0.1080382800000000    0.2014171700000000 Os
