K2 P30                                  
   1.00000000000000     
     7.1772596300000000    0.0935092200000000    1.4629567200000000
     3.0725493300000002    8.7887470200000006    0.0865578200000000
     0.0063652800000000    0.0321646500000000   12.2487323999999997
   K    P 
     2    30
Direct
     0.2183703299999991    0.7856953699999991    0.9975686699999997
     0.7816296700000009    0.2143046300000009    0.0024313300000003
     0.0185969799999981    0.5678055300000011    0.1795077700000007
     0.9814030200000019    0.4321944699999989    0.8204922299999993
     0.2874794100000031    0.1225978900000015    0.8196848799999970
     0.7125205899999969    0.8774021099999985    0.1803151200000030
     0.1127748400000002    0.2367789099999982    0.6977803199999997
     0.8872251599999998    0.7632210900000018    0.3022196800000003
     0.3367495399999996    0.3105557000000019    0.5693461700000029
     0.6632504600000004    0.6894442999999981    0.4306538299999971
     0.2057282600000008    0.4101735699999978    0.2777012900000031
     0.7942717399999992    0.5898264300000022    0.7222987099999969
     0.0115004499999998    0.6600981099999998    0.5959004500000020
     0.9884995500000002    0.3399018900000002    0.4040995499999980
     0.5220151700000031    0.7329501899999968    0.1837975899999975
     0.4779848299999969    0.2670498100000032    0.8162024100000025
     0.3109314100000020    0.0147329400000018    0.4052109400000035
     0.6890685899999980    0.9852670599999982    0.5947890599999965
     0.3004289300000025    0.5388032700000025    0.6344901599999986
     0.6995710699999975    0.4611967299999975    0.3655098400000014
     0.0325627400000030    0.1054348099999984    0.3421281199999981
     0.9674372599999970    0.8945651900000016    0.6578718800000019
     0.7554506099999969    0.4971109199999972    0.1836462400000016
     0.2445493900000031    0.5028890800000028    0.8163537599999984
     0.6091748199999998    0.2293968500000005    0.6344737100000017
     0.3908251800000002    0.7706031499999995    0.3655262899999983
     0.5266560399999989    0.0875213599999967    0.2795587800000021
     0.4733439600000011    0.9124786400000033    0.7204402200000004
     0.1216257900000031    0.1012461600000023    0.1638536000000030
     0.8783742099999969    0.8987538399999977    0.8361463999999970
     0.3423854700000035    0.2053778100000017    0.1594137499999988
     0.6576145300000036    0.7946221899999983    0.8405862500000012
 
  0.00000000E+00  0.00000000E+00  0.00000000E+00
  0.00000000E+00  0.00000000E+00  0.00000000E+00
  0.00000000E+00  0.00000000E+00  0.00000000E+00
  0.00000000E+00  0.00000000E+00  0.00000000E+00
  0.00000000E+00  0.00000000E+00  0.00000000E+00
  0.00000000E+00  0.00000000E+00  0.00000000E+00
  0.00000000E+00  0.00000000E+00  0.00000000E+00
  0.00000000E+00  0.00000000E+00  0.00000000E+00
  0.00000000E+00  0.00000000E+00  0.00000000E+00
  0.00000000E+00  0.00000000E+00  0.00000000E+00
  0.00000000E+00  0.00000000E+00  0.00000000E+00
  0.00000000E+00  0.00000000E+00  0.00000000E+00
  0.00000000E+00  0.00000000E+00  0.00000000E+00
  0.00000000E+00  0.00000000E+00  0.00000000E+00
  0.00000000E+00  0.00000000E+00  0.00000000E+00
  0.00000000E+00  0.00000000E+00  0.00000000E+00
  0.00000000E+00  0.00000000E+00  0.00000000E+00
  0.00000000E+00  0.00000000E+00  0.00000000E+00
  0.00000000E+00  0.00000000E+00  0.00000000E+00
  0.00000000E+00  0.00000000E+00  0.00000000E+00
  0.00000000E+00  0.00000000E+00  0.00000000E+00
  0.00000000E+00  0.00000000E+00  0.00000000E+00
  0.00000000E+00  0.00000000E+00  0.00000000E+00
  0.00000000E+00  0.00000000E+00  0.00000000E+00
  0.00000000E+00  0.00000000E+00  0.00000000E+00
  0.00000000E+00  0.00000000E+00  0.00000000E+00
  0.00000000E+00  0.00000000E+00  0.00000000E+00
  0.00000000E+00  0.00000000E+00  0.00000000E+00
  0.00000000E+00  0.00000000E+00  0.00000000E+00
  0.00000000E+00  0.00000000E+00  0.00000000E+00
  0.00000000E+00  0.00000000E+00  0.00000000E+00
  0.00000000E+00  0.00000000E+00  0.00000000E+00
