       N       E                     dE             d eps       ncg     rms          rms(c)
DAV:   1     0.829984672837E+03    0.82998E+03   -0.73102E+04  6336   0.121E+03
DAV:   2    -0.899501050671E+02   -0.91993E+03   -0.86808E+03  7760   0.224E+02
DAV:   3    -0.167768804227E+03   -0.77819E+02   -0.76538E+02  8424   0.609E+01
DAV:   4    -0.169876400224E+03   -0.21076E+01   -0.20945E+01  8328   0.108E+01
DAV:   5    -0.170015979477E+03   -0.13958E+00   -0.13949E+00 11320   0.196E+00    0.288E+01
DAV:   6    -0.168071439692E+03    0.19445E+01   -0.19960E+00  7632   0.332E+00    0.167E+01
DAV:   7    -0.167637731656E+03    0.43371E+00   -0.28301E+00  7776   0.331E+00    0.225E+00
DAV:   8    -0.167626414523E+03    0.11317E-01   -0.40766E-01  7520   0.147E+00    0.147E+00
DAV:   9    -0.167629929933E+03   -0.35154E-02   -0.48916E-02  8072   0.436E-01    0.663E-01
DAV:  10    -0.167631208504E+03   -0.12786E-02   -0.84491E-03  8408   0.191E-01    0.310E-01
DAV:  11    -0.167632873889E+03   -0.16654E-02   -0.27033E-03  7232   0.111E-01    0.123E-01
DAV:  12    -0.167633121009E+03   -0.24712E-03   -0.23055E-04  8216   0.326E-02    0.732E-02
DAV:  13    -0.167633420151E+03   -0.29914E-03   -0.23109E-04  6880   0.320E-02    0.341E-02
DAV:  14    -0.167633504034E+03   -0.83883E-04   -0.83847E-05  7520   0.193E-02    0.313E-02
DAV:  15    -0.167633509271E+03   -0.52361E-05   -0.78037E-06  8400   0.592E-03    0.165E-02
DAV:  16    -0.167633514304E+03   -0.50333E-05   -0.56481E-06  6872   0.482E-03    0.478E-03
DAV:  17    -0.167633515325E+03   -0.10214E-05   -0.59479E-07  6016   0.172E-03    0.262E-03
DAV:  18    -0.167633515869E+03   -0.54351E-06   -0.70020E-07  5288   0.180E-03
   1 F= -.16763352E+03 E0= -.16763352E+03  d E =-.570896E-12
