unknown system                          
           1
     7.177260    0.093509    1.462957
     3.072549    8.788747    0.086558
     0.006365    0.032165   12.248732
   K    P 
     2    30
Direct configuration=     1
   0.21837033  0.78569537  0.99756867
   0.78162967  0.21430463  0.00243133
   0.01859698  0.56780553  0.17950777
   0.98140302  0.43219447  0.82049223
   0.28747941  0.12259789  0.81968488
   0.71252059  0.87740211  0.18031512
   0.11277484  0.23677891  0.69778032
   0.88722516  0.76322109  0.30221968
   0.33674954  0.31055570  0.56934617
   0.66325046  0.68944430  0.43065383
   0.20572826  0.41017357  0.27770129
   0.79427174  0.58982643  0.72229871
   0.01150045  0.66009811  0.59590045
   0.98849955  0.33990189  0.40409955
   0.52201517  0.73295019  0.18379759
   0.47798483  0.26704981  0.81620241
   0.31093141  0.01473294  0.40521094
   0.68906859  0.98526706  0.59478906
   0.30042893  0.53880327  0.63449016
   0.69957107  0.46119673  0.36550984
   0.03256274  0.10543481  0.34212812
   0.96743726  0.89456519  0.65787188
   0.75545061  0.49711092  0.18364624
   0.24454939  0.50288908  0.81635376
   0.60917482  0.22939685  0.63447371
   0.39082518  0.77060315  0.36552629
   0.52665604  0.08752136  0.27955878
   0.47334396  0.91247864  0.72044022
   0.12162579  0.10124616  0.16385360
   0.87837421  0.89875384  0.83614640
   0.34238547  0.20537781  0.15941375
   0.65761453  0.79462219  0.84058625
