   6   6   0   0
  0.1575251E+02  0.3740475E-09  0.3740475E-09  0.8113930E-09  0.5000000E-15
  1.000000000000000E-004
  CAR 
 unknown system                          
     12.17785299    -23.72161907  301      0.46565023      1.00000000
    -23.722  0.0000E+00  0.0000E+00
    -23.602  0.0000E+00  0.0000E+00
    -23.482  0.0000E+00  0.0000E+00
    -23.363  0.0000E+00  0.0000E+00
    -23.243  0.0000E+00  0.0000E+00
    -23.123  0.0000E+00  0.0000E+00
    -23.004  0.0000E+00  0.0000E+00
    -22.884  0.0000E+00  0.0000E+00
    -22.764  0.0000E+00  0.0000E+00
    -22.645  0.0000E+00  0.0000E+00
    -22.525  0.0000E+00  0.0000E+00
    -22.405  0.0000E+00  0.0000E+00
    -22.286  0.8603E-07  0.1029E-07
    -22.166  0.1883E+00  0.2253E-01
    -22.046  0.2614E+02  0.3151E+01
    -21.927  0.4704E+02  0.8780E+01
    -21.807  0.2687E+02  0.1200E+02
    -21.687  0.1611E+01  0.1219E+02
    -21.568  0.4108E+02  0.1710E+02
    -21.448  0.2423E+02  0.2000E+02
    -21.328  0.3327E+02  0.2399E+02
    -21.209  0.1219E+00  0.2400E+02
    -21.089  0.2292E-07  0.2400E+02
    -20.969  0.0000E+00  0.2400E+02
    -20.850  0.0000E+00  0.2400E+02
    -20.730  0.0000E+00  0.2400E+02
    -20.610  0.0000E+00  0.2400E+02
    -20.491  0.0000E+00  0.2400E+02
    -20.371  0.0000E+00  0.2400E+02
    -20.251  0.0000E+00  0.2400E+02
    -20.132  0.0000E+00  0.2400E+02
    -20.012  0.0000E+00  0.2400E+02
    -19.892  0.0000E+00  0.2400E+02
    -19.773  0.0000E+00  0.2400E+02
    -19.653  0.0000E+00  0.2400E+02
    -19.533  0.0000E+00  0.2400E+02
    -19.414  0.0000E+00  0.2400E+02
    -19.294  0.0000E+00  0.2400E+02
    -19.174  0.0000E+00  0.2400E+02
    -19.055  0.0000E+00  0.2400E+02
    -18.935  0.0000E+00  0.2400E+02
    -18.815  0.0000E+00  0.2400E+02
    -18.696  0.0000E+00  0.2400E+02
    -18.576  0.0000E+00  0.2400E+02
    -18.456  0.0000E+00  0.2400E+02
    -18.337  0.0000E+00  0.2400E+02
    -18.217  0.0000E+00  0.2400E+02
    -18.097  0.0000E+00  0.2400E+02
    -17.978  0.0000E+00  0.2400E+02
    -17.858  0.0000E+00  0.2400E+02
    -17.738  0.0000E+00  0.2400E+02
    -17.619  0.0000E+00  0.2400E+02
    -17.499  0.0000E+00  0.2400E+02
    -17.379  0.0000E+00  0.2400E+02
    -17.260  0.0000E+00  0.2400E+02
    -17.140  0.0000E+00  0.2400E+02
    -17.020  0.0000E+00  0.2400E+02
    -16.901  0.0000E+00  0.2400E+02
    -16.781  0.0000E+00  0.2400E+02
    -16.661  0.0000E+00  0.2400E+02
    -16.542  0.0000E+00  0.2400E+02
    -16.422  0.0000E+00  0.2400E+02
    -16.302  0.0000E+00  0.2400E+02
    -16.183  0.0000E+00  0.2400E+02
    -16.063  0.0000E+00  0.2400E+02
    -15.943  0.0000E+00  0.2400E+02
    -15.824  0.0000E+00  0.2400E+02
    -15.704  0.0000E+00  0.2400E+02
    -15.584  0.0000E+00  0.2400E+02
    -15.465  0.0000E+00  0.2400E+02
    -15.345  0.0000E+00  0.2400E+02
    -15.225  0.0000E+00  0.2400E+02
    -15.106  0.0000E+00  0.2400E+02
    -14.986  0.0000E+00  0.2400E+02
    -14.866  0.0000E+00  0.2400E+02
    -14.747  0.1287E-13  0.2400E+02
    -14.627  0.6296E-05  0.2400E+02
    -14.507  0.1361E+00  0.2402E+02
    -14.388  0.3007E+01  0.2438E+02
    -14.268  0.1169E+02  0.2577E+02
    -14.148  0.1804E+02  0.2793E+02
    -14.029  0.5530E+00  0.2800E+02
    -13.909  0.3446E-05  0.2800E+02
    -13.789  0.0000E+00  0.2800E+02
    -13.670  0.0000E+00  0.2800E+02
    -13.550  0.0000E+00  0.2800E+02
    -13.430  0.0000E+00  0.2800E+02
    -13.311  0.0000E+00  0.2800E+02
    -13.191  0.0000E+00  0.2800E+02
    -13.071  0.0000E+00  0.2800E+02
    -12.952  0.0000E+00  0.2800E+02
    -12.832  0.0000E+00  0.2800E+02
    -12.712  0.0000E+00  0.2800E+02
    -12.593  0.0000E+00  0.2800E+02
    -12.473  0.0000E+00  0.2800E+02
    -12.353  0.0000E+00  0.2800E+02
    -12.234  0.0000E+00  0.2800E+02
    -12.114  0.0000E+00  0.2800E+02
    -11.994  0.0000E+00  0.2800E+02
    -11.875  0.0000E+00  0.2800E+02
    -11.755  0.0000E+00  0.2800E+02
    -11.635  0.0000E+00  0.2800E+02
    -11.516  0.0000E+00  0.2800E+02
    -11.396  0.0000E+00  0.2800E+02
    -11.276  0.0000E+00  0.2800E+02
    -11.157  0.0000E+00  0.2800E+02
    -11.037  0.0000E+00  0.2800E+02
    -10.917  0.0000E+00  0.2800E+02
    -10.798  0.0000E+00  0.2800E+02
    -10.678  0.0000E+00  0.2800E+02
    -10.558  0.0000E+00  0.2800E+02
    -10.439  0.0000E+00  0.2800E+02
    -10.319  0.0000E+00  0.2800E+02
    -10.199  0.0000E+00  0.2800E+02
    -10.080  0.0000E+00  0.2800E+02
     -9.960  0.0000E+00  0.2800E+02
     -9.840  0.0000E+00  0.2800E+02
     -9.721  0.0000E+00  0.2800E+02
     -9.601  0.0000E+00  0.2800E+02
     -9.481  0.0000E+00  0.2800E+02
     -9.362  0.0000E+00  0.2800E+02
     -9.242  0.0000E+00  0.2800E+02
     -9.123  0.0000E+00  0.2800E+02
     -9.003  0.0000E+00  0.2800E+02
     -8.883  0.0000E+00  0.2800E+02
     -8.764  0.0000E+00  0.2800E+02
     -8.644  0.0000E+00  0.2800E+02
     -8.524  0.0000E+00  0.2800E+02
     -8.405  0.0000E+00  0.2800E+02
     -8.285  0.0000E+00  0.2800E+02
     -8.165  0.0000E+00  0.2800E+02
     -8.046  0.0000E+00  0.2800E+02
     -7.926  0.0000E+00  0.2800E+02
     -7.806  0.0000E+00  0.2800E+02
     -7.687  0.0000E+00  0.2800E+02
     -7.567  0.0000E+00  0.2800E+02
     -7.447  0.0000E+00  0.2800E+02
     -7.328  0.0000E+00  0.2800E+02
     -7.208  0.0000E+00  0.2800E+02
     -7.088  0.0000E+00  0.2800E+02
     -6.969  0.0000E+00  0.2800E+02
     -6.849  0.0000E+00  0.2800E+02
     -6.729  0.0000E+00  0.2800E+02
     -6.610  0.0000E+00  0.2800E+02
     -6.490  0.0000E+00  0.2800E+02
     -6.370  0.0000E+00  0.2800E+02
     -6.251  0.0000E+00  0.2800E+02
     -6.131  0.0000E+00  0.2800E+02
     -6.011  0.0000E+00  0.2800E+02
     -5.892  0.0000E+00  0.2800E+02
     -5.772  0.0000E+00  0.2800E+02
     -5.652  0.0000E+00  0.2800E+02
     -5.533  0.0000E+00  0.2800E+02
     -5.413  0.0000E+00  0.2800E+02
     -5.293  0.0000E+00  0.2800E+02
     -5.174  0.0000E+00  0.2800E+02
     -5.054  0.0000E+00  0.2800E+02
     -4.934  0.0000E+00  0.2800E+02
     -4.815  0.0000E+00  0.2800E+02
     -4.695  0.0000E+00  0.2800E+02
     -4.575  0.0000E+00  0.2800E+02
     -4.456  0.0000E+00  0.2800E+02
     -4.336  0.0000E+00  0.2800E+02
     -4.216  0.0000E+00  0.2800E+02
     -4.097  0.0000E+00  0.2800E+02
     -3.977  0.0000E+00  0.2800E+02
     -3.857  0.0000E+00  0.2800E+02
     -3.738  0.0000E+00  0.2800E+02
     -3.618  0.0000E+00  0.2800E+02
     -3.498  0.0000E+00  0.2800E+02
     -3.379  0.0000E+00  0.2800E+02
     -3.259  0.0000E+00  0.2800E+02
     -3.139  0.0000E+00  0.2800E+02
     -3.020  0.0000E+00  0.2800E+02
     -2.900  0.0000E+00  0.2800E+02
     -2.780  0.0000E+00  0.2800E+02
     -2.661  0.0000E+00  0.2800E+02
     -2.541  0.0000E+00  0.2800E+02
     -2.421  0.0000E+00  0.2800E+02
     -2.302  0.0000E+00  0.2800E+02
     -2.182  0.0000E+00  0.2800E+02
     -2.062  0.0000E+00  0.2800E+02
     -1.943  0.0000E+00  0.2800E+02
     -1.823  0.0000E+00  0.2800E+02
     -1.703  0.0000E+00  0.2800E+02
     -1.584  0.4745E-14  0.2800E+02
     -1.464  0.2279E-05  0.2800E+02
     -1.344  0.2217E-01  0.2800E+02
     -1.225  0.2004E+00  0.2803E+02
     -1.105  0.1306E+01  0.2818E+02
     -0.985  0.5274E+01  0.2881E+02
     -0.866  0.9783E+01  0.2998E+02
     -0.746  0.9007E+01  0.3106E+02
     -0.626  0.5290E+01  0.3170E+02
     -0.507  0.2213E+01  0.3196E+02
     -0.387  0.4884E+01  0.3254E+02
     -0.267  0.6430E+01  0.3331E+02
     -0.148  0.7303E+01  0.3419E+02
     -0.028  0.1031E+02  0.3542E+02
      0.092  0.1895E+02  0.3769E+02
      0.211  0.1602E+02  0.3961E+02
      0.331  0.3285E+01  0.4000E+02
      0.451  0.7376E-02  0.4000E+02
      0.570  0.1245E-08  0.4000E+02
      0.690  0.0000E+00  0.4000E+02
      0.810  0.0000E+00  0.4000E+02
      0.929  0.0000E+00  0.4000E+02
      1.049  0.0000E+00  0.4000E+02
      1.169  0.1010E-14  0.4000E+02
      1.288  0.9431E-06  0.4000E+02
      1.408  0.1691E-01  0.4000E+02
      1.528  0.6963E-01  0.4001E+02
      1.647  0.5074E-03  0.4001E+02
      1.767  0.2522E-05  0.4001E+02
      1.887  0.6336E-01  0.4002E+02
      2.006  0.4422E+00  0.4007E+02
      2.126  0.1320E+00  0.4009E+02
      2.246  0.2415E+00  0.4012E+02
      2.365  0.3316E+00  0.4016E+02
      2.485  0.2900E+00  0.4019E+02
      2.605  0.7393E+00  0.4028E+02
      2.724  0.4217E+00  0.4033E+02
      2.844  0.9023E+00  0.4044E+02
      2.964  0.7819E+00  0.4053E+02
      3.083  0.4814E+00  0.4059E+02
      3.203  0.4745E-01  0.4059E+02
      3.323  0.4908E-01  0.4060E+02
      3.442  0.1723E+01  0.4081E+02
      3.562  0.1347E+01  0.4097E+02
      3.682  0.1394E+00  0.4098E+02
      3.801  0.1337E+01  0.4114E+02
      3.921  0.1884E+00  0.4117E+02
      4.041  0.1933E+00  0.4119E+02
      4.160  0.3861E+00  0.4124E+02
      4.280  0.1298E+01  0.4139E+02
      4.400  0.2818E+01  0.4173E+02
      4.519  0.1257E+01  0.4188E+02
      4.639  0.8852E+00  0.4198E+02
      4.759  0.4330E+00  0.4204E+02
      4.878  0.5580E+00  0.4210E+02
      4.998  0.2798E+00  0.4214E+02
      5.118  0.2065E+01  0.4238E+02
      5.237  0.2122E+01  0.4264E+02
      5.357  0.1675E+01  0.4284E+02
      5.477  0.3521E+01  0.4326E+02
      5.596  0.2202E+01  0.4352E+02
      5.716  0.1585E+01  0.4371E+02
      5.836  0.1327E+01  0.4387E+02
      5.955  0.1831E+01  0.4409E+02
      6.075  0.4313E+00  0.4414E+02
      6.195  0.2153E+01  0.4440E+02
      6.314  0.9685E+00  0.4452E+02
      6.434  0.1460E+01  0.4469E+02
      6.554  0.1137E+01  0.4483E+02
      6.673  0.1304E+01  0.4498E+02
      6.793  0.6770E+00  0.4506E+02
      6.913  0.6060E+00  0.4514E+02
      7.032  0.7069E+00  0.4522E+02
      7.152  0.2654E+01  0.4554E+02
      7.272  0.2442E+01  0.4583E+02
      7.391  0.1220E+01  0.4598E+02
      7.511  0.4370E+00  0.4603E+02
      7.631  0.6720E+00  0.4611E+02
      7.750  0.6633E+00  0.4619E+02
      7.870  0.1328E+01  0.4635E+02
      7.990  0.3705E+00  0.4639E+02
      8.109  0.6674E+00  0.4647E+02
      8.229  0.1142E+01  0.4661E+02
      8.349  0.4934E+00  0.4667E+02
      8.468  0.1891E+01  0.4689E+02
      8.588  0.2145E+01  0.4715E+02
      8.708  0.1807E+01  0.4737E+02
      8.827  0.8336E+00  0.4747E+02
      8.947  0.1204E+01  0.4761E+02
      9.067  0.9770E+00  0.4773E+02
      9.186  0.5598E+00  0.4779E+02
      9.306  0.2930E+00  0.4783E+02
      9.426  0.3047E+00  0.4787E+02
      9.545  0.3350E+00  0.4791E+02
      9.665  0.1732E+00  0.4793E+02
      9.785  0.4254E-02  0.4793E+02
      9.904  0.4355E-06  0.4793E+02
     10.024  0.2059E-01  0.4793E+02
     10.144  0.1511E+00  0.4795E+02
     10.263  0.1933E-01  0.4795E+02
     10.383  0.3166E+00  0.4799E+02
     10.503  0.2419E-01  0.4799E+02
     10.622  0.7618E-01  0.4800E+02
     10.742  0.1360E-02  0.4800E+02
     10.862  0.1328E-08  0.4800E+02
     10.981  0.0000E+00  0.4800E+02
     11.101  0.0000E+00  0.4800E+02
     11.221  0.0000E+00  0.4800E+02
     11.340  0.0000E+00  0.4800E+02
     11.460  0.0000E+00  0.4800E+02
     11.580  0.0000E+00  0.4800E+02
     11.699  0.0000E+00  0.4800E+02
     11.819  0.0000E+00  0.4800E+02
     11.939  0.0000E+00  0.4800E+02
     12.058  0.0000E+00  0.4800E+02
     12.178  0.0000E+00  0.4800E+02
