Na4 O2
1.0
   3.2368042300000002    1.8744714000000000    0.0246520900000000
  -3.2368042300000002    1.8744714000000000   -0.0246520900000000
   2.2149255600000002    0.0000000000000000    7.8057644799999997
Na O
4 2
direct
   0.1118104400000000    0.8881895600000000    0.6814286400000000 Na
   0.2959205800000000    0.7040794200000000    0.1039865500000000 Na
   0.7040794200000000    0.2959205800000000    0.8960134500000000 Na
   0.8881895600000000    0.1118104400000000    0.3185713600000000 Na
   0.5930362600000000    0.4069637400000000    0.2088104500000000 O
   0.4069637400000000    0.5930362600000000    0.7911895500000000 O
