K1 P1                                   
   1.00000000000000     
    -2.3357019999999999    2.4145040000000000    3.3542709999999998
     2.3357019999999999   -2.4145040000000000    3.3542709999999998
     2.3357019999999999    2.4145040000000000   -3.3542709999999998
   K    P 
     1     1
Direct
     0.0000000000000000    0.0000000000000000    0.0000000000000000
     0.5000000000000000    0.5000000000000000    0.0000000000000000
 
  0.00000000E+00  0.00000000E+00  0.00000000E+00
  0.00000000E+00  0.00000000E+00  0.00000000E+00
