   2   2   0   0
  0.1811879E+02  0.3708893E-09  0.3708894E-09  0.3708894E-09  0.5000000E-15
  1.000000000000000E-004
  CAR 
 unknown system                          
     12.16559624    -39.20109721  301      0.71510416      1.00000000
    -39.201  0.0000E+00  0.0000E+00
    -39.030  0.0000E+00  0.0000E+00
    -38.859  0.0000E+00  0.0000E+00
    -38.687  0.0000E+00  0.0000E+00
    -38.516  0.0000E+00  0.0000E+00
    -38.345  0.0000E+00  0.0000E+00
    -38.174  0.0000E+00  0.0000E+00
    -38.003  0.0000E+00  0.0000E+00
    -37.831  0.0000E+00  0.0000E+00
    -37.660  0.0000E+00  0.0000E+00
    -37.489  0.0000E+00  0.0000E+00
    -37.318  0.0000E+00  0.0000E+00
    -37.146  0.1798E-15  0.3079E-16
    -36.975  0.5803E-03  0.9936E-04
    -36.804  0.8579E+01  0.1469E+01
    -36.633  0.3101E+01  0.2000E+01
    -36.462  0.5320E-06  0.2000E+01
    -36.290  0.0000E+00  0.2000E+01
    -36.119  0.0000E+00  0.2000E+01
    -35.948  0.0000E+00  0.2000E+01
    -35.777  0.0000E+00  0.2000E+01
    -35.605  0.0000E+00  0.2000E+01
    -35.434  0.0000E+00  0.2000E+01
    -35.263  0.0000E+00  0.2000E+01
    -35.092  0.0000E+00  0.2000E+01
    -34.921  0.0000E+00  0.2000E+01
    -34.749  0.0000E+00  0.2000E+01
    -34.578  0.0000E+00  0.2000E+01
    -34.407  0.0000E+00  0.2000E+01
    -34.236  0.0000E+00  0.2000E+01
    -34.064  0.0000E+00  0.2000E+01
    -33.893  0.0000E+00  0.2000E+01
    -33.722  0.0000E+00  0.2000E+01
    -33.551  0.0000E+00  0.2000E+01
    -33.380  0.0000E+00  0.2000E+01
    -33.208  0.0000E+00  0.2000E+01
    -33.037  0.0000E+00  0.2000E+01
    -32.866  0.0000E+00  0.2000E+01
    -32.695  0.0000E+00  0.2000E+01
    -32.523  0.0000E+00  0.2000E+01
    -32.352  0.0000E+00  0.2000E+01
    -32.181  0.0000E+00  0.2000E+01
    -32.010  0.0000E+00  0.2000E+01
    -31.839  0.0000E+00  0.2000E+01
    -31.667  0.0000E+00  0.2000E+01
    -31.496  0.0000E+00  0.2000E+01
    -31.325  0.0000E+00  0.2000E+01
    -31.154  0.0000E+00  0.2000E+01
    -30.982  0.0000E+00  0.2000E+01
    -30.811  0.0000E+00  0.2000E+01
    -30.640  0.0000E+00  0.2000E+01
    -30.469  0.0000E+00  0.2000E+01
    -30.298  0.0000E+00  0.2000E+01
    -30.126  0.0000E+00  0.2000E+01
    -29.955  0.0000E+00  0.2000E+01
    -29.784  0.0000E+00  0.2000E+01
    -29.613  0.0000E+00  0.2000E+01
    -29.441  0.0000E+00  0.2000E+01
    -29.270  0.0000E+00  0.2000E+01
    -29.099  0.0000E+00  0.2000E+01
    -28.928  0.0000E+00  0.2000E+01
    -28.757  0.0000E+00  0.2000E+01
    -28.585  0.0000E+00  0.2000E+01
    -28.414  0.0000E+00  0.2000E+01
    -28.243  0.0000E+00  0.2000E+01
    -28.072  0.0000E+00  0.2000E+01
    -27.900  0.0000E+00  0.2000E+01
    -27.729  0.0000E+00  0.2000E+01
    -27.558  0.0000E+00  0.2000E+01
    -27.387  0.0000E+00  0.2000E+01
    -27.216  0.0000E+00  0.2000E+01
    -27.044  0.0000E+00  0.2000E+01
    -26.873  0.0000E+00  0.2000E+01
    -26.702  0.0000E+00  0.2000E+01
    -26.531  0.0000E+00  0.2000E+01
    -26.359  0.0000E+00  0.2000E+01
    -26.188  0.0000E+00  0.2000E+01
    -26.017  0.0000E+00  0.2000E+01
    -25.846  0.0000E+00  0.2000E+01
    -25.675  0.0000E+00  0.2000E+01
    -25.503  0.0000E+00  0.2000E+01
    -25.332  0.0000E+00  0.2000E+01
    -25.161  0.0000E+00  0.2000E+01
    -24.990  0.0000E+00  0.2000E+01
    -24.818  0.0000E+00  0.2000E+01
    -24.647  0.0000E+00  0.2000E+01
    -24.476  0.0000E+00  0.2000E+01
    -24.305  0.0000E+00  0.2000E+01
    -24.134  0.0000E+00  0.2000E+01
    -23.962  0.0000E+00  0.2000E+01
    -23.791  0.0000E+00  0.2000E+01
    -23.620  0.0000E+00  0.2000E+01
    -23.449  0.0000E+00  0.2000E+01
    -23.277  0.0000E+00  0.2000E+01
    -23.106  0.0000E+00  0.2000E+01
    -22.935  0.0000E+00  0.2000E+01
    -22.764  0.0000E+00  0.2000E+01
    -22.593  0.0000E+00  0.2000E+01
    -22.421  0.0000E+00  0.2000E+01
    -22.250  0.0000E+00  0.2000E+01
    -22.079  0.0000E+00  0.2000E+01
    -21.908  0.0000E+00  0.2000E+01
    -21.736  0.0000E+00  0.2000E+01
    -21.565  0.0000E+00  0.2000E+01
    -21.394  0.0000E+00  0.2000E+01
    -21.223  0.0000E+00  0.2000E+01
    -21.052  0.0000E+00  0.2000E+01
    -20.880  0.0000E+00  0.2000E+01
    -20.709  0.0000E+00  0.2000E+01
    -20.538  0.0000E+00  0.2000E+01
    -20.367  0.0000E+00  0.2000E+01
    -20.195  0.0000E+00  0.2000E+01
    -20.024  0.0000E+00  0.2000E+01
    -19.853  0.0000E+00  0.2000E+01
    -19.682  0.0000E+00  0.2000E+01
    -19.511  0.0000E+00  0.2000E+01
    -19.339  0.0000E+00  0.2000E+01
    -19.168  0.0000E+00  0.2000E+01
    -18.997  0.0000E+00  0.2000E+01
    -18.826  0.0000E+00  0.2000E+01
    -18.654  0.7929E-06  0.2000E+01
    -18.483  0.7358E+00  0.2126E+01
    -18.312  0.7919E+01  0.3482E+01
    -18.141  0.1992E+01  0.3823E+01
    -17.970  0.5021E+01  0.4683E+01
    -17.798  0.1880E+02  0.7901E+01
    -17.627  0.5798E+00  0.8000E+01
    -17.456  0.1804E-07  0.8000E+01
    -17.285  0.0000E+00  0.8000E+01
    -17.113  0.0000E+00  0.8000E+01
    -16.942  0.0000E+00  0.8000E+01
    -16.771  0.0000E+00  0.8000E+01
    -16.600  0.0000E+00  0.8000E+01
    -16.429  0.0000E+00  0.8000E+01
    -16.257  0.0000E+00  0.8000E+01
    -16.086  0.0000E+00  0.8000E+01
    -15.915  0.0000E+00  0.8000E+01
    -15.744  0.0000E+00  0.8000E+01
    -15.572  0.0000E+00  0.8000E+01
    -15.401  0.0000E+00  0.8000E+01
    -15.230  0.0000E+00  0.8000E+01
    -15.059  0.0000E+00  0.8000E+01
    -14.888  0.0000E+00  0.8000E+01
    -14.716  0.0000E+00  0.8000E+01
    -14.545  0.7611E-09  0.8000E+01
    -14.374  0.1180E-01  0.8002E+01
    -14.203  0.2780E+00  0.8050E+01
    -14.031  0.7166E+00  0.8172E+01
    -13.860  0.1610E+01  0.8448E+01
    -13.689  0.4487E+01  0.9216E+01
    -13.518  0.4560E+01  0.9997E+01
    -13.347  0.1785E-01  0.1000E+02
    -13.175  0.0000E+00  0.1000E+02
    -13.004  0.0000E+00  0.1000E+02
    -12.833  0.0000E+00  0.1000E+02
    -12.662  0.0000E+00  0.1000E+02
    -12.490  0.0000E+00  0.1000E+02
    -12.319  0.0000E+00  0.1000E+02
    -12.148  0.0000E+00  0.1000E+02
    -11.977  0.0000E+00  0.1000E+02
    -11.806  0.0000E+00  0.1000E+02
    -11.634  0.0000E+00  0.1000E+02
    -11.463  0.0000E+00  0.1000E+02
    -11.292  0.0000E+00  0.1000E+02
    -11.121  0.0000E+00  0.1000E+02
    -10.949  0.0000E+00  0.1000E+02
    -10.778  0.0000E+00  0.1000E+02
    -10.607  0.0000E+00  0.1000E+02
    -10.436  0.0000E+00  0.1000E+02
    -10.265  0.0000E+00  0.1000E+02
    -10.093  0.0000E+00  0.1000E+02
     -9.922  0.0000E+00  0.1000E+02
     -9.751  0.0000E+00  0.1000E+02
     -9.580  0.0000E+00  0.1000E+02
     -9.408  0.0000E+00  0.1000E+02
     -9.237  0.0000E+00  0.1000E+02
     -9.066  0.0000E+00  0.1000E+02
     -8.895  0.0000E+00  0.1000E+02
     -8.724  0.0000E+00  0.1000E+02
     -8.552  0.0000E+00  0.1000E+02
     -8.381  0.0000E+00  0.1000E+02
     -8.210  0.0000E+00  0.1000E+02
     -8.039  0.0000E+00  0.1000E+02
     -7.867  0.0000E+00  0.1000E+02
     -7.696  0.0000E+00  0.1000E+02
     -7.525  0.0000E+00  0.1000E+02
     -7.354  0.0000E+00  0.1000E+02
     -7.183  0.0000E+00  0.1000E+02
     -7.011  0.0000E+00  0.1000E+02
     -6.840  0.0000E+00  0.1000E+02
     -6.669  0.0000E+00  0.1000E+02
     -6.498  0.0000E+00  0.1000E+02
     -6.326  0.0000E+00  0.1000E+02
     -6.155  0.0000E+00  0.1000E+02
     -5.984  0.0000E+00  0.1000E+02
     -5.813  0.0000E+00  0.1000E+02
     -5.642  0.0000E+00  0.1000E+02
     -5.470  0.0000E+00  0.1000E+02
     -5.299  0.0000E+00  0.1000E+02
     -5.128  0.0000E+00  0.1000E+02
     -4.957  0.0000E+00  0.1000E+02
     -4.785  0.0000E+00  0.1000E+02
     -4.614  0.0000E+00  0.1000E+02
     -4.443  0.0000E+00  0.1000E+02
     -4.272  0.0000E+00  0.1000E+02
     -4.101  0.0000E+00  0.1000E+02
     -3.929  0.0000E+00  0.1000E+02
     -3.758  0.0000E+00  0.1000E+02
     -3.587  0.0000E+00  0.1000E+02
     -3.416  0.0000E+00  0.1000E+02
     -3.244  0.0000E+00  0.1000E+02
     -3.073  0.0000E+00  0.1000E+02
     -2.902  0.0000E+00  0.1000E+02
     -2.731  0.0000E+00  0.1000E+02
     -2.560  0.0000E+00  0.1000E+02
     -2.388  0.0000E+00  0.1000E+02
     -2.217  0.0000E+00  0.1000E+02
     -2.046  0.0000E+00  0.1000E+02
     -1.875  0.0000E+00  0.1000E+02
     -1.703  0.0000E+00  0.1000E+02
     -1.532  0.0000E+00  0.1000E+02
     -1.361  0.0000E+00  0.1000E+02
     -1.190  0.1022E-09  0.1000E+02
     -1.019  0.2477E-01  0.1000E+02
     -0.847  0.1046E+01  0.1018E+02
     -0.676  0.2412E+01  0.1060E+02
     -0.505  0.5233E+01  0.1149E+02
     -0.334  0.2858E+01  0.1198E+02
     -0.162  0.1229E+01  0.1219E+02
      0.009  0.8534E+01  0.1365E+02
      0.180  0.7517E+01  0.1494E+02
      0.351  0.5334E+01  0.1585E+02
      0.522  0.8536E+00  0.1600E+02
      0.694  0.2837E-05  0.1600E+02
      0.865  0.0000E+00  0.1600E+02
      1.036  0.0000E+00  0.1600E+02
      1.207  0.0000E+00  0.1600E+02
      1.379  0.0000E+00  0.1600E+02
      1.550  0.0000E+00  0.1600E+02
      1.721  0.0000E+00  0.1600E+02
      1.892  0.0000E+00  0.1600E+02
      2.063  0.0000E+00  0.1600E+02
      2.235  0.0000E+00  0.1600E+02
      2.406  0.0000E+00  0.1600E+02
      2.577  0.0000E+00  0.1600E+02
      2.748  0.0000E+00  0.1600E+02
      2.920  0.0000E+00  0.1600E+02
      3.091  0.0000E+00  0.1600E+02
      3.262  0.0000E+00  0.1600E+02
      3.433  0.0000E+00  0.1600E+02
      3.604  0.2984E-07  0.1600E+02
      3.776  0.2289E-01  0.1600E+02
      3.947  0.2273E-01  0.1601E+02
      4.118  0.5151E-01  0.1602E+02
      4.289  0.8538E-01  0.1603E+02
      4.461  0.9827E-01  0.1605E+02
      4.632  0.3919E-01  0.1605E+02
      4.803  0.1743E+00  0.1608E+02
      4.974  0.1578E+00  0.1611E+02
      5.145  0.1590E+00  0.1614E+02
      5.317  0.6455E+00  0.1625E+02
      5.488  0.1986E+01  0.1659E+02
      5.659  0.1880E+01  0.1691E+02
      5.830  0.1904E+01  0.1724E+02
      6.002  0.2175E+01  0.1761E+02
      6.173  0.1479E+01  0.1786E+02
      6.344  0.6476E+00  0.1797E+02
      6.515  0.1528E+00  0.1800E+02
      6.686  0.9860E-01  0.1802E+02
      6.858  0.1089E+01  0.1820E+02
      7.029  0.3945E+01  0.1888E+02
      7.200  0.1541E+01  0.1914E+02
      7.371  0.1584E+01  0.1941E+02
      7.543  0.1201E+01  0.1962E+02
      7.714  0.1341E+01  0.1985E+02
      7.885  0.7426E+00  0.1998E+02
      8.056  0.1150E+01  0.2017E+02
      8.227  0.2807E+01  0.2065E+02
      8.399  0.1799E+01  0.2096E+02
      8.570  0.2223E+01  0.2134E+02
      8.741  0.1729E+01  0.2164E+02
      8.912  0.1579E+01  0.2191E+02
      9.084  0.1296E+01  0.2213E+02
      9.255  0.1676E+01  0.2242E+02
      9.426  0.2057E+01  0.2277E+02
      9.597  0.2771E+01  0.2324E+02
      9.768  0.4104E+01  0.2395E+02
      9.940  0.3086E+00  0.2400E+02
     10.111  0.2399E-04  0.2400E+02
     10.282  0.0000E+00  0.2400E+02
     10.453  0.0000E+00  0.2400E+02
     10.625  0.0000E+00  0.2400E+02
     10.796  0.0000E+00  0.2400E+02
     10.967  0.0000E+00  0.2400E+02
     11.138  0.0000E+00  0.2400E+02
     11.309  0.0000E+00  0.2400E+02
     11.481  0.0000E+00  0.2400E+02
     11.652  0.0000E+00  0.2400E+02
     11.823  0.0000E+00  0.2400E+02
     11.994  0.0000E+00  0.2400E+02
     12.166  0.0000E+00  0.2400E+02
