   2   2   0   0
  0.2952722E+02  0.4371085E-09  0.4371084E-09  0.4371085E-09  0.5000000E-15
  1.000000000000000E-004
  CAR 
 unknown system                          
     17.68474329    -13.60038007  301      4.76007670      1.00000000
    -13.600  0.0000E+00  0.0000E+00
    -13.496  0.0000E+00  0.0000E+00
    -13.392  0.0000E+00  0.0000E+00
    -13.288  0.0000E+00  0.0000E+00
    -13.183  0.0000E+00  0.0000E+00
    -13.079  0.0000E+00  0.0000E+00
    -12.975  0.0000E+00  0.0000E+00
    -12.870  0.0000E+00  0.0000E+00
    -12.766  0.0000E+00  0.0000E+00
    -12.662  0.0000E+00  0.0000E+00
    -12.558  0.0000E+00  0.0000E+00
    -12.453  0.2738E-14  0.2855E-15
    -12.349  0.6687E-06  0.6973E-07
    -12.245  0.5639E-01  0.5881E-02
    -12.140  0.9486E+01  0.9951E+00
    -12.036  0.7147E+02  0.8448E+01
    -11.932  0.1487E+02  0.9999E+01
    -11.828  0.1023E-01  0.1000E+02
    -11.723  0.3431E-08  0.1000E+02
    -11.619  0.0000E+00  0.1000E+02
    -11.515  0.0000E+00  0.1000E+02
    -11.410  0.0000E+00  0.1000E+02
    -11.306  0.0000E+00  0.1000E+02
    -11.202  0.0000E+00  0.1000E+02
    -11.098  0.0000E+00  0.1000E+02
    -10.993  0.0000E+00  0.1000E+02
    -10.889  0.0000E+00  0.1000E+02
    -10.785  0.0000E+00  0.1000E+02
    -10.680  0.0000E+00  0.1000E+02
    -10.576  0.0000E+00  0.1000E+02
    -10.472  0.0000E+00  0.1000E+02
    -10.368  0.0000E+00  0.1000E+02
    -10.263  0.0000E+00  0.1000E+02
    -10.159  0.0000E+00  0.1000E+02
    -10.055  0.0000E+00  0.1000E+02
     -9.950  0.0000E+00  0.1000E+02
     -9.846  0.0000E+00  0.1000E+02
     -9.742  0.0000E+00  0.1000E+02
     -9.638  0.0000E+00  0.1000E+02
     -9.533  0.0000E+00  0.1000E+02
     -9.429  0.0000E+00  0.1000E+02
     -9.325  0.0000E+00  0.1000E+02
     -9.220  0.0000E+00  0.1000E+02
     -9.116  0.0000E+00  0.1000E+02
     -9.012  0.0000E+00  0.1000E+02
     -8.908  0.1378E-14  0.1000E+02
     -8.803  0.1274E-06  0.1000E+02
     -8.699  0.2855E-02  0.1000E+02
     -8.595  0.4894E-01  0.1001E+02
     -8.490  0.2879E+00  0.1004E+02
     -8.386  0.4828E+00  0.1009E+02
     -8.282  0.2442E+00  0.1011E+02
     -8.178  0.6117E+00  0.1018E+02
     -8.073  0.1509E+01  0.1033E+02
     -7.969  0.1430E+00  0.1035E+02
     -7.865  0.9413E+00  0.1045E+02
     -7.760  0.2140E+01  0.1067E+02
     -7.656  0.1685E+01  0.1084E+02
     -7.552  0.2299E+01  0.1108E+02
     -7.448  0.3438E+01  0.1144E+02
     -7.343  0.3249E+01  0.1178E+02
     -7.239  0.2060E+01  0.1200E+02
     -7.135  0.3531E-01  0.1200E+02
     -7.031  0.4499E-06  0.1200E+02
     -6.926  0.1415E-14  0.1200E+02
     -6.822  0.0000E+00  0.1200E+02
     -6.718  0.0000E+00  0.1200E+02
     -6.613  0.0000E+00  0.1200E+02
     -6.509  0.0000E+00  0.1200E+02
     -6.405  0.0000E+00  0.1200E+02
     -6.301  0.0000E+00  0.1200E+02
     -6.196  0.0000E+00  0.1200E+02
     -6.092  0.0000E+00  0.1200E+02
     -5.988  0.0000E+00  0.1200E+02
     -5.883  0.0000E+00  0.1200E+02
     -5.779  0.0000E+00  0.1200E+02
     -5.675  0.0000E+00  0.1200E+02
     -5.571  0.0000E+00  0.1200E+02
     -5.466  0.0000E+00  0.1200E+02
     -5.362  0.0000E+00  0.1200E+02
     -5.258  0.0000E+00  0.1200E+02
     -5.153  0.0000E+00  0.1200E+02
     -5.049  0.0000E+00  0.1200E+02
     -4.945  0.0000E+00  0.1200E+02
     -4.841  0.0000E+00  0.1200E+02
     -4.736  0.0000E+00  0.1200E+02
     -4.632  0.0000E+00  0.1200E+02
     -4.528  0.0000E+00  0.1200E+02
     -4.423  0.0000E+00  0.1200E+02
     -4.319  0.0000E+00  0.1200E+02
     -4.215  0.0000E+00  0.1200E+02
     -4.111  0.0000E+00  0.1200E+02
     -4.006  0.9418E-08  0.1200E+02
     -3.902  0.3028E-02  0.1200E+02
     -3.798  0.7484E+00  0.1208E+02
     -3.693  0.1030E+01  0.1219E+02
     -3.589  0.2615E-01  0.1219E+02
     -3.485  0.2699E+01  0.1247E+02
     -3.381  0.3052E+01  0.1279E+02
     -3.276  0.2208E+01  0.1302E+02
     -3.172  0.8840E+00  0.1311E+02
     -3.068  0.2243E+01  0.1334E+02
     -2.963  0.2047E+01  0.1356E+02
     -2.859  0.5105E+00  0.1361E+02
     -2.755  0.9362E+00  0.1371E+02
     -2.651  0.1305E+01  0.1385E+02
     -2.546  0.6094E+00  0.1391E+02
     -2.442  0.3708E-01  0.1391E+02
     -2.338  0.1843E-05  0.1391E+02
     -2.233  0.1360E-02  0.1391E+02
     -2.129  0.2767E+00  0.1394E+02
     -2.025  0.4931E+00  0.1399E+02
     -1.921  0.1162E-01  0.1399E+02
     -1.816  0.2375E-06  0.1399E+02
     -1.712  0.1344E-02  0.1399E+02
     -1.608  0.4533E-01  0.1400E+02
     -1.503  0.9242E-02  0.1400E+02
     -1.399  0.2451E-05  0.1400E+02
     -1.295  0.1770E-12  0.1400E+02
     -1.191  0.0000E+00  0.1400E+02
     -1.086  0.0000E+00  0.1400E+02
     -0.982  0.0000E+00  0.1400E+02
     -0.878  0.0000E+00  0.1400E+02
     -0.773  0.0000E+00  0.1400E+02
     -0.669  0.0000E+00  0.1400E+02
     -0.565  0.0000E+00  0.1400E+02
     -0.461  0.0000E+00  0.1400E+02
     -0.356  0.0000E+00  0.1400E+02
     -0.252  0.0000E+00  0.1400E+02
     -0.148  0.9481E-12  0.1400E+02
     -0.043  0.1820E-04  0.1400E+02
      0.061  0.9293E-01  0.1401E+02
      0.165  0.5570E+00  0.1407E+02
      0.269  0.2508E-01  0.1407E+02
      0.374  0.2502E+00  0.1410E+02
      0.478  0.8616E-01  0.1411E+02
      0.582  0.1382E+01  0.1425E+02
      0.686  0.1293E+01  0.1438E+02
      0.791  0.4550E+00  0.1443E+02
      0.895  0.8826E+00  0.1452E+02
      0.999  0.5334E-01  0.1453E+02
      1.104  0.5775E+00  0.1459E+02
      1.208  0.5539E+00  0.1465E+02
      1.312  0.1713E+01  0.1483E+02
      1.416  0.3399E+01  0.1518E+02
      1.521  0.1090E+01  0.1529E+02
      1.625  0.6407E-02  0.1529E+02
      1.729  0.8485E+00  0.1538E+02
      1.834  0.3016E+01  0.1570E+02
      1.938  0.1821E+01  0.1589E+02
      2.042  0.2047E+01  0.1610E+02
      2.146  0.2348E+01  0.1635E+02
      2.251  0.1792E+01  0.1653E+02
      2.355  0.1362E+01  0.1668E+02
      2.459  0.8919E+00  0.1677E+02
      2.564  0.3015E+01  0.1708E+02
      2.668  0.3225E+01  0.1742E+02
      2.772  0.2712E+01  0.1770E+02
      2.876  0.5313E+00  0.1776E+02
      2.981  0.1792E+01  0.1794E+02
      3.085  0.1737E+01  0.1813E+02
      3.189  0.1156E+01  0.1825E+02
      3.294  0.7390E+00  0.1832E+02
      3.398  0.2633E+01  0.1860E+02
      3.502  0.2728E+01  0.1888E+02
      3.606  0.7658E+00  0.1896E+02
      3.711  0.6529E+00  0.1903E+02
      3.815  0.2397E+01  0.1928E+02
      3.919  0.4562E+01  0.1976E+02
      4.024  0.5510E+00  0.1981E+02
      4.128  0.4731E-02  0.1981E+02
      4.232  0.6810E-02  0.1981E+02
      4.336  0.8623E+00  0.1990E+02
      4.441  0.5727E+00  0.1996E+02
      4.545  0.3411E+00  0.2000E+02
      4.649  0.6330E-02  0.2000E+02
      4.754  0.6058E-07  0.2000E+02
      4.858  0.9932E-16  0.2000E+02
      4.962  0.0000E+00  0.2000E+02
      5.066  0.2483E-16  0.2000E+02
      5.171  0.1427E-07  0.2000E+02
      5.275  0.3122E-02  0.2000E+02
      5.379  0.3048E+00  0.2003E+02
      5.484  0.1393E+00  0.2005E+02
      5.588  0.1300E-03  0.2005E+02
      5.692  0.2524E-01  0.2005E+02
      5.796  0.1059E+01  0.2016E+02
      5.901  0.2598E+00  0.2019E+02
      6.005  0.6758E+00  0.2026E+02
      6.109  0.6619E+00  0.2033E+02
      6.214  0.2051E-02  0.2033E+02
      6.318  0.1252E+00  0.2034E+02
      6.422  0.2641E+01  0.2062E+02
      6.526  0.2862E+01  0.2091E+02
      6.631  0.1571E+01  0.2108E+02
      6.735  0.1174E+01  0.2120E+02
      6.839  0.2130E+01  0.2142E+02
      6.944  0.2310E+01  0.2166E+02
      7.048  0.7227E+00  0.2174E+02
      7.152  0.2169E+00  0.2176E+02
      7.256  0.2880E+00  0.2179E+02
      7.361  0.9119E+00  0.2189E+02
      7.465  0.1004E+01  0.2199E+02
      7.569  0.1054E+00  0.2200E+02
      7.674  0.1943E+01  0.2220E+02
      7.778  0.1694E+01  0.2238E+02
      7.882  0.1325E+01  0.2252E+02
      7.986  0.1825E+01  0.2271E+02
      8.091  0.1543E+01  0.2287E+02
      8.195  0.5002E+00  0.2292E+02
      8.299  0.1295E+01  0.2306E+02
      8.403  0.3717E+01  0.2345E+02
      8.508  0.1684E+01  0.2362E+02
      8.612  0.2401E+01  0.2387E+02
      8.716  0.2067E+01  0.2409E+02
      8.821  0.6371E-01  0.2409E+02
      8.925  0.3915E+00  0.2413E+02
      9.029  0.3395E+01  0.2449E+02
      9.133  0.3699E+01  0.2487E+02
      9.238  0.2835E+01  0.2517E+02
      9.342  0.9422E+00  0.2527E+02
      9.446  0.6356E+00  0.2533E+02
      9.551  0.7124E+00  0.2541E+02
      9.655  0.1926E+01  0.2561E+02
      9.759  0.2986E+00  0.2564E+02
      9.863  0.1591E+01  0.2581E+02
      9.968  0.2138E+01  0.2603E+02
     10.072  0.8599E+00  0.2612E+02
     10.176  0.8255E+00  0.2621E+02
     10.281  0.5000E+00  0.2626E+02
     10.385  0.1229E+01  0.2639E+02
     10.489  0.6358E+00  0.2645E+02
     10.593  0.2943E-01  0.2645E+02
     10.698  0.3941E-04  0.2645E+02
     10.802  0.2231E+00  0.2648E+02
     10.906  0.2216E+01  0.2671E+02
     11.011  0.1141E+01  0.2683E+02
     11.115  0.7921E+00  0.2691E+02
     11.219  0.1753E+00  0.2693E+02
     11.323  0.1293E+01  0.2706E+02
     11.428  0.6853E+00  0.2714E+02
     11.532  0.5522E+00  0.2719E+02
     11.636  0.3666E+00  0.2723E+02
     11.741  0.3473E+01  0.2759E+02
     11.845  0.1769E+01  0.2778E+02
     11.949  0.1167E+01  0.2790E+02
     12.053  0.1806E+00  0.2792E+02
     12.158  0.3370E-04  0.2792E+02
     12.262  0.5353E-10  0.2792E+02
     12.366  0.1872E-03  0.2792E+02
     12.471  0.2065E+00  0.2794E+02
     12.575  0.4602E+00  0.2799E+02
     12.679  0.7292E+00  0.2806E+02
     12.783  0.2640E+01  0.2834E+02
     12.888  0.6566E+00  0.2841E+02
     12.992  0.4503E+00  0.2845E+02
     13.096  0.2322E+01  0.2870E+02
     13.201  0.1262E+01  0.2883E+02
     13.305  0.7301E+00  0.2890E+02
     13.409  0.2422E+01  0.2916E+02
     13.513  0.1039E+01  0.2927E+02
     13.618  0.1124E+01  0.2938E+02
     13.722  0.2564E+00  0.2941E+02
     13.826  0.1097E+01  0.2952E+02
     13.931  0.3518E-01  0.2953E+02
     14.035  0.6730E-03  0.2953E+02
     14.139  0.4928E+00  0.2958E+02
     14.243  0.1571E+01  0.2974E+02
     14.348  0.2764E+01  0.3003E+02
     14.452  0.2878E+01  0.3033E+02
     14.556  0.9811E+00  0.3043E+02
     14.661  0.9132E+00  0.3053E+02
     14.765  0.1136E+01  0.3065E+02
     14.869  0.1330E+01  0.3079E+02
     14.973  0.1111E+01  0.3090E+02
     15.078  0.1272E+01  0.3103E+02
     15.182  0.1928E+01  0.3124E+02
     15.286  0.1168E+01  0.3136E+02
     15.391  0.1241E+00  0.3137E+02
     15.495  0.1568E-04  0.3137E+02
     15.599  0.2981E-01  0.3137E+02
     15.703  0.5890E+00  0.3143E+02
     15.808  0.1047E+01  0.3154E+02
     15.912  0.6337E+00  0.3161E+02
     16.016  0.2202E+01  0.3184E+02
     16.120  0.1954E+00  0.3186E+02
     16.225  0.1916E+00  0.3188E+02
     16.329  0.1110E+01  0.3200E+02
     16.433  0.4017E-01  0.3200E+02
     16.538  0.9102E-06  0.3200E+02
     16.642  0.4805E-14  0.3200E+02
     16.746  0.0000E+00  0.3200E+02
     16.850  0.0000E+00  0.3200E+02
     16.955  0.0000E+00  0.3200E+02
     17.059  0.0000E+00  0.3200E+02
     17.163  0.0000E+00  0.3200E+02
     17.268  0.0000E+00  0.3200E+02
     17.372  0.0000E+00  0.3200E+02
     17.476  0.0000E+00  0.3200E+02
     17.580  0.0000E+00  0.3200E+02
     17.685  0.0000E+00  0.3200E+02
