       N       E                     dE             d eps       ncg     rms          rms(c)
DAV:   1     0.161546119467E+03    0.16155E+03   -0.10424E+04 10992   0.141E+03
DAV:   2     0.314903548772E+01   -0.15840E+03   -0.15363E+03 11872   0.338E+02
DAV:   3    -0.824910937255E+01   -0.11398E+02   -0.11325E+02 14232   0.922E+01
DAV:   4    -0.849599945487E+01   -0.24689E+00   -0.24681E+00 13520   0.161E+01
DAV:   5    -0.850545043619E+01   -0.94510E-02   -0.94508E-02 16096   0.294E+00    0.273E+00
DAV:   6    -0.819850888282E+01    0.30694E+00   -0.81391E-01 16584   0.619E+00    0.151E+00
DAV:   7    -0.819411412353E+01    0.43948E-02   -0.12356E-01 13336   0.175E+00    0.849E-01
DAV:   8    -0.819768365201E+01   -0.35695E-02   -0.14172E-02 14168   0.133E+00    0.179E-01
DAV:   9    -0.819718083345E+01    0.50282E-03   -0.29887E-03 17256   0.529E-01    0.559E-02
DAV:  10    -0.819726503561E+01   -0.84202E-04   -0.23088E-04 13184   0.931E-02    0.185E-02
DAV:  11    -0.819727253629E+01   -0.75007E-05   -0.50624E-05 15152   0.753E-02    0.735E-03
DAV:  12    -0.819727263655E+01   -0.10026E-06   -0.27140E-06 13528   0.126E-02
   1 F= -.81972726E+01 E0= -.81972726E+01  d E =-.877355E-18
