   8   8   0   0
  0.2183545E+02  0.6158901E-09  0.6158901E-09  0.6158902E-09  0.5000000E-15
  1.000000000000000E-004
  CAR 
 unknown system                          
     10.57554348    -23.60635161  301      0.22127776      1.00000000
    -23.606  0.0000E+00  0.0000E+00
    -23.492  0.0000E+00  0.0000E+00
    -23.378  0.0000E+00  0.0000E+00
    -23.265  0.0000E+00  0.0000E+00
    -23.151  0.0000E+00  0.0000E+00
    -23.037  0.0000E+00  0.0000E+00
    -22.923  0.0000E+00  0.0000E+00
    -22.809  0.0000E+00  0.0000E+00
    -22.695  0.0000E+00  0.0000E+00
    -22.581  0.0000E+00  0.0000E+00
    -22.467  0.0000E+00  0.0000E+00
    -22.353  0.0000E+00  0.0000E+00
    -22.239  0.7649E-07  0.8715E-08
    -22.125  0.9229E-01  0.1052E-01
    -22.011  0.2160E+02  0.2472E+01
    -21.897  0.1340E+02  0.3999E+01
    -21.783  0.1080E-01  0.4000E+01
    -21.669  0.8494E-09  0.4000E+01
    -21.555  0.0000E+00  0.4000E+01
    -21.441  0.0000E+00  0.4000E+01
    -21.328  0.0000E+00  0.4000E+01
    -21.214  0.0000E+00  0.4000E+01
    -21.100  0.0000E+00  0.4000E+01
    -20.986  0.0000E+00  0.4000E+01
    -20.872  0.0000E+00  0.4000E+01
    -20.758  0.0000E+00  0.4000E+01
    -20.644  0.0000E+00  0.4000E+01
    -20.530  0.0000E+00  0.4000E+01
    -20.416  0.0000E+00  0.4000E+01
    -20.302  0.1688E-09  0.4000E+01
    -20.188  0.2894E-02  0.4000E+01
    -20.074  0.5537E+01  0.4631E+01
    -19.960  0.2646E+02  0.7646E+01
    -19.846  0.3109E+01  0.8000E+01
    -19.732  0.6631E-03  0.8000E+01
    -19.618  0.1713E-10  0.8000E+01
    -19.505  0.0000E+00  0.8000E+01
    -19.391  0.0000E+00  0.8000E+01
    -19.277  0.0000E+00  0.8000E+01
    -19.163  0.0000E+00  0.8000E+01
    -19.049  0.0000E+00  0.8000E+01
    -18.935  0.0000E+00  0.8000E+01
    -18.821  0.0000E+00  0.8000E+01
    -18.707  0.0000E+00  0.8000E+01
    -18.593  0.0000E+00  0.8000E+01
    -18.479  0.0000E+00  0.8000E+01
    -18.365  0.0000E+00  0.8000E+01
    -18.251  0.0000E+00  0.8000E+01
    -18.137  0.0000E+00  0.8000E+01
    -18.023  0.7639E-15  0.8000E+01
    -17.909  0.3698E-05  0.8000E+01
    -17.795  0.8284E+00  0.8094E+01
    -17.681  0.3035E+02  0.1155E+02
    -17.568  0.3929E+01  0.1200E+02
    -17.454  0.1783E-03  0.1200E+02
    -17.340  0.4851E-12  0.1200E+02
    -17.226  0.0000E+00  0.1200E+02
    -17.112  0.0000E+00  0.1200E+02
    -16.998  0.0000E+00  0.1200E+02
    -16.884  0.0000E+00  0.1200E+02
    -16.770  0.0000E+00  0.1200E+02
    -16.656  0.0000E+00  0.1200E+02
    -16.542  0.0000E+00  0.1200E+02
    -16.428  0.0000E+00  0.1200E+02
    -16.314  0.0000E+00  0.1200E+02
    -16.200  0.0000E+00  0.1200E+02
    -16.086  0.0000E+00  0.1200E+02
    -15.972  0.0000E+00  0.1200E+02
    -15.858  0.0000E+00  0.1200E+02
    -15.745  0.0000E+00  0.1200E+02
    -15.631  0.0000E+00  0.1200E+02
    -15.517  0.0000E+00  0.1200E+02
    -15.403  0.0000E+00  0.1200E+02
    -15.289  0.0000E+00  0.1200E+02
    -15.175  0.0000E+00  0.1200E+02
    -15.061  0.0000E+00  0.1200E+02
    -14.947  0.0000E+00  0.1200E+02
    -14.833  0.0000E+00  0.1200E+02
    -14.719  0.0000E+00  0.1200E+02
    -14.605  0.0000E+00  0.1200E+02
    -14.491  0.0000E+00  0.1200E+02
    -14.377  0.0000E+00  0.1200E+02
    -14.263  0.0000E+00  0.1200E+02
    -14.149  0.0000E+00  0.1200E+02
    -14.035  0.0000E+00  0.1200E+02
    -13.921  0.0000E+00  0.1200E+02
    -13.808  0.0000E+00  0.1200E+02
    -13.694  0.0000E+00  0.1200E+02
    -13.580  0.0000E+00  0.1200E+02
    -13.466  0.0000E+00  0.1200E+02
    -13.352  0.0000E+00  0.1200E+02
    -13.238  0.0000E+00  0.1200E+02
    -13.124  0.0000E+00  0.1200E+02
    -13.010  0.0000E+00  0.1200E+02
    -12.896  0.0000E+00  0.1200E+02
    -12.782  0.0000E+00  0.1200E+02
    -12.668  0.0000E+00  0.1200E+02
    -12.554  0.0000E+00  0.1200E+02
    -12.440  0.0000E+00  0.1200E+02
    -12.326  0.0000E+00  0.1200E+02
    -12.212  0.0000E+00  0.1200E+02
    -12.098  0.0000E+00  0.1200E+02
    -11.985  0.0000E+00  0.1200E+02
    -11.871  0.0000E+00  0.1200E+02
    -11.757  0.0000E+00  0.1200E+02
    -11.643  0.0000E+00  0.1200E+02
    -11.529  0.0000E+00  0.1200E+02
    -11.415  0.0000E+00  0.1200E+02
    -11.301  0.0000E+00  0.1200E+02
    -11.187  0.0000E+00  0.1200E+02
    -11.073  0.0000E+00  0.1200E+02
    -10.959  0.0000E+00  0.1200E+02
    -10.845  0.0000E+00  0.1200E+02
    -10.731  0.0000E+00  0.1200E+02
    -10.617  0.0000E+00  0.1200E+02
    -10.503  0.0000E+00  0.1200E+02
    -10.389  0.0000E+00  0.1200E+02
    -10.275  0.0000E+00  0.1200E+02
    -10.161  0.0000E+00  0.1200E+02
    -10.048  0.0000E+00  0.1200E+02
     -9.934  0.0000E+00  0.1200E+02
     -9.820  0.0000E+00  0.1200E+02
     -9.706  0.0000E+00  0.1200E+02
     -9.592  0.0000E+00  0.1200E+02
     -9.478  0.0000E+00  0.1200E+02
     -9.364  0.0000E+00  0.1200E+02
     -9.250  0.0000E+00  0.1200E+02
     -9.136  0.0000E+00  0.1200E+02
     -9.022  0.0000E+00  0.1200E+02
     -8.908  0.0000E+00  0.1200E+02
     -8.794  0.0000E+00  0.1200E+02
     -8.680  0.0000E+00  0.1200E+02
     -8.566  0.0000E+00  0.1200E+02
     -8.452  0.0000E+00  0.1200E+02
     -8.338  0.0000E+00  0.1200E+02
     -8.224  0.0000E+00  0.1200E+02
     -8.111  0.0000E+00  0.1200E+02
     -7.997  0.5063E-07  0.1200E+02
     -7.883  0.1309E-01  0.1200E+02
     -7.769  0.1078E+01  0.1212E+02
     -7.655  0.3728E+01  0.1255E+02
     -7.541  0.3933E+01  0.1300E+02
     -7.427  0.8300E+01  0.1394E+02
     -7.313  0.1385E+02  0.1552E+02
     -7.199  0.1470E+02  0.1720E+02
     -7.085  0.1248E+02  0.1862E+02
     -6.971  0.1083E+02  0.1985E+02
     -6.857  0.1276E+02  0.2131E+02
     -6.743  0.1097E+02  0.2256E+02
     -6.629  0.7517E+01  0.2341E+02
     -6.515  0.2796E+01  0.2373E+02
     -6.401  0.2410E+01  0.2401E+02
     -6.288  0.4586E+01  0.2453E+02
     -6.174  0.1392E+02  0.2611E+02
     -6.060  0.1702E+02  0.2805E+02
     -5.946  0.2045E+02  0.3038E+02
     -5.832  0.1371E+02  0.3195E+02
     -5.718  0.7498E+00  0.3203E+02
     -5.604  0.1959E+01  0.3225E+02
     -5.490  0.8687E+01  0.3324E+02
     -5.376  0.7181E+01  0.3406E+02
     -5.262  0.8025E+01  0.3498E+02
     -5.148  0.6894E+01  0.3576E+02
     -5.034  0.2009E+01  0.3599E+02
     -4.920  0.7569E-01  0.3600E+02
     -4.806  0.8386E-05  0.3600E+02
     -4.692  0.6411E-13  0.3600E+02
     -4.578  0.1419E-11  0.3600E+02
     -4.464  0.7098E-04  0.3600E+02
     -4.351  0.3788E+00  0.3604E+02
     -4.237  0.4974E+01  0.3661E+02
     -4.123  0.1063E+02  0.3782E+02
     -4.009  0.1309E+02  0.3931E+02
     -3.895  0.5613E+01  0.3995E+02
     -3.781  0.4206E+00  0.4000E+02
     -3.667  0.2677E-03  0.4000E+02
     -3.553  0.1836E-10  0.4000E+02
     -3.439  0.0000E+00  0.4000E+02
     -3.325  0.0000E+00  0.4000E+02
     -3.211  0.0000E+00  0.4000E+02
     -3.097  0.0000E+00  0.4000E+02
     -2.983  0.0000E+00  0.4000E+02
     -2.869  0.0000E+00  0.4000E+02
     -2.755  0.0000E+00  0.4000E+02
     -2.641  0.0000E+00  0.4000E+02
     -2.528  0.0000E+00  0.4000E+02
     -2.414  0.0000E+00  0.4000E+02
     -2.300  0.0000E+00  0.4000E+02
     -2.186  0.0000E+00  0.4000E+02
     -2.072  0.0000E+00  0.4000E+02
     -1.958  0.0000E+00  0.4000E+02
     -1.844  0.0000E+00  0.4000E+02
     -1.730  0.0000E+00  0.4000E+02
     -1.616  0.0000E+00  0.4000E+02
     -1.502  0.0000E+00  0.4000E+02
     -1.388  0.0000E+00  0.4000E+02
     -1.274  0.0000E+00  0.4000E+02
     -1.160  0.0000E+00  0.4000E+02
     -1.046  0.0000E+00  0.4000E+02
     -0.932  0.4175E-13  0.4000E+02
     -0.818  0.6640E-05  0.4000E+02
     -0.704  0.7438E-01  0.4001E+02
     -0.591  0.7634E+00  0.4010E+02
     -0.477  0.3651E+01  0.4051E+02
     -0.363  0.1510E+02  0.4223E+02
     -0.249  0.1660E+02  0.4412E+02
     -0.135  0.2492E+02  0.4696E+02
     -0.021  0.8958E+01  0.4798E+02
      0.093  0.1422E+00  0.4800E+02
      0.207  0.1268E-04  0.4800E+02
      0.321  0.1168E-12  0.4800E+02
      0.435  0.0000E+00  0.4800E+02
      0.549  0.0000E+00  0.4800E+02
      0.663  0.0000E+00  0.4800E+02
      0.777  0.0000E+00  0.4800E+02
      0.891  0.0000E+00  0.4800E+02
      1.005  0.0000E+00  0.4800E+02
      1.119  0.0000E+00  0.4800E+02
      1.232  0.0000E+00  0.4800E+02
      1.346  0.0000E+00  0.4800E+02
      1.460  0.0000E+00  0.4800E+02
      1.574  0.0000E+00  0.4800E+02
      1.688  0.0000E+00  0.4800E+02
      1.802  0.0000E+00  0.4800E+02
      1.916  0.0000E+00  0.4800E+02
      2.030  0.0000E+00  0.4800E+02
      2.144  0.0000E+00  0.4800E+02
      2.258  0.0000E+00  0.4800E+02
      2.372  0.0000E+00  0.4800E+02
      2.486  0.0000E+00  0.4800E+02
      2.600  0.0000E+00  0.4800E+02
      2.714  0.0000E+00  0.4800E+02
      2.828  0.0000E+00  0.4800E+02
      2.942  0.0000E+00  0.4800E+02
      3.056  0.0000E+00  0.4800E+02
      3.169  0.0000E+00  0.4800E+02
      3.283  0.0000E+00  0.4800E+02
      3.397  0.0000E+00  0.4800E+02
      3.511  0.0000E+00  0.4800E+02
      3.625  0.0000E+00  0.4800E+02
      3.739  0.0000E+00  0.4800E+02
      3.853  0.0000E+00  0.4800E+02
      3.967  0.1559E-16  0.4800E+02
      4.081  0.3639E-07  0.4800E+02
      4.195  0.7842E-02  0.4800E+02
      4.309  0.4269E+00  0.4805E+02
      4.423  0.9935E+00  0.4816E+02
      4.537  0.3415E+01  0.4855E+02
      4.651  0.4281E+01  0.4904E+02
      4.765  0.6893E+01  0.4983E+02
      4.879  0.7320E+01  0.5066E+02
      4.993  0.1005E+02  0.5180E+02
      5.106  0.6382E+01  0.5253E+02
      5.220  0.1035E+02  0.5371E+02
      5.334  0.1052E+02  0.5491E+02
      5.448  0.6247E+01  0.5562E+02
      5.562  0.6401E+01  0.5635E+02
      5.676  0.4932E+01  0.5691E+02
      5.790  0.2333E+01  0.5718E+02
      5.904  0.4922E+00  0.5723E+02
      6.018  0.1877E+01  0.5745E+02
      6.132  0.5639E+01  0.5809E+02
      6.246  0.2027E+01  0.5832E+02
      6.360  0.4523E+01  0.5884E+02
      6.474  0.7926E+01  0.5974E+02
      6.588  0.5962E+01  0.6042E+02
      6.702  0.5521E+01  0.6105E+02
      6.816  0.7240E+01  0.6187E+02
      6.929  0.6849E+01  0.6265E+02
      7.043  0.3624E+01  0.6307E+02
      7.157  0.4263E+01  0.6355E+02
      7.271  0.5311E+01  0.6416E+02
      7.385  0.3781E+01  0.6459E+02
      7.499  0.5828E+01  0.6525E+02
      7.613  0.5537E+01  0.6588E+02
      7.727  0.1219E+02  0.6727E+02
      7.841  0.1110E+02  0.6854E+02
      7.955  0.6403E+01  0.6927E+02
      8.069  0.4326E+01  0.6976E+02
      8.183  0.3663E+01  0.7018E+02
      8.297  0.3723E+01  0.7060E+02
      8.411  0.1972E+01  0.7083E+02
      8.525  0.3652E+01  0.7124E+02
      8.639  0.4044E+01  0.7170E+02
      8.753  0.1763E+01  0.7190E+02
      8.866  0.2662E+00  0.7193E+02
      8.980  0.3079E+00  0.7197E+02
      9.094  0.2708E+00  0.7200E+02
      9.208  0.5548E-02  0.7200E+02
      9.322  0.1799E-07  0.7200E+02
      9.436  0.0000E+00  0.7200E+02
      9.550  0.0000E+00  0.7200E+02
      9.664  0.0000E+00  0.7200E+02
      9.778  0.0000E+00  0.7200E+02
      9.892  0.0000E+00  0.7200E+02
     10.006  0.0000E+00  0.7200E+02
     10.120  0.0000E+00  0.7200E+02
     10.234  0.0000E+00  0.7200E+02
     10.348  0.0000E+00  0.7200E+02
     10.462  0.0000E+00  0.7200E+02
     10.576  0.0000E+00  0.7200E+02
