unknown system                          
           1
     5.565483   -0.013828   -2.637663
    -3.334029    5.102514   -0.883552
    -0.009034    0.013828    6.158880
   Cs   N 
     2     6
Direct configuration=     1
   0.00000000  0.25000000  0.25000000
   0.00000000  0.75000000  0.75000000
   0.75446516  0.62723358  0.12723358
   0.50000000  0.12723358  0.37276642
   0.50000000  0.87276642  0.62723358
   0.24553484  0.37276642  0.87276642
   0.50000000  0.50000000  0.00000000
   0.50000000  0.00000000  0.50000000
