   2   2   0   0
  0.1413193E+02  0.2671929E-09  0.2671929E-09  0.4218096E-09  0.5000000E-15
  1.000000000000000E-004
  CAR 
 unknown system                          
     30.87902522    -37.77550888  301      8.67017953      1.00000000
    -37.776  0.0000E+00  0.0000E+00
    -37.547  0.0000E+00  0.0000E+00
    -37.318  0.0000E+00  0.0000E+00
    -37.089  0.0000E+00  0.0000E+00
    -36.860  0.0000E+00  0.0000E+00
    -36.631  0.0000E+00  0.0000E+00
    -36.402  0.0000E+00  0.0000E+00
    -36.174  0.0000E+00  0.0000E+00
    -35.945  0.0000E+00  0.0000E+00
    -35.716  0.0000E+00  0.0000E+00
    -35.487  0.0000E+00  0.0000E+00
    -35.258  0.0000E+00  0.0000E+00
    -35.029  0.0000E+00  0.0000E+00
    -34.800  0.1008E-04  0.2306E-05
    -34.572  0.4700E+01  0.1076E+01
    -34.343  0.1952E+02  0.5543E+01
    -34.114  0.1998E+01  0.6000E+01
    -33.885  0.0000E+00  0.6000E+01
    -33.656  0.0000E+00  0.6000E+01
    -33.427  0.0000E+00  0.6000E+01
    -33.199  0.0000E+00  0.6000E+01
    -32.970  0.0000E+00  0.6000E+01
    -32.741  0.0000E+00  0.6000E+01
    -32.512  0.0000E+00  0.6000E+01
    -32.283  0.0000E+00  0.6000E+01
    -32.054  0.0000E+00  0.6000E+01
    -31.825  0.0000E+00  0.6000E+01
    -31.597  0.0000E+00  0.6000E+01
    -31.368  0.0000E+00  0.6000E+01
    -31.139  0.0000E+00  0.6000E+01
    -30.910  0.0000E+00  0.6000E+01
    -30.681  0.0000E+00  0.6000E+01
    -30.452  0.0000E+00  0.6000E+01
    -30.224  0.0000E+00  0.6000E+01
    -29.995  0.0000E+00  0.6000E+01
    -29.766  0.0000E+00  0.6000E+01
    -29.537  0.0000E+00  0.6000E+01
    -29.308  0.0000E+00  0.6000E+01
    -29.079  0.0000E+00  0.6000E+01
    -28.850  0.0000E+00  0.6000E+01
    -28.622  0.0000E+00  0.6000E+01
    -28.393  0.0000E+00  0.6000E+01
    -28.164  0.0000E+00  0.6000E+01
    -27.935  0.0000E+00  0.6000E+01
    -27.706  0.0000E+00  0.6000E+01
    -27.477  0.0000E+00  0.6000E+01
    -27.248  0.0000E+00  0.6000E+01
    -27.020  0.0000E+00  0.6000E+01
    -26.791  0.0000E+00  0.6000E+01
    -26.562  0.0000E+00  0.6000E+01
    -26.333  0.0000E+00  0.6000E+01
    -26.104  0.0000E+00  0.6000E+01
    -25.875  0.0000E+00  0.6000E+01
    -25.647  0.0000E+00  0.6000E+01
    -25.418  0.0000E+00  0.6000E+01
    -25.189  0.0000E+00  0.6000E+01
    -24.960  0.0000E+00  0.6000E+01
    -24.731  0.0000E+00  0.6000E+01
    -24.502  0.0000E+00  0.6000E+01
    -24.273  0.0000E+00  0.6000E+01
    -24.045  0.0000E+00  0.6000E+01
    -23.816  0.0000E+00  0.6000E+01
    -23.587  0.0000E+00  0.6000E+01
    -23.358  0.0000E+00  0.6000E+01
    -23.129  0.0000E+00  0.6000E+01
    -22.900  0.0000E+00  0.6000E+01
    -22.672  0.0000E+00  0.6000E+01
    -22.443  0.0000E+00  0.6000E+01
    -22.214  0.0000E+00  0.6000E+01
    -21.985  0.0000E+00  0.6000E+01
    -21.756  0.0000E+00  0.6000E+01
    -21.527  0.0000E+00  0.6000E+01
    -21.298  0.0000E+00  0.6000E+01
    -21.070  0.0000E+00  0.6000E+01
    -20.841  0.0000E+00  0.6000E+01
    -20.612  0.0000E+00  0.6000E+01
    -20.383  0.0000E+00  0.6000E+01
    -20.154  0.0000E+00  0.6000E+01
    -19.925  0.0000E+00  0.6000E+01
    -19.696  0.0000E+00  0.6000E+01
    -19.468  0.0000E+00  0.6000E+01
    -19.239  0.0000E+00  0.6000E+01
    -19.010  0.0000E+00  0.6000E+01
    -18.781  0.0000E+00  0.6000E+01
    -18.552  0.0000E+00  0.6000E+01
    -18.323  0.0000E+00  0.6000E+01
    -18.095  0.0000E+00  0.6000E+01
    -17.866  0.0000E+00  0.6000E+01
    -17.637  0.0000E+00  0.6000E+01
    -17.408  0.0000E+00  0.6000E+01
    -17.179  0.0000E+00  0.6000E+01
    -16.950  0.0000E+00  0.6000E+01
    -16.721  0.0000E+00  0.6000E+01
    -16.493  0.0000E+00  0.6000E+01
    -16.264  0.0000E+00  0.6000E+01
    -16.035  0.0000E+00  0.6000E+01
    -15.806  0.0000E+00  0.6000E+01
    -15.577  0.0000E+00  0.6000E+01
    -15.348  0.0000E+00  0.6000E+01
    -15.120  0.0000E+00  0.6000E+01
    -14.891  0.0000E+00  0.6000E+01
    -14.662  0.0000E+00  0.6000E+01
    -14.433  0.0000E+00  0.6000E+01
    -14.204  0.0000E+00  0.6000E+01
    -13.975  0.0000E+00  0.6000E+01
    -13.746  0.0000E+00  0.6000E+01
    -13.518  0.0000E+00  0.6000E+01
    -13.289  0.0000E+00  0.6000E+01
    -13.060  0.0000E+00  0.6000E+01
    -12.831  0.0000E+00  0.6000E+01
    -12.602  0.0000E+00  0.6000E+01
    -12.373  0.0000E+00  0.6000E+01
    -12.144  0.0000E+00  0.6000E+01
    -11.916  0.0000E+00  0.6000E+01
    -11.687  0.0000E+00  0.6000E+01
    -11.458  0.0000E+00  0.6000E+01
    -11.229  0.0000E+00  0.6000E+01
    -11.000  0.0000E+00  0.6000E+01
    -10.771  0.0000E+00  0.6000E+01
    -10.543  0.0000E+00  0.6000E+01
    -10.314  0.0000E+00  0.6000E+01
    -10.085  0.0000E+00  0.6000E+01
     -9.856  0.0000E+00  0.6000E+01
     -9.627  0.0000E+00  0.6000E+01
     -9.398  0.0000E+00  0.6000E+01
     -9.169  0.0000E+00  0.6000E+01
     -8.941  0.0000E+00  0.6000E+01
     -8.712  0.0000E+00  0.6000E+01
     -8.483  0.0000E+00  0.6000E+01
     -8.254  0.0000E+00  0.6000E+01
     -8.025  0.0000E+00  0.6000E+01
     -7.796  0.0000E+00  0.6000E+01
     -7.568  0.0000E+00  0.6000E+01
     -7.339  0.0000E+00  0.6000E+01
     -7.110  0.0000E+00  0.6000E+01
     -6.881  0.0000E+00  0.6000E+01
     -6.652  0.0000E+00  0.6000E+01
     -6.423  0.0000E+00  0.6000E+01
     -6.194  0.0000E+00  0.6000E+01
     -5.966  0.0000E+00  0.6000E+01
     -5.737  0.0000E+00  0.6000E+01
     -5.508  0.0000E+00  0.6000E+01
     -5.279  0.0000E+00  0.6000E+01
     -5.050  0.0000E+00  0.6000E+01
     -4.821  0.0000E+00  0.6000E+01
     -4.592  0.0000E+00  0.6000E+01
     -4.364  0.0000E+00  0.6000E+01
     -4.135  0.0000E+00  0.6000E+01
     -3.906  0.0000E+00  0.6000E+01
     -3.677  0.0000E+00  0.6000E+01
     -3.448  0.0000E+00  0.6000E+01
     -3.219  0.0000E+00  0.6000E+01
     -2.991  0.0000E+00  0.6000E+01
     -2.762  0.0000E+00  0.6000E+01
     -2.533  0.0000E+00  0.6000E+01
     -2.304  0.0000E+00  0.6000E+01
     -2.075  0.0000E+00  0.6000E+01
     -1.846  0.0000E+00  0.6000E+01
     -1.617  0.0000E+00  0.6000E+01
     -1.389  0.0000E+00  0.6000E+01
     -1.160  0.0000E+00  0.6000E+01
     -0.931  0.0000E+00  0.6000E+01
     -0.702  0.0000E+00  0.6000E+01
     -0.473  0.0000E+00  0.6000E+01
     -0.244  0.2231E-08  0.6000E+01
     -0.016  0.9513E-02  0.6002E+01
      0.213  0.3516E-01  0.6010E+01
      0.442  0.9942E-01  0.6033E+01
      0.671  0.8134E-01  0.6052E+01
      0.900  0.5694E-01  0.6065E+01
      1.129  0.2487E+00  0.6122E+01
      1.358  0.1723E+00  0.6161E+01
      1.586  0.1140E+00  0.6187E+01
      1.815  0.3507E+00  0.6267E+01
      2.044  0.8534E-01  0.6287E+01
      2.273  0.3249E+00  0.6361E+01
      2.502  0.3357E+00  0.6438E+01
      2.731  0.2261E+00  0.6490E+01
      2.960  0.3791E+00  0.6577E+01
      3.188  0.6848E+00  0.6733E+01
      3.417  0.8954E+00  0.6938E+01
      3.646  0.1107E+01  0.7191E+01
      3.875  0.1470E+01  0.7528E+01
      4.104  0.1515E+01  0.7875E+01
      4.333  0.1612E+01  0.8244E+01
      4.561  0.1979E+01  0.8696E+01
      4.790  0.2393E+01  0.9244E+01
      5.019  0.2149E+01  0.9736E+01
      5.248  0.1111E+01  0.9990E+01
      5.477  0.1373E+01  0.1030E+02
      5.706  0.1105E+01  0.1056E+02
      5.935  0.3376E+01  0.1133E+02
      6.163  0.2741E+01  0.1196E+02
      6.392  0.2568E+01  0.1254E+02
      6.621  0.3080E+01  0.1325E+02
      6.850  0.3391E+01  0.1403E+02
      7.079  0.3219E+01  0.1476E+02
      7.308  0.3272E+01  0.1551E+02
      7.536  0.3528E+01  0.1632E+02
      7.765  0.2833E+01  0.1697E+02
      7.994  0.1140E+01  0.1723E+02
      8.223  0.1006E+01  0.1746E+02
      8.452  0.8862E+00  0.1766E+02
      8.681  0.1575E+01  0.1802E+02
      8.910  0.1675E+01  0.1840E+02
      9.138  0.2367E+01  0.1895E+02
      9.367  0.3245E+01  0.1969E+02
      9.596  0.3145E+01  0.2041E+02
      9.825  0.3407E+01  0.2119E+02
     10.054  0.2642E+01  0.2179E+02
     10.283  0.2480E+01  0.2236E+02
     10.512  0.2348E+01  0.2290E+02
     10.740  0.2736E+01  0.2352E+02
     10.969  0.2503E+01  0.2410E+02
     11.198  0.2319E+01  0.2463E+02
     11.427  0.1696E+01  0.2501E+02
     11.656  0.2041E+01  0.2548E+02
     11.885  0.2465E+01  0.2605E+02
     12.113  0.1886E+01  0.2648E+02
     12.342  0.1718E+01  0.2687E+02
     12.571  0.1170E+01  0.2714E+02
     12.800  0.1218E+01  0.2742E+02
     13.029  0.4256E+00  0.2751E+02
     13.258  0.8837E+00  0.2772E+02
     13.487  0.6819E+00  0.2787E+02
     13.715  0.4072E+00  0.2797E+02
     13.944  0.4844E+00  0.2808E+02
     14.173  0.1076E+01  0.2832E+02
     14.402  0.6227E+00  0.2847E+02
     14.631  0.4889E+00  0.2858E+02
     14.860  0.7674E+00  0.2875E+02
     15.088  0.5242E+00  0.2887E+02
     15.317  0.3759E+00  0.2896E+02
     15.546  0.4557E+00  0.2906E+02
     15.775  0.7360E+01  0.3075E+02
     16.004  0.2332E+01  0.3128E+02
     16.233  0.5032E+00  0.3140E+02
     16.462  0.5221E+00  0.3152E+02
     16.690  0.5309E+00  0.3164E+02
     16.919  0.6148E+00  0.3178E+02
     17.148  0.2407E+00  0.3183E+02
     17.377  0.1322E+00  0.3186E+02
     17.606  0.3483E+00  0.3194E+02
     17.835  0.3306E+00  0.3202E+02
     18.064  0.5179E+00  0.3214E+02
     18.292  0.5847E+00  0.3227E+02
     18.521  0.9400E+00  0.3249E+02
     18.750  0.7461E+00  0.3266E+02
     18.979  0.1213E+01  0.3293E+02
     19.208  0.1080E+01  0.3318E+02
     19.437  0.1223E+01  0.3346E+02
     19.665  0.5670E+00  0.3359E+02
     19.894  0.9348E+00  0.3381E+02
     20.123  0.9513E+00  0.3402E+02
     20.352  0.1456E+01  0.3436E+02
     20.581  0.7771E+00  0.3453E+02
     20.810  0.6896E+00  0.3469E+02
     21.039  0.9785E+00  0.3492E+02
     21.267  0.6269E+00  0.3506E+02
     21.496  0.6950E+00  0.3522E+02
     21.725  0.1209E+01  0.3549E+02
     21.954  0.6836E+00  0.3565E+02
     22.183  0.1136E+01  0.3591E+02
     22.412  0.6956E+00  0.3607E+02
     22.640  0.1140E+01  0.3633E+02
     22.869  0.9052E+00  0.3654E+02
     23.098  0.1097E+01  0.3679E+02
     23.327  0.1577E+01  0.3715E+02
     23.556  0.1072E+01  0.3740E+02
     23.785  0.8039E+00  0.3758E+02
     24.014  0.1217E+01  0.3786E+02
     24.242  0.1428E+01  0.3819E+02
     24.471  0.1079E+01  0.3843E+02
     24.700  0.5944E+00  0.3857E+02
     24.929  0.7567E+00  0.3874E+02
     25.158  0.6949E+00  0.3890E+02
     25.387  0.6123E+00  0.3904E+02
     25.616  0.5694E+00  0.3917E+02
     25.844  0.7847E+00  0.3935E+02
     26.073  0.7100E+00  0.3951E+02
     26.302  0.3617E+00  0.3960E+02
     26.531  0.3968E+00  0.3969E+02
     26.760  0.6463E+00  0.3983E+02
     26.989  0.3496E+00  0.3991E+02
     27.217  0.1698E+00  0.3995E+02
     27.446  0.1163E+00  0.3998E+02
     27.675  0.5840E-02  0.3998E+02
     27.904  0.8178E-01  0.4000E+02
     28.133  0.1570E-05  0.4000E+02
     28.362  0.0000E+00  0.4000E+02
     28.591  0.0000E+00  0.4000E+02
     28.819  0.0000E+00  0.4000E+02
     29.048  0.0000E+00  0.4000E+02
     29.277  0.0000E+00  0.4000E+02
     29.506  0.0000E+00  0.4000E+02
     29.735  0.0000E+00  0.4000E+02
     29.964  0.0000E+00  0.4000E+02
     30.192  0.0000E+00  0.4000E+02
     30.421  0.0000E+00  0.4000E+02
     30.650  0.0000E+00  0.4000E+02
     30.879  0.0000E+00  0.4000E+02
