       N       E                     dE             d eps       ncg     rms          rms(c)
DAV:   1     0.151160215811E+03    0.15116E+03   -0.10031E+04 33888   0.105E+03
DAV:   2    -0.191869214662E+02   -0.17035E+03   -0.15986E+03 34612   0.307E+02
DAV:   3    -0.251313045516E+02   -0.59444E+01   -0.57935E+01 39156   0.622E+01
DAV:   4    -0.251828640059E+02   -0.51559E-01   -0.51484E-01 39176   0.573E+00
DAV:   5    -0.251832112232E+02   -0.34722E-03   -0.34721E-03 39672   0.478E-01    0.253E+01
DAV:   6    -0.299480944748E+02   -0.47649E+01   -0.25232E+01 37580   0.512E+01    0.288E+01
DAV:   7    -0.230664827162E+02    0.68816E+01   -0.44979E+01 39364   0.436E+01    0.982E+00
DAV:   8    -0.223553359623E+02    0.71115E+00   -0.13340E+00 37288   0.102E+01    0.441E+00
DAV:   9    -0.223259197306E+02    0.29416E-01   -0.47651E-02 37764   0.157E+00    0.276E+00
DAV:  10    -0.223123087598E+02    0.13611E-01   -0.21109E-02 37268   0.880E-01    0.468E-01
DAV:  11    -0.223124574167E+02   -0.14866E-03   -0.14140E-03 37452   0.243E-01    0.154E-01
DAV:  12    -0.223124024281E+02    0.54989E-04   -0.13788E-04 38732   0.753E-02    0.454E-02
DAV:  13    -0.223124006725E+02    0.17556E-05   -0.63670E-06 39252   0.211E-02    0.336E-02
DAV:  14    -0.223123981421E+02    0.25304E-05   -0.10749E-06 22568   0.692E-03    0.667E-03
DAV:  15    -0.223123981954E+02   -0.53248E-07   -0.92420E-08 18396   0.228E-03
   1 F= -.22312398E+02 E0= -.22311165E+02  d E =-.246662E-02
