   3   3   0   0
  0.2639796E+02  0.4189111E-09  0.4189111E-09  0.5194504E-09  0.5000000E-15
  1.000000000000000E-004
  CAR 
 unknown system                          
     20.66568764     -7.13724624  301      7.50623497      1.00000000
     -7.137  0.0000E+00  0.0000E+00
     -7.045  0.0000E+00  0.0000E+00
     -6.952  0.0000E+00  0.0000E+00
     -6.859  0.0000E+00  0.0000E+00
     -6.767  0.0000E+00  0.0000E+00
     -6.674  0.0000E+00  0.0000E+00
     -6.581  0.0000E+00  0.0000E+00
     -6.489  0.0000E+00  0.0000E+00
     -6.396  0.0000E+00  0.0000E+00
     -6.303  0.0000E+00  0.0000E+00
     -6.210  0.0000E+00  0.0000E+00
     -6.118  0.2125E-12  0.1969E-13
     -6.025  0.7891E-06  0.7313E-07
     -5.932  0.4196E-02  0.3890E-03
     -5.840  0.6890E-01  0.6774E-02
     -5.747  0.5150E-01  0.1155E-01
     -5.654  0.5547E+00  0.6295E-01
     -5.562  0.2067E+00  0.8211E-01
     -5.469  0.8421E+00  0.1602E+00
     -5.376  0.2151E+00  0.1801E+00
     -5.284  0.4170E+00  0.2187E+00
     -5.191  0.7395E+00  0.2873E+00
     -5.098  0.1150E+01  0.3939E+00
     -5.006  0.1448E+01  0.5280E+00
     -4.913  0.5500E+00  0.5790E+00
     -4.820  0.2563E+00  0.6028E+00
     -4.728  0.1597E+01  0.7507E+00
     -4.635  0.2154E+01  0.9503E+00
     -4.542  0.1448E+01  0.1085E+01
     -4.450  0.1238E+01  0.1199E+01
     -4.357  0.1914E+01  0.1377E+01
     -4.264  0.1659E+01  0.1530E+01
     -4.172  0.1478E+01  0.1667E+01
     -4.079  0.2419E+01  0.1892E+01
     -3.986  0.1772E+01  0.2056E+01
     -3.894  0.8090E+00  0.2131E+01
     -3.801  0.1871E+01  0.2304E+01
     -3.708  0.2778E+01  0.2562E+01
     -3.616  0.2114E+01  0.2758E+01
     -3.523  0.3125E+01  0.3047E+01
     -3.430  0.1926E+01  0.3226E+01
     -3.338  0.2014E+01  0.3412E+01
     -3.245  0.1921E+01  0.3590E+01
     -3.152  0.2180E+01  0.3792E+01
     -3.059  0.8170E+00  0.3868E+01
     -2.967  0.3512E+00  0.3901E+01
     -2.874  0.4250E+00  0.3940E+01
     -2.781  0.5706E-01  0.3945E+01
     -2.689  0.4099E+00  0.3983E+01
     -2.596  0.1405E+00  0.3996E+01
     -2.503  0.3977E-01  0.4000E+01
     -2.411  0.2717E-03  0.4000E+01
     -2.318  0.3666E-08  0.4000E+01
     -2.225  0.5868E-16  0.4000E+01
     -2.133  0.0000E+00  0.4000E+01
     -2.040  0.0000E+00  0.4000E+01
     -1.947  0.0000E+00  0.4000E+01
     -1.855  0.0000E+00  0.4000E+01
     -1.762  0.0000E+00  0.4000E+01
     -1.669  0.0000E+00  0.4000E+01
     -1.577  0.0000E+00  0.4000E+01
     -1.484  0.0000E+00  0.4000E+01
     -1.391  0.0000E+00  0.4000E+01
     -1.299  0.0000E+00  0.4000E+01
     -1.206  0.0000E+00  0.4000E+01
     -1.113  0.0000E+00  0.4000E+01
     -1.021  0.0000E+00  0.4000E+01
     -0.928  0.0000E+00  0.4000E+01
     -0.835  0.0000E+00  0.4000E+01
     -0.743  0.0000E+00  0.4000E+01
     -0.650  0.0000E+00  0.4000E+01
     -0.557  0.0000E+00  0.4000E+01
     -0.465  0.0000E+00  0.4000E+01
     -0.372  0.0000E+00  0.4000E+01
     -0.279  0.0000E+00  0.4000E+01
     -0.187  0.0000E+00  0.4000E+01
     -0.094  0.0000E+00  0.4000E+01
     -0.001  0.0000E+00  0.4000E+01
      0.092  0.0000E+00  0.4000E+01
      0.184  0.0000E+00  0.4000E+01
      0.277  0.0000E+00  0.4000E+01
      0.370  0.0000E+00  0.4000E+01
      0.462  0.0000E+00  0.4000E+01
      0.555  0.0000E+00  0.4000E+01
      0.648  0.4890E-15  0.4000E+01
      0.740  0.2302E-07  0.4000E+01
      0.833  0.1393E-02  0.4000E+01
      0.926  0.1800E+00  0.4017E+01
      1.018  0.4048E+00  0.4054E+01
      1.111  0.5379E+00  0.4104E+01
      1.204  0.1237E+01  0.4219E+01
      1.296  0.1315E+01  0.4341E+01
      1.389  0.2369E+01  0.4560E+01
      1.482  0.2706E+01  0.4811E+01
      1.574  0.3373E+01  0.5124E+01
      1.667  0.3503E+01  0.5448E+01
      1.760  0.3700E+01  0.5791E+01
      1.852  0.5105E+01  0.6264E+01
      1.945  0.6332E+01  0.6851E+01
      2.038  0.5592E+01  0.7369E+01
      2.130  0.5689E+01  0.7897E+01
      2.223  0.6606E+01  0.8509E+01
      2.316  0.2527E+01  0.8743E+01
      2.408  0.4201E+01  0.9132E+01
      2.501  0.4331E+01  0.9534E+01
      2.594  0.2916E+01  0.9804E+01
      2.686  0.3838E+01  0.1016E+02
      2.779  0.4786E+01  0.1060E+02
      2.872  0.6599E+01  0.1121E+02
      2.964  0.8829E+01  0.1203E+02
      3.057  0.9613E+01  0.1292E+02
      3.150  0.7438E+01  0.1361E+02
      3.243  0.5642E+01  0.1414E+02
      3.335  0.5191E+01  0.1462E+02
      3.428  0.5832E+01  0.1516E+02
      3.521  0.4185E+01  0.1555E+02
      3.613  0.2380E+01  0.1577E+02
      3.706  0.1960E+01  0.1595E+02
      3.799  0.2687E+01  0.1620E+02
      3.891  0.1400E+01  0.1633E+02
      3.984  0.1365E+01  0.1645E+02
      4.077  0.1262E+01  0.1657E+02
      4.169  0.2296E+01  0.1678E+02
      4.262  0.2841E+01  0.1705E+02
      4.355  0.1679E+01  0.1720E+02
      4.447  0.1862E+01  0.1737E+02
      4.540  0.2383E+01  0.1760E+02
      4.633  0.1803E+01  0.1776E+02
      4.725  0.2347E+01  0.1798E+02
      4.818  0.2605E+01  0.1822E+02
      4.911  0.3023E+01  0.1850E+02
      5.003  0.1238E+01  0.1862E+02
      5.096  0.1179E+01  0.1873E+02
      5.189  0.9045E+00  0.1881E+02
      5.281  0.2178E+01  0.1901E+02
      5.374  0.2333E+01  0.1923E+02
      5.467  0.3019E+01  0.1951E+02
      5.559  0.2550E+01  0.1974E+02
      5.652  0.2419E+01  0.1997E+02
      5.745  0.3297E+01  0.2027E+02
      5.837  0.2356E+01  0.2049E+02
      5.930  0.1171E+01  0.2060E+02
      6.023  0.7450E+00  0.2067E+02
      6.115  0.1841E+01  0.2084E+02
      6.208  0.1864E+01  0.2101E+02
      6.301  0.1564E+01  0.2116E+02
      6.394  0.1385E+01  0.2129E+02
      6.486  0.1738E+01  0.2145E+02
      6.579  0.1371E+01  0.2157E+02
      6.672  0.1084E+01  0.2167E+02
      6.764  0.2513E+01  0.2191E+02
      6.857  0.1336E+01  0.2203E+02
      6.950  0.1153E+01  0.2214E+02
      7.042  0.1716E+01  0.2230E+02
      7.135  0.1124E+01  0.2240E+02
      7.228  0.2083E+01  0.2259E+02
      7.320  0.2101E+01  0.2279E+02
      7.413  0.1148E+01  0.2289E+02
      7.506  0.1127E+01  0.2300E+02
      7.598  0.5619E+00  0.2305E+02
      7.691  0.1448E+01  0.2319E+02
      7.784  0.2202E+01  0.2339E+02
      7.876  0.1643E+01  0.2354E+02
      7.969  0.1023E+01  0.2364E+02
      8.062  0.2375E+01  0.2386E+02
      8.154  0.2030E+01  0.2405E+02
      8.247  0.1974E+01  0.2423E+02
      8.340  0.2519E+01  0.2446E+02
      8.432  0.9558E+00  0.2455E+02
      8.525  0.1019E+01  0.2464E+02
      8.618  0.1131E+01  0.2475E+02
      8.710  0.1157E+01  0.2486E+02
      8.803  0.2224E+01  0.2506E+02
      8.896  0.1775E+01  0.2523E+02
      8.988  0.2088E+01  0.2542E+02
      9.081  0.1332E+01  0.2554E+02
      9.174  0.6862E+00  0.2561E+02
      9.266  0.1723E+01  0.2577E+02
      9.359  0.9427E+00  0.2585E+02
      9.452  0.6180E+00  0.2591E+02
      9.545  0.9330E+00  0.2600E+02
      9.637  0.8067E+00  0.2607E+02
      9.730  0.9162E-01  0.2608E+02
      9.823  0.9179E-01  0.2609E+02
      9.915  0.2433E+00  0.2611E+02
     10.008  0.5163E-01  0.2612E+02
     10.101  0.7346E+00  0.2619E+02
     10.193  0.7029E+00  0.2625E+02
     10.286  0.7654E+00  0.2632E+02
     10.379  0.1239E+01  0.2644E+02
     10.471  0.9799E+00  0.2653E+02
     10.564  0.8922E+00  0.2661E+02
     10.657  0.1944E+01  0.2679E+02
     10.749  0.2446E+01  0.2702E+02
     10.842  0.1265E+01  0.2713E+02
     10.935  0.5876E+00  0.2719E+02
     11.027  0.1202E+01  0.2730E+02
     11.120  0.2041E+01  0.2749E+02
     11.213  0.1442E+01  0.2762E+02
     11.305  0.7970E+00  0.2770E+02
     11.398  0.1660E+01  0.2785E+02
     11.491  0.8053E+00  0.2793E+02
     11.583  0.9344E+00  0.2801E+02
     11.676  0.1046E+01  0.2811E+02
     11.769  0.7666E+00  0.2818E+02
     11.861  0.9783E+00  0.2827E+02
     11.954  0.1390E+01  0.2840E+02
     12.047  0.1045E+01  0.2850E+02
     12.139  0.2313E+01  0.2871E+02
     12.232  0.1920E+01  0.2889E+02
     12.325  0.2616E+01  0.2913E+02
     12.417  0.3528E+01  0.2946E+02
     12.510  0.1459E+01  0.2959E+02
     12.603  0.9265E+00  0.2968E+02
     12.696  0.1227E+01  0.2979E+02
     12.788  0.1642E+01  0.2994E+02
     12.881  0.8102E+00  0.3002E+02
     12.974  0.2703E+00  0.3004E+02
     13.066  0.8246E+00  0.3012E+02
     13.159  0.1315E+01  0.3024E+02
     13.252  0.1403E+01  0.3037E+02
     13.344  0.1974E+01  0.3056E+02
     13.437  0.2287E+01  0.3077E+02
     13.530  0.1321E+01  0.3089E+02
     13.622  0.2696E+01  0.3114E+02
     13.715  0.2491E+01  0.3137E+02
     13.808  0.1729E+01  0.3153E+02
     13.900  0.2271E+01  0.3174E+02
     13.993  0.3105E+01  0.3203E+02
     14.086  0.2671E+01  0.3228E+02
     14.178  0.2706E+01  0.3253E+02
     14.271  0.3219E+01  0.3283E+02
     14.364  0.2154E+01  0.3303E+02
     14.456  0.2045E+01  0.3322E+02
     14.549  0.2478E+01  0.3344E+02
     14.642  0.2583E+01  0.3368E+02
     14.734  0.2327E+01  0.3390E+02
     14.827  0.1680E+01  0.3406E+02
     14.920  0.1767E+01  0.3422E+02
     15.012  0.2530E+01  0.3445E+02
     15.105  0.2854E+01  0.3472E+02
     15.198  0.2864E+01  0.3498E+02
     15.290  0.2281E+01  0.3520E+02
     15.383  0.3368E+01  0.3551E+02
     15.476  0.2358E+01  0.3573E+02
     15.568  0.1656E+01  0.3588E+02
     15.661  0.2919E+01  0.3615E+02
     15.754  0.2762E+01  0.3641E+02
     15.847  0.3001E+01  0.3668E+02
     15.939  0.2083E+01  0.3688E+02
     16.032  0.2289E+01  0.3709E+02
     16.125  0.1815E+01  0.3726E+02
     16.217  0.2160E+01  0.3746E+02
     16.310  0.1313E+01  0.3758E+02
     16.403  0.2380E+01  0.3780E+02
     16.495  0.2645E+01  0.3804E+02
     16.588  0.2115E+01  0.3824E+02
     16.681  0.2045E+01  0.3843E+02
     16.773  0.1153E+01  0.3854E+02
     16.866  0.1081E+01  0.3864E+02
     16.959  0.5997E+00  0.3869E+02
     17.051  0.8511E-01  0.3870E+02
     17.144  0.2471E+00  0.3872E+02
     17.237  0.1080E+01  0.3882E+02
     17.329  0.1013E+01  0.3892E+02
     17.422  0.1098E+01  0.3902E+02
     17.515  0.1561E+01  0.3916E+02
     17.607  0.1162E+01  0.3927E+02
     17.700  0.8975E+00  0.3936E+02
     17.793  0.7972E+00  0.3943E+02
     17.885  0.1267E+01  0.3955E+02
     17.978  0.1757E+01  0.3971E+02
     18.071  0.1284E+01  0.3983E+02
     18.163  0.6860E+00  0.3989E+02
     18.256  0.5863E+00  0.3995E+02
     18.349  0.5347E-01  0.3995E+02
     18.441  0.2231E-04  0.3995E+02
     18.534  0.1611E-10  0.3995E+02
     18.627  0.1774E-07  0.3995E+02
     18.719  0.1206E-02  0.3995E+02
     18.812  0.1633E+00  0.3997E+02
     18.905  0.1858E+00  0.3998E+02
     18.998  0.1962E-02  0.3998E+02
     19.090  0.4357E-07  0.3998E+02
     19.183  0.5270E-10  0.3998E+02
     19.276  0.3149E-04  0.3998E+02
     19.368  0.3018E-01  0.3999E+02
     19.461  0.1376E+00  0.4000E+02
     19.554  0.8309E-02  0.4000E+02
     19.646  0.1545E-05  0.4000E+02
     19.739  0.4110E-12  0.4000E+02
     19.832  0.0000E+00  0.4000E+02
     19.924  0.0000E+00  0.4000E+02
     20.017  0.0000E+00  0.4000E+02
     20.110  0.0000E+00  0.4000E+02
     20.202  0.0000E+00  0.4000E+02
     20.295  0.0000E+00  0.4000E+02
     20.388  0.0000E+00  0.4000E+02
     20.480  0.0000E+00  0.4000E+02
     20.573  0.0000E+00  0.4000E+02
     20.666  0.0000E+00  0.4000E+02
