       N       E                     dE             d eps       ncg     rms          rms(c)
DAV:   1     0.117889512792E+03    0.11789E+03   -0.10278E+04  9808   0.108E+03
DAV:   2    -0.473167618911E+01   -0.12262E+03   -0.11791E+03 11356   0.198E+02
DAV:   3    -0.102272572539E+02   -0.54956E+01   -0.54374E+01 11952   0.400E+01
DAV:   4    -0.103014799623E+02   -0.74223E-01   -0.74172E-01 11140   0.508E+00
DAV:   5    -0.103030666248E+02   -0.15867E-02   -0.15866E-02 11348   0.729E-01    0.128E+01
DAV:   6    -0.979613626620E+01    0.50693E+00   -0.31560E+00 10340   0.160E+01    0.934E+00
DAV:   7    -0.974209814852E+01    0.54038E-01   -0.27429E-01 10112   0.493E+00    0.436E+00
DAV:   8    -0.973800892263E+01    0.40892E-02   -0.31216E-02 10996   0.965E-01    0.938E-01
DAV:   9    -0.973642324814E+01    0.15857E-02   -0.56307E-03 10720   0.704E-01    0.360E-01
DAV:  10    -0.973641502472E+01    0.82234E-05   -0.58512E-04 11208   0.136E-01    0.901E-02
DAV:  11    -0.973640278341E+01    0.12241E-04   -0.66623E-05 11116   0.639E-02    0.346E-02
DAV:  12    -0.973640258716E+01    0.19625E-06   -0.14650E-05 11232   0.288E-02    0.242E-02
DAV:  13    -0.973640230274E+01    0.28442E-06   -0.94667E-07  8444   0.657E-03
   1 F= -.97364023E+01 E0= -.97357959E+01  d E =-.121289E-02
