unknown system                          
           1
     3.893047    0.000000    1.598570
     1.946524    5.166362    0.799285
    -0.015896    0.000000    5.578429
   Ta   Be
     1    12
Direct configuration=     1
   0.00000000  0.00000000  0.00000000
   0.00000000  0.64820009  0.35179991
   0.00000000  0.50000000  0.00000000
   0.64820009  0.35179991  0.35179991
   0.50000000  0.21532261  0.78467739
   0.00000000  0.35179991  0.64820009
   0.50000000  0.00000000  0.50000000
   0.35179991  0.64820009  0.64820009
   0.28467739  0.21532261  0.21532261
   0.50000000  0.78467739  0.21532261
   0.00000000  0.00000000  0.50000000
   0.71532261  0.78467739  0.78467739
   0.50000000  0.50000000  0.00000000
