Na3 In1                                 
   1.00000000000000     
    -2.4297000199999998    2.4297000199999998    4.9191369700000003
     2.4297000199999998   -2.4297000199999998    4.9191369700000003
     2.4297000199999998    2.4297000199999998   -4.9191369700000003
   Na   In
     3     1
Direct
     0.7499979999999979    0.2500000000000000    0.4999979999999979
     0.2500000000000000    0.7499979999999979    0.4999979999999979
     0.5000000000000000    0.5000000000000000    0.0000000000000000
     0.0000000000000000    0.0000000000000000    0.0000000000000000
 
  0.00000000E+00  0.00000000E+00  0.00000000E+00
  0.00000000E+00  0.00000000E+00  0.00000000E+00
  0.00000000E+00  0.00000000E+00  0.00000000E+00
  0.00000000E+00  0.00000000E+00  0.00000000E+00
