   4   4   0   0
  0.2903984E+02  0.6000399E-09  0.6000399E-09  0.6000399E-09  0.5000000E-15
  1.000000000000000E-004
  CAR 
 unknown system                          
     12.27528993    -24.17455856  301      2.15613222      1.00000000
    -24.175  0.0000E+00  0.0000E+00
    -24.053  0.0000E+00  0.0000E+00
    -23.932  0.0000E+00  0.0000E+00
    -23.810  0.0000E+00  0.0000E+00
    -23.689  0.0000E+00  0.0000E+00
    -23.567  0.0000E+00  0.0000E+00
    -23.446  0.0000E+00  0.0000E+00
    -23.324  0.0000E+00  0.0000E+00
    -23.203  0.0000E+00  0.0000E+00
    -23.081  0.0000E+00  0.0000E+00
    -22.960  0.0000E+00  0.0000E+00
    -22.838  0.0000E+00  0.0000E+00
    -22.717  0.1296E-06  0.1575E-07
    -22.595  0.2380E+00  0.2891E-01
    -22.474  0.3331E+02  0.4077E+01
    -22.352  0.2448E+02  0.7051E+01
    -22.231  0.8698E+02  0.1762E+02
    -22.109  0.3137E+01  0.1800E+02
    -21.988  0.1090E-04  0.1800E+02
    -21.866  0.0000E+00  0.1800E+02
    -21.745  0.0000E+00  0.1800E+02
    -21.623  0.0000E+00  0.1800E+02
    -21.502  0.0000E+00  0.1800E+02
    -21.380  0.0000E+00  0.1800E+02
    -21.259  0.0000E+00  0.1800E+02
    -21.137  0.0000E+00  0.1800E+02
    -21.016  0.0000E+00  0.1800E+02
    -20.894  0.0000E+00  0.1800E+02
    -20.773  0.0000E+00  0.1800E+02
    -20.651  0.0000E+00  0.1800E+02
    -20.530  0.0000E+00  0.1800E+02
    -20.408  0.0000E+00  0.1800E+02
    -20.287  0.0000E+00  0.1800E+02
    -20.165  0.0000E+00  0.1800E+02
    -20.044  0.0000E+00  0.1800E+02
    -19.922  0.0000E+00  0.1800E+02
    -19.801  0.0000E+00  0.1800E+02
    -19.679  0.0000E+00  0.1800E+02
    -19.558  0.0000E+00  0.1800E+02
    -19.436  0.0000E+00  0.1800E+02
    -19.315  0.0000E+00  0.1800E+02
    -19.193  0.0000E+00  0.1800E+02
    -19.072  0.0000E+00  0.1800E+02
    -18.950  0.0000E+00  0.1800E+02
    -18.829  0.0000E+00  0.1800E+02
    -18.707  0.0000E+00  0.1800E+02
    -18.586  0.0000E+00  0.1800E+02
    -18.464  0.0000E+00  0.1800E+02
    -18.343  0.0000E+00  0.1800E+02
    -18.221  0.0000E+00  0.1800E+02
    -18.100  0.0000E+00  0.1800E+02
    -17.978  0.0000E+00  0.1800E+02
    -17.857  0.0000E+00  0.1800E+02
    -17.735  0.0000E+00  0.1800E+02
    -17.614  0.0000E+00  0.1800E+02
    -17.492  0.0000E+00  0.1800E+02
    -17.371  0.0000E+00  0.1800E+02
    -17.249  0.0000E+00  0.1800E+02
    -17.128  0.0000E+00  0.1800E+02
    -17.006  0.0000E+00  0.1800E+02
    -16.885  0.0000E+00  0.1800E+02
    -16.763  0.0000E+00  0.1800E+02
    -16.642  0.0000E+00  0.1800E+02
    -16.520  0.0000E+00  0.1800E+02
    -16.399  0.0000E+00  0.1800E+02
    -16.277  0.0000E+00  0.1800E+02
    -16.156  0.0000E+00  0.1800E+02
    -16.034  0.0000E+00  0.1800E+02
    -15.913  0.0000E+00  0.1800E+02
    -15.791  0.0000E+00  0.1800E+02
    -15.670  0.0000E+00  0.1800E+02
    -15.548  0.0000E+00  0.1800E+02
    -15.427  0.0000E+00  0.1800E+02
    -15.305  0.0000E+00  0.1800E+02
    -15.184  0.0000E+00  0.1800E+02
    -15.062  0.0000E+00  0.1800E+02
    -14.941  0.0000E+00  0.1800E+02
    -14.819  0.0000E+00  0.1800E+02
    -14.698  0.0000E+00  0.1800E+02
    -14.576  0.0000E+00  0.1800E+02
    -14.455  0.0000E+00  0.1800E+02
    -14.333  0.0000E+00  0.1800E+02
    -14.212  0.0000E+00  0.1800E+02
    -14.090  0.0000E+00  0.1800E+02
    -13.969  0.0000E+00  0.1800E+02
    -13.847  0.0000E+00  0.1800E+02
    -13.726  0.0000E+00  0.1800E+02
    -13.604  0.0000E+00  0.1800E+02
    -13.483  0.0000E+00  0.1800E+02
    -13.361  0.0000E+00  0.1800E+02
    -13.240  0.0000E+00  0.1800E+02
    -13.118  0.0000E+00  0.1800E+02
    -12.997  0.0000E+00  0.1800E+02
    -12.875  0.0000E+00  0.1800E+02
    -12.754  0.0000E+00  0.1800E+02
    -12.632  0.0000E+00  0.1800E+02
    -12.511  0.0000E+00  0.1800E+02
    -12.389  0.4842E-07  0.1800E+02
    -12.268  0.1850E+00  0.1802E+02
    -12.146  0.3765E+02  0.2260E+02
    -12.025  0.4415E+02  0.2796E+02
    -11.903  0.3212E+00  0.2800E+02
    -11.782  0.1996E-06  0.2800E+02
    -11.660  0.0000E+00  0.2800E+02
    -11.539  0.0000E+00  0.2800E+02
    -11.417  0.0000E+00  0.2800E+02
    -11.296  0.0000E+00  0.2800E+02
    -11.174  0.0000E+00  0.2800E+02
    -11.053  0.0000E+00  0.2800E+02
    -10.931  0.0000E+00  0.2800E+02
    -10.810  0.0000E+00  0.2800E+02
    -10.688  0.0000E+00  0.2800E+02
    -10.567  0.0000E+00  0.2800E+02
    -10.445  0.0000E+00  0.2800E+02
    -10.324  0.0000E+00  0.2800E+02
    -10.202  0.0000E+00  0.2800E+02
    -10.081  0.0000E+00  0.2800E+02
     -9.959  0.0000E+00  0.2800E+02
     -9.838  0.0000E+00  0.2800E+02
     -9.716  0.0000E+00  0.2800E+02
     -9.595  0.0000E+00  0.2800E+02
     -9.473  0.0000E+00  0.2800E+02
     -9.352  0.0000E+00  0.2800E+02
     -9.230  0.0000E+00  0.2800E+02
     -9.109  0.0000E+00  0.2800E+02
     -8.987  0.0000E+00  0.2800E+02
     -8.866  0.0000E+00  0.2800E+02
     -8.744  0.0000E+00  0.2800E+02
     -8.623  0.0000E+00  0.2800E+02
     -8.501  0.0000E+00  0.2800E+02
     -8.380  0.0000E+00  0.2800E+02
     -8.258  0.0000E+00  0.2800E+02
     -8.137  0.0000E+00  0.2800E+02
     -8.015  0.0000E+00  0.2800E+02
     -7.894  0.0000E+00  0.2800E+02
     -7.772  0.0000E+00  0.2800E+02
     -7.651  0.0000E+00  0.2800E+02
     -7.529  0.0000E+00  0.2800E+02
     -7.408  0.0000E+00  0.2800E+02
     -7.286  0.0000E+00  0.2800E+02
     -7.165  0.0000E+00  0.2800E+02
     -7.043  0.0000E+00  0.2800E+02
     -6.922  0.0000E+00  0.2800E+02
     -6.800  0.0000E+00  0.2800E+02
     -6.679  0.0000E+00  0.2800E+02
     -6.557  0.0000E+00  0.2800E+02
     -6.436  0.0000E+00  0.2800E+02
     -6.314  0.0000E+00  0.2800E+02
     -6.193  0.0000E+00  0.2800E+02
     -6.071  0.0000E+00  0.2800E+02
     -5.950  0.0000E+00  0.2800E+02
     -5.828  0.0000E+00  0.2800E+02
     -5.707  0.0000E+00  0.2800E+02
     -5.585  0.0000E+00  0.2800E+02
     -5.464  0.0000E+00  0.2800E+02
     -5.342  0.0000E+00  0.2800E+02
     -5.221  0.0000E+00  0.2800E+02
     -5.099  0.0000E+00  0.2800E+02
     -4.978  0.0000E+00  0.2800E+02
     -4.856  0.0000E+00  0.2800E+02
     -4.735  0.0000E+00  0.2800E+02
     -4.613  0.0000E+00  0.2800E+02
     -4.492  0.0000E+00  0.2800E+02
     -4.370  0.0000E+00  0.2800E+02
     -4.249  0.0000E+00  0.2800E+02
     -4.127  0.0000E+00  0.2800E+02
     -4.006  0.2559E-15  0.2800E+02
     -3.884  0.6397E-06  0.2800E+02
     -3.763  0.2131E-01  0.2800E+02
     -3.641  0.1122E+00  0.2802E+02
     -3.520  0.4000E+00  0.2806E+02
     -3.398  0.9222E+00  0.2818E+02
     -3.277  0.5211E+00  0.2824E+02
     -3.155  0.2067E+01  0.2849E+02
     -3.034  0.5823E+00  0.2856E+02
     -2.912  0.1943E+01  0.2880E+02
     -2.791  0.3230E+01  0.2919E+02
     -2.669  0.2574E+01  0.2950E+02
     -2.548  0.1422E+01  0.2968E+02
     -2.426  0.1052E+01  0.2980E+02
     -2.305  0.1553E+01  0.2999E+02
     -2.183  0.6125E-01  0.3000E+02
     -2.062  0.2870E-06  0.3000E+02
     -1.940  0.0000E+00  0.3000E+02
     -1.819  0.0000E+00  0.3000E+02
     -1.697  0.0000E+00  0.3000E+02
     -1.576  0.0000E+00  0.3000E+02
     -1.454  0.0000E+00  0.3000E+02
     -1.333  0.0000E+00  0.3000E+02
     -1.211  0.0000E+00  0.3000E+02
     -1.090  0.0000E+00  0.3000E+02
     -0.968  0.0000E+00  0.3000E+02
     -0.847  0.0000E+00  0.3000E+02
     -0.725  0.0000E+00  0.3000E+02
     -0.604  0.0000E+00  0.3000E+02
     -0.482  0.2924E-16  0.3000E+02
     -0.361  0.2611E-06  0.3000E+02
     -0.239  0.2494E-01  0.3000E+02
     -0.118  0.5309E+00  0.3007E+02
      0.004  0.2499E+00  0.3010E+02
      0.125  0.1555E+01  0.3029E+02
      0.247  0.1758E+01  0.3050E+02
      0.368  0.1975E+01  0.3074E+02
      0.490  0.2723E+01  0.3107E+02
      0.611  0.1971E+01  0.3131E+02
      0.733  0.1191E+00  0.3133E+02
      0.854  0.2229E+01  0.3160E+02
      0.976  0.2424E+01  0.3189E+02
      1.097  0.2292E+01  0.3217E+02
      1.219  0.2539E+00  0.3220E+02
      1.340  0.8543E+00  0.3230E+02
      1.462  0.4804E+00  0.3236E+02
      1.583  0.1351E+01  0.3253E+02
      1.705  0.3829E+01  0.3299E+02
      1.826  0.2869E+01  0.3334E+02
      1.948  0.9538E+00  0.3346E+02
      2.069  0.7719E+00  0.3355E+02
      2.191  0.4522E+01  0.3410E+02
      2.312  0.1904E+01  0.3433E+02
      2.434  0.2344E+01  0.3462E+02
      2.555  0.3912E+01  0.3509E+02
      2.677  0.8247E+00  0.3519E+02
      2.798  0.7677E-01  0.3520E+02
      2.920  0.2161E-02  0.3520E+02
      3.041  0.6176E+00  0.3528E+02
      3.163  0.1771E+01  0.3549E+02
      3.284  0.1416E+01  0.3566E+02
      3.406  0.1546E+01  0.3585E+02
      3.527  0.4997E-01  0.3586E+02
      3.649  0.7723E+00  0.3595E+02
      3.770  0.5531E+01  0.3662E+02
      3.892  0.4167E+01  0.3713E+02
      4.013  0.1620E+01  0.3733E+02
      4.135  0.3037E+00  0.3736E+02
      4.256  0.8623E+00  0.3747E+02
      4.378  0.1144E+01  0.3761E+02
      4.499  0.7505E+00  0.3770E+02
      4.621  0.1923E+01  0.3793E+02
      4.742  0.4454E+01  0.3847E+02
      4.864  0.3284E+01  0.3887E+02
      4.985  0.1412E+01  0.3904E+02
      5.107  0.8991E+00  0.3915E+02
      5.228  0.8456E+00  0.3925E+02
      5.350  0.3323E+01  0.3966E+02
      5.471  0.3391E+01  0.4007E+02
      5.593  0.1320E+01  0.4023E+02
      5.714  0.1654E+01  0.4043E+02
      5.836  0.1416E+01  0.4060E+02
      5.957  0.1943E+00  0.4063E+02
      6.079  0.1307E+01  0.4079E+02
      6.200  0.6026E+00  0.4086E+02
      6.322  0.1169E+01  0.4100E+02
      6.443  0.3690E+01  0.4145E+02
      6.565  0.3918E+01  0.4193E+02
      6.686  0.4700E+01  0.4250E+02
      6.808  0.2481E+01  0.4280E+02
      6.929  0.4588E+01  0.4336E+02
      7.051  0.4050E+01  0.4385E+02
      7.172  0.2051E+00  0.4387E+02
      7.294  0.8406E+00  0.4397E+02
      7.415  0.1617E+01  0.4417E+02
      7.537  0.2543E+01  0.4448E+02
      7.658  0.4759E+01  0.4506E+02
      7.780  0.4057E+01  0.4555E+02
      7.901  0.1044E+01  0.4568E+02
      8.023  0.3115E+01  0.4606E+02
      8.144  0.1035E+01  0.4618E+02
      8.266  0.2060E+01  0.4643E+02
      8.387  0.2058E+01  0.4668E+02
      8.509  0.2422E+01  0.4698E+02
      8.630  0.8002E+00  0.4707E+02
      8.752  0.2325E+01  0.4736E+02
      8.873  0.3053E+01  0.4773E+02
      8.995  0.3984E+00  0.4778E+02
      9.116  0.3792E-03  0.4778E+02
      9.238  0.5785E-10  0.4778E+02
      9.359  0.8480E-03  0.4778E+02
      9.481  0.3599E+00  0.4782E+02
      9.602  0.1660E+00  0.4784E+02
      9.724  0.3213E-04  0.4784E+02
      9.845  0.7365E-01  0.4785E+02
      9.967  0.1891E+00  0.4787E+02
     10.088  0.5709E-03  0.4787E+02
     10.210  0.4203E-10  0.4787E+02
     10.331  0.2851E-15  0.4787E+02
     10.453  0.1594E-05  0.4787E+02
     10.574  0.1147E+00  0.4789E+02
     10.696  0.9243E+00  0.4800E+02
     10.817  0.1451E-01  0.4800E+02
     10.939  0.8944E-08  0.4800E+02
     11.060  0.0000E+00  0.4800E+02
     11.182  0.0000E+00  0.4800E+02
     11.303  0.0000E+00  0.4800E+02
     11.425  0.0000E+00  0.4800E+02
     11.546  0.0000E+00  0.4800E+02
     11.668  0.0000E+00  0.4800E+02
     11.789  0.0000E+00  0.4800E+02
     11.911  0.0000E+00  0.4800E+02
     12.032  0.0000E+00  0.4800E+02
     12.154  0.0000E+00  0.4800E+02
     12.275  0.0000E+00  0.4800E+02
