       N       E                     dE             d eps       ncg     rms          rms(c)
DAV:   1     0.320353916141E+03    0.32035E+03   -0.18858E+04  6000   0.175E+03
DAV:   2     0.147473242748E+02   -0.30561E+03   -0.30108E+03  6048   0.453E+02
DAV:   3    -0.617267232441E+01   -0.20920E+02   -0.20788E+02  7496   0.140E+02
DAV:   4    -0.673659915865E+01   -0.56393E+00   -0.56385E+00  6824   0.252E+01
DAV:   5    -0.676423762982E+01   -0.27638E-01   -0.27638E-01  9336   0.476E+00    0.178E+00
DAV:   6    -0.672023975736E+01    0.43998E-01   -0.43296E-02  7464   0.295E+00    0.942E-01
DAV:   7    -0.670127100879E+01    0.18969E-01   -0.51512E-02  7768   0.220E+00    0.247E-01
DAV:   8    -0.670146928852E+01   -0.19828E-03   -0.45286E-03  7032   0.730E-01    0.716E-02
DAV:   9    -0.670147708397E+01   -0.77955E-05   -0.36133E-04  9408   0.191E-01    0.217E-02
DAV:  10    -0.670147547594E+01    0.16080E-05   -0.23782E-05  7352   0.419E-02    0.148E-02
DAV:  11    -0.670147577012E+01   -0.29418E-06   -0.14144E-06  5488   0.125E-02
   1 F= -.67014758E+01 E0= -.66992782E+01  d E =-.439522E-02
