Sc1 Ag2                                 
   1.00000000000000     
     3.5382588899999998   -0.0003002500000000    0.0003515100000000
    -0.0003002500000000    3.5382578599999999    0.0003515000000000
    -1.7685347000000000   -1.7685357200000000    4.4628576000000004
   Sc   Ag
     1     2
Direct
     0.0000017400000019    0.9999997399999998    0.9999999099999997
     0.6666186900000000    0.6666196899999974    0.3332860499999981
     0.3333795699999982    0.3333805700000028    0.6667150299999989
 
  0.00000000E+00  0.00000000E+00  0.00000000E+00
  0.00000000E+00  0.00000000E+00  0.00000000E+00
  0.00000000E+00  0.00000000E+00  0.00000000E+00
