Si6 Pt2                                 
   1.00000000000000     
     3.7394509999999999   -6.4769189999999996    0.0000000000000000
     3.7394509999999999    6.4769189999999996    0.0000000000000000
     0.0000000000000000    0.0000000000000000    2.6918769999999999
   Si   Pt
     6     2
Direct
     0.1684049999999999    0.3368099999999998    0.2500000000000000
     0.6631900000000002    0.8315950000000001    0.2500000000000000
     0.1684049999999999    0.8315950000000001    0.2500000000000000
     0.8315950000000001    0.6631900000000002    0.7500000000000000
     0.3368099999999998    0.1684049999999999    0.7500000000000000
     0.8315950000000001    0.1684049999999999    0.7500000000000000
     0.3333330000000032    0.6666669999999968    0.7500000000000000
     0.6666669999999968    0.3333330000000032    0.2500000000000000
 
  0.00000000E+00  0.00000000E+00  0.00000000E+00
  0.00000000E+00  0.00000000E+00  0.00000000E+00
  0.00000000E+00  0.00000000E+00  0.00000000E+00
  0.00000000E+00  0.00000000E+00  0.00000000E+00
  0.00000000E+00  0.00000000E+00  0.00000000E+00
  0.00000000E+00  0.00000000E+00  0.00000000E+00
  0.00000000E+00  0.00000000E+00  0.00000000E+00
  0.00000000E+00  0.00000000E+00  0.00000000E+00
