       N       E                     dE             d eps       ncg     rms          rms(c)
DAV:   1     0.160419083512E+03    0.16042E+03   -0.20201E+04 15488   0.994E+02
DAV:   2    -0.389952922423E+02   -0.19941E+03   -0.18301E+03 17712   0.186E+02
DAV:   3    -0.475068063655E+02   -0.85115E+01   -0.83346E+01 18760   0.337E+01
DAV:   4    -0.475931071931E+02   -0.86301E-01   -0.86169E-01 18400   0.380E+00
DAV:   5    -0.475942202099E+02   -0.11130E-02   -0.11129E-02 18328   0.442E-01    0.186E+01
DAV:   6    -0.462526248824E+02    0.13416E+01   -0.88193E+00 16416   0.202E+01    0.129E+01
DAV:   7    -0.453855729590E+02    0.86705E+00   -0.17054E+00 16188   0.996E+00    0.556E+00
DAV:   8    -0.453369198115E+02    0.48653E-01   -0.24176E-01 17436   0.167E+00    0.151E+00
DAV:   9    -0.453163515947E+02    0.20568E-01   -0.27526E-02 17100   0.114E+00    0.415E-01
DAV:  10    -0.453162163508E+02    0.13524E-03   -0.39907E-03 18720   0.239E-01    0.193E-01
DAV:  11    -0.453162703556E+02   -0.54005E-04   -0.12796E-04 17308   0.423E-02    0.262E-02
DAV:  12    -0.453162655449E+02    0.48107E-05   -0.11485E-05 18496   0.156E-02    0.206E-02
DAV:  13    -0.453162654266E+02    0.11836E-06   -0.17438E-06 14480   0.804E-03
   1 F= -.45316265E+02 E0= -.45313224E+02  d E =-.608365E-02
