Si6Pt2
1.0
      3.7394510      -6.4769190       0.0000000
      3.7394510       6.4769190       0.0000000
      0.0000000       0.0000000       2.6918770
  Si    Pt  
  6     2   
Direct
      0.1684050       0.3368100       0.2500000
      0.6631900       0.8315950       0.2500000
      0.1684050       0.8315950       0.2500000
      0.8315950       0.6631900       0.7500000
      0.3368100       0.1684050       0.7500000
      0.8315950       0.1684050       0.7500000
      0.3333330       0.6666670       0.7500000
      0.6666670       0.3333330       0.2500000
