Si6 Pt2
1.0
   3.7394509999999999   -6.4769189999999996    0.0000000000000000
   3.7394509999999999    6.4769189999999996    0.0000000000000000
   0.0000000000000000    0.0000000000000000    2.6918769999999999
Si Pt
6 2
direct
   0.1684050000000000    0.3368100000000000    0.2500000000000000 Si
   0.6631899999999999    0.8315950000000000    0.2500000000000000 Si
   0.1684050000000000    0.8315950000000000    0.2500000000000000 Si
   0.8315950000000000    0.6631899999999999    0.7500000000000000 Si
   0.3368100000000000    0.1684050000000000    0.7500000000000000 Si
   0.8315950000000000    0.1684050000000000    0.7500000000000000 Si
   0.3333330000000000    0.6666670000000000    0.7500000000000000 Pt
   0.6666670000000000    0.3333330000000000    0.2500000000000000 Pt
