unknown system                          
           1
     3.739451   -6.476919    0.000000
     3.739451    6.476919    0.000000
     0.000000    0.000000    2.691877
   Si   Pt
     6     2
Direct configuration=     1
   0.16840500  0.33681000  0.25000000
   0.66319000  0.83159500  0.25000000
   0.16840500  0.83159500  0.25000000
   0.83159500  0.66319000  0.75000000
   0.33681000  0.16840500  0.75000000
   0.83159500  0.16840500  0.75000000
   0.33333300  0.66666700  0.75000000
   0.66666700  0.33333300  0.25000000
