   2   2   0   0
  0.1766533E+02  0.3683175E-09  0.3683175E-09  0.3683174E-09  0.5000000E-15
  1.000000000000000E-004
  CAR 
 unknown system                          
     11.64786389    -40.34645718  301      3.69706563      1.00000000
    -40.346  0.0000E+00  0.0000E+00
    -40.173  0.0000E+00  0.0000E+00
    -40.000  0.0000E+00  0.0000E+00
    -39.827  0.0000E+00  0.0000E+00
    -39.653  0.0000E+00  0.0000E+00
    -39.480  0.0000E+00  0.0000E+00
    -39.307  0.0000E+00  0.0000E+00
    -39.133  0.0000E+00  0.0000E+00
    -38.960  0.0000E+00  0.0000E+00
    -38.787  0.0000E+00  0.0000E+00
    -38.613  0.0000E+00  0.0000E+00
    -38.440  0.0000E+00  0.0000E+00
    -38.267  0.8529E-14  0.1478E-14
    -38.093  0.2232E-01  0.3868E-02
    -37.920  0.3298E+02  0.5720E+01
    -37.747  0.1613E+01  0.6000E+01
    -37.573  0.0000E+00  0.6000E+01
    -37.400  0.0000E+00  0.6000E+01
    -37.227  0.0000E+00  0.6000E+01
    -37.053  0.0000E+00  0.6000E+01
    -36.880  0.0000E+00  0.6000E+01
    -36.707  0.0000E+00  0.6000E+01
    -36.534  0.0000E+00  0.6000E+01
    -36.360  0.0000E+00  0.6000E+01
    -36.187  0.0000E+00  0.6000E+01
    -36.014  0.0000E+00  0.6000E+01
    -35.840  0.0000E+00  0.6000E+01
    -35.667  0.0000E+00  0.6000E+01
    -35.494  0.0000E+00  0.6000E+01
    -35.320  0.0000E+00  0.6000E+01
    -35.147  0.0000E+00  0.6000E+01
    -34.974  0.0000E+00  0.6000E+01
    -34.800  0.0000E+00  0.6000E+01
    -34.627  0.0000E+00  0.6000E+01
    -34.454  0.0000E+00  0.6000E+01
    -34.280  0.0000E+00  0.6000E+01
    -34.107  0.0000E+00  0.6000E+01
    -33.934  0.0000E+00  0.6000E+01
    -33.761  0.0000E+00  0.6000E+01
    -33.587  0.0000E+00  0.6000E+01
    -33.414  0.0000E+00  0.6000E+01
    -33.241  0.0000E+00  0.6000E+01
    -33.067  0.0000E+00  0.6000E+01
    -32.894  0.0000E+00  0.6000E+01
    -32.721  0.0000E+00  0.6000E+01
    -32.547  0.0000E+00  0.6000E+01
    -32.374  0.0000E+00  0.6000E+01
    -32.201  0.0000E+00  0.6000E+01
    -32.027  0.0000E+00  0.6000E+01
    -31.854  0.0000E+00  0.6000E+01
    -31.681  0.0000E+00  0.6000E+01
    -31.507  0.0000E+00  0.6000E+01
    -31.334  0.0000E+00  0.6000E+01
    -31.161  0.0000E+00  0.6000E+01
    -30.987  0.0000E+00  0.6000E+01
    -30.814  0.0000E+00  0.6000E+01
    -30.641  0.0000E+00  0.6000E+01
    -30.468  0.0000E+00  0.6000E+01
    -30.294  0.0000E+00  0.6000E+01
    -30.121  0.0000E+00  0.6000E+01
    -29.948  0.0000E+00  0.6000E+01
    -29.774  0.0000E+00  0.6000E+01
    -29.601  0.0000E+00  0.6000E+01
    -29.428  0.0000E+00  0.6000E+01
    -29.254  0.0000E+00  0.6000E+01
    -29.081  0.0000E+00  0.6000E+01
    -28.908  0.0000E+00  0.6000E+01
    -28.734  0.0000E+00  0.6000E+01
    -28.561  0.0000E+00  0.6000E+01
    -28.388  0.0000E+00  0.6000E+01
    -28.214  0.0000E+00  0.6000E+01
    -28.041  0.0000E+00  0.6000E+01
    -27.868  0.0000E+00  0.6000E+01
    -27.695  0.0000E+00  0.6000E+01
    -27.521  0.0000E+00  0.6000E+01
    -27.348  0.0000E+00  0.6000E+01
    -27.175  0.0000E+00  0.6000E+01
    -27.001  0.0000E+00  0.6000E+01
    -26.828  0.0000E+00  0.6000E+01
    -26.655  0.0000E+00  0.6000E+01
    -26.481  0.0000E+00  0.6000E+01
    -26.308  0.0000E+00  0.6000E+01
    -26.135  0.0000E+00  0.6000E+01
    -25.961  0.0000E+00  0.6000E+01
    -25.788  0.0000E+00  0.6000E+01
    -25.615  0.0000E+00  0.6000E+01
    -25.441  0.0000E+00  0.6000E+01
    -25.268  0.0000E+00  0.6000E+01
    -25.095  0.0000E+00  0.6000E+01
    -24.921  0.0000E+00  0.6000E+01
    -24.748  0.0000E+00  0.6000E+01
    -24.575  0.0000E+00  0.6000E+01
    -24.402  0.0000E+00  0.6000E+01
    -24.228  0.0000E+00  0.6000E+01
    -24.055  0.0000E+00  0.6000E+01
    -23.882  0.0000E+00  0.6000E+01
    -23.708  0.0000E+00  0.6000E+01
    -23.535  0.0000E+00  0.6000E+01
    -23.362  0.0000E+00  0.6000E+01
    -23.188  0.0000E+00  0.6000E+01
    -23.015  0.0000E+00  0.6000E+01
    -22.842  0.0000E+00  0.6000E+01
    -22.668  0.0000E+00  0.6000E+01
    -22.495  0.0000E+00  0.6000E+01
    -22.322  0.0000E+00  0.6000E+01
    -22.148  0.0000E+00  0.6000E+01
    -21.975  0.0000E+00  0.6000E+01
    -21.802  0.0000E+00  0.6000E+01
    -21.629  0.0000E+00  0.6000E+01
    -21.455  0.0000E+00  0.6000E+01
    -21.282  0.0000E+00  0.6000E+01
    -21.109  0.0000E+00  0.6000E+01
    -20.935  0.0000E+00  0.6000E+01
    -20.762  0.0000E+00  0.6000E+01
    -20.589  0.0000E+00  0.6000E+01
    -20.415  0.0000E+00  0.6000E+01
    -20.242  0.0000E+00  0.6000E+01
    -20.069  0.0000E+00  0.6000E+01
    -19.895  0.0000E+00  0.6000E+01
    -19.722  0.0000E+00  0.6000E+01
    -19.549  0.0000E+00  0.6000E+01
    -19.375  0.0000E+00  0.6000E+01
    -19.202  0.0000E+00  0.6000E+01
    -19.029  0.0000E+00  0.6000E+01
    -18.855  0.0000E+00  0.6000E+01
    -18.682  0.0000E+00  0.6000E+01
    -18.509  0.0000E+00  0.6000E+01
    -18.336  0.0000E+00  0.6000E+01
    -18.162  0.0000E+00  0.6000E+01
    -17.989  0.0000E+00  0.6000E+01
    -17.816  0.0000E+00  0.6000E+01
    -17.642  0.0000E+00  0.6000E+01
    -17.469  0.0000E+00  0.6000E+01
    -17.296  0.0000E+00  0.6000E+01
    -17.122  0.0000E+00  0.6000E+01
    -16.949  0.0000E+00  0.6000E+01
    -16.776  0.0000E+00  0.6000E+01
    -16.602  0.0000E+00  0.6000E+01
    -16.429  0.0000E+00  0.6000E+01
    -16.256  0.0000E+00  0.6000E+01
    -16.082  0.0000E+00  0.6000E+01
    -15.909  0.0000E+00  0.6000E+01
    -15.736  0.0000E+00  0.6000E+01
    -15.562  0.0000E+00  0.6000E+01
    -15.389  0.0000E+00  0.6000E+01
    -15.216  0.0000E+00  0.6000E+01
    -15.043  0.0000E+00  0.6000E+01
    -14.869  0.0000E+00  0.6000E+01
    -14.696  0.0000E+00  0.6000E+01
    -14.523  0.0000E+00  0.6000E+01
    -14.349  0.0000E+00  0.6000E+01
    -14.176  0.0000E+00  0.6000E+01
    -14.003  0.0000E+00  0.6000E+01
    -13.829  0.0000E+00  0.6000E+01
    -13.656  0.0000E+00  0.6000E+01
    -13.483  0.0000E+00  0.6000E+01
    -13.309  0.0000E+00  0.6000E+01
    -13.136  0.0000E+00  0.6000E+01
    -12.963  0.0000E+00  0.6000E+01
    -12.789  0.0000E+00  0.6000E+01
    -12.616  0.0000E+00  0.6000E+01
    -12.443  0.0000E+00  0.6000E+01
    -12.270  0.0000E+00  0.6000E+01
    -12.096  0.0000E+00  0.6000E+01
    -11.923  0.0000E+00  0.6000E+01
    -11.750  0.0000E+00  0.6000E+01
    -11.576  0.0000E+00  0.6000E+01
    -11.403  0.0000E+00  0.6000E+01
    -11.230  0.0000E+00  0.6000E+01
    -11.056  0.0000E+00  0.6000E+01
    -10.883  0.0000E+00  0.6000E+01
    -10.710  0.0000E+00  0.6000E+01
    -10.536  0.0000E+00  0.6000E+01
    -10.363  0.0000E+00  0.6000E+01
    -10.190  0.0000E+00  0.6000E+01
    -10.016  0.0000E+00  0.6000E+01
     -9.843  0.0000E+00  0.6000E+01
     -9.670  0.0000E+00  0.6000E+01
     -9.496  0.0000E+00  0.6000E+01
     -9.323  0.2150E-07  0.6000E+01
     -9.150  0.1252E-01  0.6002E+01
     -8.977  0.1850E+00  0.6034E+01
     -8.803  0.1799E+00  0.6065E+01
     -8.630  0.5420E+00  0.6159E+01
     -8.457  0.4308E+00  0.6234E+01
     -8.283  0.8025E+00  0.6373E+01
     -8.110  0.9587E+00  0.6539E+01
     -7.937  0.8512E+00  0.6687E+01
     -7.763  0.2477E+01  0.7116E+01
     -7.590  0.2418E+01  0.7535E+01
     -7.417  0.2616E+01  0.7988E+01
     -7.243  0.6660E-01  0.8000E+01
     -7.070  0.1506E-08  0.8000E+01
     -6.897  0.0000E+00  0.8000E+01
     -6.723  0.0000E+00  0.8000E+01
     -6.550  0.0000E+00  0.8000E+01
     -6.377  0.0000E+00  0.8000E+01
     -6.204  0.0000E+00  0.8000E+01
     -6.030  0.0000E+00  0.8000E+01
     -5.857  0.0000E+00  0.8000E+01
     -5.684  0.0000E+00  0.8000E+01
     -5.510  0.0000E+00  0.8000E+01
     -5.337  0.0000E+00  0.8000E+01
     -5.164  0.0000E+00  0.8000E+01
     -4.990  0.0000E+00  0.8000E+01
     -4.817  0.0000E+00  0.8000E+01
     -4.644  0.0000E+00  0.8000E+01
     -4.470  0.0000E+00  0.8000E+01
     -4.297  0.0000E+00  0.8000E+01
     -4.124  0.0000E+00  0.8000E+01
     -3.950  0.0000E+00  0.8000E+01
     -3.777  0.0000E+00  0.8000E+01
     -3.604  0.0000E+00  0.8000E+01
     -3.430  0.0000E+00  0.8000E+01
     -3.257  0.0000E+00  0.8000E+01
     -3.084  0.0000E+00  0.8000E+01
     -2.911  0.0000E+00  0.8000E+01
     -2.737  0.0000E+00  0.8000E+01
     -2.564  0.0000E+00  0.8000E+01
     -2.391  0.0000E+00  0.8000E+01
     -2.217  0.0000E+00  0.8000E+01
     -2.044  0.0000E+00  0.8000E+01
     -1.871  0.0000E+00  0.8000E+01
     -1.697  0.0000E+00  0.8000E+01
     -1.524  0.1573E-09  0.8000E+01
     -1.351  0.1420E-01  0.8002E+01
     -1.177  0.7704E-01  0.8016E+01
     -1.004  0.5287E+00  0.8107E+01
     -0.831  0.5917E+00  0.8210E+01
     -0.657  0.7257E+00  0.8336E+01
     -0.484  0.1241E+01  0.8551E+01
     -0.311  0.1825E+01  0.8867E+01
     -0.138  0.3211E+01  0.9424E+01
      0.036  0.1099E+00  0.9443E+01
      0.209  0.9118E+00  0.9601E+01
      0.382  0.7202E+00  0.9726E+01
      0.556  0.9670E+00  0.9893E+01
      0.729  0.1207E+01  0.1010E+02
      0.902  0.6237E+00  0.1021E+02
      1.076  0.2085E+00  0.1025E+02
      1.249  0.1050E+01  0.1043E+02
      1.422  0.1822E+01  0.1074E+02
      1.596  0.2077E+01  0.1110E+02
      1.769  0.6960E+00  0.1122E+02
      1.942  0.1195E+01  0.1143E+02
      2.116  0.2450E+01  0.1186E+02
      2.289  0.1665E+01  0.1215E+02
      2.462  0.2013E+01  0.1249E+02
      2.636  0.2453E+01  0.1292E+02
      2.809  0.1505E+01  0.1318E+02
      2.982  0.2593E+01  0.1363E+02
      3.155  0.6588E+00  0.1374E+02
      3.329  0.8022E+00  0.1388E+02
      3.502  0.6463E+00  0.1399E+02
      3.675  0.2977E-01  0.1400E+02
      3.849  0.1298E-07  0.1400E+02
      4.022  0.0000E+00  0.1400E+02
      4.195  0.0000E+00  0.1400E+02
      4.369  0.0000E+00  0.1400E+02
      4.542  0.0000E+00  0.1400E+02
      4.715  0.0000E+00  0.1400E+02
      4.889  0.0000E+00  0.1400E+02
      5.062  0.0000E+00  0.1400E+02
      5.235  0.0000E+00  0.1400E+02
      5.409  0.0000E+00  0.1400E+02
      5.582  0.0000E+00  0.1400E+02
      5.755  0.0000E+00  0.1400E+02
      5.928  0.0000E+00  0.1400E+02
      6.102  0.2589E-07  0.1400E+02
      6.275  0.3268E-01  0.1401E+02
      6.448  0.3494E-01  0.1401E+02
      6.622  0.3964E-07  0.1401E+02
      6.795  0.1254E-01  0.1401E+02
      6.968  0.6533E+00  0.1413E+02
      7.142  0.1243E-01  0.1413E+02
      7.315  0.2207E+00  0.1417E+02
      7.488  0.3377E+00  0.1423E+02
      7.662  0.2937E-02  0.1423E+02
      7.835  0.2633E+00  0.1427E+02
      8.008  0.1403E+01  0.1452E+02
      8.182  0.6810E+00  0.1463E+02
      8.355  0.1348E+01  0.1487E+02
      8.528  0.4252E+00  0.1494E+02
      8.702  0.6007E+00  0.1504E+02
      8.875  0.1848E+01  0.1537E+02
      9.048  0.8674E+00  0.1552E+02
      9.221  0.2221E+01  0.1590E+02
      9.395  0.5745E+00  0.1600E+02
      9.568  0.4899E-03  0.1600E+02
      9.741  0.0000E+00  0.1600E+02
      9.915  0.0000E+00  0.1600E+02
     10.088  0.0000E+00  0.1600E+02
     10.261  0.0000E+00  0.1600E+02
     10.435  0.0000E+00  0.1600E+02
     10.608  0.0000E+00  0.1600E+02
     10.781  0.0000E+00  0.1600E+02
     10.955  0.0000E+00  0.1600E+02
     11.128  0.0000E+00  0.1600E+02
     11.301  0.0000E+00  0.1600E+02
     11.475  0.0000E+00  0.1600E+02
     11.648  0.0000E+00  0.1600E+02
