       N       E                     dE             d eps       ncg     rms          rms(c)
DAV:   1     0.796874526836E+02    0.79687E+02   -0.10271E+04  8368   0.187E+03
DAV:   2    -0.488566660748E+01   -0.84573E+02   -0.83013E+02  9872   0.336E+02
DAV:   3    -0.883084337550E+01   -0.39452E+01   -0.37143E+01  9400   0.837E+01
DAV:   4    -0.890268288939E+01   -0.71840E-01   -0.71840E-01 13752   0.885E+00
DAV:   5    -0.890309895092E+01   -0.41606E-03   -0.41606E-03 11408   0.411E-01    0.441E+00
DAV:   6    -0.853206321826E+01    0.37104E+00   -0.97305E-01  8472   0.718E+00    0.364E+00
DAV:   7    -0.849190836771E+01    0.40155E-01   -0.23242E-01 11712   0.354E+00    0.224E+00
DAV:   8    -0.849243671998E+01   -0.52835E-03   -0.10859E-02 11312   0.151E+00    0.497E-01
DAV:   9    -0.849236200870E+01    0.74711E-04   -0.22348E-04 12192   0.179E-01    0.189E-01
DAV:  10    -0.849243378155E+01   -0.71773E-04   -0.11996E-04 10608   0.142E-01    0.603E-03
DAV:  11    -0.849243431040E+01   -0.52884E-06   -0.57043E-06 13384   0.289E-02
   1 F= -.84924343E+01 E0= -.84924343E+01  d E =-.154518E-10
