       N       E                     dE             d eps       ncg     rms          rms(c)
DAV:   1     0.484165038586E+03    0.48417E+03   -0.22916E+04 16504   0.320E+03
DAV:   2     0.833178035169E+01   -0.47583E+03   -0.44497E+03 13016   0.848E+02
DAV:   3    -0.384805755151E+02   -0.46812E+02   -0.45082E+02 14016   0.116E+02
DAV:   4    -0.448929780364E+02   -0.64124E+01   -0.64027E+01 16984   0.312E+01
DAV:   5    -0.453097693184E+02   -0.41679E+00   -0.41672E+00 18240   0.109E+01    0.923E+00
DAV:   6    -0.450082600110E+02    0.30151E+00   -0.62677E-01 17376   0.358E+00    0.587E+00
DAV:   7    -0.449838748656E+02    0.24385E-01   -0.29767E-01 15944   0.212E+00    0.159E+00
DAV:   8    -0.449843444326E+02   -0.46957E-03   -0.45250E-02 16792   0.121E+00    0.217E-01
DAV:   9    -0.449847794011E+02   -0.43497E-03   -0.31121E-03 14816   0.211E-01    0.201E-01
DAV:  10    -0.449849301256E+02   -0.15072E-03   -0.24962E-04 15272   0.676E-02    0.893E-02
DAV:  11    -0.449850224971E+02   -0.92372E-04   -0.17871E-04 14144   0.548E-02    0.194E-02
DAV:  12    -0.449850252838E+02   -0.27867E-05   -0.11236E-05 15712   0.150E-02    0.214E-02
DAV:  13    -0.449850324814E+02   -0.71976E-05   -0.51732E-06 14040   0.842E-03    0.788E-03
DAV:  14    -0.449850317174E+02    0.76399E-06   -0.23078E-07  9000   0.334E-03
   1 F= -.44985032E+02 E0= -.44985025E+02  d E =-.139570E-04
