unknown system                          
           1
     5.078385    0.000000    0.000000
     0.000000    5.078385    0.000000
     0.000000    0.000000    5.078385
   Be   P 
     6     4
Direct configuration=     1
   0.00000000  0.00000000  0.50000000
   0.00000000  0.50000000  0.00000000
   0.50000000  0.00000000  0.00000000
   0.50000000  0.00000000  0.50000000
   0.50000000  0.50000000  0.00000000
   0.00000000  0.50000000  0.50000000
   0.75000000  0.75000000  0.25000000
   0.25000000  0.75000000  0.75000000
   0.75000000  0.25000000  0.75000000
   0.25000000  0.25000000  0.25000000
