       N       E                     dE             d eps       ncg     rms          rms(c)
DAV:   1     0.205416763101E+04    0.20542E+04   -0.61299E+04 15256   0.223E+03
DAV:   2     0.344055651003E+03   -0.17101E+04   -0.16067E+04 13824   0.679E+02
DAV:   3    -0.410521467347E+02   -0.38511E+03   -0.35367E+03 13836   0.244E+02
DAV:   4    -0.751077867995E+02   -0.34056E+02   -0.33267E+02 15956   0.782E+01
DAV:   5    -0.760558752421E+02   -0.94809E+00   -0.94590E+00 16144   0.139E+01    0.216E+01
DAV:   6    -0.746419076218E+02    0.14140E+01   -0.23562E+00 19568   0.101E+01    0.830E+00
DAV:   7    -0.742106019455E+02    0.43131E+00   -0.77155E-01 18272   0.667E+00    0.532E+00
DAV:   8    -0.740648592125E+02    0.14574E+00   -0.44140E-01 16592   0.423E+00    0.785E-01
DAV:   9    -0.740619707531E+02    0.28885E-02   -0.58514E-02 16088   0.166E+00    0.483E-01
DAV:  10    -0.740600197169E+02    0.19510E-02   -0.12478E-02 16920   0.736E-01    0.155E-01
DAV:  11    -0.740601632000E+02   -0.14348E-03   -0.12917E-03 15976   0.239E-01    0.687E-02
DAV:  12    -0.740601940454E+02   -0.30845E-04   -0.23876E-04 18936   0.123E-01    0.455E-02
DAV:  13    -0.740601858761E+02    0.81693E-05   -0.63104E-05 16064   0.570E-02    0.158E-02
DAV:  14    -0.740601890622E+02   -0.31861E-05   -0.17714E-05 15824   0.220E-02    0.615E-03
DAV:  15    -0.740601886359E+02    0.42628E-06   -0.12287E-06 10352   0.787E-03
   1 F= -.74060189E+02 E0= -.74056649E+02  d E =-.707949E-02
