unknown system                          
           1
     5.742142    0.000000    3.077263
     2.871071    6.073901    1.538632
     0.002035    0.000000    6.892221
   Sn   Ir
     7     5
Direct configuration=     1
   0.72380992  0.00000000  0.57041159
   0.29422151  0.42958841  0.00000000
   0.72380992  0.57041159  0.00000000
   0.29422151  0.00000000  0.42958841
   0.41697711  0.50000000  0.50000000
   0.90260851  0.00000000  0.00000000
   0.91697711  0.50000000  0.50000000
   0.93279004  0.24482700  0.24482700
   0.17761704  0.75517300  0.24482700
   0.17761704  0.24482700  0.75517300
   0.42244304  0.75517300  0.75517300
   0.50290426  0.00000000  0.00000000
