  12  12   0   0
  0.4509826E+02  0.5543460E-09  0.8964434E-09  0.1089024E-08  0.5000000E-15
  1.000000000000000E-004
  CAR 
 unknown system                          
      6.14621278    -21.93028222  301      1.28546958      1.00000000
    -21.930  0.0000E+00  0.0000E+00
    -21.837  0.0000E+00  0.0000E+00
    -21.743  0.0000E+00  0.0000E+00
    -21.650  0.0000E+00  0.0000E+00
    -21.556  0.0000E+00  0.0000E+00
    -21.462  0.0000E+00  0.0000E+00
    -21.369  0.0000E+00  0.0000E+00
    -21.275  0.0000E+00  0.0000E+00
    -21.182  0.0000E+00  0.0000E+00
    -21.088  0.0000E+00  0.0000E+00
    -20.994  0.0000E+00  0.0000E+00
    -20.901  0.2630E-11  0.2462E-12
    -20.807  0.2756E-04  0.2579E-05
    -20.714  0.5791E+00  0.5420E-01
    -20.620  0.4388E+02  0.4161E+01
    -20.526  0.4063E+02  0.7963E+01
    -20.433  0.1727E+01  0.8125E+01
    -20.339  0.4390E+02  0.1223E+02
    -20.246  0.3929E+02  0.1591E+02
    -20.152  0.9499E+00  0.1600E+02
    -20.059  0.9581E-04  0.1600E+02
    -19.965  0.1443E-10  0.1600E+02
    -19.871  0.0000E+00  0.1600E+02
    -19.778  0.0000E+00  0.1600E+02
    -19.684  0.0000E+00  0.1600E+02
    -19.591  0.0000E+00  0.1600E+02
    -19.497  0.0000E+00  0.1600E+02
    -19.403  0.0000E+00  0.1600E+02
    -19.310  0.0000E+00  0.1600E+02
    -19.216  0.0000E+00  0.1600E+02
    -19.123  0.0000E+00  0.1600E+02
    -19.029  0.0000E+00  0.1600E+02
    -18.935  0.0000E+00  0.1600E+02
    -18.842  0.0000E+00  0.1600E+02
    -18.748  0.0000E+00  0.1600E+02
    -18.655  0.0000E+00  0.1600E+02
    -18.561  0.0000E+00  0.1600E+02
    -18.468  0.0000E+00  0.1600E+02
    -18.374  0.0000E+00  0.1600E+02
    -18.280  0.0000E+00  0.1600E+02
    -18.187  0.0000E+00  0.1600E+02
    -18.093  0.0000E+00  0.1600E+02
    -18.000  0.0000E+00  0.1600E+02
    -17.906  0.0000E+00  0.1600E+02
    -17.812  0.0000E+00  0.1600E+02
    -17.719  0.0000E+00  0.1600E+02
    -17.625  0.0000E+00  0.1600E+02
    -17.532  0.0000E+00  0.1600E+02
    -17.438  0.0000E+00  0.1600E+02
    -17.344  0.0000E+00  0.1600E+02
    -17.251  0.0000E+00  0.1600E+02
    -17.157  0.0000E+00  0.1600E+02
    -17.064  0.0000E+00  0.1600E+02
    -16.970  0.0000E+00  0.1600E+02
    -16.877  0.0000E+00  0.1600E+02
    -16.783  0.0000E+00  0.1600E+02
    -16.689  0.0000E+00  0.1600E+02
    -16.596  0.0000E+00  0.1600E+02
    -16.502  0.0000E+00  0.1600E+02
    -16.409  0.0000E+00  0.1600E+02
    -16.315  0.0000E+00  0.1600E+02
    -16.221  0.0000E+00  0.1600E+02
    -16.128  0.0000E+00  0.1600E+02
    -16.034  0.0000E+00  0.1600E+02
    -15.941  0.0000E+00  0.1600E+02
    -15.847  0.0000E+00  0.1600E+02
    -15.753  0.0000E+00  0.1600E+02
    -15.660  0.0000E+00  0.1600E+02
    -15.566  0.0000E+00  0.1600E+02
    -15.473  0.0000E+00  0.1600E+02
    -15.379  0.0000E+00  0.1600E+02
    -15.286  0.0000E+00  0.1600E+02
    -15.192  0.0000E+00  0.1600E+02
    -15.098  0.0000E+00  0.1600E+02
    -15.005  0.0000E+00  0.1600E+02
    -14.911  0.0000E+00  0.1600E+02
    -14.818  0.0000E+00  0.1600E+02
    -14.724  0.0000E+00  0.1600E+02
    -14.630  0.0000E+00  0.1600E+02
    -14.537  0.0000E+00  0.1600E+02
    -14.443  0.0000E+00  0.1600E+02
    -14.350  0.0000E+00  0.1600E+02
    -14.256  0.0000E+00  0.1600E+02
    -14.162  0.0000E+00  0.1600E+02
    -14.069  0.0000E+00  0.1600E+02
    -13.975  0.0000E+00  0.1600E+02
    -13.882  0.0000E+00  0.1600E+02
    -13.788  0.0000E+00  0.1600E+02
    -13.695  0.0000E+00  0.1600E+02
    -13.601  0.0000E+00  0.1600E+02
    -13.507  0.0000E+00  0.1600E+02
    -13.414  0.0000E+00  0.1600E+02
    -13.320  0.0000E+00  0.1600E+02
    -13.227  0.0000E+00  0.1600E+02
    -13.133  0.0000E+00  0.1600E+02
    -13.039  0.0000E+00  0.1600E+02
    -12.946  0.0000E+00  0.1600E+02
    -12.852  0.0000E+00  0.1600E+02
    -12.759  0.0000E+00  0.1600E+02
    -12.665  0.0000E+00  0.1600E+02
    -12.571  0.0000E+00  0.1600E+02
    -12.478  0.0000E+00  0.1600E+02
    -12.384  0.0000E+00  0.1600E+02
    -12.291  0.0000E+00  0.1600E+02
    -12.197  0.0000E+00  0.1600E+02
    -12.104  0.0000E+00  0.1600E+02
    -12.010  0.0000E+00  0.1600E+02
    -11.916  0.0000E+00  0.1600E+02
    -11.823  0.0000E+00  0.1600E+02
    -11.729  0.0000E+00  0.1600E+02
    -11.636  0.0000E+00  0.1600E+02
    -11.542  0.0000E+00  0.1600E+02
    -11.448  0.0000E+00  0.1600E+02
    -11.355  0.0000E+00  0.1600E+02
    -11.261  0.0000E+00  0.1600E+02
    -11.168  0.0000E+00  0.1600E+02
    -11.074  0.0000E+00  0.1600E+02
    -10.980  0.0000E+00  0.1600E+02
    -10.887  0.0000E+00  0.1600E+02
    -10.793  0.0000E+00  0.1600E+02
    -10.700  0.0000E+00  0.1600E+02
    -10.606  0.0000E+00  0.1600E+02
    -10.513  0.0000E+00  0.1600E+02
    -10.419  0.0000E+00  0.1600E+02
    -10.325  0.0000E+00  0.1600E+02
    -10.232  0.0000E+00  0.1600E+02
    -10.138  0.0000E+00  0.1600E+02
    -10.045  0.0000E+00  0.1600E+02
     -9.951  0.0000E+00  0.1600E+02
     -9.857  0.0000E+00  0.1600E+02
     -9.764  0.0000E+00  0.1600E+02
     -9.670  0.6514E-09  0.1600E+02
     -9.577  0.7251E-03  0.1600E+02
     -9.483  0.1791E+01  0.1617E+02
     -9.389  0.3661E+02  0.1959E+02
     -9.296  0.3709E+02  0.2306E+02
     -9.202  0.8979E+01  0.2391E+02
     -9.109  0.1005E+01  0.2400E+02
     -9.015  0.8138E-02  0.2400E+02
     -8.922  0.2716E-06  0.2400E+02
     -8.828  0.1123E-13  0.2400E+02
     -8.734  0.0000E+00  0.2400E+02
     -8.641  0.0000E+00  0.2400E+02
     -8.547  0.0000E+00  0.2400E+02
     -8.454  0.0000E+00  0.2400E+02
     -8.360  0.0000E+00  0.2400E+02
     -8.266  0.0000E+00  0.2400E+02
     -8.173  0.0000E+00  0.2400E+02
     -8.079  0.2777E-11  0.2400E+02
     -7.986  0.2528E-04  0.2400E+02
     -7.892  0.3674E+00  0.2403E+02
     -7.798  0.1952E+02  0.2586E+02
     -7.705  0.4147E+02  0.2974E+02
     -7.611  0.4377E+02  0.3384E+02
     -7.518  0.4315E+02  0.3788E+02
     -7.424  0.6651E+02  0.4410E+02
     -7.331  0.4645E+02  0.4845E+02
     -7.237  0.3363E+02  0.5160E+02
     -7.143  0.3962E+02  0.5530E+02
     -7.050  0.4598E+02  0.5961E+02
     -6.956  0.7124E+02  0.6627E+02
     -6.863  0.5645E+02  0.7156E+02
     -6.769  0.4727E+01  0.7200E+02
     -6.675  0.4595E-02  0.7200E+02
     -6.582  0.1329E-07  0.7200E+02
     -6.488  0.0000E+00  0.7200E+02
     -6.395  0.0000E+00  0.7200E+02
     -6.301  0.0000E+00  0.7200E+02
     -6.207  0.0000E+00  0.7200E+02
     -6.114  0.0000E+00  0.7200E+02
     -6.020  0.0000E+00  0.7200E+02
     -5.927  0.0000E+00  0.7200E+02
     -5.833  0.0000E+00  0.7200E+02
     -5.740  0.0000E+00  0.7200E+02
     -5.646  0.0000E+00  0.7200E+02
     -5.552  0.0000E+00  0.7200E+02
     -5.459  0.0000E+00  0.7200E+02
     -5.365  0.0000E+00  0.7200E+02
     -5.272  0.0000E+00  0.7200E+02
     -5.178  0.0000E+00  0.7200E+02
     -5.084  0.0000E+00  0.7200E+02
     -4.991  0.0000E+00  0.7200E+02
     -4.897  0.0000E+00  0.7200E+02
     -4.804  0.0000E+00  0.7200E+02
     -4.710  0.0000E+00  0.7200E+02
     -4.616  0.0000E+00  0.7200E+02
     -4.523  0.0000E+00  0.7200E+02
     -4.429  0.0000E+00  0.7200E+02
     -4.336  0.0000E+00  0.7200E+02
     -4.242  0.0000E+00  0.7200E+02
     -4.149  0.0000E+00  0.7200E+02
     -4.055  0.0000E+00  0.7200E+02
     -3.961  0.0000E+00  0.7200E+02
     -3.868  0.0000E+00  0.7200E+02
     -3.774  0.0000E+00  0.7200E+02
     -3.681  0.0000E+00  0.7200E+02
     -3.587  0.0000E+00  0.7200E+02
     -3.493  0.0000E+00  0.7200E+02
     -3.400  0.0000E+00  0.7200E+02
     -3.306  0.0000E+00  0.7200E+02
     -3.213  0.0000E+00  0.7200E+02
     -3.119  0.0000E+00  0.7200E+02
     -3.025  0.0000E+00  0.7200E+02
     -2.932  0.0000E+00  0.7200E+02
     -2.838  0.0000E+00  0.7200E+02
     -2.745  0.0000E+00  0.7200E+02
     -2.651  0.0000E+00  0.7200E+02
     -2.558  0.0000E+00  0.7200E+02
     -2.464  0.0000E+00  0.7200E+02
     -2.370  0.0000E+00  0.7200E+02
     -2.277  0.0000E+00  0.7200E+02
     -2.183  0.0000E+00  0.7200E+02
     -2.090  0.0000E+00  0.7200E+02
     -1.996  0.0000E+00  0.7200E+02
     -1.902  0.0000E+00  0.7200E+02
     -1.809  0.0000E+00  0.7200E+02
     -1.715  0.0000E+00  0.7200E+02
     -1.622  0.0000E+00  0.7200E+02
     -1.528  0.0000E+00  0.7200E+02
     -1.434  0.0000E+00  0.7200E+02
     -1.341  0.0000E+00  0.7200E+02
     -1.247  0.0000E+00  0.7200E+02
     -1.154  0.0000E+00  0.7200E+02
     -1.060  0.0000E+00  0.7200E+02
     -0.966  0.0000E+00  0.7200E+02
     -0.873  0.0000E+00  0.7200E+02
     -0.779  0.0000E+00  0.7200E+02
     -0.686  0.0000E+00  0.7200E+02
     -0.592  0.0000E+00  0.7200E+02
     -0.499  0.0000E+00  0.7200E+02
     -0.405  0.0000E+00  0.7200E+02
     -0.311  0.0000E+00  0.7200E+02
     -0.218  0.0000E+00  0.7200E+02
     -0.124  0.0000E+00  0.7200E+02
     -0.031  0.0000E+00  0.7200E+02
      0.063  0.2018E-07  0.7200E+02
      0.157  0.5006E-02  0.7200E+02
      0.250  0.2511E+01  0.7224E+02
      0.344  0.2362E+02  0.7445E+02
      0.437  0.2930E+02  0.7719E+02
      0.531  0.2407E+02  0.7944E+02
      0.625  0.2734E+02  0.8200E+02
      0.718  0.4232E+02  0.8596E+02
      0.812  0.5964E+02  0.9154E+02
      0.905  0.3905E+02  0.9520E+02
      0.999  0.7821E+01  0.9593E+02
      1.092  0.7718E+00  0.9600E+02
      1.186  0.7408E-02  0.9600E+02
      1.280  0.2319E-06  0.9600E+02
      1.373  0.8858E-14  0.9600E+02
      1.467  0.0000E+00  0.9600E+02
      1.560  0.0000E+00  0.9600E+02
      1.654  0.0000E+00  0.9600E+02
      1.748  0.0000E+00  0.9600E+02
      1.841  0.0000E+00  0.9600E+02
      1.935  0.0000E+00  0.9600E+02
      2.028  0.0000E+00  0.9600E+02
      2.122  0.0000E+00  0.9600E+02
      2.216  0.0000E+00  0.9600E+02
      2.309  0.0000E+00  0.9600E+02
      2.403  0.0000E+00  0.9600E+02
      2.496  0.0000E+00  0.9600E+02
      2.590  0.0000E+00  0.9600E+02
      2.683  0.1033E-09  0.9600E+02
      2.777  0.9093E-04  0.9600E+02
      2.871  0.1112E+00  0.9601E+02
      2.964  0.5648E+00  0.9606E+02
      3.058  0.3617E-01  0.9607E+02
      3.151  0.6527E-05  0.9607E+02
      3.245  0.3012E-10  0.9607E+02
      3.339  0.5781E-04  0.9607E+02
      3.432  0.1774E+00  0.9608E+02
      3.526  0.2226E+01  0.9629E+02
      3.619  0.6758E+00  0.9635E+02
      3.713  0.4973E+00  0.9640E+02
      3.807  0.2444E+01  0.9663E+02
      3.900  0.3194E+01  0.9693E+02
      3.994  0.9310E+00  0.9702E+02
      4.087  0.5332E+01  0.9752E+02
      4.181  0.1021E+02  0.9847E+02
      4.274  0.2204E+02  0.1005E+03
      4.368  0.2318E+02  0.1027E+03
      4.462  0.2131E+02  0.1047E+03
      4.555  0.1633E+02  0.1062E+03
      4.649  0.1550E+02  0.1077E+03
      4.742  0.1881E+02  0.1094E+03
      4.836  0.2003E+02  0.1113E+03
      4.930  0.7175E+01  0.1120E+03
      5.023  0.1820E+00  0.1120E+03
      5.117  0.2291E-04  0.1120E+03
      5.210  0.4325E-11  0.1120E+03
      5.304  0.0000E+00  0.1120E+03
      5.398  0.0000E+00  0.1120E+03
      5.491  0.0000E+00  0.1120E+03
      5.585  0.0000E+00  0.1120E+03
      5.678  0.0000E+00  0.1120E+03
      5.772  0.0000E+00  0.1120E+03
      5.865  0.0000E+00  0.1120E+03
      5.959  0.0000E+00  0.1120E+03
      6.053  0.0000E+00  0.1120E+03
      6.146  0.0000E+00  0.1120E+03
