unknown system                          
           1
    -4.407618    5.958669    4.059416
     4.732215   -5.955767    5.108501
     4.396535    5.947559   -4.055085
   H    I 
     8     8
Direct configuration=     1
   0.24558550  0.01081035  0.56637451
   0.55609351  0.48848175  0.73385338
   0.75437191  0.98945919  0.43333257
   0.44374185  0.51178029  0.26623222
   0.56160619  0.00013894  0.75959745
   0.75911406  0.49955758  0.06190839
   0.43874885  0.00002187  0.24050523
   0.24098111  0.50056378  0.93867759
   0.24335556  0.01383809  0.76175914
   0.74783812  0.48494714  0.72819315
   0.75647006  0.98658066  0.23800542
   0.25215864  0.51553324  0.27137448
   0.75539270  0.00062846  0.76259284
   0.76262500  0.50119711  0.25653085
   0.24433729  0.99835229  0.23747203
   0.23758063  0.49811025  0.74359075
