       N       E                     dE             d eps       ncg     rms          rms(c)
DAV:   1     0.898531641233E+02    0.89853E+02   -0.11736E+04 16064   0.216E+03
DAV:   2    -0.951525579609E+01   -0.99368E+02   -0.96461E+02 21704   0.387E+02
DAV:   3    -0.120270009768E+02   -0.25117E+01   -0.24123E+01 16896   0.799E+01
DAV:   4    -0.120507140367E+02   -0.23713E-01   -0.23713E-01 24448   0.635E+00
DAV:   5    -0.120508616770E+02   -0.14764E-03   -0.14764E-03 17840   0.257E-01    0.706E+00
DAV:   6    -0.104499856759E+02    0.16009E+01   -0.10637E+01 16000   0.266E+01    0.242E+00
DAV:   7    -0.104028270580E+02    0.47159E-01   -0.82371E-02 16192   0.395E+00    0.129E+00
DAV:   8    -0.103771311531E+02    0.25696E-01   -0.37432E-02 16000   0.348E+00    0.127E-01
DAV:   9    -0.103772387146E+02   -0.10756E-03   -0.18187E-03 22248   0.574E-01    0.550E-02
DAV:  10    -0.103772092182E+02    0.29496E-04   -0.38448E-04 16328   0.180E-01    0.580E-03
DAV:  11    -0.103772078935E+02    0.13248E-05   -0.10689E-05 17592   0.687E-02    0.180E-03
DAV:  12    -0.103772079204E+02   -0.26938E-07   -0.36617E-07 10080   0.812E-03
   1 F= -.10377208E+02 E0= -.10377208E+02  d E =-.604282E-25
