Mg1 Sn1                                 
   1.00000000000000     
     3.3319618599999998    0.0000000000000000    0.0000000000000000
     0.0000000000000000    3.3319618599999998    0.0000000000000000
     0.0000000000000000    0.0000000000000000    4.2286221299999998
   Mg   Sn
     1     1
Direct
     0.0000000000000000    0.0000000000000000    0.0000000000000000
     0.5000000000000000    0.5000000000000000    0.5000000000000000
 
  0.00000000E+00  0.00000000E+00  0.00000000E+00
  0.00000000E+00  0.00000000E+00  0.00000000E+00
