       N       E                     dE             d eps       ncg     rms          rms(c)
DAV:   1     0.648746625880E+03    0.64875E+03   -0.27369E+04 27488   0.171E+03
DAV:   2     0.458303776266E+01   -0.64416E+03   -0.62051E+03 24736   0.663E+02
DAV:   3    -0.367671774877E+02   -0.41350E+02   -0.36688E+02 38268   0.172E+02
DAV:   4    -0.389436765307E+02   -0.21765E+01   -0.20677E+01 38884   0.365E+01
DAV:   5    -0.389716055855E+02   -0.27929E-01   -0.27823E-01 38340   0.486E+00    0.367E+01
DAV:   6    -0.557565403561E+02   -0.16785E+02   -0.10482E+02 26992   0.140E+02    0.721E+01
DAV:   7    -0.403546982790E+02    0.15402E+02   -0.27153E+01 27836   0.484E+01    0.206E+01
DAV:   8    -0.354748036166E+02    0.48799E+01   -0.97148E+00 31768   0.393E+01    0.953E+00
DAV:   9    -0.354445551960E+02    0.30248E-01   -0.23295E+00 30304   0.164E+01    0.423E+00
DAV:  10    -0.353847188250E+02    0.59836E-01   -0.28425E-01 34288   0.690E+00    0.235E+00
DAV:  11    -0.353913746209E+02   -0.66558E-02   -0.30532E-02 35032   0.228E+00    0.182E+00
DAV:  12    -0.353928518307E+02   -0.14772E-02   -0.58677E-03 39512   0.944E-01    0.138E+00
DAV:  13    -0.353832159527E+02    0.96359E-02   -0.71456E-03 35036   0.148E+00    0.520E-01
DAV:  14    -0.353846573165E+02   -0.14414E-02   -0.10478E-03 31356   0.465E-01    0.620E-01
DAV:  15    -0.353829316813E+02    0.17256E-02   -0.12276E-03 33552   0.609E-01    0.169E-01
DAV:  16    -0.353828758445E+02    0.55837E-04   -0.47716E-04 41472   0.175E-01    0.576E-02
DAV:  17    -0.353828774051E+02   -0.15606E-05   -0.22065E-05 32124   0.378E-02    0.334E-02
DAV:  18    -0.353828785241E+02   -0.11190E-05   -0.15169E-06 17036   0.239E-02    0.150E-02
DAV:  19    -0.353828773335E+02    0.11906E-05   -0.11673E-06 15672   0.241E-02    0.125E-02
DAV:  20    -0.353828773840E+02   -0.50502E-07   -0.25175E-07 14108   0.632E-03
   1 F= -.35382877E+02 E0= -.35379790E+02  d E =-.617524E-02
