Y12Co4
1.0
      9.4963470       0.0000000       0.0000000
      0.0000000       6.3383020       0.0000000
      0.0000000       0.0007110       7.0126870
  Y     Co  
  12    4   
Direct
      0.4893440       0.3668080       0.0428920
      0.4878680       0.1415880       0.5461940
      0.9893440       0.6331920       0.9571080
      0.9878680       0.8584120       0.4538060
      0.3039120       0.8235810       0.1750450
      0.6685690       0.6854930       0.6771530
      0.8039120       0.1764190       0.8249550
      0.1685690       0.3145070       0.3228470
      0.3053590       0.6732080       0.6710290
      0.6685490       0.8327870       0.1740920
      0.8053590       0.3267920       0.3289710
      0.1685490       0.1672130       0.8259080
      0.5000130       0.5435100       0.3883990
      0.4875430       0.9579120       0.8898620
      0.0000130       0.4564900       0.6116010
      0.9875430       0.0420880       0.1101380
