       N       E                     dE             d eps       ncg     rms          rms(c)
DAV:   1     0.802755042366E+02    0.80276E+02   -0.84833E+03  4096   0.185E+03
DAV:   2    -0.278696103661E+00   -0.80554E+02   -0.80455E+02  4096   0.355E+02
DAV:   3    -0.259346580552E+01   -0.23148E+01   -0.23147E+01  4288   0.855E+01
DAV:   4    -0.262390960828E+01   -0.30444E-01   -0.30443E-01  5168   0.107E+01
DAV:   5    -0.262442599556E+01   -0.51639E-03   -0.51639E-03  4664   0.125E+00    0.286E-01
DAV:   6    -0.262352022995E+01    0.90577E-03   -0.10407E-03  5296   0.630E-01    0.192E-01
DAV:   7    -0.262287947159E+01    0.64076E-03   -0.23668E-03  6032   0.825E-01    0.232E-02
DAV:   8    -0.262286130209E+01    0.18170E-04   -0.13557E-04  4328   0.328E-01    0.399E-03
DAV:   9    -0.262286118070E+01    0.12138E-06   -0.23585E-06  2912   0.417E-02
   1 F= -.26228612E+01 E0= -.26221729E+01  d E =-.137662E-02
