Rb1 N3                                  
   1.00000000000000     
     5.5669702699999997    0.0000000000000000    0.0000000000000000
     0.0000000000000000    3.7467231900000000    0.0000000000000000
     0.0000000000000000    0.0000000000000000    3.7467231900000000
   Rb   N 
     1     3
Direct
     0.5000000000000000    0.5000000000000000    0.5000000000000000
     0.2123213500000034    0.0000000000000000    0.0000000000000000
     0.7876786499999966    0.0000000000000000    0.0000000000000000
     0.0000000000000000    0.0000000000000000    0.0000000000000000
 
  0.00000000E+00  0.00000000E+00  0.00000000E+00
  0.00000000E+00  0.00000000E+00  0.00000000E+00
  0.00000000E+00  0.00000000E+00  0.00000000E+00
  0.00000000E+00  0.00000000E+00  0.00000000E+00
