   4   4   0   0
  0.1953719E+02  0.5566970E-09  0.3746723E-09  0.3746723E-09  0.5000000E-15
  1.000000000000000E-004
  CAR 
 unknown system                          
     12.81455921    -27.56354995  301     -0.08961151      1.00000000
    -27.564  0.0000E+00  0.0000E+00
    -27.429  0.0000E+00  0.0000E+00
    -27.294  0.0000E+00  0.0000E+00
    -27.160  0.0000E+00  0.0000E+00
    -27.025  0.0000E+00  0.0000E+00
    -26.891  0.0000E+00  0.0000E+00
    -26.756  0.0000E+00  0.0000E+00
    -26.621  0.0000E+00  0.0000E+00
    -26.487  0.0000E+00  0.0000E+00
    -26.352  0.0000E+00  0.0000E+00
    -26.218  0.0000E+00  0.0000E+00
    -26.083  0.0000E+00  0.0000E+00
    -25.948  0.8856E-10  0.1192E-10
    -25.814  0.7104E-02  0.9562E-03
    -25.679  0.5915E+01  0.7971E+00
    -25.545  0.8896E+01  0.1994E+01
    -25.410  0.4150E-01  0.2000E+01
    -25.275  0.3468E-08  0.2000E+01
    -25.141  0.0000E+00  0.2000E+01
    -25.006  0.0000E+00  0.2000E+01
    -24.872  0.0000E+00  0.2000E+01
    -24.737  0.0000E+00  0.2000E+01
    -24.602  0.0000E+00  0.2000E+01
    -24.468  0.0000E+00  0.2000E+01
    -24.333  0.0000E+00  0.2000E+01
    -24.199  0.0000E+00  0.2000E+01
    -24.064  0.0000E+00  0.2000E+01
    -23.930  0.0000E+00  0.2000E+01
    -23.795  0.0000E+00  0.2000E+01
    -23.660  0.0000E+00  0.2000E+01
    -23.526  0.0000E+00  0.2000E+01
    -23.391  0.0000E+00  0.2000E+01
    -23.257  0.0000E+00  0.2000E+01
    -23.122  0.0000E+00  0.2000E+01
    -22.987  0.0000E+00  0.2000E+01
    -22.853  0.0000E+00  0.2000E+01
    -22.718  0.2011E-06  0.2000E+01
    -22.584  0.3602E+00  0.2048E+01
    -22.449  0.1355E+02  0.3872E+01
    -22.314  0.9527E+00  0.4000E+01
    -22.180  0.2864E-05  0.4000E+01
    -22.045  0.0000E+00  0.4000E+01
    -21.911  0.0000E+00  0.4000E+01
    -21.776  0.0000E+00  0.4000E+01
    -21.641  0.0000E+00  0.4000E+01
    -21.507  0.0000E+00  0.4000E+01
    -21.372  0.0000E+00  0.4000E+01
    -21.238  0.0000E+00  0.4000E+01
    -21.103  0.0000E+00  0.4000E+01
    -20.968  0.0000E+00  0.4000E+01
    -20.834  0.0000E+00  0.4000E+01
    -20.699  0.0000E+00  0.4000E+01
    -20.565  0.0000E+00  0.4000E+01
    -20.430  0.0000E+00  0.4000E+01
    -20.295  0.0000E+00  0.4000E+01
    -20.161  0.0000E+00  0.4000E+01
    -20.026  0.0000E+00  0.4000E+01
    -19.892  0.0000E+00  0.4000E+01
    -19.757  0.0000E+00  0.4000E+01
    -19.623  0.0000E+00  0.4000E+01
    -19.488  0.0000E+00  0.4000E+01
    -19.353  0.0000E+00  0.4000E+01
    -19.219  0.0000E+00  0.4000E+01
    -19.084  0.0000E+00  0.4000E+01
    -18.950  0.0000E+00  0.4000E+01
    -18.815  0.0000E+00  0.4000E+01
    -18.680  0.0000E+00  0.4000E+01
    -18.546  0.0000E+00  0.4000E+01
    -18.411  0.1255E-05  0.4000E+01
    -18.277  0.8777E+00  0.4118E+01
    -18.142  0.1367E+02  0.5957E+01
    -18.007  0.3168E+00  0.6000E+01
    -17.873  0.1320E-06  0.6000E+01
    -17.738  0.0000E+00  0.6000E+01
    -17.604  0.0000E+00  0.6000E+01
    -17.469  0.0000E+00  0.6000E+01
    -17.334  0.0000E+00  0.6000E+01
    -17.200  0.0000E+00  0.6000E+01
    -17.065  0.0000E+00  0.6000E+01
    -16.931  0.0000E+00  0.6000E+01
    -16.796  0.0000E+00  0.6000E+01
    -16.661  0.0000E+00  0.6000E+01
    -16.527  0.0000E+00  0.6000E+01
    -16.392  0.0000E+00  0.6000E+01
    -16.258  0.0000E+00  0.6000E+01
    -16.123  0.0000E+00  0.6000E+01
    -15.988  0.0000E+00  0.6000E+01
    -15.854  0.0000E+00  0.6000E+01
    -15.719  0.0000E+00  0.6000E+01
    -15.585  0.0000E+00  0.6000E+01
    -15.450  0.0000E+00  0.6000E+01
    -15.316  0.0000E+00  0.6000E+01
    -15.181  0.0000E+00  0.6000E+01
    -15.046  0.0000E+00  0.6000E+01
    -14.912  0.0000E+00  0.6000E+01
    -14.777  0.0000E+00  0.6000E+01
    -14.643  0.0000E+00  0.6000E+01
    -14.508  0.0000E+00  0.6000E+01
    -14.373  0.0000E+00  0.6000E+01
    -14.239  0.0000E+00  0.6000E+01
    -14.104  0.0000E+00  0.6000E+01
    -13.970  0.0000E+00  0.6000E+01
    -13.835  0.0000E+00  0.6000E+01
    -13.700  0.0000E+00  0.6000E+01
    -13.566  0.0000E+00  0.6000E+01
    -13.431  0.0000E+00  0.6000E+01
    -13.297  0.0000E+00  0.6000E+01
    -13.162  0.0000E+00  0.6000E+01
    -13.027  0.0000E+00  0.6000E+01
    -12.893  0.0000E+00  0.6000E+01
    -12.758  0.0000E+00  0.6000E+01
    -12.624  0.0000E+00  0.6000E+01
    -12.489  0.0000E+00  0.6000E+01
    -12.354  0.0000E+00  0.6000E+01
    -12.220  0.0000E+00  0.6000E+01
    -12.085  0.0000E+00  0.6000E+01
    -11.951  0.0000E+00  0.6000E+01
    -11.816  0.0000E+00  0.6000E+01
    -11.681  0.0000E+00  0.6000E+01
    -11.547  0.0000E+00  0.6000E+01
    -11.412  0.0000E+00  0.6000E+01
    -11.278  0.0000E+00  0.6000E+01
    -11.143  0.0000E+00  0.6000E+01
    -11.009  0.0000E+00  0.6000E+01
    -10.874  0.0000E+00  0.6000E+01
    -10.739  0.0000E+00  0.6000E+01
    -10.605  0.9922E-11  0.6000E+01
    -10.470  0.9633E-03  0.6000E+01
    -10.336  0.9451E+00  0.6127E+01
    -10.201  0.3892E+01  0.6651E+01
    -10.066  0.4922E+01  0.7314E+01
     -9.932  0.5967E+01  0.8117E+01
     -9.797  0.1172E+02  0.9694E+01
     -9.663  0.7386E+01  0.1069E+02
     -9.528  0.6140E+01  0.1151E+02
     -9.393  0.3458E+01  0.1198E+02
     -9.259  0.1479E+00  0.1200E+02
     -9.124  0.2703E-06  0.1200E+02
     -8.990  0.0000E+00  0.1200E+02
     -8.855  0.0000E+00  0.1200E+02
     -8.720  0.0000E+00  0.1200E+02
     -8.586  0.0000E+00  0.1200E+02
     -8.451  0.0000E+00  0.1200E+02
     -8.317  0.0000E+00  0.1200E+02
     -8.182  0.0000E+00  0.1200E+02
     -8.047  0.0000E+00  0.1200E+02
     -7.913  0.0000E+00  0.1200E+02
     -7.778  0.0000E+00  0.1200E+02
     -7.644  0.0000E+00  0.1200E+02
     -7.509  0.0000E+00  0.1200E+02
     -7.374  0.0000E+00  0.1200E+02
     -7.240  0.2678E-11  0.1200E+02
     -7.105  0.4815E-03  0.1200E+02
     -6.971  0.5333E+00  0.1207E+02
     -6.836  0.6507E+01  0.1295E+02
     -6.702  0.8618E+01  0.1411E+02
     -6.567  0.5636E+01  0.1487E+02
     -6.432  0.8482E+01  0.1601E+02
     -6.298  0.2207E+01  0.1630E+02
     -6.163  0.3396E+01  0.1676E+02
     -6.029  0.3085E+01  0.1718E+02
     -5.894  0.5822E+01  0.1796E+02
     -5.759  0.2910E+00  0.1800E+02
     -5.625  0.2185E-06  0.1800E+02
     -5.490  0.6195E-15  0.1800E+02
     -5.356  0.5149E-05  0.1800E+02
     -5.221  0.6383E-01  0.1801E+02
     -5.086  0.8781E+00  0.1813E+02
     -4.952  0.2216E+01  0.1843E+02
     -4.817  0.2123E+01  0.1871E+02
     -4.683  0.9804E+00  0.1884E+02
     -4.548  0.5686E+01  0.1961E+02
     -4.413  0.2280E+01  0.1991E+02
     -4.279  0.6317E+00  0.2000E+02
     -4.144  0.6092E-03  0.2000E+02
     -4.010  0.3415E-11  0.2000E+02
     -3.875  0.0000E+00  0.2000E+02
     -3.740  0.0000E+00  0.2000E+02
     -3.606  0.0000E+00  0.2000E+02
     -3.471  0.0000E+00  0.2000E+02
     -3.337  0.0000E+00  0.2000E+02
     -3.202  0.0000E+00  0.2000E+02
     -3.067  0.0000E+00  0.2000E+02
     -2.933  0.0000E+00  0.2000E+02
     -2.798  0.0000E+00  0.2000E+02
     -2.664  0.0000E+00  0.2000E+02
     -2.529  0.0000E+00  0.2000E+02
     -2.395  0.0000E+00  0.2000E+02
     -2.260  0.0000E+00  0.2000E+02
     -2.125  0.0000E+00  0.2000E+02
     -1.991  0.0000E+00  0.2000E+02
     -1.856  0.0000E+00  0.2000E+02
     -1.722  0.0000E+00  0.2000E+02
     -1.587  0.4040E-15  0.2000E+02
     -1.452  0.7714E-05  0.2000E+02
     -1.318  0.1779E+00  0.2002E+02
     -1.183  0.1144E+01  0.2018E+02
     -1.049  0.2222E+01  0.2048E+02
     -0.914  0.5851E+01  0.2126E+02
     -0.779  0.5731E+01  0.2204E+02
     -0.645  0.2975E+01  0.2244E+02
     -0.510  0.7591E+01  0.2346E+02
     -0.376  0.3839E+01  0.2397E+02
     -0.241  0.1879E+00  0.2400E+02
     -0.106  0.2009E-04  0.2400E+02
      0.028  0.0000E+00  0.2400E+02
      0.163  0.0000E+00  0.2400E+02
      0.297  0.0000E+00  0.2400E+02
      0.432  0.0000E+00  0.2400E+02
      0.567  0.0000E+00  0.2400E+02
      0.701  0.0000E+00  0.2400E+02
      0.836  0.0000E+00  0.2400E+02
      0.970  0.0000E+00  0.2400E+02
      1.105  0.0000E+00  0.2400E+02
      1.240  0.0000E+00  0.2400E+02
      1.374  0.0000E+00  0.2400E+02
      1.509  0.0000E+00  0.2400E+02
      1.643  0.0000E+00  0.2400E+02
      1.778  0.0000E+00  0.2400E+02
      1.912  0.0000E+00  0.2400E+02
      2.047  0.0000E+00  0.2400E+02
      2.182  0.0000E+00  0.2400E+02
      2.316  0.0000E+00  0.2400E+02
      2.451  0.0000E+00  0.2400E+02
      2.585  0.0000E+00  0.2400E+02
      2.720  0.0000E+00  0.2400E+02
      2.855  0.0000E+00  0.2400E+02
      2.989  0.0000E+00  0.2400E+02
      3.124  0.0000E+00  0.2400E+02
      3.258  0.4100E-10  0.2400E+02
      3.393  0.1624E-02  0.2400E+02
      3.528  0.2189E+00  0.2403E+02
      3.662  0.4161E-01  0.2404E+02
      3.797  0.6630E+00  0.2412E+02
      3.931  0.8372E+00  0.2424E+02
      4.066  0.1220E+01  0.2440E+02
      4.201  0.1683E+01  0.2463E+02
      4.335  0.2417E+01  0.2495E+02
      4.470  0.2313E+01  0.2526E+02
      4.604  0.2076E+01  0.2554E+02
      4.739  0.3911E+01  0.2607E+02
      4.874  0.4726E+01  0.2671E+02
      5.008  0.4658E+01  0.2733E+02
      5.143  0.3643E+01  0.2782E+02
      5.277  0.2673E+01  0.2818E+02
      5.412  0.2043E+01  0.2846E+02
      5.546  0.1542E+01  0.2867E+02
      5.681  0.4610E+00  0.2873E+02
      5.816  0.3195E+00  0.2877E+02
      5.950  0.1198E+01  0.2893E+02
      6.085  0.1114E+01  0.2908E+02
      6.219  0.1891E+01  0.2934E+02
      6.354  0.2021E+01  0.2961E+02
      6.489  0.1752E+01  0.2984E+02
      6.623  0.1423E+01  0.3004E+02
      6.758  0.2163E+01  0.3033E+02
      6.892  0.1477E+01  0.3053E+02
      7.027  0.7828E+00  0.3063E+02
      7.162  0.2335E+01  0.3095E+02
      7.296  0.2663E+01  0.3130E+02
      7.431  0.2291E+01  0.3161E+02
      7.565  0.1147E+01  0.3177E+02
      7.700  0.3983E+01  0.3230E+02
      7.835  0.2731E+01  0.3267E+02
      7.969  0.3207E+01  0.3310E+02
      8.104  0.2072E+01  0.3338E+02
      8.238  0.1265E+01  0.3355E+02
      8.373  0.1732E+01  0.3378E+02
      8.508  0.3068E+01  0.3420E+02
      8.642  0.3560E+01  0.3468E+02
      8.777  0.2128E+01  0.3496E+02
      8.911  0.4032E+01  0.3551E+02
      9.046  0.3335E+01  0.3595E+02
      9.181  0.3639E+01  0.3644E+02
      9.315  0.4460E+01  0.3704E+02
      9.450  0.2954E+01  0.3744E+02
      9.584  0.4546E+01  0.3805E+02
      9.719  0.2182E+01  0.3835E+02
      9.853  0.2106E+01  0.3863E+02
      9.988  0.2864E+01  0.3902E+02
     10.123  0.1222E+01  0.3918E+02
     10.257  0.8001E+00  0.3929E+02
     10.392  0.2440E+01  0.3962E+02
     10.526  0.9719E+00  0.3975E+02
     10.661  0.1142E+01  0.3990E+02
     10.796  0.3730E+00  0.3995E+02
     10.930  0.2383E+00  0.3998E+02
     11.065  0.1174E+00  0.4000E+02
     11.199  0.4926E-03  0.4000E+02
     11.334  0.1422E-10  0.4000E+02
     11.469  0.0000E+00  0.4000E+02
     11.603  0.0000E+00  0.4000E+02
     11.738  0.0000E+00  0.4000E+02
     11.872  0.0000E+00  0.4000E+02
     12.007  0.0000E+00  0.4000E+02
     12.142  0.0000E+00  0.4000E+02
     12.276  0.0000E+00  0.4000E+02
     12.411  0.0000E+00  0.4000E+02
     12.545  0.0000E+00  0.4000E+02
     12.680  0.0000E+00  0.4000E+02
     12.815  0.0000E+00  0.4000E+02
