       N       E                     dE             d eps       ncg     rms          rms(c)
DAV:   1     0.944423091310E+02    0.94442E+02   -0.68019E+03  5184   0.123E+03
DAV:   2     0.137326762143E+01   -0.93069E+02   -0.86683E+02  7236   0.184E+02
DAV:   3    -0.536371388205E+01   -0.67370E+01   -0.67052E+01  6608   0.560E+01
DAV:   4    -0.559103656131E+01   -0.22732E+00   -0.22717E+00  8228   0.100E+01
DAV:   5    -0.559310307013E+01   -0.20665E-02   -0.20665E-02  6740   0.100E+00    0.260E+00
DAV:   6    -0.548099692086E+01    0.11211E+00   -0.16742E-01  6204   0.196E+00    0.181E+00
DAV:   7    -0.547167371529E+01    0.93232E-02   -0.13994E-01  6388   0.193E+00    0.811E-01
DAV:   8    -0.548018028263E+01   -0.85066E-02   -0.14241E-02  6256   0.775E-01    0.832E-02
DAV:   9    -0.548057450049E+01   -0.39422E-03   -0.59932E-04  7168   0.147E-01    0.755E-02
DAV:  10    -0.548094377854E+01   -0.36928E-03   -0.49741E-04  5980   0.148E-01    0.526E-02
DAV:  11    -0.548095232934E+01   -0.85508E-05   -0.24324E-05  6756   0.342E-02    0.892E-03
DAV:  12    -0.548095823440E+01   -0.59051E-05   -0.77176E-06  5972   0.207E-02    0.203E-03
DAV:  13    -0.548095864498E+01   -0.41059E-06   -0.64168E-07  4848   0.620E-03
   1 F= -.54809586E+01 E0= -.54809586E+01  d E =-.154356E-12
