Si4 Rh4                                 
   1.00000000000000     
     4.5675058699999997    0.0000000000000000    0.0000000000000000
     0.0000000000000000    4.1734469299999999   -1.8501510299999999
     0.0000000000000000    0.0297741700000000    5.5432648699999998
   Si   Rh
     4     4
Direct
     0.6457070299999970    0.2698548500000015    0.0545485199999973
     0.1457070299999970    0.2301451499999985    0.4454514800000027
     0.3542929700000030    0.7301451499999985    0.9454514800000027
     0.8542929700000030    0.7698548500000015    0.5545485199999973
     0.6427889699999980    0.3205378899999971    0.6203914100000034
     0.1427889699999980    0.1794621100000029    0.8796085899999966
     0.3572110300000020    0.6794621100000029    0.3796085899999966
     0.8572110300000020    0.8205378899999971    0.1203914100000034
 
  0.00000000E+00  0.00000000E+00  0.00000000E+00
  0.00000000E+00  0.00000000E+00  0.00000000E+00
  0.00000000E+00  0.00000000E+00  0.00000000E+00
  0.00000000E+00  0.00000000E+00  0.00000000E+00
  0.00000000E+00  0.00000000E+00  0.00000000E+00
  0.00000000E+00  0.00000000E+00  0.00000000E+00
  0.00000000E+00  0.00000000E+00  0.00000000E+00
  0.00000000E+00  0.00000000E+00  0.00000000E+00
