   8   8   0   0
  0.1323983E+02  0.4567506E-09  0.4565164E-09  0.5543345E-09  0.5000000E-15
  1.000000000000000E-004
  CAR 
 unknown system                          
     24.26494029    -37.89700514  301     12.02305441      1.00000000
    -37.897  0.0000E+00  0.0000E+00
    -37.690  0.0000E+00  0.0000E+00
    -37.483  0.0000E+00  0.0000E+00
    -37.275  0.0000E+00  0.0000E+00
    -37.068  0.0000E+00  0.0000E+00
    -36.861  0.0000E+00  0.0000E+00
    -36.654  0.0000E+00  0.0000E+00
    -36.447  0.0000E+00  0.0000E+00
    -36.239  0.0000E+00  0.0000E+00
    -36.032  0.0000E+00  0.0000E+00
    -35.825  0.0000E+00  0.0000E+00
    -35.618  0.0000E+00  0.0000E+00
    -35.411  0.0000E+00  0.0000E+00
    -35.203  0.5491E-03  0.1138E-03
    -34.996  0.2959E+02  0.6132E+01
    -34.789  0.6254E+02  0.1909E+02
    -34.582  0.2370E+02  0.2400E+02
    -34.374  0.1928E-04  0.2400E+02
    -34.167  0.0000E+00  0.2400E+02
    -33.960  0.0000E+00  0.2400E+02
    -33.753  0.0000E+00  0.2400E+02
    -33.546  0.0000E+00  0.2400E+02
    -33.338  0.0000E+00  0.2400E+02
    -33.131  0.0000E+00  0.2400E+02
    -32.924  0.0000E+00  0.2400E+02
    -32.717  0.0000E+00  0.2400E+02
    -32.510  0.0000E+00  0.2400E+02
    -32.302  0.0000E+00  0.2400E+02
    -32.095  0.0000E+00  0.2400E+02
    -31.888  0.0000E+00  0.2400E+02
    -31.681  0.0000E+00  0.2400E+02
    -31.474  0.0000E+00  0.2400E+02
    -31.266  0.0000E+00  0.2400E+02
    -31.059  0.0000E+00  0.2400E+02
    -30.852  0.0000E+00  0.2400E+02
    -30.645  0.0000E+00  0.2400E+02
    -30.438  0.0000E+00  0.2400E+02
    -30.230  0.0000E+00  0.2400E+02
    -30.023  0.0000E+00  0.2400E+02
    -29.816  0.0000E+00  0.2400E+02
    -29.609  0.0000E+00  0.2400E+02
    -29.402  0.0000E+00  0.2400E+02
    -29.194  0.0000E+00  0.2400E+02
    -28.987  0.0000E+00  0.2400E+02
    -28.780  0.0000E+00  0.2400E+02
    -28.573  0.0000E+00  0.2400E+02
    -28.366  0.0000E+00  0.2400E+02
    -28.158  0.0000E+00  0.2400E+02
    -27.951  0.0000E+00  0.2400E+02
    -27.744  0.0000E+00  0.2400E+02
    -27.537  0.0000E+00  0.2400E+02
    -27.329  0.0000E+00  0.2400E+02
    -27.122  0.0000E+00  0.2400E+02
    -26.915  0.0000E+00  0.2400E+02
    -26.708  0.0000E+00  0.2400E+02
    -26.501  0.0000E+00  0.2400E+02
    -26.293  0.0000E+00  0.2400E+02
    -26.086  0.0000E+00  0.2400E+02
    -25.879  0.0000E+00  0.2400E+02
    -25.672  0.0000E+00  0.2400E+02
    -25.465  0.0000E+00  0.2400E+02
    -25.257  0.0000E+00  0.2400E+02
    -25.050  0.0000E+00  0.2400E+02
    -24.843  0.0000E+00  0.2400E+02
    -24.636  0.0000E+00  0.2400E+02
    -24.429  0.0000E+00  0.2400E+02
    -24.221  0.0000E+00  0.2400E+02
    -24.014  0.0000E+00  0.2400E+02
    -23.807  0.0000E+00  0.2400E+02
    -23.600  0.0000E+00  0.2400E+02
    -23.393  0.0000E+00  0.2400E+02
    -23.185  0.0000E+00  0.2400E+02
    -22.978  0.0000E+00  0.2400E+02
    -22.771  0.0000E+00  0.2400E+02
    -22.564  0.0000E+00  0.2400E+02
    -22.357  0.0000E+00  0.2400E+02
    -22.149  0.0000E+00  0.2400E+02
    -21.942  0.0000E+00  0.2400E+02
    -21.735  0.0000E+00  0.2400E+02
    -21.528  0.0000E+00  0.2400E+02
    -21.320  0.0000E+00  0.2400E+02
    -21.113  0.0000E+00  0.2400E+02
    -20.906  0.0000E+00  0.2400E+02
    -20.699  0.0000E+00  0.2400E+02
    -20.492  0.0000E+00  0.2400E+02
    -20.284  0.0000E+00  0.2400E+02
    -20.077  0.0000E+00  0.2400E+02
    -19.870  0.0000E+00  0.2400E+02
    -19.663  0.0000E+00  0.2400E+02
    -19.456  0.0000E+00  0.2400E+02
    -19.248  0.0000E+00  0.2400E+02
    -19.041  0.0000E+00  0.2400E+02
    -18.834  0.0000E+00  0.2400E+02
    -18.627  0.0000E+00  0.2400E+02
    -18.420  0.0000E+00  0.2400E+02
    -18.212  0.0000E+00  0.2400E+02
    -18.005  0.0000E+00  0.2400E+02
    -17.798  0.0000E+00  0.2400E+02
    -17.591  0.0000E+00  0.2400E+02
    -17.384  0.0000E+00  0.2400E+02
    -17.176  0.0000E+00  0.2400E+02
    -16.969  0.0000E+00  0.2400E+02
    -16.762  0.0000E+00  0.2400E+02
    -16.555  0.0000E+00  0.2400E+02
    -16.348  0.0000E+00  0.2400E+02
    -16.140  0.0000E+00  0.2400E+02
    -15.933  0.0000E+00  0.2400E+02
    -15.726  0.0000E+00  0.2400E+02
    -15.519  0.0000E+00  0.2400E+02
    -15.311  0.0000E+00  0.2400E+02
    -15.104  0.0000E+00  0.2400E+02
    -14.897  0.0000E+00  0.2400E+02
    -14.690  0.0000E+00  0.2400E+02
    -14.483  0.0000E+00  0.2400E+02
    -14.275  0.0000E+00  0.2400E+02
    -14.068  0.0000E+00  0.2400E+02
    -13.861  0.0000E+00  0.2400E+02
    -13.654  0.0000E+00  0.2400E+02
    -13.447  0.0000E+00  0.2400E+02
    -13.239  0.0000E+00  0.2400E+02
    -13.032  0.0000E+00  0.2400E+02
    -12.825  0.0000E+00  0.2400E+02
    -12.618  0.0000E+00  0.2400E+02
    -12.411  0.0000E+00  0.2400E+02
    -12.203  0.0000E+00  0.2400E+02
    -11.996  0.0000E+00  0.2400E+02
    -11.789  0.0000E+00  0.2400E+02
    -11.582  0.0000E+00  0.2400E+02
    -11.375  0.0000E+00  0.2400E+02
    -11.167  0.0000E+00  0.2400E+02
    -10.960  0.0000E+00  0.2400E+02
    -10.753  0.0000E+00  0.2400E+02
    -10.546  0.0000E+00  0.2400E+02
    -10.339  0.0000E+00  0.2400E+02
    -10.131  0.0000E+00  0.2400E+02
     -9.924  0.0000E+00  0.2400E+02
     -9.717  0.0000E+00  0.2400E+02
     -9.510  0.0000E+00  0.2400E+02
     -9.303  0.0000E+00  0.2400E+02
     -9.095  0.0000E+00  0.2400E+02
     -8.888  0.0000E+00  0.2400E+02
     -8.681  0.0000E+00  0.2400E+02
     -8.474  0.0000E+00  0.2400E+02
     -8.266  0.0000E+00  0.2400E+02
     -8.059  0.0000E+00  0.2400E+02
     -7.852  0.0000E+00  0.2400E+02
     -7.645  0.0000E+00  0.2400E+02
     -7.438  0.0000E+00  0.2400E+02
     -7.230  0.0000E+00  0.2400E+02
     -7.023  0.0000E+00  0.2400E+02
     -6.816  0.0000E+00  0.2400E+02
     -6.609  0.0000E+00  0.2400E+02
     -6.402  0.0000E+00  0.2400E+02
     -6.194  0.0000E+00  0.2400E+02
     -5.987  0.0000E+00  0.2400E+02
     -5.780  0.0000E+00  0.2400E+02
     -5.573  0.0000E+00  0.2400E+02
     -5.366  0.0000E+00  0.2400E+02
     -5.158  0.0000E+00  0.2400E+02
     -4.951  0.0000E+00  0.2400E+02
     -4.744  0.0000E+00  0.2400E+02
     -4.537  0.0000E+00  0.2400E+02
     -4.330  0.0000E+00  0.2400E+02
     -4.122  0.0000E+00  0.2400E+02
     -3.915  0.0000E+00  0.2400E+02
     -3.708  0.0000E+00  0.2400E+02
     -3.501  0.0000E+00  0.2400E+02
     -3.294  0.0000E+00  0.2400E+02
     -3.086  0.0000E+00  0.2400E+02
     -2.879  0.0000E+00  0.2400E+02
     -2.672  0.0000E+00  0.2400E+02
     -2.465  0.0000E+00  0.2400E+02
     -2.257  0.0000E+00  0.2400E+02
     -2.050  0.0000E+00  0.2400E+02
     -1.843  0.0000E+00  0.2400E+02
     -1.636  0.0000E+00  0.2400E+02
     -1.429  0.0000E+00  0.2400E+02
     -1.221  0.0000E+00  0.2400E+02
     -1.014  0.1202E-13  0.2400E+02
     -0.807  0.4498E-02  0.2400E+02
     -0.600  0.6164E-01  0.2401E+02
     -0.393  0.4245E+00  0.2410E+02
     -0.185  0.6351E+00  0.2423E+02
      0.022  0.2507E+00  0.2429E+02
      0.229  0.9739E+00  0.2449E+02
      0.436  0.1232E+01  0.2474E+02
      0.643  0.3942E+00  0.2482E+02
      0.851  0.1081E+01  0.2505E+02
      1.058  0.1582E+01  0.2538E+02
      1.265  0.1538E+01  0.2569E+02
      1.472  0.1541E+01  0.2601E+02
      1.679  0.1757E+01  0.2638E+02
      1.887  0.2497E+01  0.2690E+02
      2.094  0.1996E+01  0.2731E+02
      2.301  0.2006E+01  0.2772E+02
      2.508  0.1990E+01  0.2814E+02
      2.715  0.1754E+01  0.2850E+02
      2.923  0.1188E+01  0.2875E+02
      3.130  0.2232E+01  0.2921E+02
      3.337  0.3888E+01  0.3001E+02
      3.544  0.3108E+01  0.3066E+02
      3.751  0.2255E+01  0.3113E+02
      3.959  0.1422E+01  0.3142E+02
      4.166  0.1981E+01  0.3183E+02
      4.373  0.4929E+00  0.3193E+02
      4.580  0.2556E+00  0.3199E+02
      4.788  0.3496E+00  0.3206E+02
      4.995  0.1477E+01  0.3236E+02
      5.202  0.1873E+01  0.3275E+02
      5.409  0.3414E+01  0.3346E+02
      5.616  0.4084E+01  0.3431E+02
      5.824  0.3773E+01  0.3509E+02
      6.031  0.4461E+01  0.3601E+02
      6.238  0.4645E+01  0.3698E+02
      6.445  0.4596E+01  0.3793E+02
      6.652  0.3753E+01  0.3871E+02
      6.860  0.4445E+01  0.3963E+02
      7.067  0.7289E+01  0.4114E+02
      7.274  0.7205E+01  0.4263E+02
      7.481  0.7644E+01  0.4421E+02
      7.688  0.1021E+02  0.4633E+02
      7.896  0.1033E+02  0.4847E+02
      8.103  0.1213E+02  0.5098E+02
      8.310  0.1229E+02  0.5353E+02
      8.517  0.1096E+02  0.5580E+02
      8.724  0.9893E+01  0.5785E+02
      8.932  0.7568E+01  0.5942E+02
      9.139  0.5618E+01  0.6058E+02
      9.346  0.8865E+01  0.6242E+02
      9.553  0.5834E+01  0.6363E+02
      9.760  0.7903E+01  0.6527E+02
      9.968  0.8746E+01  0.6708E+02
     10.175  0.6207E+01  0.6836E+02
     10.382  0.8129E+01  0.7005E+02
     10.589  0.5141E+01  0.7111E+02
     10.797  0.5933E+01  0.7234E+02
     11.004  0.4908E+01  0.7336E+02
     11.211  0.4216E+01  0.7423E+02
     11.418  0.3997E+01  0.7506E+02
     11.625  0.2944E+01  0.7567E+02
     11.833  0.1090E+01  0.7590E+02
     12.040  0.5704E+00  0.7602E+02
     12.247  0.8447E+00  0.7619E+02
     12.454  0.1481E+01  0.7650E+02
     12.661  0.3834E+01  0.7729E+02
     12.869  0.2913E+01  0.7790E+02
     13.076  0.3648E+01  0.7865E+02
     13.283  0.3742E+01  0.7943E+02
     13.490  0.3655E+01  0.8018E+02
     13.697  0.2850E+01  0.8078E+02
     13.905  0.2978E+01  0.8139E+02
     14.112  0.4066E+01  0.8224E+02
     14.319  0.1855E+01  0.8262E+02
     14.526  0.3491E+01  0.8334E+02
     14.733  0.2447E+01  0.8385E+02
     14.941  0.3637E+01  0.8460E+02
     15.148  0.3322E+01  0.8529E+02
     15.355  0.2872E+01  0.8589E+02
     15.562  0.3245E+01  0.8656E+02
     15.769  0.4214E+01  0.8743E+02
     15.977  0.3457E+01  0.8815E+02
     16.184  0.4005E+01  0.8898E+02
     16.391  0.3187E+01  0.8964E+02
     16.598  0.3815E+01  0.9043E+02
     16.806  0.4391E+01  0.9134E+02
     17.013  0.4654E+01  0.9230E+02
     17.220  0.3539E+01  0.9304E+02
     17.427  0.3962E+01  0.9386E+02
     17.634  0.4263E+01  0.9474E+02
     17.842  0.4333E+01  0.9564E+02
     18.049  0.3436E+01  0.9635E+02
     18.256  0.4143E+01  0.9721E+02
     18.463  0.3800E+01  0.9800E+02
     18.670  0.3903E+01  0.9881E+02
     18.878  0.3218E+01  0.9947E+02
     19.085  0.3180E+01  0.1001E+03
     19.292  0.2737E+01  0.1007E+03
     19.499  0.4054E+01  0.1015E+03
     19.706  0.2310E+01  0.1020E+03
     19.914  0.3720E+01  0.1028E+03
     20.121  0.1542E+01  0.1031E+03
     20.328  0.2495E+01  0.1036E+03
     20.535  0.1291E+01  0.1039E+03
     20.742  0.4130E+00  0.1040E+03
     20.950  0.2968E-04  0.1040E+03
     21.157  0.9555E-15  0.1040E+03
     21.364  0.3176E-02  0.1040E+03
     21.571  0.1041E+00  0.1040E+03
     21.778  0.6073E-05  0.1040E+03
     21.986  0.0000E+00  0.1040E+03
     22.193  0.0000E+00  0.1040E+03
     22.400  0.0000E+00  0.1040E+03
     22.607  0.0000E+00  0.1040E+03
     22.814  0.0000E+00  0.1040E+03
     23.022  0.0000E+00  0.1040E+03
     23.229  0.0000E+00  0.1040E+03
     23.436  0.0000E+00  0.1040E+03
     23.643  0.0000E+00  0.1040E+03
     23.851  0.0000E+00  0.1040E+03
     24.058  0.0000E+00  0.1040E+03
     24.265  0.0000E+00  0.1040E+03
