       N       E                     dE             d eps       ncg     rms          rms(c)
DAV:   1     0.217931786038E+03    0.21793E+03   -0.16267E+04 20784   0.144E+03
DAV:   2     0.210254737966E+00   -0.21772E+03   -0.20842E+03 22260   0.353E+02
DAV:   3    -0.966190255022E+01   -0.98722E+01   -0.98352E+01 23424   0.800E+01
DAV:   4    -0.971102845184E+01   -0.49126E-01   -0.49122E-01 22384   0.583E+00
DAV:   5    -0.971122186905E+01   -0.19342E-03   -0.19342E-03 23320   0.332E-01    0.109E+01
DAV:   6    -0.796551222629E+01    0.17457E+01   -0.44093E+00 25180   0.304E+01    0.858E+00
DAV:   7    -0.796310082241E+01    0.24114E-02   -0.59092E-01 20980   0.754E+00    0.501E+00
DAV:   8    -0.794519513665E+01    0.17906E-01   -0.11022E-01 21860   0.323E+00    0.604E-01
DAV:   9    -0.794033452475E+01    0.48606E-02   -0.15195E-02 26224   0.157E+00    0.111E-01
DAV:  10    -0.794068142162E+01   -0.34690E-03   -0.36372E-03 21660   0.688E-01    0.955E-02
DAV:  11    -0.794068698244E+01   -0.55608E-05   -0.58854E-05 23516   0.119E-01    0.476E-02
DAV:  12    -0.794073101393E+01   -0.44031E-04   -0.65350E-05 20864   0.815E-02    0.906E-03
DAV:  13    -0.794073140318E+01   -0.38925E-06   -0.73234E-06 23936   0.506E-02
   1 F= -.79407314E+01 E0= -.79407314E+01  d E =-.404895E-17
