Fe4Te8
1.0
      6.2713260       0.0000000       0.0000000
      0.0000000       6.2713260       0.0000000
      0.0000000       0.0000000       6.2713260
  Fe    Te  
  4     8   
Direct
      0.5000000       0.5000000       0.0000000
      0.5000000       0.0000000       0.5000000
      0.0000000       0.5000000       0.5000000
      0.0000000       0.0000000       0.0000000
      0.1319290       0.8680710       0.3680710
      0.8680710       0.3680710       0.1319290
      0.3680710       0.1319290       0.8680710
      0.6319290       0.6319290       0.6319290
      0.8680710       0.1319290       0.6319290
      0.1319290       0.6319290       0.8680710
      0.6319290       0.8680710       0.1319290
      0.3680710       0.3680710       0.3680710
