Ba1 Au2                                 
   1.00000000000000     
     4.8604304400000000    0.0000000200000000    0.0000000000000000
    -2.4302141900000001    4.2092551499999997    0.0000000000000000
     0.0000000000000000    0.0000000000000000    4.2140552400000004
   Ba   Au
     1     2
Direct
     0.0000000000000000    0.0000000000000000    0.0000000000000000
     0.6666669999999968    0.3333330000000032    0.5000000000000000
     0.3333330000000032    0.6666669999999968    0.5000000000000000
 
  0.00000000E+00  0.00000000E+00  0.00000000E+00
  0.00000000E+00  0.00000000E+00  0.00000000E+00
  0.00000000E+00  0.00000000E+00  0.00000000E+00
