Hg10 Pd4                                
   1.00000000000000     
     2.9786113099999998    0.0000000000000000    0.0000000000000000
     0.0000000000000000    9.8085961600000005    0.0000000000000000
     0.0000000000000000    0.0000000000000000    9.8085961600000005
   Hg   Pd
    10     4
Direct
     0.0000000000000000    0.2038467100000005    0.9362516999999997
     0.0000000000000000    0.9362516999999997    0.7961532899999995
     0.0000000000000000    0.5637483000000003    0.2961532899999995
     0.0000000000000000    0.4362516999999997    0.7038467100000005
     0.0000000000000000    0.7038467100000005    0.5637483000000003
     0.0000000000000000    0.2961532899999995    0.4362516999999997
     0.0000000000000000    0.7961532899999995    0.0637483000000003
     0.0000000000000000    0.0637483000000003    0.2038467100000005
     0.0000000000000000    0.5000000000000000    0.0000000000000000
     0.0000000000000000    0.0000000000000000    0.5000000000000000
     0.5000000000000000    0.8199304099999978    0.3199304099999978
     0.5000000000000000    0.6800695900000022    0.8199304099999978
     0.5000000000000000    0.3199304099999978    0.1800695900000022
     0.5000000000000000    0.1800695900000022    0.6800695900000022
 
  0.00000000E+00  0.00000000E+00  0.00000000E+00
  0.00000000E+00  0.00000000E+00  0.00000000E+00
  0.00000000E+00  0.00000000E+00  0.00000000E+00
  0.00000000E+00  0.00000000E+00  0.00000000E+00
  0.00000000E+00  0.00000000E+00  0.00000000E+00
  0.00000000E+00  0.00000000E+00  0.00000000E+00
  0.00000000E+00  0.00000000E+00  0.00000000E+00
  0.00000000E+00  0.00000000E+00  0.00000000E+00
  0.00000000E+00  0.00000000E+00  0.00000000E+00
  0.00000000E+00  0.00000000E+00  0.00000000E+00
  0.00000000E+00  0.00000000E+00  0.00000000E+00
  0.00000000E+00  0.00000000E+00  0.00000000E+00
  0.00000000E+00  0.00000000E+00  0.00000000E+00
  0.00000000E+00  0.00000000E+00  0.00000000E+00
