Hg10 Pd4
1.0
   2.9786113099999998    0.0000000000000000    0.0000000000000000
   0.0000000000000000    9.8085961600000005   -0.0000000000000000
   0.0000000000000000    0.0000000000000000    9.8085961600000005
Hg Pd
10 4
direct
   0.0000000000000000    0.2038467100000000    0.9362517000000000 Hg
  -0.0000000000000000    0.9362517000000000    0.7961532900000000 Hg
   0.0000000000000000    0.5637483000000000    0.2961532900000000 Hg
  -0.0000000000000000    0.4362517000000000    0.7038467100000000 Hg
   0.0000000000000000    0.7038467100000000    0.5637483000000000 Hg
  -0.0000000000000000    0.2961532900000000    0.4362517000000000 Hg
  -0.0000000000000000    0.7961532900000000    0.0637483000000000 Hg
   0.0000000000000000    0.0637483000000000    0.2038467100000000 Hg
   0.0000000000000000    0.5000000000000000    0.0000000000000000 Hg
   0.0000000000000000   -0.0000000000000000    0.5000000000000000 Hg
   0.5000000000000000    0.8199304100000000    0.3199304100000000 Pd
   0.5000000000000000    0.6800695900000000    0.8199304100000000 Pd
   0.5000000000000000    0.3199304100000000    0.1800695900000000 Pd
   0.5000000000000000    0.1800695900000000    0.6800695900000000 Pd
