Si4 O8                                  
   1.00000000000000     
     4.4879309999999997    0.0000000000000000    0.0000000000000000
     0.0000000000000000    4.4879309999999997    0.0000000000000000
     0.0000000000000000    0.0000000000000000    4.4879309999999997
   Si   O 
     4     8
Direct
     0.0000000000000000    0.5000000000000000    0.5000000000000000
     0.5000000000000000    0.5000000000000000    0.0000000000000000
     0.5000000000000000    0.0000000000000000    0.5000000000000000
     0.0000000000000000    0.0000000000000000    0.0000000000000000
     0.3437899999999985    0.1562100000000015    0.8437899999999985
     0.1562100000000015    0.8437899999999985    0.3437899999999985
     0.8437899999999985    0.3437899999999985    0.1562100000000015
     0.6562100000000015    0.6562100000000015    0.6562100000000015
     0.3437899999999985    0.3437899999999985    0.3437899999999985
     0.1562100000000015    0.6562100000000015    0.8437899999999985
     0.8437899999999985    0.1562100000000015    0.6562100000000015
     0.6562100000000015    0.8437899999999985    0.1562100000000015
 
  0.00000000E+00  0.00000000E+00  0.00000000E+00
  0.00000000E+00  0.00000000E+00  0.00000000E+00
  0.00000000E+00  0.00000000E+00  0.00000000E+00
  0.00000000E+00  0.00000000E+00  0.00000000E+00
  0.00000000E+00  0.00000000E+00  0.00000000E+00
  0.00000000E+00  0.00000000E+00  0.00000000E+00
  0.00000000E+00  0.00000000E+00  0.00000000E+00
  0.00000000E+00  0.00000000E+00  0.00000000E+00
  0.00000000E+00  0.00000000E+00  0.00000000E+00
  0.00000000E+00  0.00000000E+00  0.00000000E+00
  0.00000000E+00  0.00000000E+00  0.00000000E+00
  0.00000000E+00  0.00000000E+00  0.00000000E+00
