       N       E                     dE             d eps       ncg     rms          rms(c)
DAV:   1     0.321499488121E+03    0.32150E+03   -0.38331E+04 20768   0.146E+03
DAV:   2    -0.797592081945E+02   -0.40126E+03   -0.38448E+03 25896   0.313E+02
DAV:   3    -0.975216114259E+02   -0.17762E+02   -0.17655E+02 26696   0.618E+01
DAV:   4    -0.976448576840E+02   -0.12325E+00   -0.12314E+00 25520   0.597E+00
DAV:   5    -0.976458235900E+02   -0.96591E-03   -0.96575E-03 25360   0.501E-01    0.229E+01
DAV:   6    -0.880608285706E+02    0.95850E+01   -0.28393E+01 24528   0.256E+01    0.101E+01
DAV:   7    -0.881301258483E+02   -0.69297E-01   -0.12404E+00 25432   0.488E+00    0.386E+00
DAV:   8    -0.881449739264E+02   -0.14848E-01   -0.45577E-02 24528   0.132E+00    0.162E+00
DAV:   9    -0.881567962315E+02   -0.11822E-01   -0.19850E-02 25464   0.905E-01    0.323E-01
DAV:  10    -0.881571357222E+02   -0.33949E-03   -0.18159E-03 25464   0.209E-01    0.928E-02
DAV:  11    -0.881570506164E+02    0.85106E-04   -0.29674E-04 25600   0.885E-02    0.220E-02
DAV:  12    -0.881570514300E+02   -0.81351E-06   -0.18819E-05 24872   0.212E-02    0.579E-03
DAV:  13    -0.881570512399E+02    0.19004E-06   -0.12948E-06 15944   0.605E-03
   1 F= -.88157051E+02 E0= -.88157051E+02  d E =-.347763E-16
