Mn29                                    
   1.00000000000000     
    -4.5535085799999999    4.5535085799999999    4.5535085799999999
     4.5535085799999999   -4.5535085799999999    4.5535085799999999
     4.5535085799999999    4.5535085799999999   -4.5535085799999999
   Mn
    29
Direct
     0.0000000000000000    0.0000000000000000    0.0000000000000000
     0.6445438499999980    0.6445438499999980    0.6445438499999980
     0.0000000000000000    0.0000000000000000    0.3554561500000020
     0.3554561500000020    0.0000000000000000    0.0000000000000000
     0.0000000000000000    0.3554561500000020    0.0000000000000000
     0.4025423599999982    0.7190477799999968    0.4025423599999982
     0.3165054299999994    0.0000000000000000    0.5974576400000018
     0.5974576400000018    0.0000000000000000    0.3165054299999994
     0.3165054299999994    0.5974576400000018    0.0000000000000000
     0.6834945700000006    0.6834945700000006    0.2809522200000032
     0.2809522200000032    0.6834945700000006    0.6834945700000006
     0.0000000000000000    0.5974576400000018    0.3165054299999994
     0.0000000000000000    0.3165054299999994    0.5974576400000018
     0.5974576400000018    0.3165054299999994    0.0000000000000000
     0.4025423599999982    0.4025423599999982    0.7190477799999968
     0.7190477799999968    0.4025423599999982    0.4025423599999982
     0.6834945700000006    0.2809522200000032    0.6834945700000006
     0.3776262800000012    0.1863634400000009    0.3776262800000012
     0.8087371599999997    0.0000000000000000    0.6223737199999988
     0.6223737199999988    0.0000000000000000    0.8087371599999997
     0.8087371599999997    0.6223737199999988    0.0000000000000000
     0.1912628400000003    0.1912628400000003    0.8136365599999991
     0.8136365599999991    0.1912628400000003    0.1912628400000003
     0.0000000000000000    0.6223737199999988    0.8087371599999997
     0.0000000000000000    0.8087371599999997    0.6223737199999988
     0.6223737199999988    0.8087371599999997    0.0000000000000000
     0.3776262800000012    0.3776262800000012    0.1863634400000009
     0.1863634400000009    0.3776262800000012    0.3776262800000012
     0.1912628400000003    0.8136365599999991    0.1912628400000003
 
  0.00000000E+00  0.00000000E+00  0.00000000E+00
  0.00000000E+00  0.00000000E+00  0.00000000E+00
  0.00000000E+00  0.00000000E+00  0.00000000E+00
  0.00000000E+00  0.00000000E+00  0.00000000E+00
  0.00000000E+00  0.00000000E+00  0.00000000E+00
  0.00000000E+00  0.00000000E+00  0.00000000E+00
  0.00000000E+00  0.00000000E+00  0.00000000E+00
  0.00000000E+00  0.00000000E+00  0.00000000E+00
  0.00000000E+00  0.00000000E+00  0.00000000E+00
  0.00000000E+00  0.00000000E+00  0.00000000E+00
  0.00000000E+00  0.00000000E+00  0.00000000E+00
  0.00000000E+00  0.00000000E+00  0.00000000E+00
  0.00000000E+00  0.00000000E+00  0.00000000E+00
  0.00000000E+00  0.00000000E+00  0.00000000E+00
  0.00000000E+00  0.00000000E+00  0.00000000E+00
  0.00000000E+00  0.00000000E+00  0.00000000E+00
  0.00000000E+00  0.00000000E+00  0.00000000E+00
  0.00000000E+00  0.00000000E+00  0.00000000E+00
  0.00000000E+00  0.00000000E+00  0.00000000E+00
  0.00000000E+00  0.00000000E+00  0.00000000E+00
  0.00000000E+00  0.00000000E+00  0.00000000E+00
  0.00000000E+00  0.00000000E+00  0.00000000E+00
  0.00000000E+00  0.00000000E+00  0.00000000E+00
  0.00000000E+00  0.00000000E+00  0.00000000E+00
  0.00000000E+00  0.00000000E+00  0.00000000E+00
  0.00000000E+00  0.00000000E+00  0.00000000E+00
  0.00000000E+00  0.00000000E+00  0.00000000E+00
  0.00000000E+00  0.00000000E+00  0.00000000E+00
  0.00000000E+00  0.00000000E+00  0.00000000E+00
