  29  29   0   0
  0.1302268E+02  0.7886908E-09  0.7886908E-09  0.7886908E-09  0.5000000E-15
  1.000000000000000E-004
  CAR 
 unknown system                          
     19.08469034    -44.20317825  301      8.26069166      1.00000000
    -44.203  0.0000E+00  0.0000E+00  0.0000E+00  0.0000E+00
    -43.992  0.0000E+00  0.0000E+00  0.0000E+00  0.0000E+00
    -43.781  0.0000E+00  0.0000E+00  0.0000E+00  0.0000E+00
    -43.570  0.0000E+00  0.0000E+00  0.0000E+00  0.0000E+00
    -43.359  0.0000E+00  0.0000E+00  0.0000E+00  0.0000E+00
    -43.148  0.0000E+00  0.0000E+00  0.0000E+00  0.0000E+00
    -42.937  0.0000E+00  0.0000E+00  0.0000E+00  0.0000E+00
    -42.726  0.0000E+00  0.0000E+00  0.0000E+00  0.0000E+00
    -42.516  0.0000E+00  0.0000E+00  0.0000E+00  0.0000E+00
    -42.305  0.0000E+00  0.0000E+00  0.0000E+00  0.0000E+00
    -42.094  0.0000E+00  0.0000E+00  0.0000E+00  0.0000E+00
    -41.883  0.0000E+00  0.0000E+00  0.0000E+00  0.0000E+00
    -41.672  0.0000E+00  0.0000E+00  0.0000E+00  0.0000E+00
    -41.461  0.1890E-08  0.1040E-02  0.3987E-09  0.2194E-03
    -41.250  0.6812E+01  0.1401E+02  0.1437E+01  0.2955E+01
    -41.039  0.5010E+02  0.2136E+00  0.1201E+02  0.3000E+01
    -40.828  0.7746E+02  0.0000E+00  0.2835E+02  0.3000E+01
    -40.617  0.9022E+02  0.7214E-04  0.4738E+02  0.3000E+01
    -40.406  0.2938E+01  0.4068E+02  0.4800E+02  0.1158E+02
    -40.195  0.0000E+00  0.9307E+02  0.4800E+02  0.3122E+02
    -39.984  0.0000E+00  0.3609E+02  0.4800E+02  0.3883E+02
    -39.773  0.0000E+00  0.8116E+00  0.4800E+02  0.3900E+02
    -39.562  0.0000E+00  0.0000E+00  0.4800E+02  0.3900E+02
    -39.351  0.2786E-02  0.0000E+00  0.4800E+02  0.3900E+02
    -39.140  0.1706E+02  0.0000E+00  0.5160E+02  0.3900E+02
    -38.929  0.5575E+02  0.0000E+00  0.6336E+02  0.3900E+02
    -38.718  0.9638E+02  0.0000E+00  0.8369E+02  0.3900E+02
    -38.507  0.1458E+01  0.4179E-08  0.8400E+02  0.3900E+02
    -38.296  0.0000E+00  0.1552E+02  0.8400E+02  0.4227E+02
    -38.085  0.2477E-07  0.1335E+03  0.8400E+02  0.7044E+02
    -37.874  0.7449E+01  0.2369E+02  0.8557E+02  0.7543E+02
    -37.663  0.6771E+01  0.5482E+02  0.8700E+02  0.8700E+02
    -37.452  0.0000E+00  0.8862E-03  0.8700E+02  0.8700E+02
    -37.242  0.0000E+00  0.0000E+00  0.8700E+02  0.8700E+02
    -37.031  0.0000E+00  0.0000E+00  0.8700E+02  0.8700E+02
    -36.820  0.0000E+00  0.0000E+00  0.8700E+02  0.8700E+02
    -36.609  0.0000E+00  0.0000E+00  0.8700E+02  0.8700E+02
    -36.398  0.0000E+00  0.0000E+00  0.8700E+02  0.8700E+02
    -36.187  0.0000E+00  0.0000E+00  0.8700E+02  0.8700E+02
    -35.976  0.0000E+00  0.0000E+00  0.8700E+02  0.8700E+02
    -35.765  0.0000E+00  0.0000E+00  0.8700E+02  0.8700E+02
    -35.554  0.0000E+00  0.0000E+00  0.8700E+02  0.8700E+02
    -35.343  0.0000E+00  0.0000E+00  0.8700E+02  0.8700E+02
    -35.132  0.0000E+00  0.0000E+00  0.8700E+02  0.8700E+02
    -34.921  0.0000E+00  0.0000E+00  0.8700E+02  0.8700E+02
    -34.710  0.0000E+00  0.0000E+00  0.8700E+02  0.8700E+02
    -34.499  0.0000E+00  0.0000E+00  0.8700E+02  0.8700E+02
    -34.288  0.0000E+00  0.0000E+00  0.8700E+02  0.8700E+02
    -34.077  0.0000E+00  0.0000E+00  0.8700E+02  0.8700E+02
    -33.866  0.0000E+00  0.0000E+00  0.8700E+02  0.8700E+02
    -33.655  0.0000E+00  0.0000E+00  0.8700E+02  0.8700E+02
    -33.444  0.0000E+00  0.0000E+00  0.8700E+02  0.8700E+02
    -33.233  0.0000E+00  0.0000E+00  0.8700E+02  0.8700E+02
    -33.022  0.0000E+00  0.0000E+00  0.8700E+02  0.8700E+02
    -32.811  0.0000E+00  0.0000E+00  0.8700E+02  0.8700E+02
    -32.600  0.0000E+00  0.0000E+00  0.8700E+02  0.8700E+02
    -32.389  0.0000E+00  0.0000E+00  0.8700E+02  0.8700E+02
    -32.178  0.0000E+00  0.0000E+00  0.8700E+02  0.8700E+02
    -31.968  0.0000E+00  0.0000E+00  0.8700E+02  0.8700E+02
    -31.757  0.0000E+00  0.0000E+00  0.8700E+02  0.8700E+02
    -31.546  0.0000E+00  0.0000E+00  0.8700E+02  0.8700E+02
    -31.335  0.0000E+00  0.0000E+00  0.8700E+02  0.8700E+02
    -31.124  0.0000E+00  0.0000E+00  0.8700E+02  0.8700E+02
    -30.913  0.0000E+00  0.0000E+00  0.8700E+02  0.8700E+02
    -30.702  0.0000E+00  0.0000E+00  0.8700E+02  0.8700E+02
    -30.491  0.0000E+00  0.0000E+00  0.8700E+02  0.8700E+02
    -30.280  0.0000E+00  0.0000E+00  0.8700E+02  0.8700E+02
    -30.069  0.0000E+00  0.0000E+00  0.8700E+02  0.8700E+02
    -29.858  0.0000E+00  0.0000E+00  0.8700E+02  0.8700E+02
    -29.647  0.0000E+00  0.0000E+00  0.8700E+02  0.8700E+02
    -29.436  0.0000E+00  0.0000E+00  0.8700E+02  0.8700E+02
    -29.225  0.0000E+00  0.0000E+00  0.8700E+02  0.8700E+02
    -29.014  0.0000E+00  0.0000E+00  0.8700E+02  0.8700E+02
    -28.803  0.0000E+00  0.0000E+00  0.8700E+02  0.8700E+02
    -28.592  0.0000E+00  0.0000E+00  0.8700E+02  0.8700E+02
    -28.381  0.0000E+00  0.0000E+00  0.8700E+02  0.8700E+02
    -28.170  0.0000E+00  0.0000E+00  0.8700E+02  0.8700E+02
    -27.959  0.0000E+00  0.0000E+00  0.8700E+02  0.8700E+02
    -27.748  0.0000E+00  0.0000E+00  0.8700E+02  0.8700E+02
    -27.537  0.0000E+00  0.0000E+00  0.8700E+02  0.8700E+02
    -27.326  0.0000E+00  0.0000E+00  0.8700E+02  0.8700E+02
    -27.115  0.0000E+00  0.0000E+00  0.8700E+02  0.8700E+02
    -26.904  0.0000E+00  0.0000E+00  0.8700E+02  0.8700E+02
    -26.694  0.0000E+00  0.0000E+00  0.8700E+02  0.8700E+02
    -26.483  0.0000E+00  0.0000E+00  0.8700E+02  0.8700E+02
    -26.272  0.0000E+00  0.0000E+00  0.8700E+02  0.8700E+02
    -26.061  0.0000E+00  0.0000E+00  0.8700E+02  0.8700E+02
    -25.850  0.0000E+00  0.0000E+00  0.8700E+02  0.8700E+02
    -25.639  0.0000E+00  0.0000E+00  0.8700E+02  0.8700E+02
    -25.428  0.0000E+00  0.0000E+00  0.8700E+02  0.8700E+02
    -25.217  0.0000E+00  0.0000E+00  0.8700E+02  0.8700E+02
    -25.006  0.0000E+00  0.0000E+00  0.8700E+02  0.8700E+02
    -24.795  0.0000E+00  0.0000E+00  0.8700E+02  0.8700E+02
    -24.584  0.0000E+00  0.0000E+00  0.8700E+02  0.8700E+02
    -24.373  0.0000E+00  0.0000E+00  0.8700E+02  0.8700E+02
    -24.162  0.0000E+00  0.0000E+00  0.8700E+02  0.8700E+02
    -23.951  0.0000E+00  0.0000E+00  0.8700E+02  0.8700E+02
    -23.740  0.0000E+00  0.0000E+00  0.8700E+02  0.8700E+02
    -23.529  0.0000E+00  0.0000E+00  0.8700E+02  0.8700E+02
    -23.318  0.0000E+00  0.0000E+00  0.8700E+02  0.8700E+02
    -23.107  0.0000E+00  0.0000E+00  0.8700E+02  0.8700E+02
    -22.896  0.0000E+00  0.0000E+00  0.8700E+02  0.8700E+02
    -22.685  0.0000E+00  0.0000E+00  0.8700E+02  0.8700E+02
    -22.474  0.0000E+00  0.0000E+00  0.8700E+02  0.8700E+02
    -22.263  0.0000E+00  0.0000E+00  0.8700E+02  0.8700E+02
    -22.052  0.0000E+00  0.0000E+00  0.8700E+02  0.8700E+02
    -21.841  0.0000E+00  0.0000E+00  0.8700E+02  0.8700E+02
    -21.631  0.0000E+00  0.0000E+00  0.8700E+02  0.8700E+02
    -21.420  0.0000E+00  0.0000E+00  0.8700E+02  0.8700E+02
    -21.209  0.0000E+00  0.0000E+00  0.8700E+02  0.8700E+02
    -20.998  0.0000E+00  0.0000E+00  0.8700E+02  0.8700E+02
    -20.787  0.0000E+00  0.0000E+00  0.8700E+02  0.8700E+02
    -20.576  0.0000E+00  0.0000E+00  0.8700E+02  0.8700E+02
    -20.365  0.0000E+00  0.0000E+00  0.8700E+02  0.8700E+02
    -20.154  0.0000E+00  0.0000E+00  0.8700E+02  0.8700E+02
    -19.943  0.0000E+00  0.0000E+00  0.8700E+02  0.8700E+02
    -19.732  0.0000E+00  0.0000E+00  0.8700E+02  0.8700E+02
    -19.521  0.0000E+00  0.0000E+00  0.8700E+02  0.8700E+02
    -19.310  0.0000E+00  0.0000E+00  0.8700E+02  0.8700E+02
    -19.099  0.0000E+00  0.0000E+00  0.8700E+02  0.8700E+02
    -18.888  0.0000E+00  0.0000E+00  0.8700E+02  0.8700E+02
    -18.677  0.0000E+00  0.0000E+00  0.8700E+02  0.8700E+02
    -18.466  0.0000E+00  0.0000E+00  0.8700E+02  0.8700E+02
    -18.255  0.0000E+00  0.0000E+00  0.8700E+02  0.8700E+02
    -18.044  0.0000E+00  0.0000E+00  0.8700E+02  0.8700E+02
    -17.833  0.0000E+00  0.0000E+00  0.8700E+02  0.8700E+02
    -17.622  0.0000E+00  0.0000E+00  0.8700E+02  0.8700E+02
    -17.411  0.0000E+00  0.0000E+00  0.8700E+02  0.8700E+02
    -17.200  0.0000E+00  0.0000E+00  0.8700E+02  0.8700E+02
    -16.989  0.0000E+00  0.0000E+00  0.8700E+02  0.8700E+02
    -16.778  0.0000E+00  0.0000E+00  0.8700E+02  0.8700E+02
    -16.567  0.0000E+00  0.0000E+00  0.8700E+02  0.8700E+02
    -16.357  0.0000E+00  0.0000E+00  0.8700E+02  0.8700E+02
    -16.146  0.0000E+00  0.0000E+00  0.8700E+02  0.8700E+02
    -15.935  0.0000E+00  0.0000E+00  0.8700E+02  0.8700E+02
    -15.724  0.0000E+00  0.0000E+00  0.8700E+02  0.8700E+02
    -15.513  0.0000E+00  0.0000E+00  0.8700E+02  0.8700E+02
    -15.302  0.0000E+00  0.0000E+00  0.8700E+02  0.8700E+02
    -15.091  0.0000E+00  0.0000E+00  0.8700E+02  0.8700E+02
    -14.880  0.0000E+00  0.0000E+00  0.8700E+02  0.8700E+02
    -14.669  0.0000E+00  0.0000E+00  0.8700E+02  0.8700E+02
    -14.458  0.0000E+00  0.0000E+00  0.8700E+02  0.8700E+02
    -14.247  0.0000E+00  0.0000E+00  0.8700E+02  0.8700E+02
    -14.036  0.0000E+00  0.0000E+00  0.8700E+02  0.8700E+02
    -13.825  0.0000E+00  0.0000E+00  0.8700E+02  0.8700E+02
    -13.614  0.0000E+00  0.0000E+00  0.8700E+02  0.8700E+02
    -13.403  0.0000E+00  0.0000E+00  0.8700E+02  0.8700E+02
    -13.192  0.0000E+00  0.0000E+00  0.8700E+02  0.8700E+02
    -12.981  0.0000E+00  0.0000E+00  0.8700E+02  0.8700E+02
    -12.770  0.0000E+00  0.0000E+00  0.8700E+02  0.8700E+02
    -12.559  0.0000E+00  0.0000E+00  0.8700E+02  0.8700E+02
    -12.348  0.0000E+00  0.0000E+00  0.8700E+02  0.8700E+02
    -12.137  0.0000E+00  0.0000E+00  0.8700E+02  0.8700E+02
    -11.926  0.0000E+00  0.0000E+00  0.8700E+02  0.8700E+02
    -11.715  0.0000E+00  0.0000E+00  0.8700E+02  0.8700E+02
    -11.504  0.0000E+00  0.0000E+00  0.8700E+02  0.8700E+02
    -11.293  0.0000E+00  0.0000E+00  0.8700E+02  0.8700E+02
    -11.083  0.0000E+00  0.0000E+00  0.8700E+02  0.8700E+02
    -10.872  0.0000E+00  0.0000E+00  0.8700E+02  0.8700E+02
    -10.661  0.0000E+00  0.0000E+00  0.8700E+02  0.8700E+02
    -10.450  0.0000E+00  0.0000E+00  0.8700E+02  0.8700E+02
    -10.239  0.0000E+00  0.0000E+00  0.8700E+02  0.8700E+02
    -10.028  0.0000E+00  0.0000E+00  0.8700E+02  0.8700E+02
     -9.817  0.0000E+00  0.0000E+00  0.8700E+02  0.8700E+02
     -9.606  0.0000E+00  0.0000E+00  0.8700E+02  0.8700E+02
     -9.395  0.0000E+00  0.0000E+00  0.8700E+02  0.8700E+02
     -9.184  0.0000E+00  0.0000E+00  0.8700E+02  0.8700E+02
     -8.973  0.0000E+00  0.0000E+00  0.8700E+02  0.8700E+02
     -8.762  0.0000E+00  0.0000E+00  0.8700E+02  0.8700E+02
     -8.551  0.0000E+00  0.0000E+00  0.8700E+02  0.8700E+02
     -8.340  0.0000E+00  0.0000E+00  0.8700E+02  0.8700E+02
     -8.129  0.0000E+00  0.0000E+00  0.8700E+02  0.8700E+02
     -7.918  0.0000E+00  0.0000E+00  0.8700E+02  0.8700E+02
     -7.707  0.0000E+00  0.0000E+00  0.8700E+02  0.8700E+02
     -7.496  0.0000E+00  0.0000E+00  0.8700E+02  0.8700E+02
     -7.285  0.0000E+00  0.0000E+00  0.8700E+02  0.8700E+02
     -7.074  0.0000E+00  0.0000E+00  0.8700E+02  0.8700E+02
     -6.863  0.0000E+00  0.0000E+00  0.8700E+02  0.8700E+02
     -6.652  0.0000E+00  0.0000E+00  0.8700E+02  0.8700E+02
     -6.441  0.0000E+00  0.0000E+00  0.8700E+02  0.8700E+02
     -6.230  0.0000E+00  0.0000E+00  0.8700E+02  0.8700E+02
     -6.019  0.0000E+00  0.0000E+00  0.8700E+02  0.8700E+02
     -5.809  0.0000E+00  0.0000E+00  0.8700E+02  0.8700E+02
     -5.598  0.0000E+00  0.0000E+00  0.8700E+02  0.8700E+02
     -5.387  0.0000E+00  0.0000E+00  0.8700E+02  0.8700E+02
     -5.176  0.0000E+00  0.0000E+00  0.8700E+02  0.8700E+02
     -4.965  0.0000E+00  0.0000E+00  0.8700E+02  0.8700E+02
     -4.754  0.0000E+00  0.0000E+00  0.8700E+02  0.8700E+02
     -4.543  0.0000E+00  0.0000E+00  0.8700E+02  0.8700E+02
     -4.332  0.0000E+00  0.0000E+00  0.8700E+02  0.8700E+02
     -4.121  0.0000E+00  0.0000E+00  0.8700E+02  0.8700E+02
     -3.910  0.0000E+00  0.0000E+00  0.8700E+02  0.8700E+02
     -3.699  0.0000E+00  0.0000E+00  0.8700E+02  0.8700E+02
     -3.488  0.0000E+00  0.0000E+00  0.8700E+02  0.8700E+02
     -3.277  0.0000E+00  0.0000E+00  0.8700E+02  0.8700E+02
     -3.066  0.0000E+00  0.0000E+00  0.8700E+02  0.8700E+02
     -2.855  0.0000E+00  0.0000E+00  0.8700E+02  0.8700E+02
     -2.644  0.0000E+00  0.0000E+00  0.8700E+02  0.8700E+02
     -2.433  0.0000E+00  0.0000E+00  0.8700E+02  0.8700E+02
     -2.222  0.0000E+00  0.0000E+00  0.8700E+02  0.8700E+02
     -2.011  0.0000E+00  0.0000E+00  0.8700E+02  0.8700E+02
     -1.800  0.0000E+00  0.0000E+00  0.8700E+02  0.8700E+02
     -1.589  0.0000E+00  0.0000E+00  0.8700E+02  0.8700E+02
     -1.378  0.0000E+00  0.0000E+00  0.8700E+02  0.8700E+02
     -1.167  0.0000E+00  0.0000E+00  0.8700E+02  0.8700E+02
     -0.956  0.0000E+00  0.0000E+00  0.8700E+02  0.8700E+02
     -0.746  0.0000E+00  0.0000E+00  0.8700E+02  0.8700E+02
     -0.535  0.0000E+00  0.0000E+00  0.8700E+02  0.8700E+02
     -0.324  0.0000E+00  0.0000E+00  0.8700E+02  0.8700E+02
     -0.113  0.0000E+00  0.0000E+00  0.8700E+02  0.8700E+02
      0.098  0.0000E+00  0.0000E+00  0.8700E+02  0.8700E+02
      0.309  0.0000E+00  0.0000E+00  0.8700E+02  0.8700E+02
      0.520  0.4493E-04  0.0000E+00  0.8700E+02  0.8700E+02
      0.731  0.4389E+00  0.3370E-02  0.8709E+02  0.8700E+02
      0.942  0.5259E+00  0.4411E+00  0.8720E+02  0.8709E+02
      1.153  0.1139E+01  0.5879E+00  0.8744E+02  0.8722E+02
      1.364  0.7110E+00  0.1654E+01  0.8759E+02  0.8757E+02
      1.575  0.4854E+00  0.1286E+00  0.8770E+02  0.8759E+02
      1.786  0.2077E+01  0.1075E+01  0.8813E+02  0.8782E+02
      1.997  0.1478E+01  0.1702E+01  0.8845E+02  0.8818E+02
      2.208  0.1737E+01  0.1546E+01  0.8881E+02  0.8851E+02
      2.419  0.4711E+00  0.1453E+01  0.8891E+02  0.8881E+02
      2.630  0.3426E+01  0.6649E+00  0.8963E+02  0.8895E+02
      2.841  0.2492E+01  0.3284E+01  0.9016E+02  0.8965E+02
      3.052  0.2499E+01  0.2828E+01  0.9069E+02  0.9024E+02
      3.263  0.1828E+01  0.2111E+01  0.9107E+02  0.9069E+02
      3.474  0.3547E+01  0.2050E+01  0.9182E+02  0.9112E+02
      3.685  0.4636E+01  0.2955E+01  0.9280E+02  0.9174E+02
      3.896  0.5168E+01  0.4917E+01  0.9389E+02  0.9278E+02
      4.107  0.5453E+01  0.3781E+01  0.9504E+02  0.9358E+02
      4.318  0.1582E+02  0.6282E+01  0.9838E+02  0.9490E+02
      4.528  0.2571E+02  0.6292E+01  0.1038E+03  0.9623E+02
      4.739  0.1910E+02  0.1529E+02  0.1078E+03  0.9946E+02
      4.950  0.1303E+02  0.1670E+02  0.1106E+03  0.1030E+03
      5.161  0.1416E+02  0.1880E+02  0.1136E+03  0.1069E+03
      5.372  0.1891E+02  0.1700E+02  0.1176E+03  0.1105E+03
      5.583  0.3531E+02  0.1903E+02  0.1250E+03  0.1145E+03
      5.794  0.3082E+02  0.1919E+02  0.1315E+03  0.1186E+03
      6.005  0.2767E+02  0.2531E+02  0.1373E+03  0.1239E+03
      6.216  0.3210E+02  0.2105E+02  0.1441E+03  0.1284E+03
      6.427  0.3240E+02  0.2585E+02  0.1509E+03  0.1338E+03
      6.638  0.2490E+02  0.3156E+02  0.1562E+03  0.1405E+03
      6.849  0.2694E+02  0.3701E+02  0.1619E+03  0.1483E+03
      7.060  0.2929E+02  0.2891E+02  0.1681E+03  0.1544E+03
      7.271  0.3060E+02  0.1967E+02  0.1745E+03  0.1585E+03
      7.482  0.2213E+02  0.1723E+02  0.1792E+03  0.1622E+03
      7.693  0.3096E+02  0.1669E+02  0.1857E+03  0.1657E+03
      7.904  0.2768E+02  0.2217E+02  0.1916E+03  0.1704E+03
      8.115  0.2604E+02  0.2108E+02  0.1971E+03  0.1748E+03
      8.326  0.2310E+02  0.1151E+02  0.2019E+03  0.1772E+03
      8.537  0.1514E+02  0.1546E+02  0.2051E+03  0.1805E+03
      8.748  0.1723E+02  0.2557E+02  0.2088E+03  0.1859E+03
      8.959  0.1708E+02  0.2521E+02  0.2124E+03  0.1912E+03
      9.170  0.1692E+02  0.2566E+02  0.2159E+03  0.1966E+03
      9.381  0.2624E+02  0.2923E+02  0.2215E+03  0.2028E+03
      9.592  0.2206E+02  0.3194E+02  0.2261E+03  0.2095E+03
      9.802  0.3315E+02  0.2212E+02  0.2331E+03  0.2142E+03
     10.013  0.2397E+02  0.2429E+02  0.2382E+03  0.2193E+03
     10.224  0.1580E+02  0.2451E+02  0.2415E+03  0.2245E+03
     10.435  0.8286E+01  0.3466E+02  0.2432E+03  0.2318E+03
     10.646  0.7360E+01  0.3247E+02  0.2448E+03  0.2387E+03
     10.857  0.7151E+01  0.1495E+02  0.2463E+03  0.2418E+03
     11.068  0.6157E+01  0.9885E+01  0.2476E+03  0.2439E+03
     11.279  0.6144E+01  0.6907E+01  0.2489E+03  0.2454E+03
     11.490  0.9377E+01  0.6044E+01  0.2509E+03  0.2466E+03
     11.701  0.3003E+01  0.7833E+01  0.2515E+03  0.2483E+03
     11.912  0.5084E+01  0.7545E+01  0.2526E+03  0.2499E+03
     12.123  0.4007E+01  0.5779E+01  0.2534E+03  0.2511E+03
     12.334  0.1736E+01  0.5249E+01  0.2538E+03  0.2522E+03
     12.545  0.1852E+01  0.1182E+01  0.2542E+03  0.2525E+03
     12.756  0.2594E+01  0.4432E+01  0.2547E+03  0.2534E+03
     12.967  0.1787E+01  0.1563E+01  0.2551E+03  0.2537E+03
     13.178  0.1472E+01  0.2855E+01  0.2554E+03  0.2543E+03
     13.389  0.4666E+01  0.1517E+01  0.2564E+03  0.2546E+03
     13.600  0.3193E+01  0.2534E+01  0.2571E+03  0.2552E+03
     13.811  0.4177E+01  0.3348E+01  0.2580E+03  0.2559E+03
     14.022  0.3409E+01  0.2856E+01  0.2587E+03  0.2565E+03
     14.233  0.1603E+01  0.4454E+01  0.2590E+03  0.2574E+03
     14.444  0.3977E+01  0.5016E+01  0.2599E+03  0.2585E+03
     14.655  0.6005E+01  0.1013E+01  0.2611E+03  0.2587E+03
     14.865  0.4297E+01  0.3620E+01  0.2620E+03  0.2595E+03
     15.076  0.2863E+01  0.5324E+01  0.2626E+03  0.2606E+03
     15.287  0.1872E+01  0.4731E+01  0.2630E+03  0.2616E+03
     15.498  0.1034E+01  0.3319E+01  0.2632E+03  0.2623E+03
     15.709  0.2435E+01  0.3763E+01  0.2638E+03  0.2631E+03
     15.920  0.1122E+01  0.1076E+01  0.2640E+03  0.2633E+03
     16.131  0.0000E+00  0.9744E+00  0.2640E+03  0.2635E+03
     16.342  0.0000E+00  0.2329E+01  0.2640E+03  0.2640E+03
     16.553  0.0000E+00  0.1301E-03  0.2640E+03  0.2640E+03
     16.764  0.0000E+00  0.0000E+00  0.2640E+03  0.2640E+03
     16.975  0.0000E+00  0.0000E+00  0.2640E+03  0.2640E+03
     17.186  0.0000E+00  0.0000E+00  0.2640E+03  0.2640E+03
     17.397  0.0000E+00  0.0000E+00  0.2640E+03  0.2640E+03
     17.608  0.0000E+00  0.0000E+00  0.2640E+03  0.2640E+03
     17.819  0.0000E+00  0.0000E+00  0.2640E+03  0.2640E+03
     18.030  0.0000E+00  0.0000E+00  0.2640E+03  0.2640E+03
     18.241  0.0000E+00  0.0000E+00  0.2640E+03  0.2640E+03
     18.452  0.0000E+00  0.0000E+00  0.2640E+03  0.2640E+03
     18.663  0.0000E+00  0.0000E+00  0.2640E+03  0.2640E+03
     18.874  0.0000E+00  0.0000E+00  0.2640E+03  0.2640E+03
     19.085  0.0000E+00  0.0000E+00  0.2640E+03  0.2640E+03
