       N       E                     dE             d eps       ncg     rms          rms(c)
DAV:   1     0.600896612629E+04    0.60090E+04   -0.21465E+05 68520   0.215E+03
DAV:   2     0.354273782416E+03   -0.56547E+04   -0.53879E+04 67584   0.627E+02
DAV:   3    -0.245720387235E+03   -0.59999E+03   -0.50871E+03 68416   0.214E+02
DAV:   4    -0.282042867224E+03   -0.36322E+02   -0.34996E+02 71544   0.542E+01
DAV:   5    -0.282659892183E+03   -0.61702E+00   -0.61342E+00 70208   0.736E+00    0.745E+01
DAV:   6    -0.273850464989E+03    0.88094E+01   -0.32095E+02 68800   0.662E+01    0.851E+01
DAV:   7    -0.350185726320E+03   -0.76335E+02   -0.17609E+02 69688   0.808E+01    0.133E+02
DAV:   8    -0.258587135358E+03    0.91599E+02   -0.11228E+02 72552   0.453E+01    0.390E+01
DAV:   9    -0.258923369832E+03   -0.33623E+00   -0.16754E+01 78040   0.242E+01    0.424E+01
DAV:  10    -0.253977200263E+03    0.49462E+01   -0.88613E+00 79928   0.189E+01    0.226E+01
DAV:  11    -0.253301100963E+03    0.67610E+00   -0.27297E+00 79472   0.927E+00    0.176E+01
DAV:  12    -0.253150714229E+03    0.15039E+00   -0.10225E+00 69336   0.505E+00    0.110E+01
DAV:  13    -0.253713393216E+03   -0.56268E+00   -0.32791E-01 77896   0.242E+00    0.100E+01
DAV:  14    -0.254283134158E+03   -0.56974E+00   -0.18259E-01 85816   0.250E+00    0.924E+00
DAV:  15    -0.254685736708E+03   -0.40260E+00   -0.16070E-01 83968   0.292E+00    0.970E+00
DAV:  16    -0.255494629730E+03   -0.80889E+00   -0.60206E-01 86168   0.524E+00    0.630E+00
DAV:  17    -0.256309344852E+03   -0.81472E+00   -0.11182E+00 85328   0.840E+00    0.120E+01
DAV:  18    -0.255940693991E+03    0.36865E+00   -0.65904E-01 75376   0.541E+00    0.703E+00
DAV:  19    -0.256189583047E+03   -0.24889E+00   -0.19951E-01 74992   0.322E+00    0.521E+00
DAV:  20    -0.256215576887E+03   -0.25994E-01   -0.14522E-01 77512   0.305E+00    0.389E+00
DAV:  21    -0.256363670535E+03   -0.14809E+00   -0.15443E-01 79592   0.307E+00    0.504E+00
DAV:  22    -0.256408865434E+03   -0.45195E-01   -0.20354E-01 79480   0.327E+00    0.364E+00
DAV:  23    -0.256424029476E+03   -0.15164E-01   -0.99120E-02 73328   0.211E+00    0.287E+00
DAV:  24    -0.256443830979E+03   -0.19802E-01   -0.89915E-02 74536   0.175E+00    0.213E+00
DAV:  25    -0.256442809863E+03    0.10211E-02   -0.32249E-02 71888   0.142E+00    0.181E+00
DAV:  26    -0.256440404885E+03    0.24050E-02   -0.16689E-02 71808   0.105E+00    0.133E+00
DAV:  27    -0.256438810920E+03    0.15940E-02   -0.10281E-02 73888   0.936E-01    0.103E+00
DAV:  28    -0.256442416082E+03   -0.36052E-02   -0.99319E-03 82520   0.716E-01    0.752E-01
DAV:  29    -0.256443026154E+03   -0.61007E-03   -0.47874E-03 75992   0.538E-01    0.612E-01
DAV:  30    -0.256444517076E+03   -0.14909E-02   -0.34812E-03 77312   0.424E-01    0.389E-01
DAV:  31    -0.256444021768E+03    0.49531E-03   -0.15319E-03 72152   0.337E-01    0.240E-01
DAV:  32    -0.256443991427E+03    0.30341E-04   -0.58162E-04 76144   0.195E-01    0.284E-01
DAV:  33    -0.256443797112E+03    0.19431E-03   -0.30216E-04 74592   0.163E-01    0.191E-01
DAV:  34    -0.256443968012E+03   -0.17090E-03   -0.15908E-04 76440   0.109E-01    0.149E-01
DAV:  35    -0.256444009879E+03   -0.41867E-04   -0.11868E-04 76496   0.873E-02    0.634E-02
DAV:  36    -0.256444022087E+03   -0.12207E-04   -0.38668E-05 74008   0.481E-02    0.524E-02
DAV:  37    -0.256444028253E+03   -0.61668E-05   -0.19631E-05 74464   0.365E-02    0.286E-02
DAV:  38    -0.256444025645E+03    0.26080E-05   -0.83195E-06 70088   0.249E-02    0.129E-02
DAV:  39    -0.256444025282E+03    0.36319E-06   -0.26478E-06 55096   0.980E-03
   1 F= -.25644403E+03 E0= -.25642266E+03  d E =-.427219E-01  mag=    23.3441
