Mn29
1.0
  -4.5535085799999999    4.5535085799999999    4.5535085799999999
   4.5535085799999999   -4.5535085799999999    4.5535085799999999
   4.5535085799999999    4.5535085799999999   -4.5535085799999999
Mn
29
direct
   0.0000000000000000    0.0000000000000000    0.0000000000000000 Mn
   0.6445438500000000    0.6445438500000000    0.6445438500000000 Mn
   0.0000000000000000   -0.0000000000000000    0.3554561500000000 Mn
   0.3554561500000000   -0.0000000000000000   -0.0000000000000000 Mn
   0.0000000000000000    0.3554561500000000   -0.0000000000000000 Mn
   0.4025423600000000    0.7190477800000000    0.4025423600000000 Mn
   0.3165054300000000    0.0000000000000000    0.5974576400000000 Mn
   0.5974576400000000   -0.0000000000000000    0.3165054300000000 Mn
   0.3165054300000000    0.5974576400000000    0.0000000000000000 Mn
   0.6834945700000000    0.6834945700000000    0.2809522200000000 Mn
   0.2809522200000000    0.6834945700000000    0.6834945700000000 Mn
  -0.0000000000000000    0.5974576400000000    0.3165054300000000 Mn
  -0.0000000000000000    0.3165054300000000    0.5974576400000000 Mn
   0.5974576400000000    0.3165054300000000   -0.0000000000000000 Mn
   0.4025423600000000    0.4025423600000000    0.7190477800000000 Mn
   0.7190477800000000    0.4025423600000000    0.4025423600000000 Mn
   0.6834945700000000    0.2809522200000000    0.6834945700000000 Mn
   0.3776262800000000    0.1863634400000000    0.3776262800000000 Mn
   0.8087371600000000    0.0000000000000000    0.6223737200000000 Mn
   0.6223737200000000   -0.0000000000000000    0.8087371600000000 Mn
   0.8087371600000000    0.6223737200000000   -0.0000000000000000 Mn
   0.1912628400000000    0.1912628400000000    0.8136365600000000 Mn
   0.8136365600000000    0.1912628400000000    0.1912628400000000 Mn
   0.0000000000000000    0.6223737200000000    0.8087371600000000 Mn
  -0.0000000000000000    0.8087371600000000    0.6223737200000000 Mn
   0.6223737200000000    0.8087371600000000    0.0000000000000000 Mn
   0.3776262800000000    0.3776262800000000    0.1863634400000000 Mn
   0.1863634400000000    0.3776262800000000    0.3776262800000000 Mn
   0.1912628400000000    0.8136365600000000    0.1912628400000000 Mn
