B2 I6                                   
   1.00000000000000     
     7.2184565000000003   -0.0003592400000000    0.0000000000000000
    -3.6089181799999999    6.2515443900000003    0.0000000000000000
     0.0000000000000000    0.0000000000000000    7.6077595000000002
   B    I 
     2     6
Direct
     0.3333330000000032    0.6666669999999968    0.2500000000000000
     0.6666669999999968    0.3333330000000032    0.7500000000000000
     0.0530313000000007    0.3605298100000027    0.2500000000000000
     0.6925024900000025    0.0530313000000007    0.7500000000000000
     0.3605298100000027    0.3074975099999975    0.7500000000000000
     0.6394701899999973    0.6925024900000025    0.2500000000000000
     0.3074975099999975    0.9469686999999993    0.2500000000000000
     0.9469686999999993    0.6394701899999973    0.7500000000000000
 
  0.00000000E+00  0.00000000E+00  0.00000000E+00
  0.00000000E+00  0.00000000E+00  0.00000000E+00
  0.00000000E+00  0.00000000E+00  0.00000000E+00
  0.00000000E+00  0.00000000E+00  0.00000000E+00
  0.00000000E+00  0.00000000E+00  0.00000000E+00
  0.00000000E+00  0.00000000E+00  0.00000000E+00
  0.00000000E+00  0.00000000E+00  0.00000000E+00
  0.00000000E+00  0.00000000E+00  0.00000000E+00
