   8   8   0   0
  0.4291271E+02  0.7218457E-09  0.7218455E-09  0.7607760E-09  0.5000000E-15
  1.000000000000000E-004
  CAR 
 unknown system                          
      8.04640690    -13.18008971  301      0.69673245      1.00000000
    -13.180  0.0000E+00  0.0000E+00
    -13.109  0.0000E+00  0.0000E+00
    -13.039  0.0000E+00  0.0000E+00
    -12.968  0.0000E+00  0.0000E+00
    -12.897  0.0000E+00  0.0000E+00
    -12.826  0.0000E+00  0.0000E+00
    -12.756  0.0000E+00  0.0000E+00
    -12.685  0.0000E+00  0.0000E+00
    -12.614  0.0000E+00  0.0000E+00
    -12.543  0.0000E+00  0.0000E+00
    -12.473  0.7581E-13  0.5364E-14
    -12.402  0.3006E-07  0.2127E-08
    -12.331  0.2643E-03  0.1870E-04
    -12.260  0.7331E-01  0.5206E-02
    -12.190  0.1750E+01  0.1290E+00
    -12.119  0.9167E+01  0.7776E+00
    -12.048  0.2428E+02  0.2495E+01
    -11.977  0.1960E+02  0.3882E+01
    -11.906  0.1662E+01  0.4000E+01
    -11.836  0.6534E-02  0.4000E+01
    -11.765  0.7136E-06  0.4000E+01
    -11.694  0.1755E-11  0.4000E+01
    -11.623  0.0000E+00  0.4000E+01
    -11.553  0.0000E+00  0.4000E+01
    -11.482  0.0000E+00  0.4000E+01
    -11.411  0.7960E-12  0.4000E+01
    -11.340  0.3205E-06  0.4000E+01
    -11.270  0.2986E-02  0.4000E+01
    -11.199  0.7902E+00  0.4056E+01
    -11.128  0.1096E+02  0.4832E+01
    -11.057  0.3677E+02  0.7433E+01
    -10.987  0.5116E+02  0.1105E+02
    -10.916  0.1307E+02  0.1198E+02
    -10.845  0.3111E+00  0.1200E+02
    -10.774  0.3333E-03  0.1200E+02
    -10.704  0.9878E-08  0.1200E+02
    -10.633  0.6767E-14  0.1200E+02
    -10.562  0.0000E+00  0.1200E+02
    -10.491  0.0000E+00  0.1200E+02
    -10.421  0.0000E+00  0.1200E+02
    -10.350  0.0000E+00  0.1200E+02
    -10.279  0.0000E+00  0.1200E+02
    -10.208  0.0000E+00  0.1200E+02
    -10.138  0.0000E+00  0.1200E+02
    -10.067  0.0000E+00  0.1200E+02
     -9.996  0.0000E+00  0.1200E+02
     -9.925  0.0000E+00  0.1200E+02
     -9.855  0.0000E+00  0.1200E+02
     -9.784  0.0000E+00  0.1200E+02
     -9.713  0.0000E+00  0.1200E+02
     -9.642  0.0000E+00  0.1200E+02
     -9.572  0.0000E+00  0.1200E+02
     -9.501  0.0000E+00  0.1200E+02
     -9.430  0.0000E+00  0.1200E+02
     -9.359  0.0000E+00  0.1200E+02
     -9.289  0.0000E+00  0.1200E+02
     -9.218  0.0000E+00  0.1200E+02
     -9.147  0.0000E+00  0.1200E+02
     -9.076  0.0000E+00  0.1200E+02
     -9.006  0.0000E+00  0.1200E+02
     -8.935  0.0000E+00  0.1200E+02
     -8.864  0.0000E+00  0.1200E+02
     -8.793  0.0000E+00  0.1200E+02
     -8.723  0.0000E+00  0.1200E+02
     -8.652  0.0000E+00  0.1200E+02
     -8.581  0.0000E+00  0.1200E+02
     -8.510  0.0000E+00  0.1200E+02
     -8.440  0.0000E+00  0.1200E+02
     -8.369  0.0000E+00  0.1200E+02
     -8.298  0.0000E+00  0.1200E+02
     -8.227  0.0000E+00  0.1200E+02
     -8.156  0.0000E+00  0.1200E+02
     -8.086  0.0000E+00  0.1200E+02
     -8.015  0.0000E+00  0.1200E+02
     -7.944  0.0000E+00  0.1200E+02
     -7.873  0.0000E+00  0.1200E+02
     -7.803  0.0000E+00  0.1200E+02
     -7.732  0.0000E+00  0.1200E+02
     -7.661  0.0000E+00  0.1200E+02
     -7.590  0.0000E+00  0.1200E+02
     -7.520  0.0000E+00  0.1200E+02
     -7.449  0.0000E+00  0.1200E+02
     -7.378  0.0000E+00  0.1200E+02
     -7.307  0.0000E+00  0.1200E+02
     -7.237  0.0000E+00  0.1200E+02
     -7.166  0.0000E+00  0.1200E+02
     -7.095  0.0000E+00  0.1200E+02
     -7.024  0.0000E+00  0.1200E+02
     -6.954  0.0000E+00  0.1200E+02
     -6.883  0.0000E+00  0.1200E+02
     -6.812  0.0000E+00  0.1200E+02
     -6.741  0.0000E+00  0.1200E+02
     -6.671  0.0000E+00  0.1200E+02
     -6.600  0.0000E+00  0.1200E+02
     -6.529  0.0000E+00  0.1200E+02
     -6.458  0.0000E+00  0.1200E+02
     -6.388  0.0000E+00  0.1200E+02
     -6.317  0.0000E+00  0.1200E+02
     -6.246  0.0000E+00  0.1200E+02
     -6.175  0.0000E+00  0.1200E+02
     -6.105  0.0000E+00  0.1200E+02
     -6.034  0.0000E+00  0.1200E+02
     -5.963  0.0000E+00  0.1200E+02
     -5.892  0.0000E+00  0.1200E+02
     -5.822  0.0000E+00  0.1200E+02
     -5.751  0.0000E+00  0.1200E+02
     -5.680  0.0000E+00  0.1200E+02
     -5.609  0.3776E-14  0.1200E+02
     -5.539  0.5069E-08  0.1200E+02
     -5.468  0.1407E-03  0.1200E+02
     -5.397  0.8957E-01  0.1201E+02
     -5.326  0.1837E+01  0.1214E+02
     -5.256  0.7533E+01  0.1267E+02
     -5.185  0.1574E+02  0.1378E+02
     -5.114  0.2140E+02  0.1530E+02
     -5.043  0.9724E+01  0.1599E+02
     -4.973  0.2074E+00  0.1600E+02
     -4.902  0.1211E-03  0.1600E+02
     -4.831  0.1562E-08  0.1600E+02
     -4.760  0.0000E+00  0.1600E+02
     -4.689  0.0000E+00  0.1600E+02
     -4.619  0.0000E+00  0.1600E+02
     -4.548  0.0000E+00  0.1600E+02
     -4.477  0.0000E+00  0.1600E+02
     -4.406  0.0000E+00  0.1600E+02
     -4.336  0.0000E+00  0.1600E+02
     -4.265  0.0000E+00  0.1600E+02
     -4.194  0.0000E+00  0.1600E+02
     -4.123  0.0000E+00  0.1600E+02
     -4.053  0.0000E+00  0.1600E+02
     -3.982  0.0000E+00  0.1600E+02
     -3.911  0.0000E+00  0.1600E+02
     -3.840  0.0000E+00  0.1600E+02
     -3.770  0.0000E+00  0.1600E+02
     -3.699  0.0000E+00  0.1600E+02
     -3.628  0.0000E+00  0.1600E+02
     -3.557  0.0000E+00  0.1600E+02
     -3.487  0.0000E+00  0.1600E+02
     -3.416  0.0000E+00  0.1600E+02
     -3.345  0.0000E+00  0.1600E+02
     -3.274  0.0000E+00  0.1600E+02
     -3.204  0.1607E-12  0.1600E+02
     -3.133  0.8846E-07  0.1600E+02
     -3.062  0.1188E-02  0.1600E+02
     -2.991  0.4946E+00  0.1604E+02
     -2.921  0.9882E+01  0.1673E+02
     -2.850  0.2147E+02  0.1825E+02
     -2.779  0.1910E+02  0.1960E+02
     -2.708  0.1810E+02  0.2089E+02
     -2.638  0.1767E+02  0.2214E+02
     -2.567  0.1988E+02  0.2354E+02
     -2.496  0.6032E+01  0.2397E+02
     -2.425  0.5117E+00  0.2401E+02
     -2.355  0.3082E+00  0.2403E+02
     -2.284  0.5509E+00  0.2407E+02
     -2.213  0.2242E+01  0.2422E+02
     -2.142  0.1232E+01  0.2431E+02
     -2.072  0.3538E+01  0.2456E+02
     -2.001  0.2926E+01  0.2477E+02
     -1.930  0.2974E+01  0.2498E+02
     -1.859  0.5347E+01  0.2536E+02
     -1.789  0.2596E+01  0.2554E+02
     -1.718  0.6925E+01  0.2603E+02
     -1.647  0.9580E+01  0.2671E+02
     -1.576  0.6685E+01  0.2718E+02
     -1.506  0.2241E+01  0.2734E+02
     -1.435  0.9982E+00  0.2741E+02
     -1.364  0.3653E+01  0.2767E+02
     -1.293  0.2088E+01  0.2782E+02
     -1.222  0.1981E+01  0.2796E+02
     -1.152  0.1489E+00  0.2797E+02
     -1.081  0.7463E-01  0.2797E+02
     -1.010  0.3047E+00  0.2800E+02
     -0.939  0.4946E+00  0.2803E+02
     -0.869  0.3400E+01  0.2827E+02
     -0.798  0.4590E+01  0.2860E+02
     -0.727  0.8719E+01  0.2921E+02
     -0.656  0.1278E+02  0.3012E+02
     -0.586  0.1519E+02  0.3119E+02
     -0.515  0.2443E+02  0.3292E+02
     -0.444  0.2198E+02  0.3448E+02
     -0.373  0.1329E+02  0.3542E+02
     -0.303  0.2124E+02  0.3692E+02
     -0.232  0.2221E+02  0.3849E+02
     -0.161  0.1191E+02  0.3933E+02
     -0.090  0.1588E+02  0.4046E+02
     -0.020  0.1997E+02  0.4187E+02
      0.051  0.1641E+02  0.4303E+02
      0.122  0.9580E+01  0.4371E+02
      0.193  0.5018E+01  0.4406E+02
      0.263  0.1227E+02  0.4493E+02
      0.334  0.1079E+02  0.4569E+02
      0.405  0.2885E+01  0.4590E+02
      0.476  0.1915E+02  0.4725E+02
      0.546  0.1026E+02  0.4798E+02
      0.617  0.2858E+00  0.4800E+02
      0.688  0.2717E-03  0.4800E+02
      0.759  0.6717E-08  0.4800E+02
      0.829  0.3825E-14  0.4800E+02
      0.900  0.0000E+00  0.4800E+02
      0.971  0.0000E+00  0.4800E+02
      1.042  0.0000E+00  0.4800E+02
      1.112  0.0000E+00  0.4800E+02
      1.183  0.0000E+00  0.4800E+02
      1.254  0.0000E+00  0.4800E+02
      1.325  0.0000E+00  0.4800E+02
      1.395  0.0000E+00  0.4800E+02
      1.466  0.0000E+00  0.4800E+02
      1.537  0.0000E+00  0.4800E+02
      1.608  0.0000E+00  0.4800E+02
      1.678  0.0000E+00  0.4800E+02
      1.749  0.0000E+00  0.4800E+02
      1.820  0.0000E+00  0.4800E+02
      1.891  0.0000E+00  0.4800E+02
      1.961  0.0000E+00  0.4800E+02
      2.032  0.0000E+00  0.4800E+02
      2.103  0.0000E+00  0.4800E+02
      2.174  0.0000E+00  0.4800E+02
      2.244  0.0000E+00  0.4800E+02
      2.315  0.0000E+00  0.4800E+02
      2.386  0.0000E+00  0.4800E+02
      2.457  0.0000E+00  0.4800E+02
      2.528  0.0000E+00  0.4800E+02
      2.598  0.0000E+00  0.4800E+02
      2.669  0.0000E+00  0.4800E+02
      2.740  0.0000E+00  0.4800E+02
      2.811  0.0000E+00  0.4800E+02
      2.881  0.1648E-13  0.4800E+02
      2.952  0.9751E-08  0.4800E+02
      3.023  0.1262E-03  0.4800E+02
      3.094  0.4611E-01  0.4800E+02
      3.164  0.8158E+00  0.4806E+02
      3.235  0.2266E+01  0.4822E+02
      3.306  0.9023E+01  0.4886E+02
      3.377  0.1089E+02  0.4963E+02
      3.447  0.2135E+02  0.5114E+02
      3.518  0.1115E+02  0.5193E+02
      3.589  0.9855E+00  0.5200E+02
      3.660  0.7070E-02  0.5200E+02
      3.730  0.1603E-05  0.5200E+02
      3.801  0.8042E-11  0.5200E+02
      3.872  0.0000E+00  0.5200E+02
      3.943  0.0000E+00  0.5200E+02
      4.013  0.0000E+00  0.5200E+02
      4.084  0.0000E+00  0.5200E+02
      4.155  0.0000E+00  0.5200E+02
      4.226  0.3760E-11  0.5200E+02
      4.296  0.8263E-06  0.5200E+02
      4.367  0.3865E-02  0.5200E+02
      4.438  0.5008E+00  0.5204E+02
      4.509  0.4451E+01  0.5235E+02
      4.579  0.9986E+01  0.5306E+02
      4.650  0.9162E+01  0.5371E+02
      4.721  0.6339E+01  0.5415E+02
      4.792  0.3733E+01  0.5442E+02
      4.862  0.1270E+02  0.5532E+02
      4.933  0.8928E+01  0.5595E+02
      5.004  0.7213E+00  0.5600E+02
      5.075  0.5422E-02  0.5600E+02
      5.145  0.1721E-05  0.5600E+02
      5.216  0.1346E-10  0.5600E+02
      5.287  0.0000E+00  0.5600E+02
      5.358  0.0000E+00  0.5600E+02
      5.428  0.1886E-12  0.5600E+02
      5.499  0.7983E-07  0.5600E+02
      5.570  0.7377E-03  0.5600E+02
      5.641  0.1898E+00  0.5601E+02
      5.711  0.2680E+01  0.5620E+02
      5.782  0.4856E+01  0.5655E+02
      5.853  0.3408E+01  0.5679E+02
      5.924  0.5945E+01  0.5721E+02
      5.995  0.1026E+02  0.5793E+02
      6.065  0.8557E+01  0.5854E+02
      6.136  0.6263E+01  0.5898E+02
      6.207  0.5823E+01  0.5940E+02
      6.278  0.1362E+02  0.6036E+02
      6.348  0.4905E+01  0.6071E+02
      6.419  0.7324E+01  0.6122E+02
      6.490  0.5857E+01  0.6164E+02
      6.561  0.1108E+02  0.6242E+02
      6.631  0.1022E+02  0.6315E+02
      6.702  0.1468E+01  0.6325E+02
      6.773  0.1482E-01  0.6325E+02
      6.844  0.3292E+00  0.6327E+02
      6.914  0.2088E+01  0.6342E+02
      6.985  0.2910E+01  0.6363E+02
      7.056  0.2382E+01  0.6380E+02
      7.127  0.2570E+01  0.6398E+02
      7.197  0.3172E+00  0.6400E+02
      7.268  0.1433E-02  0.6400E+02
      7.339  0.1610E-06  0.6400E+02
      7.410  0.3853E-12  0.6400E+02
      7.480  0.0000E+00  0.6400E+02
      7.551  0.0000E+00  0.6400E+02
      7.622  0.0000E+00  0.6400E+02
      7.693  0.0000E+00  0.6400E+02
      7.763  0.0000E+00  0.6400E+02
      7.834  0.0000E+00  0.6400E+02
      7.905  0.0000E+00  0.6400E+02
      7.976  0.0000E+00  0.6400E+02
      8.046  0.0000E+00  0.6400E+02
