       N       E                     dE             d eps       ncg     rms          rms(c)
DAV:   1     0.309268920652E+03    0.30927E+03   -0.18752E+04  4096   0.133E+03
DAV:   2     0.700703475768E+01   -0.30226E+03   -0.29112E+03  5408   0.194E+02
DAV:   3    -0.226846291658E+02   -0.29692E+02   -0.29472E+02  5096   0.710E+01
DAV:   4    -0.235048732617E+02   -0.82024E+00   -0.81851E+00  5448   0.136E+01
DAV:   5    -0.235243884264E+02   -0.19515E-01   -0.19510E-01  5160   0.226E+00    0.161E+01
DAV:   6    -0.230136740576E+02    0.51071E+00   -0.76845E-01  4800   0.498E+00    0.709E+00
DAV:   7    -0.229860622399E+02    0.27612E-01   -0.36319E-01  5112   0.236E+00    0.376E+00
DAV:   8    -0.229852376099E+02    0.82463E-03   -0.34308E-02  4920   0.923E-01    0.778E-01
DAV:   9    -0.229848075189E+02    0.43009E-03   -0.42592E-03  5096   0.330E-01    0.296E-01
DAV:  10    -0.229849751598E+02   -0.16764E-03   -0.10470E-03  4968   0.130E-01    0.102E-01
DAV:  11    -0.229849883016E+02   -0.13142E-04   -0.43545E-05  5040   0.309E-02    0.777E-02
DAV:  12    -0.229850112248E+02   -0.22923E-04   -0.63441E-05  4776   0.349E-02    0.247E-02
DAV:  13    -0.229850121046E+02   -0.87985E-06   -0.29915E-06  4056   0.855E-03
   1 F= -.22985012E+02 E0= -.22985012E+02  d E =-.221790E-10
