B2I6
1.0
      7.2184565      -0.0003592       0.0000000
     -3.6089182       6.2515444       0.0000000
      0.0000000       0.0000000       7.6077595
  B     I   
  2     6   
Direct
      0.3333330       0.6666670       0.2500000
      0.6666670       0.3333330       0.7500000
      0.0530313       0.3605298       0.2500000
      0.6925025       0.0530313       0.7500000
      0.3605298       0.3074975       0.7500000
      0.6394702       0.6925025       0.2500000
      0.3074975       0.9469687       0.2500000
      0.9469687       0.6394702       0.7500000
