Sr4 As2                                 
   1.00000000000000     
     4.8626579999999997    0.0000000000000000    0.0000000000000000
     0.0000000000000000    4.8626579999999997    0.0000000000000000
    -2.4313289999999999   -2.4313289999999999    8.4755000000000003
   Sr   As
     4     2
Direct
     0.3185799999999972    0.3185799999999972    0.6371600000000015
     0.6814200000000028    0.6814200000000028    0.3628399999999985
     0.0000000000000000    0.5000000000000000    0.0000000000000000
     0.5000000000000000    0.0000000000000000    0.0000000000000000
     0.8665689999999984    0.8665689999999984    0.7331379999999967
     0.1334310000000016    0.1334310000000016    0.2668620000000033
 
  0.00000000E+00  0.00000000E+00  0.00000000E+00
  0.00000000E+00  0.00000000E+00  0.00000000E+00
  0.00000000E+00  0.00000000E+00  0.00000000E+00
  0.00000000E+00  0.00000000E+00  0.00000000E+00
  0.00000000E+00  0.00000000E+00  0.00000000E+00
  0.00000000E+00  0.00000000E+00  0.00000000E+00
