   6   6   0   0
  0.1644219E+02  0.5007056E-09  0.5007056E-09  0.4584863E-09  0.5000000E-15
  1.000000000000000E-004
  CAR 
 unknown system                          
     26.03159261     -1.95661552  301      9.05367875      1.00000000
     -1.957  0.0000E+00  0.0000E+00
     -1.863  0.0000E+00  0.0000E+00
     -1.770  0.0000E+00  0.0000E+00
     -1.677  0.0000E+00  0.0000E+00
     -1.583  0.0000E+00  0.0000E+00
     -1.490  0.0000E+00  0.0000E+00
     -1.397  0.0000E+00  0.0000E+00
     -1.304  0.0000E+00  0.0000E+00
     -1.210  0.0000E+00  0.0000E+00
     -1.117  0.0000E+00  0.0000E+00
     -1.024  0.0000E+00  0.0000E+00
     -0.930  0.1728E-12  0.1612E-13
     -0.837  0.7815E-06  0.7291E-07
     -0.744  0.4620E-02  0.4311E-03
     -0.650  0.7789E-01  0.7698E-02
     -0.557  0.2013E-01  0.9576E-02
     -0.464  0.3610E+00  0.4325E-01
     -0.371  0.4246E+00  0.8287E-01
     -0.277  0.2923E+00  0.1101E+00
     -0.184  0.8717E+00  0.1915E+00
     -0.091  0.5317E-01  0.1964E+00
      0.003  0.4455E+00  0.2380E+00
      0.096  0.2494E+00  0.2613E+00
      0.189  0.1404E+01  0.3922E+00
      0.282  0.6918E+00  0.4568E+00
      0.376  0.1795E+01  0.6242E+00
      0.469  0.3548E+00  0.6573E+00
      0.562  0.8989E-01  0.6657E+00
      0.656  0.1097E+01  0.7681E+00
      0.749  0.2238E+01  0.9768E+00
      0.842  0.2411E+01  0.1202E+01
      0.935  0.1371E+01  0.1330E+01
      1.029  0.5857E+00  0.1384E+01
      1.122  0.2267E+01  0.1596E+01
      1.215  0.1876E+01  0.1771E+01
      1.309  0.3904E+00  0.1807E+01
      1.402  0.9188E+00  0.1893E+01
      1.495  0.1646E+01  0.2046E+01
      1.589  0.2820E+01  0.2310E+01
      1.682  0.3057E+01  0.2595E+01
      1.775  0.2144E+01  0.2795E+01
      1.868  0.5546E+01  0.3312E+01
      1.962  0.5918E+01  0.3864E+01
      2.055  0.1497E+01  0.4004E+01
      2.148  0.6828E+00  0.4068E+01
      2.242  0.1453E+01  0.4203E+01
      2.335  0.2436E+01  0.4430E+01
      2.428  0.6448E+01  0.5032E+01
      2.521  0.1112E+02  0.6069E+01
      2.615  0.1273E+02  0.7257E+01
      2.708  0.1308E+02  0.8478E+01
      2.801  0.1746E+02  0.1011E+02
      2.895  0.1581E+02  0.1158E+02
      2.988  0.1445E+02  0.1293E+02
      3.081  0.1411E+02  0.1425E+02
      3.175  0.1862E+02  0.1598E+02
      3.268  0.1641E+02  0.1751E+02
      3.361  0.1883E+02  0.1927E+02
      3.454  0.1435E+02  0.2061E+02
      3.548  0.1176E+02  0.2171E+02
      3.641  0.1107E+02  0.2274E+02
      3.734  0.1372E+02  0.2402E+02
      3.828  0.1041E+02  0.2499E+02
      3.921  0.1591E+02  0.2647E+02
      4.014  0.1443E+02  0.2782E+02
      4.107  0.1415E+02  0.2914E+02
      4.201  0.1229E+02  0.3029E+02
      4.294  0.1297E+02  0.3150E+02
      4.387  0.1434E+02  0.3283E+02
      4.481  0.1535E+02  0.3427E+02
      4.574  0.1454E+02  0.3562E+02
      4.667  0.9279E+01  0.3649E+02
      4.761  0.9797E+01  0.3740E+02
      4.854  0.1583E+02  0.3888E+02
      4.947  0.1623E+02  0.4039E+02
      5.040  0.1367E+02  0.4167E+02
      5.134  0.8116E+01  0.4243E+02
      5.227  0.4447E+01  0.4284E+02
      5.320  0.2530E+01  0.4308E+02
      5.414  0.1877E+01  0.4325E+02
      5.507  0.1194E+01  0.4336E+02
      5.600  0.1926E+01  0.4354E+02
      5.693  0.2090E+01  0.4374E+02
      5.787  0.2878E+01  0.4401E+02
      5.880  0.1374E+01  0.4414E+02
      5.973  0.1920E+01  0.4431E+02
      6.067  0.3356E+01  0.4463E+02
      6.160  0.2482E+01  0.4486E+02
      6.253  0.2696E+01  0.4511E+02
      6.347  0.1968E+01  0.4529E+02
      6.440  0.9830E+00  0.4539E+02
      6.533  0.1173E+01  0.4550E+02
      6.626  0.1482E+01  0.4563E+02
      6.720  0.1402E+01  0.4576E+02
      6.813  0.1222E+01  0.4588E+02
      6.906  0.2714E+01  0.4613E+02
      7.000  0.1645E+01  0.4629E+02
      7.093  0.2447E+01  0.4651E+02
      7.186  0.2287E+01  0.4673E+02
      7.279  0.2689E+01  0.4698E+02
      7.373  0.2859E+01  0.4724E+02
      7.466  0.1339E+01  0.4737E+02
      7.559  0.5904E+00  0.4742E+02
      7.653  0.1653E+01  0.4758E+02
      7.746  0.1718E+01  0.4774E+02
      7.839  0.1804E+01  0.4791E+02
      7.933  0.1059E+01  0.4801E+02
      8.026  0.2118E+01  0.4820E+02
      8.119  0.3050E+01  0.4849E+02
      8.212  0.2622E+01  0.4873E+02
      8.306  0.2102E+01  0.4893E+02
      8.399  0.2650E+01  0.4918E+02
      8.492  0.1492E+01  0.4932E+02
      8.586  0.2187E+01  0.4952E+02
      8.679  0.1475E+01  0.4966E+02
      8.772  0.1396E+01  0.4979E+02
      8.865  0.4889E+00  0.4983E+02
      8.959  0.2261E+00  0.4985E+02
      9.052  0.1514E+01  0.5000E+02
      9.145  0.2164E+01  0.5020E+02
      9.239  0.5039E+00  0.5024E+02
      9.332  0.6983E+00  0.5031E+02
      9.425  0.2551E+01  0.5055E+02
      9.519  0.3006E+01  0.5083E+02
      9.612  0.1535E+01  0.5097E+02
      9.705  0.2869E+01  0.5124E+02
      9.798  0.2163E+01  0.5144E+02
      9.892  0.9444E+00  0.5153E+02
      9.985  0.8299E+00  0.5161E+02
     10.078  0.7361E+00  0.5167E+02
     10.172  0.4109E+00  0.5171E+02
     10.265  0.7661E+00  0.5178E+02
     10.358  0.8154E+00  0.5186E+02
     10.451  0.1030E+01  0.5196E+02
     10.545  0.1371E+01  0.5208E+02
     10.638  0.9707E+00  0.5218E+02
     10.731  0.7085E+00  0.5224E+02
     10.825  0.2217E+01  0.5245E+02
     10.918  0.1988E+01  0.5263E+02
     11.011  0.3357E+01  0.5295E+02
     11.105  0.2319E+01  0.5316E+02
     11.198  0.4327E+01  0.5357E+02
     11.291  0.3342E+01  0.5388E+02
     11.384  0.1941E+01  0.5406E+02
     11.478  0.1492E+01  0.5420E+02
     11.571  0.3464E+01  0.5452E+02
     11.664  0.3273E+01  0.5483E+02
     11.758  0.2428E+01  0.5505E+02
     11.851  0.2079E+01  0.5525E+02
     11.944  0.3582E+01  0.5558E+02
     12.037  0.1855E+01  0.5576E+02
     12.131  0.9632E+00  0.5585E+02
     12.224  0.2555E+01  0.5608E+02
     12.317  0.1650E+01  0.5624E+02
     12.411  0.1611E+01  0.5639E+02
     12.504  0.2368E+01  0.5661E+02
     12.597  0.1700E+01  0.5677E+02
     12.691  0.3282E+01  0.5707E+02
     12.784  0.2190E+01  0.5728E+02
     12.877  0.1230E+01  0.5739E+02
     12.970  0.3246E+01  0.5770E+02
     13.064  0.3555E+01  0.5803E+02
     13.157  0.3513E+01  0.5836E+02
     13.250  0.4976E+01  0.5882E+02
     13.344  0.3520E+01  0.5915E+02
     13.437  0.2657E+01  0.5940E+02
     13.530  0.1844E+01  0.5957E+02
     13.623  0.2117E+01  0.5977E+02
     13.717  0.1232E+01  0.5988E+02
     13.810  0.1433E+01  0.6001E+02
     13.903  0.2477E+01  0.6024E+02
     13.997  0.2227E+01  0.6045E+02
     14.090  0.3062E+01  0.6074E+02
     14.183  0.3721E+01  0.6109E+02
     14.277  0.3109E+01  0.6138E+02
     14.370  0.2080E+01  0.6157E+02
     14.463  0.2802E+01  0.6183E+02
     14.556  0.2864E+01  0.6210E+02
     14.650  0.1751E+01  0.6226E+02
     14.743  0.2851E+01  0.6253E+02
     14.836  0.2959E+01  0.6280E+02
     14.930  0.3169E+01  0.6310E+02
     15.023  0.1857E+01  0.6327E+02
     15.116  0.1488E+01  0.6341E+02
     15.209  0.2016E+01  0.6360E+02
     15.303  0.3099E+01  0.6389E+02
     15.396  0.2333E+01  0.6411E+02
     15.489  0.1960E+01  0.6429E+02
     15.583  0.1852E+01  0.6446E+02
     15.676  0.2591E+01  0.6470E+02
     15.769  0.2345E+01  0.6492E+02
     15.863  0.3501E+01  0.6525E+02
     15.956  0.2832E+01  0.6551E+02
     16.049  0.1342E+01  0.6564E+02
     16.142  0.1982E+01  0.6582E+02
     16.236  0.4913E+01  0.6628E+02
     16.329  0.4479E+01  0.6670E+02
     16.422  0.2053E+01  0.6689E+02
     16.516  0.2049E+01  0.6708E+02
     16.609  0.1645E+01  0.6724E+02
     16.702  0.2409E+01  0.6746E+02
     16.795  0.3496E+01  0.6779E+02
     16.889  0.3151E+01  0.6808E+02
     16.982  0.3819E+01  0.6844E+02
     17.075  0.3741E+01  0.6879E+02
     17.169  0.2627E+01  0.6903E+02
     17.262  0.3073E+01  0.6932E+02
     17.355  0.3422E+01  0.6964E+02
     17.449  0.1913E+01  0.6982E+02
     17.542  0.2424E+01  0.7004E+02
     17.635  0.3314E+01  0.7035E+02
     17.728  0.3590E+01  0.7069E+02
     17.822  0.3274E+01  0.7099E+02
     17.915  0.2731E+01  0.7125E+02
     18.008  0.8837E+00  0.7133E+02
     18.102  0.1810E+01  0.7150E+02
     18.195  0.1914E+01  0.7168E+02
     18.288  0.3147E+01  0.7197E+02
     18.381  0.3329E+01  0.7228E+02
     18.475  0.3069E+01  0.7257E+02
     18.568  0.4032E+01  0.7294E+02
     18.661  0.4072E+01  0.7332E+02
     18.755  0.4257E+01  0.7372E+02
     18.848  0.2488E+01  0.7395E+02
     18.941  0.1423E+01  0.7408E+02
     19.035  0.2697E+01  0.7434E+02
     19.128  0.2983E+01  0.7461E+02
     19.221  0.2788E+01  0.7487E+02
     19.314  0.3287E+01  0.7518E+02
     19.408  0.2931E+01  0.7545E+02
     19.501  0.2118E+01  0.7565E+02
     19.594  0.2045E+01  0.7584E+02
     19.688  0.2379E+01  0.7606E+02
     19.781  0.3746E+01  0.7641E+02
     19.874  0.4713E+01  0.7685E+02
     19.967  0.3037E+01  0.7714E+02
     20.061  0.1382E+01  0.7727E+02
     20.154  0.2402E+01  0.7749E+02
     20.247  0.4747E+01  0.7793E+02
     20.341  0.3525E+01  0.7826E+02
     20.434  0.3669E+01  0.7860E+02
     20.527  0.2773E+01  0.7886E+02
     20.621  0.2178E+01  0.7907E+02
     20.714  0.3505E+01  0.7939E+02
     20.807  0.3868E+01  0.7975E+02
     20.900  0.2306E+01  0.7997E+02
     20.994  0.2805E+01  0.8023E+02
     21.087  0.2812E+01  0.8049E+02
     21.180  0.3070E+01  0.8078E+02
     21.274  0.4794E+01  0.8123E+02
     21.367  0.2512E+01  0.8146E+02
     21.460  0.2280E+01  0.8167E+02
     21.553  0.3288E+01  0.8198E+02
     21.647  0.3919E+01  0.8235E+02
     21.740  0.2531E+01  0.8258E+02
     21.833  0.2842E+01  0.8285E+02
     21.927  0.3122E+01  0.8314E+02
     22.020  0.2248E+01  0.8335E+02
     22.113  0.3705E+01  0.8369E+02
     22.207  0.1970E+01  0.8388E+02
     22.300  0.3682E+01  0.8422E+02
     22.393  0.2321E+01  0.8444E+02
     22.486  0.3840E+01  0.8480E+02
     22.580  0.2816E+01  0.8506E+02
     22.673  0.3922E+01  0.8543E+02
     22.766  0.2937E+01  0.8570E+02
     22.860  0.2561E+01  0.8594E+02
     22.953  0.2251E+01  0.8615E+02
     23.046  0.4070E+01  0.8653E+02
     23.139  0.2674E+01  0.8678E+02
     23.233  0.1779E+01  0.8694E+02
     23.326  0.1800E+01  0.8711E+02
     23.419  0.1945E+01  0.8729E+02
     23.513  0.1986E+01  0.8748E+02
     23.606  0.1282E+01  0.8760E+02
     23.699  0.8558E+00  0.8768E+02
     23.793  0.8747E+00  0.8776E+02
     23.886  0.7180E+00  0.8783E+02
     23.979  0.7982E-01  0.8783E+02
     24.072  0.4747E-01  0.8784E+02
     24.166  0.4711E+00  0.8788E+02
     24.259  0.4131E+00  0.8792E+02
     24.352  0.2395E+00  0.8794E+02
     24.446  0.1991E-01  0.8794E+02
     24.539  0.2436E-01  0.8795E+02
     24.632  0.1757E+00  0.8796E+02
     24.725  0.2177E+00  0.8798E+02
     24.819  0.1709E+00  0.8800E+02
     24.912  0.6843E-02  0.8800E+02
     25.005  0.9482E-06  0.8800E+02
     25.099  0.1887E-12  0.8800E+02
     25.192  0.0000E+00  0.8800E+02
     25.285  0.0000E+00  0.8800E+02
     25.379  0.0000E+00  0.8800E+02
     25.472  0.0000E+00  0.8800E+02
     25.565  0.0000E+00  0.8800E+02
     25.658  0.0000E+00  0.8800E+02
     25.752  0.0000E+00  0.8800E+02
     25.845  0.0000E+00  0.8800E+02
     25.938  0.0000E+00  0.8800E+02
     26.032  0.0000E+00  0.8800E+02
