Al2 Ag4
1.0
   5.0069087699999999   -0.0383643100000000    0.0000000000000000
  -2.5366787400000002    4.3169278899999997    0.0000000000000000
   0.0000000000000000    0.0000000000000000    4.5848625600000004
Al Ag
2 4
direct
   0.0108950000000000    0.0108950000000000    0.0000000000000000 Al
   0.6558301400000000    0.6558301400000000    0.5000000000000000 Al
   0.6797064900000001    0.3577015000000000    0.0000000000000000 Ag
   0.3577015000000000    0.6797064900000001    0.0000000000000000 Ag
   0.3091071300000000    0.9870917299999999    0.5000000000000000 Ag
   0.9870917299999999    0.3091071300000000    0.5000000000000000 Ag
