       N       E                     dE             d eps       ncg     rms          rms(c)
DAV:   1     0.648342140564E+03    0.64834E+03   -0.48647E+04  4800   0.132E+03
DAV:   2    -0.241019242254E+02   -0.67244E+03   -0.63891E+03  6048   0.214E+02
DAV:   3    -0.903209564596E+02   -0.66219E+02   -0.64925E+02  5664   0.699E+01
DAV:   4    -0.920295444962E+02   -0.17086E+01   -0.16878E+01  5760   0.125E+01
DAV:   5    -0.920791409181E+02   -0.49596E-01   -0.49499E-01  5520   0.218E+00    0.261E+01
DAV:   6    -0.894442942135E+02    0.26348E+01   -0.38703E+00  5096   0.617E+00    0.183E+01
DAV:   7    -0.894143044296E+02    0.29990E-01   -0.20709E+00  5336   0.350E+00    0.341E+00
DAV:   8    -0.893702886709E+02    0.44016E-01   -0.15821E-01  5096   0.137E+00    0.122E+00
DAV:   9    -0.893742867177E+02   -0.39980E-02   -0.42583E-02  5200   0.621E-01    0.346E-01
DAV:  10    -0.893741695369E+02    0.11718E-03   -0.19666E-03  5616   0.146E-01    0.162E-01
DAV:  11    -0.893746385422E+02   -0.46901E-03   -0.81848E-04  5000   0.899E-02    0.354E-02
DAV:  12    -0.893746597599E+02   -0.21218E-04   -0.42994E-05  5832   0.217E-02    0.264E-02
DAV:  13    -0.893746757087E+02   -0.15949E-04   -0.21765E-05  5104   0.149E-02    0.151E-02
DAV:  14    -0.893746796208E+02   -0.39121E-05   -0.47912E-06  5504   0.694E-03    0.662E-03
DAV:  15    -0.893746808026E+02   -0.11819E-05   -0.49874E-07  2400   0.232E-03    0.437E-03
DAV:  16    -0.893746815677E+02   -0.76503E-06   -0.31221E-07  2400   0.184E-03
   1 F= -.89374682E+02 E0= -.89374682E+02  d E =-.709489E-15
