As8S12
1.0
      5.6451328       0.0043903       1.3924017
     -0.4360269       8.7636104       1.7988579
     -0.1162175      -0.0703677      10.5963380
  As    S   
  8     12  
Direct
      0.6073047       0.6409621       0.3245958
      0.3926953       0.3590379       0.6754042
      0.1798399       0.8280811       0.1663993
      0.8201601       0.1719189       0.8336007
      0.6237814       0.3248738       0.1699105
      0.3762186       0.6751262       0.8300895
      0.0665196       0.1392782       0.3285700
      0.9334804       0.8607218       0.6714300
      0.0964437       0.0776433       0.1266616
      0.9035563       0.9223567       0.8733384
      0.4936499       0.8775863       0.2462478
      0.5063501       0.1224137       0.7537522
      0.2455737       0.3759884       0.2536342
      0.7544273       0.6240116       0.7463658
      0.9400934       0.7297665       0.3681491
      0.0599066       0.2702335       0.6318509
      0.6979078       0.2293245       0.3715390
      0.3020922       0.7706755       0.6284600
      0.7449622       0.5739449       0.1248335
      0.2550378       0.4260551       0.8751665
