unknown system                          
           1
     5.645133    0.004390    1.392402
    -0.436027    8.763610    1.798858
    -0.116218   -0.070368   10.596338
   As   S 
     8    12
Direct configuration=     1
   0.60730467  0.64096209  0.32459580
   0.39269533  0.35903791  0.67540420
   0.17983989  0.82808114  0.16639930
   0.82016011  0.17191886  0.83360070
   0.62378137  0.32487383  0.16991046
   0.37621863  0.67512617  0.83008954
   0.06651958  0.13927817  0.32857000
   0.93348042  0.86072183  0.67143000
   0.09644367  0.07764332  0.12666159
   0.90355633  0.92235668  0.87333841
   0.49364987  0.87758627  0.24624783
   0.50635013  0.12241373  0.75375217
   0.24557373  0.37598837  0.25363418
   0.75442727  0.62401163  0.74636582
   0.94009343  0.72976650  0.36814908
   0.05990657  0.27023350  0.63185092
   0.69790784  0.22932448  0.37153899
   0.30209216  0.77067552  0.62846001
   0.74496224  0.57394494  0.12483348
   0.25503776  0.42605506  0.87516652
