Na3 Cl1
1.0
   3.4864163499999998    0.0000000000000000   -0.0000000000000000
  -0.0000000000000000    3.4864163499999998    0.0000000000000000
  -0.0000000000000000   -0.0000000000000000    9.4869652299999991
Na Cl
3 1
direct
   0.0000000000000000    0.0000000000000000    0.5000000000000000 Na
   0.5000000000000000    0.5000000000000000    0.8256670200000000 Na
   0.5000000000000000    0.5000000000000000    0.1743329800000000 Na
   0.0000000000000000    0.0000000000000000   -0.0000000000000000 Cl
