W18 C8                                  
   1.00000000000000     
     5.4462739999999998   -4.5189940000000002    0.0000000000000000
     5.4462739999999998    4.5189940000000002    0.0000000000000000
     1.6966810000000001    0.0000000000000000    6.8705520000000000
   W    C 
    18     8
Direct
     0.1367320000000021    0.8046959999999999    0.8032800000000009
     0.1437000000000026    0.1427589999999981    0.4639260000000007
     0.1427589999999981    0.4639260000000007    0.1437000000000026
     0.8059379999999976    0.4732679999999974    0.4749610000000004
     0.8046959999999999    0.8032800000000009    0.1367320000000021
     0.8632679999999979    0.1967199999999991    0.1953040000000001
     0.8032800000000009    0.1367320000000021    0.8046959999999999
     0.4639260000000007    0.1437000000000026    0.1427589999999981
     0.8562999999999974    0.5360739999999993    0.8572410000000019
     0.4732679999999974    0.4749610000000004    0.8059379999999976
     0.8572410000000019    0.8562999999999974    0.5360739999999993
     0.5360739999999993    0.8572410000000019    0.8562999999999974
     0.4749610000000004    0.8059379999999976    0.4732679999999974
     0.5267320000000026    0.1940620000000024    0.5250389999999996
     0.5250389999999996    0.5267320000000026    0.1940620000000024
     0.1940620000000024    0.5250389999999996    0.5267320000000026
     0.1953040000000001    0.8632679999999979    0.1967199999999991
     0.1967199999999991    0.1953040000000001    0.8632679999999979
     0.1656720000000007    0.5000000000000000    0.8343279999999993
     0.8343279999999993    0.1656720000000007    0.5000000000000000
     0.0000000000000000    0.6677180000000007    0.3322819999999993
     0.5000000000000000    0.8343279999999993    0.1656720000000007
     0.0000000000000000    0.0000000000000000    0.0000000000000000
     0.6677180000000007    0.3322819999999993    0.0000000000000000
     0.5000000000000000    0.5000000000000000    0.5000000000000000
     0.3322819999999993    0.0000000000000000    0.6677180000000007
 
  0.00000000E+00  0.00000000E+00  0.00000000E+00
  0.00000000E+00  0.00000000E+00  0.00000000E+00
  0.00000000E+00  0.00000000E+00  0.00000000E+00
  0.00000000E+00  0.00000000E+00  0.00000000E+00
  0.00000000E+00  0.00000000E+00  0.00000000E+00
  0.00000000E+00  0.00000000E+00  0.00000000E+00
  0.00000000E+00  0.00000000E+00  0.00000000E+00
  0.00000000E+00  0.00000000E+00  0.00000000E+00
  0.00000000E+00  0.00000000E+00  0.00000000E+00
  0.00000000E+00  0.00000000E+00  0.00000000E+00
  0.00000000E+00  0.00000000E+00  0.00000000E+00
  0.00000000E+00  0.00000000E+00  0.00000000E+00
  0.00000000E+00  0.00000000E+00  0.00000000E+00
  0.00000000E+00  0.00000000E+00  0.00000000E+00
  0.00000000E+00  0.00000000E+00  0.00000000E+00
  0.00000000E+00  0.00000000E+00  0.00000000E+00
  0.00000000E+00  0.00000000E+00  0.00000000E+00
  0.00000000E+00  0.00000000E+00  0.00000000E+00
  0.00000000E+00  0.00000000E+00  0.00000000E+00
  0.00000000E+00  0.00000000E+00  0.00000000E+00
  0.00000000E+00  0.00000000E+00  0.00000000E+00
  0.00000000E+00  0.00000000E+00  0.00000000E+00
  0.00000000E+00  0.00000000E+00  0.00000000E+00
  0.00000000E+00  0.00000000E+00  0.00000000E+00
  0.00000000E+00  0.00000000E+00  0.00000000E+00
  0.00000000E+00  0.00000000E+00  0.00000000E+00
