W18C8
1.0
      5.4462740      -4.5189940       0.0000000
      5.4462740       4.5189940       0.0000000
      1.6966810       0.0000000       6.8705520
  W     C   
  18    8   
Direct
      0.1367320       0.8046960       0.8032800
      0.1437000       0.1427590       0.4639260
      0.1427590       0.4639260       0.1437000
      0.8059380       0.4732680       0.4749610
      0.8046960       0.8032800       0.1367320
      0.8632680       0.1967200       0.1953040
      0.8032800       0.1367320       0.8046960
      0.4639260       0.1437000       0.1427590
      0.8563000       0.5360740       0.8572410
      0.4732680       0.4749610       0.8059380
      0.8572410       0.8563000       0.5360740
      0.5360740       0.8572410       0.8563000
      0.4749610       0.8059380       0.4732680
      0.5267320       0.1940620       0.5250390
      0.5250390       0.5267320       0.1940620
      0.1940620       0.5250390       0.5267320
      0.1953040       0.8632680       0.1967200
      0.1967200       0.1953040       0.8632680
      0.1656720       0.5000000       0.8343280
      0.8343280       0.1656720       0.5000000
      0.0000000       0.6677180       0.3322820
      0.5000000       0.8343280       0.1656720
      0.0000000       0.0000000       0.0000000
      0.6677180       0.3322820       0.0000000
      0.5000000       0.5000000       0.5000000
      0.3322820       0.0000000       0.6677180
