unknown system                          
           1
     5.446274   -4.518994    0.000000
     5.446274    4.518994    0.000000
     1.696681    0.000000    6.870552
   W    C 
    18     8
Direct configuration=     1
   0.13673200  0.80469600  0.80328000
   0.14370000  0.14275900  0.46392600
   0.14275900  0.46392600  0.14370000
   0.80593800  0.47326800  0.47496100
   0.80469600  0.80328000  0.13673200
   0.86326800  0.19672000  0.19530400
   0.80328000  0.13673200  0.80469600
   0.46392600  0.14370000  0.14275900
   0.85630000  0.53607400  0.85724100
   0.47326800  0.47496100  0.80593800
   0.85724100  0.85630000  0.53607400
   0.53607400  0.85724100  0.85630000
   0.47496100  0.80593800  0.47326800
   0.52673200  0.19406200  0.52503900
   0.52503900  0.52673200  0.19406200
   0.19406200  0.52503900  0.52673200
   0.19530400  0.86326800  0.19672000
   0.19672000  0.19530400  0.86326800
   0.16567200  0.50000000  0.83432800
   0.83432800  0.16567200  0.50000000
   0.00000000  0.66771800  0.33228200
   0.50000000  0.83432800  0.16567200
   0.00000000  0.00000000  0.00000000
   0.66771800  0.33228200  0.00000000
   0.50000000  0.50000000  0.50000000
   0.33228200  0.00000000  0.66771800
