       N       E                     dE             d eps       ncg     rms          rms(c)
DAV:   1     0.907397216574E+03    0.90740E+03   -0.55137E+04 17000   0.159E+03
DAV:   2     0.157180732683E+02   -0.89168E+03   -0.83151E+03 18616   0.410E+02
DAV:   3    -0.548852702780E+02   -0.70603E+02   -0.69123E+02 20148   0.123E+02
DAV:   4    -0.557826850336E+02   -0.89741E+00   -0.89436E+00 18364   0.145E+01
DAV:   5    -0.557870869768E+02   -0.44019E-02   -0.44011E-02 18256   0.901E-01    0.221E+01
DAV:   6    -0.492825996815E+02    0.65045E+01   -0.10866E+01 23792   0.311E+01    0.155E+01
DAV:   7    -0.491686176889E+02    0.11398E+00   -0.30340E+00 17472   0.822E+00    0.797E+00
DAV:   8    -0.490795984150E+02    0.89019E-01   -0.36787E-01 17604   0.354E+00    0.120E+00
DAV:   9    -0.490661022568E+02    0.13496E-01   -0.74241E-02 20448   0.200E+00    0.359E-01
DAV:  10    -0.490675205187E+02   -0.14183E-02   -0.95865E-03 17384   0.656E-01    0.195E-01
DAV:  11    -0.490677128891E+02   -0.19237E-03   -0.88079E-04 20100   0.211E-01    0.551E-02
DAV:  12    -0.490678706342E+02   -0.15775E-03   -0.20022E-04 17612   0.739E-02    0.267E-02
DAV:  13    -0.490678872196E+02   -0.16585E-04   -0.20234E-05 19156   0.247E-02    0.905E-03
DAV:  14    -0.490678881530E+02   -0.93347E-06   -0.41411E-06 17036   0.122E-02
   1 F= -.49067888E+02 E0= -.49067888E+02  d E =-.118957E-12
