Cd4O8
1.0
      5.4047170       0.0000000       0.0000000
      0.0000000       5.4047170       0.0000000
      0.0000000       0.0000000       5.4047170
  Cd    O   
  4     8   
Direct
      0.5000000       0.0000000       0.0000000
      0.0000000       0.0000000       0.5000000
      0.0000000       0.5000000       0.0000000
      0.5000000       0.5000000       0.5000000
      0.0803240       0.4196760       0.5803240
      0.4196760       0.5803240       0.0803240
      0.5803240       0.0803240       0.4196760
      0.9196760       0.9196760       0.9196760
      0.0803240       0.0803240       0.0803240
      0.4196760       0.9196760       0.5803240
      0.5803240       0.4196760       0.9196760
      0.9196760       0.5803240       0.4196760
