Pb12 N72                                
   1.00000000000000     
     6.6963169999999996    0.0000000000000000    0.0000000000000000
     0.0000000000000000   11.8182310000000008    0.0000000000000000
     0.0000000000000000    0.0000000000000000   16.3868669999999987
   Pb   N 
    12    72
Direct
     0.1498459999999966    0.6237789999999990    0.9064270000000008
     0.1639389999999992    0.6270359999999968    0.5836350000000010
     0.6639389999999992    0.8729640000000032    0.5836350000000010
     0.9407780000000017    0.1312629999999970    0.7415579999999977
     0.8360610000000008    0.3729640000000032    0.0836350000000010
     0.6498459999999966    0.8762210000000010    0.9064270000000008
     0.3360610000000008    0.1270359999999968    0.0836350000000010
     0.4407780000000017    0.3687370000000030    0.7415579999999977
     0.3501540000000034    0.1237789999999990    0.4064270000000008
     0.5592219999999983    0.6312629999999970    0.2415579999999977
     0.8501540000000034    0.3762210000000010    0.4064270000000008
     0.0592219999999983    0.8687370000000030    0.2415579999999977
     0.6512579999999986    0.2278209999999987    0.3218689999999995
     0.2103299999999990    0.5027100000000004    0.4438040000000001
     0.6345039999999997    0.2198119999999975    0.8541590000000028
     0.9944109999999995    0.9972789999999989    0.8640619999999970
     0.1114790000000028    0.2632779999999997    0.5620990000000035
     0.1727300000000014    0.5882549999999966    0.2416070000000019
     0.7103299999999990    0.9972899999999996    0.4438040000000001
     0.5817740000000029    0.2635750000000030    0.4927520000000030
     0.1710119999999975    0.9946979999999996    0.5829409999999982
     0.8245720000000034    0.5021940000000029    0.5470129999999997
     0.8289880000000025    0.0053020000000004    0.0829409999999982
     0.1055240000000026    0.2634419999999977    0.9239639999999980
     0.8944759999999974    0.7365580000000023    0.4239639999999980
     0.1552799999999976    0.2748309999999989    0.2494129999999970
     0.8272699999999986    0.4117450000000034    0.7416070000000019
     0.8635650000000012    0.7105850000000018    0.1305369999999968
     0.2896700000000010    0.0027100000000004    0.9438040000000001
     0.1754279999999966    0.4978059999999971    0.0470129999999997
     0.0817740000000029    0.2364249999999970    0.4927520000000030
     0.6569390000000013    0.2199740000000006    0.1774550000000019
     0.6727300000000014    0.9117450000000034    0.2416070000000019
     0.1512579999999986    0.2721790000000013    0.3218689999999995
     0.4819880000000012    0.4917980000000028    0.1192309999999992
     0.3487420000000014    0.7721790000000013    0.8218689999999995
     0.8430609999999987    0.7199740000000006    0.6774550000000019
     0.1345039999999997    0.2801880000000025    0.8541590000000028
     0.7896700000000010    0.4972899999999996    0.9438040000000001
     0.3245720000000034    0.9978059999999971    0.5470129999999997
     0.0055890000000005    0.0027210000000011    0.3640619999999970
     0.6552799999999976    0.2251690000000011    0.2494129999999970
     0.6710119999999975    0.5053020000000004    0.5829409999999982
     0.3635650000000012    0.7894149999999982    0.1305369999999968
     0.8691109999999966    0.4851979999999969    0.2432259999999999
     0.8577470000000034    0.9994939999999986    0.4042540000000017
     0.3691109999999966    0.0148020000000031    0.2432259999999999
     0.1308890000000034    0.5148020000000031    0.7432259999999999
     0.4755469999999988    0.0363400000000027    0.7423429999999982
     0.0244530000000012    0.5363400000000027    0.2423429999999982
     0.5055890000000005    0.4972789999999989    0.3640619999999970
     0.8654960000000003    0.7198119999999975    0.3541590000000028
     0.9755469999999988    0.4636599999999973    0.7423429999999982
     0.6114790000000028    0.2367220000000003    0.5620990000000035
     0.1364349999999988    0.2894149999999982    0.6305369999999968
     0.6422529999999966    0.4994939999999986    0.9042540000000017
     0.3289880000000025    0.4946979999999996    0.0829409999999982
     0.8447200000000024    0.7251690000000011    0.7494129999999970
     0.6364349999999988    0.2105850000000018    0.6305369999999968
     0.0748660000000001    0.2453250000000011    0.9946490000000026
     0.9251339999999999    0.7546749999999989    0.4946490000000026
     0.3430609999999987    0.7800259999999994    0.6774550000000019
     0.5180119999999988    0.5082019999999972    0.6192309999999992
     0.4251339999999999    0.7453250000000011    0.4946490000000026
     0.8487420000000014    0.7278209999999987    0.8218689999999995
     0.3944759999999974    0.7634419999999977    0.4239639999999980
     0.1422529999999966    0.0005060000000014    0.9042540000000017
     0.3577470000000034    0.5005060000000014    0.4042540000000017
     0.9819880000000012    0.0082019999999972    0.1192309999999992
     0.4182259999999971    0.7364249999999970    0.9927520000000030
     0.6308890000000034    0.9851979999999969    0.7432259999999999
     0.5244530000000012    0.9636599999999973    0.2423429999999982
     0.5748660000000001    0.2546749999999989    0.9946490000000026
     0.9182259999999971    0.7635750000000030    0.9927520000000030
     0.3654960000000003    0.7801880000000025    0.3541590000000028
     0.3272699999999986    0.0882549999999966    0.7416070000000019
     0.6754279999999966    0.0021940000000029    0.0470129999999997
     0.4944109999999995    0.5027210000000011    0.8640619999999970
     0.3885209999999972    0.7632779999999997    0.0620990000000035
     0.8885209999999972    0.7367220000000003    0.0620990000000035
     0.3447200000000024    0.7748309999999989    0.7494129999999970
     0.6055240000000026    0.2365580000000023    0.9239639999999980
     0.1569390000000013    0.2800259999999994    0.1774550000000019
     0.0180119999999988    0.9917980000000028    0.6192309999999992
 
  0.00000000E+00  0.00000000E+00  0.00000000E+00
  0.00000000E+00  0.00000000E+00  0.00000000E+00
  0.00000000E+00  0.00000000E+00  0.00000000E+00
  0.00000000E+00  0.00000000E+00  0.00000000E+00
  0.00000000E+00  0.00000000E+00  0.00000000E+00
  0.00000000E+00  0.00000000E+00  0.00000000E+00
  0.00000000E+00  0.00000000E+00  0.00000000E+00
  0.00000000E+00  0.00000000E+00  0.00000000E+00
  0.00000000E+00  0.00000000E+00  0.00000000E+00
  0.00000000E+00  0.00000000E+00  0.00000000E+00
  0.00000000E+00  0.00000000E+00  0.00000000E+00
  0.00000000E+00  0.00000000E+00  0.00000000E+00
  0.00000000E+00  0.00000000E+00  0.00000000E+00
  0.00000000E+00  0.00000000E+00  0.00000000E+00
  0.00000000E+00  0.00000000E+00  0.00000000E+00
  0.00000000E+00  0.00000000E+00  0.00000000E+00
  0.00000000E+00  0.00000000E+00  0.00000000E+00
  0.00000000E+00  0.00000000E+00  0.00000000E+00
  0.00000000E+00  0.00000000E+00  0.00000000E+00
  0.00000000E+00  0.00000000E+00  0.00000000E+00
  0.00000000E+00  0.00000000E+00  0.00000000E+00
  0.00000000E+00  0.00000000E+00  0.00000000E+00
  0.00000000E+00  0.00000000E+00  0.00000000E+00
  0.00000000E+00  0.00000000E+00  0.00000000E+00
  0.00000000E+00  0.00000000E+00  0.00000000E+00
  0.00000000E+00  0.00000000E+00  0.00000000E+00
  0.00000000E+00  0.00000000E+00  0.00000000E+00
  0.00000000E+00  0.00000000E+00  0.00000000E+00
  0.00000000E+00  0.00000000E+00  0.00000000E+00
  0.00000000E+00  0.00000000E+00  0.00000000E+00
  0.00000000E+00  0.00000000E+00  0.00000000E+00
  0.00000000E+00  0.00000000E+00  0.00000000E+00
  0.00000000E+00  0.00000000E+00  0.00000000E+00
  0.00000000E+00  0.00000000E+00  0.00000000E+00
  0.00000000E+00  0.00000000E+00  0.00000000E+00
  0.00000000E+00  0.00000000E+00  0.00000000E+00
  0.00000000E+00  0.00000000E+00  0.00000000E+00
  0.00000000E+00  0.00000000E+00  0.00000000E+00
  0.00000000E+00  0.00000000E+00  0.00000000E+00
  0.00000000E+00  0.00000000E+00  0.00000000E+00
  0.00000000E+00  0.00000000E+00  0.00000000E+00
  0.00000000E+00  0.00000000E+00  0.00000000E+00
  0.00000000E+00  0.00000000E+00  0.00000000E+00
  0.00000000E+00  0.00000000E+00  0.00000000E+00
  0.00000000E+00  0.00000000E+00  0.00000000E+00
  0.00000000E+00  0.00000000E+00  0.00000000E+00
  0.00000000E+00  0.00000000E+00  0.00000000E+00
  0.00000000E+00  0.00000000E+00  0.00000000E+00
  0.00000000E+00  0.00000000E+00  0.00000000E+00
  0.00000000E+00  0.00000000E+00  0.00000000E+00
  0.00000000E+00  0.00000000E+00  0.00000000E+00
  0.00000000E+00  0.00000000E+00  0.00000000E+00
  0.00000000E+00  0.00000000E+00  0.00000000E+00
  0.00000000E+00  0.00000000E+00  0.00000000E+00
  0.00000000E+00  0.00000000E+00  0.00000000E+00
  0.00000000E+00  0.00000000E+00  0.00000000E+00
  0.00000000E+00  0.00000000E+00  0.00000000E+00
  0.00000000E+00  0.00000000E+00  0.00000000E+00
  0.00000000E+00  0.00000000E+00  0.00000000E+00
  0.00000000E+00  0.00000000E+00  0.00000000E+00
  0.00000000E+00  0.00000000E+00  0.00000000E+00
  0.00000000E+00  0.00000000E+00  0.00000000E+00
  0.00000000E+00  0.00000000E+00  0.00000000E+00
  0.00000000E+00  0.00000000E+00  0.00000000E+00
  0.00000000E+00  0.00000000E+00  0.00000000E+00
  0.00000000E+00  0.00000000E+00  0.00000000E+00
  0.00000000E+00  0.00000000E+00  0.00000000E+00
  0.00000000E+00  0.00000000E+00  0.00000000E+00
  0.00000000E+00  0.00000000E+00  0.00000000E+00
  0.00000000E+00  0.00000000E+00  0.00000000E+00
  0.00000000E+00  0.00000000E+00  0.00000000E+00
  0.00000000E+00  0.00000000E+00  0.00000000E+00
  0.00000000E+00  0.00000000E+00  0.00000000E+00
  0.00000000E+00  0.00000000E+00  0.00000000E+00
  0.00000000E+00  0.00000000E+00  0.00000000E+00
  0.00000000E+00  0.00000000E+00  0.00000000E+00
  0.00000000E+00  0.00000000E+00  0.00000000E+00
  0.00000000E+00  0.00000000E+00  0.00000000E+00
  0.00000000E+00  0.00000000E+00  0.00000000E+00
  0.00000000E+00  0.00000000E+00  0.00000000E+00
  0.00000000E+00  0.00000000E+00  0.00000000E+00
  0.00000000E+00  0.00000000E+00  0.00000000E+00
  0.00000000E+00  0.00000000E+00  0.00000000E+00
  0.00000000E+00  0.00000000E+00  0.00000000E+00
