  84  84   0   0
  0.1543850E+02  0.6696317E-09  0.1181823E-08  0.1638687E-08  0.5000000E-15
  1.000000000000000E-004
  CAR 
 unknown system                          
     14.67899353    -22.58493593  301      2.14123393      1.00000000
    -22.585  0.0000E+00  0.0000E+00
    -22.461  0.0000E+00  0.0000E+00
    -22.337  0.0000E+00  0.0000E+00
    -22.212  0.0000E+00  0.0000E+00
    -22.088  0.0000E+00  0.0000E+00
    -21.964  0.0000E+00  0.0000E+00
    -21.840  0.0000E+00  0.0000E+00
    -21.715  0.0000E+00  0.0000E+00
    -21.591  0.0000E+00  0.0000E+00
    -21.467  0.0000E+00  0.0000E+00
    -21.343  0.0000E+00  0.0000E+00
    -21.219  0.0000E+00  0.0000E+00
    -21.094  0.1976E-07  0.2454E-08
    -20.970  0.1245E+00  0.1547E-01
    -20.846  0.4712E+02  0.5868E+01
    -20.722  0.2114E+03  0.3213E+02
    -20.598  0.1268E+03  0.4788E+02
    -20.473  0.9862E+00  0.4800E+02
    -20.349  0.8710E-06  0.4800E+02
    -20.225  0.0000E+00  0.4800E+02
    -20.101  0.0000E+00  0.4800E+02
    -19.976  0.0000E+00  0.4800E+02
    -19.852  0.0000E+00  0.4800E+02
    -19.728  0.0000E+00  0.4800E+02
    -19.604  0.0000E+00  0.4800E+02
    -19.480  0.0000E+00  0.4800E+02
    -19.355  0.0000E+00  0.4800E+02
    -19.231  0.0000E+00  0.4800E+02
    -19.107  0.0000E+00  0.4800E+02
    -18.983  0.0000E+00  0.4800E+02
    -18.859  0.0000E+00  0.4800E+02
    -18.734  0.0000E+00  0.4800E+02
    -18.610  0.0000E+00  0.4800E+02
    -18.486  0.0000E+00  0.4800E+02
    -18.362  0.0000E+00  0.4800E+02
    -18.237  0.0000E+00  0.4800E+02
    -18.113  0.0000E+00  0.4800E+02
    -17.989  0.0000E+00  0.4800E+02
    -17.865  0.0000E+00  0.4800E+02
    -17.741  0.0000E+00  0.4800E+02
    -17.616  0.0000E+00  0.4800E+02
    -17.492  0.0000E+00  0.4800E+02
    -17.368  0.0000E+00  0.4800E+02
    -17.244  0.0000E+00  0.4800E+02
    -17.120  0.0000E+00  0.4800E+02
    -16.995  0.0000E+00  0.4800E+02
    -16.871  0.2468E-08  0.4800E+02
    -16.747  0.5393E-01  0.4801E+02
    -16.623  0.4126E+02  0.5313E+02
    -16.498  0.2509E+03  0.8430E+02
    -16.374  0.9413E+02  0.9599E+02
    -16.250  0.7775E-01  0.9600E+02
    -16.126  0.1158E-08  0.9600E+02
    -16.002  0.0000E+00  0.9600E+02
    -15.877  0.0000E+00  0.9600E+02
    -15.753  0.0000E+00  0.9600E+02
    -15.629  0.0000E+00  0.9600E+02
    -15.505  0.0000E+00  0.9600E+02
    -15.381  0.0000E+00  0.9600E+02
    -15.256  0.0000E+00  0.9600E+02
    -15.132  0.0000E+00  0.9600E+02
    -15.008  0.0000E+00  0.9600E+02
    -14.884  0.0000E+00  0.9600E+02
    -14.760  0.0000E+00  0.9600E+02
    -14.635  0.0000E+00  0.9600E+02
    -14.511  0.1409E-07  0.9600E+02
    -14.387  0.2801E+00  0.9603E+02
    -14.263  0.2293E+03  0.1245E+03
    -14.138  0.6400E+03  0.2040E+03
    -14.014  0.9650E+02  0.2160E+03
    -13.890  0.2074E-01  0.2160E+03
    -13.766  0.8220E-10  0.2160E+03
    -13.642  0.0000E+00  0.2160E+03
    -13.517  0.0000E+00  0.2160E+03
    -13.393  0.0000E+00  0.2160E+03
    -13.269  0.0000E+00  0.2160E+03
    -13.145  0.0000E+00  0.2160E+03
    -13.021  0.0000E+00  0.2160E+03
    -12.896  0.0000E+00  0.2160E+03
    -12.772  0.0000E+00  0.2160E+03
    -12.648  0.0000E+00  0.2160E+03
    -12.524  0.0000E+00  0.2160E+03
    -12.399  0.0000E+00  0.2160E+03
    -12.275  0.0000E+00  0.2160E+03
    -12.151  0.0000E+00  0.2160E+03
    -12.027  0.0000E+00  0.2160E+03
    -11.903  0.0000E+00  0.2160E+03
    -11.778  0.0000E+00  0.2160E+03
    -11.654  0.0000E+00  0.2160E+03
    -11.530  0.0000E+00  0.2160E+03
    -11.406  0.0000E+00  0.2160E+03
    -11.282  0.0000E+00  0.2160E+03
    -11.157  0.0000E+00  0.2160E+03
    -11.033  0.0000E+00  0.2160E+03
    -10.909  0.0000E+00  0.2160E+03
    -10.785  0.0000E+00  0.2160E+03
    -10.660  0.0000E+00  0.2160E+03
    -10.536  0.0000E+00  0.2160E+03
    -10.412  0.0000E+00  0.2160E+03
    -10.288  0.0000E+00  0.2160E+03
    -10.164  0.0000E+00  0.2160E+03
    -10.039  0.0000E+00  0.2160E+03
     -9.915  0.0000E+00  0.2160E+03
     -9.791  0.0000E+00  0.2160E+03
     -9.667  0.0000E+00  0.2160E+03
     -9.543  0.0000E+00  0.2160E+03
     -9.418  0.0000E+00  0.2160E+03
     -9.294  0.0000E+00  0.2160E+03
     -9.170  0.0000E+00  0.2160E+03
     -9.046  0.0000E+00  0.2160E+03
     -8.921  0.0000E+00  0.2160E+03
     -8.797  0.0000E+00  0.2160E+03
     -8.673  0.0000E+00  0.2160E+03
     -8.549  0.0000E+00  0.2160E+03
     -8.425  0.0000E+00  0.2160E+03
     -8.300  0.0000E+00  0.2160E+03
     -8.176  0.0000E+00  0.2160E+03
     -8.052  0.0000E+00  0.2160E+03
     -7.928  0.0000E+00  0.2160E+03
     -7.804  0.0000E+00  0.2160E+03
     -7.679  0.8537E-10  0.2160E+03
     -7.555  0.2915E-02  0.2160E+03
     -7.431  0.1487E+01  0.2162E+03
     -7.307  0.6859E+01  0.2170E+03
     -7.183  0.9901E+01  0.2183E+03
     -7.058  0.1251E+02  0.2198E+03
     -6.934  0.3795E+02  0.2245E+03
     -6.810  0.2923E+02  0.2282E+03
     -6.686  0.3530E+02  0.2326E+03
     -6.561  0.3101E+02  0.2364E+03
     -6.437  0.1780E+02  0.2386E+03
     -6.313  0.8613E+01  0.2397E+03
     -6.189  0.2470E+01  0.2400E+03
     -6.065  0.7881E-01  0.2400E+03
     -5.940  0.1345E-06  0.2400E+03
     -5.816  0.2268E-02  0.2400E+03
     -5.692  0.2797E+01  0.2403E+03
     -5.568  0.2522E+02  0.2435E+03
     -5.444  0.8527E+02  0.2541E+03
     -5.319  0.8445E+02  0.2646E+03
     -5.195  0.7891E+02  0.2744E+03
     -5.071  0.7774E+02  0.2840E+03
     -4.947  0.6649E+02  0.2923E+03
     -4.822  0.8437E+02  0.3028E+03
     -4.698  0.9860E+02  0.3150E+03
     -4.574  0.1428E+03  0.3327E+03
     -4.450  0.1363E+03  0.3497E+03
     -4.326  0.6641E+02  0.3579E+03
     -4.201  0.5471E+02  0.3647E+03
     -4.077  0.1995E+02  0.3672E+03
     -3.953  0.4729E+02  0.3731E+03
     -3.829  0.2503E+02  0.3762E+03
     -3.705  0.3372E+02  0.3804E+03
     -3.580  0.3013E+02  0.3841E+03
     -3.456  0.1917E+02  0.3865E+03
     -3.332  0.2918E+02  0.3901E+03
     -3.208  0.4485E+02  0.3957E+03
     -3.083  0.4879E+02  0.4017E+03
     -2.959  0.4646E+02  0.4075E+03
     -2.835  0.4030E+02  0.4125E+03
     -2.711  0.3570E+02  0.4170E+03
     -2.587  0.1312E+02  0.4186E+03
     -2.462  0.4784E+01  0.4192E+03
     -2.338  0.1251E+02  0.4207E+03
     -2.214  0.6214E+01  0.4215E+03
     -2.090  0.1334E+02  0.4232E+03
     -1.966  0.1246E+02  0.4247E+03
     -1.841  0.1872E+02  0.4270E+03
     -1.717  0.8828E+01  0.4281E+03
     -1.593  0.2422E+02  0.4311E+03
     -1.469  0.2846E+01  0.4315E+03
     -1.344  0.2788E+01  0.4318E+03
     -1.220  0.1279E+01  0.4320E+03
     -1.096  0.1347E-03  0.4320E+03
     -0.972  0.1283E-12  0.4320E+03
     -0.848  0.0000E+00  0.4320E+03
     -0.723  0.0000E+00  0.4320E+03
     -0.599  0.0000E+00  0.4320E+03
     -0.475  0.4009E-07  0.4320E+03
     -0.351  0.4821E-01  0.4320E+03
     -0.227  0.2383E+01  0.4323E+03
     -0.102  0.9827E+01  0.4335E+03
      0.022  0.1875E+02  0.4359E+03
      0.146  0.3122E+02  0.4397E+03
      0.270  0.4211E+02  0.4450E+03
      0.394  0.4051E+02  0.4500E+03
      0.519  0.4298E+02  0.4553E+03
      0.643  0.4615E+02  0.4611E+03
      0.767  0.6462E+02  0.4691E+03
      0.891  0.7464E+02  0.4784E+03
      1.016  0.9716E+02  0.4904E+03
      1.140  0.8608E+02  0.5011E+03
      1.264  0.6719E+02  0.5095E+03
      1.388  0.6872E+02  0.5180E+03
      1.512  0.5403E+02  0.5247E+03
      1.637  0.1375E+02  0.5264E+03
      1.761  0.1027E+02  0.5277E+03
      1.885  0.2364E+01  0.5280E+03
      2.009  0.5849E-01  0.5280E+03
      2.133  0.6411E-07  0.5280E+03
      2.258  0.0000E+00  0.5280E+03
      2.382  0.0000E+00  0.5280E+03
      2.506  0.0000E+00  0.5280E+03
      2.630  0.0000E+00  0.5280E+03
      2.755  0.0000E+00  0.5280E+03
      2.879  0.0000E+00  0.5280E+03
      3.003  0.0000E+00  0.5280E+03
      3.127  0.0000E+00  0.5280E+03
      3.251  0.0000E+00  0.5280E+03
      3.376  0.0000E+00  0.5280E+03
      3.500  0.0000E+00  0.5280E+03
      3.624  0.0000E+00  0.5280E+03
      3.748  0.0000E+00  0.5280E+03
      3.872  0.1158E-10  0.5280E+03
      3.997  0.1500E-02  0.5280E+03
      4.121  0.2237E+01  0.5283E+03
      4.245  0.3174E+01  0.5287E+03
      4.369  0.1578E+02  0.5306E+03
      4.494  0.6016E+01  0.5314E+03
      4.618  0.4656E+01  0.5320E+03
      4.742  0.1504E+02  0.5338E+03
      4.866  0.5398E+02  0.5405E+03
      4.990  0.3616E+02  0.5450E+03
      5.115  0.3072E+02  0.5488E+03
      5.239  0.3809E+02  0.5536E+03
      5.363  0.3247E+02  0.5576E+03
      5.487  0.3442E+02  0.5619E+03
      5.611  0.3714E+02  0.5665E+03
      5.736  0.5258E+02  0.5730E+03
      5.860  0.4260E+02  0.5783E+03
      5.984  0.3643E+02  0.5828E+03
      6.108  0.2840E+02  0.5864E+03
      6.233  0.1127E+02  0.5878E+03
      6.357  0.3064E+02  0.5916E+03
      6.481  0.2906E+02  0.5952E+03
      6.605  0.2513E+02  0.5983E+03
      6.729  0.3117E+02  0.6022E+03
      6.854  0.5801E+02  0.6094E+03
      6.978  0.8239E+02  0.6196E+03
      7.102  0.6043E+02  0.6271E+03
      7.226  0.5645E+02  0.6341E+03
      7.350  0.3656E+02  0.6387E+03
      7.475  0.3164E+02  0.6426E+03
      7.599  0.2753E+02  0.6460E+03
      7.723  0.3981E+02  0.6510E+03
      7.847  0.2299E+02  0.6538E+03
      7.971  0.1567E+02  0.6558E+03
      8.096  0.3294E+02  0.6599E+03
      8.220  0.2694E+02  0.6632E+03
      8.344  0.3270E+02  0.6673E+03
      8.468  0.2969E+02  0.6710E+03
      8.593  0.2938E+02  0.6746E+03
      8.717  0.4173E+02  0.6798E+03
      8.841  0.3337E+02  0.6839E+03
      8.965  0.2252E+02  0.6867E+03
      9.089  0.2421E+02  0.6897E+03
      9.214  0.3553E+02  0.6942E+03
      9.338  0.1542E+02  0.6961E+03
      9.462  0.7961E+01  0.6971E+03
      9.586  0.1570E+02  0.6990E+03
      9.710  0.1449E+02  0.7008E+03
      9.835  0.2366E+02  0.7037E+03
      9.959  0.1807E+02  0.7060E+03
     10.083  0.1543E+02  0.7079E+03
     10.207  0.1576E+02  0.7099E+03
     10.332  0.2406E+02  0.7129E+03
     10.456  0.2912E+02  0.7165E+03
     10.580  0.1720E+02  0.7186E+03
     10.704  0.1341E+02  0.7203E+03
     10.828  0.1577E+02  0.7222E+03
     10.953  0.2249E+02  0.7250E+03
     11.077  0.2985E+02  0.7287E+03
     11.201  0.2677E+02  0.7321E+03
     11.325  0.3323E+02  0.7362E+03
     11.449  0.2291E+02  0.7390E+03
     11.574  0.1657E+02  0.7411E+03
     11.698  0.1852E+02  0.7434E+03
     11.822  0.2721E+02  0.7468E+03
     11.946  0.5536E+02  0.7537E+03
     12.071  0.3437E+02  0.7579E+03
     12.195  0.4903E+02  0.7640E+03
     12.319  0.4470E+02  0.7696E+03
     12.443  0.3957E+02  0.7745E+03
     12.567  0.5128E+02  0.7808E+03
     12.692  0.3471E+02  0.7852E+03
     12.816  0.3500E+02  0.7895E+03
     12.940  0.1412E+02  0.7913E+03
     13.064  0.5907E+01  0.7920E+03
     13.188  0.3618E-01  0.7920E+03
     13.313  0.1009E-07  0.7920E+03
     13.437  0.0000E+00  0.7920E+03
     13.561  0.0000E+00  0.7920E+03
     13.685  0.0000E+00  0.7920E+03
     13.810  0.0000E+00  0.7920E+03
     13.934  0.0000E+00  0.7920E+03
     14.058  0.0000E+00  0.7920E+03
     14.182  0.0000E+00  0.7920E+03
     14.306  0.0000E+00  0.7920E+03
     14.431  0.0000E+00  0.7920E+03
     14.555  0.0000E+00  0.7920E+03
     14.679  0.0000E+00  0.7920E+03
