Pb12N72
1.0
      6.6963170       0.0000000       0.0000000
      0.0000000      11.8182310       0.0000000
      0.0000000       0.0000000      16.3868670
  Pb    N   
  12    72  
Direct
      0.1498460       0.6237790       0.9064270
      0.1639390       0.6270360       0.5836350
      0.6639390       0.8729640       0.5836350
      0.9407780       0.1312630       0.7415580
      0.8360610       0.3729640       0.0836350
      0.6498460       0.8762210       0.9064270
      0.3360610       0.1270360       0.0836350
      0.4407780       0.3687370       0.7415580
      0.3501540       0.1237790       0.4064270
      0.5592220       0.6312630       0.2415580
      0.8501540       0.3762210       0.4064270
      0.0592220       0.8687370       0.2415580
      0.6512580       0.2278210       0.3218690
      0.2103300       0.5027100       0.4438040
      0.6345040       0.2198120       0.8541590
      0.9944110       0.9972790       0.8640620
      0.1114790       0.2632780       0.5620990
      0.1727300       0.5882550       0.2416070
      0.7103300       0.9972900       0.4438040
      0.5817740       0.2635750       0.4927520
      0.1710120       0.9946980       0.5829410
      0.8245720       0.5021940       0.5470130
      0.8289880       0.0053020       0.0829410
      0.1055240       0.2634420       0.9239640
      0.8944760       0.7365580       0.4239640
      0.1552800       0.2748310       0.2494130
      0.8272700       0.4117450       0.7416070
      0.8635650       0.7105850       0.1305370
      0.2896700       0.0027100       0.9438040
      0.1754280       0.4978060       0.0470130
      0.0817740       0.2364250       0.4927520
      0.6569390       0.2199740       0.1774550
      0.6727300       0.9117450       0.2416070
      0.1512580       0.2721790       0.3218690
      0.4819880       0.4917980       0.1192310
      0.3487420       0.7721790       0.8218690
      0.8430610       0.7199740       0.6774550
      0.1345040       0.2801880       0.8541590
      0.7896700       0.4972900       0.9438040
      0.3245720       0.9978060       0.5470130
      0.0055890       0.0027210       0.3640620
      0.6552800       0.2251690       0.2494130
      0.6710120       0.5053020       0.5829410
      0.3635650       0.7894150       0.1305370
      0.8691110       0.4851980       0.2432260
      0.8577470       0.9994940       0.4042540
      0.3691110       0.0148020       0.2432260
      0.1308890       0.5148020       0.7432260
      0.4755470       0.0363400       0.7423430
      0.0244530       0.5363400       0.2423430
      0.5055890       0.4972790       0.3640620
      0.8654960       0.7198120       0.3541590
      0.9755470       0.4636600       0.7423430
      0.6114790       0.2367220       0.5620990
      0.1364350       0.2894150       0.6305370
      0.6422530       0.4994940       0.9042540
      0.3289880       0.4946980       0.0829410
      0.8447200       0.7251690       0.7494130
      0.6364350       0.2105850       0.6305370
      0.0748660       0.2453250       0.9946490
      0.9251340       0.7546750       0.4946490
      0.3430610       0.7800260       0.6774550
      0.5180120       0.5082020       0.6192310
      0.4251340       0.7453250       0.4946490
      0.8487420       0.7278210       0.8218690
      0.3944760       0.7634420       0.4239640
      0.1422530       0.0005060       0.9042540
      0.3577470       0.5005060       0.4042540
      0.9819880       0.0082020       0.1192310
      0.4182260       0.7364250       0.9927520
      0.6308890       0.9851980       0.7432260
      0.5244530       0.9636600       0.2423430
      0.5748660       0.2546750       0.9946490
      0.9182260       0.7635750       0.9927520
      0.3654960       0.7801880       0.3541590
      0.3272700       0.0882550       0.7416070
      0.6754280       0.0021940       0.0470130
      0.4944110       0.5027210       0.8640620
      0.3885210       0.7632780       0.0620990
      0.8885210       0.7367220       0.0620990
      0.3447200       0.7748310       0.7494130
      0.6055240       0.2365580       0.9239640
      0.1569390       0.2800260       0.1774550
      0.0180120       0.9917980       0.6192310
