       N       E                     dE             d eps       ncg     rms          rms(c)
DAV:   1     0.142455761907E+03    0.14246E+03   -0.11291E+04 35232   0.130E+03
DAV:   2    -0.164276486290E+02   -0.15888E+03   -0.15319E+03 40664   0.350E+02
DAV:   3    -0.194922282799E+02   -0.30646E+01   -0.30471E+01 41120   0.506E+01
DAV:   4    -0.195041866379E+02   -0.11958E-01   -0.11958E-01 43800   0.355E+00
DAV:   5    -0.195042488443E+02   -0.62206E-04   -0.62208E-04 41040   0.243E-01    0.252E+01
DAV:   6    -0.179974891213E+02    0.15068E+01   -0.78915E+00 43360   0.345E+01    0.778E+00
DAV:   7    -0.172228868022E+02    0.77460E+00   -0.19781E+00 40864   0.166E+01    0.643E+00
DAV:   8    -0.171974084327E+02    0.25478E-01   -0.94163E-02 39680   0.313E+00    0.107E+00
DAV:   9    -0.171973758339E+02    0.32599E-04   -0.20144E-03 42048   0.437E-01    0.215E-01
DAV:  10    -0.171972767354E+02    0.99099E-04   -0.53096E-04 41920   0.238E-01    0.775E-02
DAV:  11    -0.171972647607E+02    0.11975E-04   -0.19273E-05 41992   0.482E-02    0.228E-02
DAV:  12    -0.171972661933E+02   -0.14326E-05   -0.35975E-06 40480   0.159E-02    0.566E-03
DAV:  13    -0.171972663180E+02   -0.12475E-06   -0.16475E-07 18944   0.317E-03
   1 F= -.17197266E+02 E0= -.17196244E+02  d E =-.204464E-02
