   5   5   0   0
  0.2468634E+02  0.4979001E-09  0.4979001E-09  0.4979001E-09  0.5000000E-15
  1.000000000000000E-004
  CAR 
 unknown system                          
      7.46472500    -34.69918900  301      2.37770923      1.00000000
    -34.699  0.0000E+00  0.0000E+00
    -34.559  0.0000E+00  0.0000E+00
    -34.418  0.0000E+00  0.0000E+00
    -34.278  0.0000E+00  0.0000E+00
    -34.137  0.0000E+00  0.0000E+00
    -33.996  0.0000E+00  0.0000E+00
    -33.856  0.0000E+00  0.0000E+00
    -33.715  0.0000E+00  0.0000E+00
    -33.575  0.0000E+00  0.0000E+00
    -33.434  0.0000E+00  0.0000E+00
    -33.294  0.0000E+00  0.0000E+00
    -33.153  0.0000E+00  0.0000E+00
    -33.013  0.6287E-11  0.8836E-12
    -32.872  0.2616E-02  0.3676E-03
    -32.732  0.5531E+01  0.7777E+00
    -32.591  0.3442E+02  0.5615E+01
    -32.450  0.2737E+01  0.6000E+01
    -32.310  0.9076E-05  0.6000E+01
    -32.169  0.0000E+00  0.6000E+01
    -32.029  0.0000E+00  0.6000E+01
    -31.888  0.0000E+00  0.6000E+01
    -31.748  0.0000E+00  0.6000E+01
    -31.607  0.0000E+00  0.6000E+01
    -31.467  0.0000E+00  0.6000E+01
    -31.326  0.0000E+00  0.6000E+01
    -31.186  0.0000E+00  0.6000E+01
    -31.045  0.0000E+00  0.6000E+01
    -30.904  0.0000E+00  0.6000E+01
    -30.764  0.0000E+00  0.6000E+01
    -30.623  0.0000E+00  0.6000E+01
    -30.483  0.0000E+00  0.6000E+01
    -30.342  0.0000E+00  0.6000E+01
    -30.202  0.0000E+00  0.6000E+01
    -30.061  0.0000E+00  0.6000E+01
    -29.921  0.0000E+00  0.6000E+01
    -29.780  0.0000E+00  0.6000E+01
    -29.640  0.0000E+00  0.6000E+01
    -29.499  0.0000E+00  0.6000E+01
    -29.358  0.0000E+00  0.6000E+01
    -29.218  0.0000E+00  0.6000E+01
    -29.077  0.0000E+00  0.6000E+01
    -28.937  0.0000E+00  0.6000E+01
    -28.796  0.0000E+00  0.6000E+01
    -28.656  0.0000E+00  0.6000E+01
    -28.515  0.0000E+00  0.6000E+01
    -28.375  0.0000E+00  0.6000E+01
    -28.234  0.0000E+00  0.6000E+01
    -28.094  0.0000E+00  0.6000E+01
    -27.953  0.0000E+00  0.6000E+01
    -27.812  0.0000E+00  0.6000E+01
    -27.672  0.0000E+00  0.6000E+01
    -27.531  0.0000E+00  0.6000E+01
    -27.391  0.0000E+00  0.6000E+01
    -27.250  0.0000E+00  0.6000E+01
    -27.110  0.0000E+00  0.6000E+01
    -26.969  0.0000E+00  0.6000E+01
    -26.829  0.0000E+00  0.6000E+01
    -26.688  0.0000E+00  0.6000E+01
    -26.547  0.0000E+00  0.6000E+01
    -26.407  0.0000E+00  0.6000E+01
    -26.266  0.0000E+00  0.6000E+01
    -26.126  0.0000E+00  0.6000E+01
    -25.985  0.0000E+00  0.6000E+01
    -25.845  0.0000E+00  0.6000E+01
    -25.704  0.0000E+00  0.6000E+01
    -25.564  0.0000E+00  0.6000E+01
    -25.423  0.0000E+00  0.6000E+01
    -25.283  0.0000E+00  0.6000E+01
    -25.142  0.0000E+00  0.6000E+01
    -25.001  0.0000E+00  0.6000E+01
    -24.861  0.0000E+00  0.6000E+01
    -24.720  0.0000E+00  0.6000E+01
    -24.580  0.0000E+00  0.6000E+01
    -24.439  0.0000E+00  0.6000E+01
    -24.299  0.0000E+00  0.6000E+01
    -24.158  0.0000E+00  0.6000E+01
    -24.018  0.0000E+00  0.6000E+01
    -23.877  0.0000E+00  0.6000E+01
    -23.737  0.0000E+00  0.6000E+01
    -23.596  0.0000E+00  0.6000E+01
    -23.455  0.0000E+00  0.6000E+01
    -23.315  0.0000E+00  0.6000E+01
    -23.174  0.0000E+00  0.6000E+01
    -23.034  0.0000E+00  0.6000E+01
    -22.893  0.0000E+00  0.6000E+01
    -22.753  0.0000E+00  0.6000E+01
    -22.612  0.0000E+00  0.6000E+01
    -22.472  0.0000E+00  0.6000E+01
    -22.331  0.0000E+00  0.6000E+01
    -22.191  0.0000E+00  0.6000E+01
    -22.050  0.0000E+00  0.6000E+01
    -21.909  0.0000E+00  0.6000E+01
    -21.769  0.0000E+00  0.6000E+01
    -21.628  0.0000E+00  0.6000E+01
    -21.488  0.0000E+00  0.6000E+01
    -21.347  0.0000E+00  0.6000E+01
    -21.207  0.0000E+00  0.6000E+01
    -21.066  0.0000E+00  0.6000E+01
    -20.926  0.0000E+00  0.6000E+01
    -20.785  0.0000E+00  0.6000E+01
    -20.645  0.0000E+00  0.6000E+01
    -20.504  0.0000E+00  0.6000E+01
    -20.363  0.0000E+00  0.6000E+01
    -20.223  0.0000E+00  0.6000E+01
    -20.082  0.0000E+00  0.6000E+01
    -19.942  0.0000E+00  0.6000E+01
    -19.801  0.0000E+00  0.6000E+01
    -19.661  0.0000E+00  0.6000E+01
    -19.520  0.0000E+00  0.6000E+01
    -19.380  0.0000E+00  0.6000E+01
    -19.239  0.0000E+00  0.6000E+01
    -19.099  0.0000E+00  0.6000E+01
    -18.958  0.0000E+00  0.6000E+01
    -18.817  0.0000E+00  0.6000E+01
    -18.677  0.0000E+00  0.6000E+01
    -18.536  0.0000E+00  0.6000E+01
    -18.396  0.0000E+00  0.6000E+01
    -18.255  0.0000E+00  0.6000E+01
    -18.115  0.0000E+00  0.6000E+01
    -17.974  0.0000E+00  0.6000E+01
    -17.834  0.0000E+00  0.6000E+01
    -17.693  0.0000E+00  0.6000E+01
    -17.553  0.0000E+00  0.6000E+01
    -17.412  0.0000E+00  0.6000E+01
    -17.271  0.0000E+00  0.6000E+01
    -17.131  0.0000E+00  0.6000E+01
    -16.990  0.0000E+00  0.6000E+01
    -16.850  0.0000E+00  0.6000E+01
    -16.709  0.0000E+00  0.6000E+01
    -16.569  0.0000E+00  0.6000E+01
    -16.428  0.0000E+00  0.6000E+01
    -16.288  0.0000E+00  0.6000E+01
    -16.147  0.0000E+00  0.6000E+01
    -16.007  0.1947E-07  0.6000E+01
    -15.866  0.6039E-01  0.6008E+01
    -15.725  0.8445E+00  0.6127E+01
    -15.585  0.1703E+01  0.6367E+01
    -15.444  0.1796E+01  0.6619E+01
    -15.304  0.4367E+01  0.7233E+01
    -15.163  0.9420E+01  0.8557E+01
    -15.023  0.2097E+02  0.1150E+02
    -14.882  0.1498E+02  0.1361E+02
    -14.742  0.2152E+02  0.1663E+02
    -14.601  0.1713E+02  0.1904E+02
    -14.461  0.1153E+02  0.2066E+02
    -14.320  0.1573E+02  0.2287E+02
    -14.179  0.7905E+01  0.2398E+02
    -14.039  0.1118E+00  0.2400E+02
    -13.898  0.4787E-08  0.2400E+02
    -13.758  0.0000E+00  0.2400E+02
    -13.617  0.0000E+00  0.2400E+02
    -13.477  0.0000E+00  0.2400E+02
    -13.336  0.0000E+00  0.2400E+02
    -13.196  0.0000E+00  0.2400E+02
    -13.055  0.0000E+00  0.2400E+02
    -12.915  0.0000E+00  0.2400E+02
    -12.774  0.0000E+00  0.2400E+02
    -12.633  0.0000E+00  0.2400E+02
    -12.493  0.0000E+00  0.2400E+02
    -12.352  0.0000E+00  0.2400E+02
    -12.212  0.0000E+00  0.2400E+02
    -12.071  0.0000E+00  0.2400E+02
    -11.931  0.0000E+00  0.2400E+02
    -11.790  0.0000E+00  0.2400E+02
    -11.650  0.0000E+00  0.2400E+02
    -11.509  0.0000E+00  0.2400E+02
    -11.368  0.0000E+00  0.2400E+02
    -11.228  0.0000E+00  0.2400E+02
    -11.087  0.0000E+00  0.2400E+02
    -10.947  0.0000E+00  0.2400E+02
    -10.806  0.0000E+00  0.2400E+02
    -10.666  0.0000E+00  0.2400E+02
    -10.525  0.0000E+00  0.2400E+02
    -10.385  0.0000E+00  0.2400E+02
    -10.244  0.1264E-16  0.2400E+02
    -10.104  0.1371E-05  0.2400E+02
     -9.963  0.4578E-01  0.2401E+02
     -9.822  0.6820E-01  0.2402E+02
     -9.682  0.4610E+00  0.2408E+02
     -9.541  0.2428E+00  0.2411E+02
     -9.401  0.1298E+01  0.2430E+02
     -9.260  0.8481E+00  0.2442E+02
     -9.120  0.1025E+01  0.2456E+02
     -8.979  0.2495E+01  0.2491E+02
     -8.839  0.2398E+01  0.2525E+02
     -8.698  0.4309E+01  0.2585E+02
     -8.558  0.1249E+02  0.2761E+02
     -8.417  0.1873E+01  0.2787E+02
     -8.276  0.7484E-01  0.2788E+02
     -8.136  0.8320E+00  0.2800E+02
     -7.995  0.4495E-02  0.2800E+02
     -7.855  0.2524E-10  0.2800E+02
     -7.714  0.0000E+00  0.2800E+02
     -7.574  0.0000E+00  0.2800E+02
     -7.433  0.0000E+00  0.2800E+02
     -7.293  0.0000E+00  0.2800E+02
     -7.152  0.0000E+00  0.2800E+02
     -7.012  0.0000E+00  0.2800E+02
     -6.871  0.0000E+00  0.2800E+02
     -6.730  0.0000E+00  0.2800E+02
     -6.590  0.0000E+00  0.2800E+02
     -6.449  0.0000E+00  0.2800E+02
     -6.309  0.0000E+00  0.2800E+02
     -6.168  0.0000E+00  0.2800E+02
     -6.028  0.0000E+00  0.2800E+02
     -5.887  0.0000E+00  0.2800E+02
     -5.747  0.0000E+00  0.2800E+02
     -5.606  0.0000E+00  0.2800E+02
     -5.466  0.0000E+00  0.2800E+02
     -5.325  0.0000E+00  0.2800E+02
     -5.184  0.0000E+00  0.2800E+02
     -5.044  0.0000E+00  0.2800E+02
     -4.903  0.0000E+00  0.2800E+02
     -4.763  0.0000E+00  0.2800E+02
     -4.622  0.0000E+00  0.2800E+02
     -4.482  0.0000E+00  0.2800E+02
     -4.341  0.0000E+00  0.2800E+02
     -4.201  0.0000E+00  0.2800E+02
     -4.060  0.0000E+00  0.2800E+02
     -3.920  0.0000E+00  0.2800E+02
     -3.779  0.0000E+00  0.2800E+02
     -3.638  0.0000E+00  0.2800E+02
     -3.498  0.0000E+00  0.2800E+02
     -3.357  0.0000E+00  0.2800E+02
     -3.217  0.0000E+00  0.2800E+02
     -3.076  0.0000E+00  0.2800E+02
     -2.936  0.0000E+00  0.2800E+02
     -2.795  0.0000E+00  0.2800E+02
     -2.655  0.0000E+00  0.2800E+02
     -2.514  0.0000E+00  0.2800E+02
     -2.374  0.0000E+00  0.2800E+02
     -2.233  0.0000E+00  0.2800E+02
     -2.092  0.0000E+00  0.2800E+02
     -1.952  0.0000E+00  0.2800E+02
     -1.811  0.0000E+00  0.2800E+02
     -1.671  0.0000E+00  0.2800E+02
     -1.530  0.0000E+00  0.2800E+02
     -1.390  0.0000E+00  0.2800E+02
     -1.249  0.0000E+00  0.2800E+02
     -1.109  0.0000E+00  0.2800E+02
     -0.968  0.0000E+00  0.2800E+02
     -0.828  0.0000E+00  0.2800E+02
     -0.687  0.0000E+00  0.2800E+02
     -0.546  0.0000E+00  0.2800E+02
     -0.406  0.3451E-09  0.2800E+02
     -0.265  0.1552E-01  0.2800E+02
     -0.125  0.2402E+01  0.2834E+02
      0.016  0.5711E+01  0.2914E+02
      0.156  0.4374E+01  0.2976E+02
      0.297  0.3025E+01  0.3018E+02
      0.437  0.1164E+01  0.3035E+02
      0.578  0.4064E+00  0.3040E+02
      0.718  0.5407E+01  0.3116E+02
      0.859  0.4300E+01  0.3177E+02
      1.000  0.2483E+01  0.3212E+02
      1.140  0.3738E+01  0.3264E+02
      1.281  0.3308E+01  0.3311E+02
      1.421  0.1017E+02  0.3454E+02
      1.562  0.8662E+01  0.3575E+02
      1.702  0.1233E+02  0.3749E+02
      1.843  0.1252E+02  0.3925E+02
      1.983  0.3699E+01  0.3977E+02
      2.124  0.1048E+01  0.3991E+02
      2.265  0.3864E+00  0.3997E+02
      2.405  0.3016E+00  0.4001E+02
      2.546  0.3902E-01  0.4002E+02
      2.686  0.2726E-05  0.4002E+02
      2.827  0.2123E+00  0.4005E+02
      2.967  0.4705E+00  0.4011E+02
      3.108  0.1702E-03  0.4011E+02
      3.248  0.1424E+00  0.4013E+02
      3.389  0.1445E+01  0.4034E+02
      3.529  0.2283E+00  0.4037E+02
      3.670  0.1771E+01  0.4062E+02
      3.811  0.2870E+00  0.4066E+02
      3.951  0.1142E+01  0.4082E+02
      4.092  0.4201E+01  0.4141E+02
      4.232  0.4204E+01  0.4200E+02
      4.373  0.3614E+01  0.4251E+02
      4.513  0.1792E+01  0.4276E+02
      4.654  0.3094E+01  0.4319E+02
      4.794  0.7463E+01  0.4424E+02
      4.935  0.6436E+01  0.4515E+02
      5.075  0.1796E+01  0.4540E+02
      5.216  0.2180E+01  0.4570E+02
      5.357  0.8744E+01  0.4693E+02
      5.497  0.3012E+01  0.4736E+02
      5.638  0.4558E+01  0.4800E+02
      5.778  0.1516E-01  0.4800E+02
      5.919  0.6530E-10  0.4800E+02
      6.059  0.0000E+00  0.4800E+02
      6.200  0.0000E+00  0.4800E+02
      6.340  0.0000E+00  0.4800E+02
      6.481  0.0000E+00  0.4800E+02
      6.621  0.0000E+00  0.4800E+02
      6.762  0.0000E+00  0.4800E+02
      6.903  0.0000E+00  0.4800E+02
      7.043  0.0000E+00  0.4800E+02
      7.184  0.0000E+00  0.4800E+02
      7.324  0.0000E+00  0.4800E+02
      7.465  0.0000E+00  0.4800E+02
