       N       E                     dE             d eps       ncg     rms          rms(c)
DAV:   1     0.173366022475E+03    0.17337E+03   -0.14125E+04  8960   0.137E+03
DAV:   2    -0.171702021946E+02   -0.19054E+03   -0.18413E+03 12328   0.258E+02
DAV:   3    -0.322632266873E+02   -0.15093E+02   -0.14963E+02 10488   0.799E+01
DAV:   4    -0.325211142065E+02   -0.25789E+00   -0.25768E+00 10828   0.108E+01
DAV:   5    -0.325266746330E+02   -0.55604E-02   -0.55600E-02 10404   0.139E+00    0.172E+01
DAV:   6    -0.250057211911E+02    0.75210E+01   -0.46692E+01  9596   0.438E+01    0.910E+00
DAV:   7    -0.245094021358E+02    0.49632E+00   -0.82452E+00 10104   0.161E+01    0.475E+00
DAV:   8    -0.243144306425E+02    0.19497E+00   -0.79694E-01 11920   0.685E+00    0.309E+00
DAV:   9    -0.242475089361E+02    0.66922E-01   -0.35564E-01  9724   0.407E+00    0.906E-01
DAV:  10    -0.242367337056E+02    0.10775E-01   -0.67480E-02 11708   0.198E+00    0.357E-01
DAV:  11    -0.242366422823E+02    0.91423E-04   -0.17764E-02  9852   0.848E-01    0.249E-01
DAV:  12    -0.242366860643E+02   -0.43782E-04   -0.31292E-03 10612   0.392E-01    0.802E-02
DAV:  13    -0.242367751088E+02   -0.89044E-04   -0.40089E-04  9968   0.150E-01    0.267E-02
DAV:  14    -0.242367762663E+02   -0.11575E-05   -0.80794E-05 11036   0.505E-02    0.136E-02
DAV:  15    -0.242367854116E+02   -0.91453E-05   -0.18243E-05  9892   0.269E-02    0.452E-03
DAV:  16    -0.242367856958E+02   -0.28420E-06   -0.42648E-06 10484   0.120E-02
   1 F= -.24236786E+02 E0= -.24236489E+02  d E =-.593339E-03
