  21  21   0   0
  0.9344781E+01  0.4715893E-09  0.4715893E-09  0.1018896E-08  0.5000000E-15
  1.000000000000000E-004
  CAR 
 unknown system                          
     19.14645414    -20.99002526  301      3.37616245      1.00000000
    -20.990  0.0000E+00  0.0000E+00
    -20.856  0.0000E+00  0.0000E+00
    -20.722  0.0000E+00  0.0000E+00
    -20.589  0.0000E+00  0.0000E+00
    -20.455  0.0000E+00  0.0000E+00
    -20.321  0.0000E+00  0.0000E+00
    -20.187  0.0000E+00  0.0000E+00
    -20.054  0.0000E+00  0.0000E+00
    -19.920  0.0000E+00  0.0000E+00
    -19.786  0.0000E+00  0.0000E+00
    -19.652  0.0000E+00  0.0000E+00
    -19.518  0.0000E+00  0.0000E+00
    -19.385  0.4388E-10  0.5871E-11
    -19.251  0.1598E-02  0.2138E-03
    -19.117  0.4526E+00  0.6076E-01
    -18.983  0.3321E+01  0.5051E+00
    -18.849  0.4551E+01  0.1114E+01
    -18.716  0.3365E+01  0.1564E+01
    -18.582  0.8008E+01  0.2635E+01
    -18.448  0.3925E+01  0.3161E+01
    -18.314  0.4227E+01  0.3726E+01
    -18.180  0.1392E+02  0.5588E+01
    -18.047  0.1149E+01  0.5742E+01
    -17.913  0.1920E+01  0.5999E+01
    -17.779  0.7451E-02  0.6000E+01
    -17.645  0.2082E-09  0.6000E+01
    -17.512  0.3495E-05  0.6000E+01
    -17.378  0.4531E+00  0.6061E+01
    -17.244  0.2040E+01  0.6334E+01
    -17.110  0.3301E+01  0.6775E+01
    -16.976  0.1400E+02  0.8649E+01
    -16.843  0.1379E+01  0.8833E+01
    -16.709  0.1325E-01  0.8835E+01
    -16.575  0.3710E+01  0.9331E+01
    -16.441  0.3732E+01  0.9831E+01
    -16.307  0.3633E+01  0.1032E+02
    -16.174  0.3856E+01  0.1083E+02
    -16.040  0.5016E-02  0.1083E+02
    -15.906  0.2908E-10  0.1083E+02
    -15.772  0.1311E-03  0.1083E+02
    -15.638  0.1605E+01  0.1105E+02
    -15.505  0.5766E+01  0.1182E+02
    -15.371  0.1160E+00  0.1183E+02
    -15.237  0.2046E+01  0.1211E+02
    -15.103  0.1505E+01  0.1231E+02
    -14.970  0.1302E+02  0.1405E+02
    -14.836  0.2897E+01  0.1444E+02
    -14.702  0.1204E+02  0.1605E+02
    -14.568  0.6960E+01  0.1698E+02
    -14.434  0.7197E+01  0.1794E+02
    -14.301  0.1651E+01  0.1817E+02
    -14.167  0.1300E+00  0.1818E+02
    -14.033  0.6879E+01  0.1910E+02
    -13.899  0.1076E+02  0.2054E+02
    -13.765  0.7834E+01  0.2159E+02
    -13.632  0.8735E+01  0.2276E+02
    -13.498  0.6805E+01  0.2367E+02
    -13.364  0.2282E+01  0.2398E+02
    -13.230  0.1849E+00  0.2400E+02
    -13.097  0.2503E-06  0.2400E+02
    -12.963  0.0000E+00  0.2400E+02
    -12.829  0.0000E+00  0.2400E+02
    -12.695  0.0000E+00  0.2400E+02
    -12.561  0.0000E+00  0.2400E+02
    -12.428  0.0000E+00  0.2400E+02
    -12.294  0.0000E+00  0.2400E+02
    -12.160  0.0000E+00  0.2400E+02
    -12.026  0.0000E+00  0.2400E+02
    -11.892  0.0000E+00  0.2400E+02
    -11.759  0.0000E+00  0.2400E+02
    -11.625  0.0000E+00  0.2400E+02
    -11.491  0.0000E+00  0.2400E+02
    -11.357  0.0000E+00  0.2400E+02
    -11.223  0.9524E-13  0.2400E+02
    -11.090  0.1584E-03  0.2400E+02
    -10.956  0.6406E+00  0.2409E+02
    -10.822  0.6052E+00  0.2417E+02
    -10.688  0.1696E+01  0.2439E+02
    -10.555  0.2520E+01  0.2473E+02
    -10.421  0.4442E+01  0.2532E+02
    -10.287  0.2195E+01  0.2562E+02
    -10.153  0.6089E+01  0.2643E+02
    -10.019  0.7592E+01  0.2745E+02
     -9.886  0.1639E+01  0.2767E+02
     -9.752  0.3763E+01  0.2817E+02
     -9.618  0.4285E+01  0.2874E+02
     -9.484  0.3324E+01  0.2919E+02
     -9.350  0.1041E+02  0.3058E+02
     -9.217  0.8142E+01  0.3167E+02
     -9.083  0.1417E+01  0.3186E+02
     -8.949  0.5254E+01  0.3256E+02
     -8.815  0.2060E+01  0.3284E+02
     -8.682  0.2333E+01  0.3315E+02
     -8.548  0.1130E+00  0.3317E+02
     -8.414  0.2787E-05  0.3317E+02
     -8.280  0.4188E+00  0.3322E+02
     -8.146  0.3176E+01  0.3365E+02
     -8.013  0.4825E+01  0.3429E+02
     -7.879  0.8932E+01  0.3549E+02
     -7.745  0.8941E-01  0.3550E+02
     -7.611  0.6027E-08  0.3550E+02
     -7.477  0.2874E-05  0.3550E+02
     -7.344  0.4269E+00  0.3556E+02
     -7.210  0.4617E+01  0.3617E+02
     -7.076  0.2454E+01  0.3650E+02
     -6.942  0.3709E+01  0.3700E+02
     -6.808  0.6295E+00  0.3708E+02
     -6.675  0.1033E+02  0.3847E+02
     -6.541  0.5414E+01  0.3919E+02
     -6.407  0.1069E+01  0.3933E+02
     -6.273  0.1544E+00  0.3935E+02
     -6.140  0.6275E+01  0.4019E+02
     -6.006  0.8022E+01  0.4127E+02
     -5.872  0.1049E+01  0.4141E+02
     -5.738  0.6341E+01  0.4226E+02
     -5.604  0.9082E+01  0.4347E+02
     -5.471  0.1139E+02  0.4499E+02
     -5.337  0.3126E+01  0.4541E+02
     -5.203  0.4765E+01  0.4605E+02
     -5.069  0.2776E+01  0.4642E+02
     -4.935  0.8535E+00  0.4654E+02
     -4.802  0.3805E+01  0.4704E+02
     -4.668  0.4311E+01  0.4762E+02
     -4.534  0.4121E+01  0.4817E+02
     -4.400  0.7245E+01  0.4914E+02
     -4.266  0.9392E+01  0.5040E+02
     -4.133  0.7125E+01  0.5135E+02
     -3.999  0.9551E+01  0.5263E+02
     -3.865  0.1177E+02  0.5420E+02
     -3.731  0.1026E+02  0.5558E+02
     -3.598  0.1141E+02  0.5710E+02
     -3.464  0.6688E+01  0.5800E+02
     -3.330  0.7863E+01  0.5905E+02
     -3.196  0.5426E+01  0.5978E+02
     -3.062  0.2670E+01  0.6013E+02
     -2.929  0.2466E+00  0.6017E+02
     -2.795  0.6929E-01  0.6018E+02
     -2.661  0.6489E+01  0.6104E+02
     -2.527  0.6445E+01  0.6191E+02
     -2.393  0.4394E+01  0.6249E+02
     -2.260  0.4257E+01  0.6306E+02
     -2.126  0.5179E+01  0.6376E+02
     -1.992  0.1145E+02  0.6529E+02
     -1.858  0.2813E+01  0.6566E+02
     -1.725  0.1729E+01  0.6590E+02
     -1.591  0.1580E+01  0.6611E+02
     -1.457  0.6001E+01  0.6691E+02
     -1.323  0.3489E+01  0.6738E+02
     -1.189  0.4921E+01  0.6804E+02
     -1.056  0.9403E+01  0.6929E+02
     -0.922  0.8581E+01  0.7044E+02
     -0.788  0.4627E+01  0.7106E+02
     -0.654  0.2082E+01  0.7134E+02
     -0.520  0.2858E+01  0.7172E+02
     -0.387  0.9531E+01  0.7300E+02
     -0.253  0.9200E+01  0.7423E+02
     -0.119  0.8458E+01  0.7536E+02
      0.015  0.8373E+01  0.7648E+02
      0.149  0.4919E+01  0.7714E+02
      0.282  0.6005E+01  0.7794E+02
      0.416  0.2045E+01  0.7821E+02
      0.550  0.3277E+01  0.7865E+02
      0.684  0.3395E+00  0.7870E+02
      0.817  0.7713E+01  0.7973E+02
      0.951  0.9549E+01  0.8101E+02
      1.085  0.1156E+02  0.8255E+02
      1.219  0.8231E+01  0.8365E+02
      1.353  0.3831E+01  0.8417E+02
      1.486  0.5307E+01  0.8488E+02
      1.620  0.1553E+01  0.8508E+02
      1.754  0.1053E+02  0.8649E+02
      1.888  0.7208E+01  0.8746E+02
      2.022  0.2952E+01  0.8785E+02
      2.155  0.5718E+01  0.8862E+02
      2.289  0.4455E+01  0.8921E+02
      2.423  0.8728E+01  0.9038E+02
      2.557  0.1037E+02  0.9177E+02
      2.690  0.1112E+02  0.9326E+02
      2.824  0.4515E+01  0.9386E+02
      2.958  0.6469E+01  0.9473E+02
      3.092  0.9270E+01  0.9597E+02
      3.226  0.2464E+00  0.9600E+02
      3.359  0.1016E-05  0.9600E+02
      3.493  0.0000E+00  0.9600E+02
      3.627  0.0000E+00  0.9600E+02
      3.761  0.0000E+00  0.9600E+02
      3.895  0.0000E+00  0.9600E+02
      4.028  0.0000E+00  0.9600E+02
      4.162  0.0000E+00  0.9600E+02
      4.296  0.0000E+00  0.9600E+02
      4.430  0.0000E+00  0.9600E+02
      4.564  0.0000E+00  0.9600E+02
      4.697  0.0000E+00  0.9600E+02
      4.831  0.0000E+00  0.9600E+02
      4.965  0.0000E+00  0.9600E+02
      5.099  0.2802E-07  0.9600E+02
      5.232  0.9001E-01  0.9601E+02
      5.366  0.5384E+01  0.9673E+02
      5.500  0.4761E+01  0.9737E+02
      5.634  0.1223E+02  0.9901E+02
      5.768  0.1459E+02  0.1010E+03
      5.901  0.1063E+02  0.1024E+03
      6.035  0.3654E+01  0.1029E+03
      6.169  0.2206E+01  0.1032E+03
      6.303  0.7858E-01  0.1032E+03
      6.437  0.3544E+01  0.1036E+03
      6.570  0.3522E+01  0.1041E+03
      6.704  0.4367E+01  0.1047E+03
      6.838  0.1445E+01  0.1049E+03
      6.972  0.2003E+01  0.1052E+03
      7.106  0.1289E+00  0.1052E+03
      7.239  0.5540E+01  0.1059E+03
      7.373  0.6573E+01  0.1068E+03
      7.507  0.6152E+01  0.1076E+03
      7.641  0.1316E+01  0.1078E+03
      7.774  0.5927E+00  0.1079E+03
      7.908  0.7705E+00  0.1080E+03
      8.042  0.1121E+00  0.1080E+03
      8.176  0.2864E-05  0.1080E+03
      8.310  0.4757E-03  0.1080E+03
      8.443  0.1186E+00  0.1080E+03
      8.577  0.2773E-01  0.1080E+03
      8.711  0.9805E+00  0.1082E+03
      8.845  0.1355E+00  0.1082E+03
      8.979  0.1578E+01  0.1084E+03
      9.112  0.2098E+01  0.1087E+03
      9.246  0.6897E+01  0.1096E+03
      9.380  0.6249E+01  0.1104E+03
      9.514  0.5031E+01  0.1111E+03
      9.647  0.5484E+01  0.1118E+03
      9.781  0.5047E+01  0.1125E+03
      9.915  0.4575E+01  0.1131E+03
     10.049  0.8346E+01  0.1142E+03
     10.183  0.8502E+01  0.1154E+03
     10.316  0.7129E+01  0.1163E+03
     10.450  0.4099E+01  0.1169E+03
     10.584  0.1064E+02  0.1183E+03
     10.718  0.5385E+01  0.1190E+03
     10.852  0.3450E+01  0.1195E+03
     10.985  0.6412E+01  0.1203E+03
     11.119  0.5869E+01  0.1211E+03
     11.253  0.5282E+01  0.1218E+03
     11.387  0.9705E+01  0.1231E+03
     11.521  0.1209E+02  0.1247E+03
     11.654  0.1107E+02  0.1262E+03
     11.788  0.4092E+01  0.1268E+03
     11.922  0.2923E+01  0.1272E+03
     12.056  0.5571E+01  0.1279E+03
     12.189  0.4855E+01  0.1286E+03
     12.323  0.4686E+01  0.1292E+03
     12.457  0.3091E+01  0.1296E+03
     12.591  0.6090E+01  0.1304E+03
     12.725  0.8843E+01  0.1316E+03
     12.858  0.9958E+01  0.1329E+03
     12.992  0.1173E+02  0.1345E+03
     13.126  0.5557E+01  0.1352E+03
     13.260  0.8375E+01  0.1364E+03
     13.394  0.5793E+01  0.1371E+03
     13.527  0.4464E+01  0.1377E+03
     13.661  0.5953E+01  0.1385E+03
     13.795  0.7582E+01  0.1395E+03
     13.929  0.6944E+01  0.1405E+03
     14.063  0.6170E+01  0.1413E+03
     14.196  0.8591E+01  0.1424E+03
     14.330  0.1204E+02  0.1441E+03
     14.464  0.9066E+01  0.1453E+03
     14.598  0.1008E+02  0.1466E+03
     14.731  0.6815E+01  0.1475E+03
     14.865  0.7863E+01  0.1486E+03
     14.999  0.9098E+01  0.1498E+03
     15.133  0.6755E+01  0.1507E+03
     15.267  0.9973E+01  0.1520E+03
     15.400  0.6117E+01  0.1529E+03
     15.534  0.9345E+01  0.1541E+03
     15.668  0.6810E+01  0.1550E+03
     15.802  0.6825E+01  0.1559E+03
     15.936  0.8071E+01  0.1570E+03
     16.069  0.8875E+01  0.1582E+03
     16.203  0.8423E+01  0.1593E+03
     16.337  0.1191E+02  0.1609E+03
     16.471  0.3987E+01  0.1615E+03
     16.604  0.5620E+01  0.1622E+03
     16.738  0.4767E+01  0.1628E+03
     16.872  0.1077E+02  0.1643E+03
     17.006  0.1205E+02  0.1659E+03
     17.140  0.9789E+01  0.1672E+03
     17.273  0.5481E+01  0.1679E+03
     17.407  0.4653E+00  0.1680E+03
     17.541  0.1141E-02  0.1680E+03
     17.675  0.4109E-10  0.1680E+03
     17.809  0.0000E+00  0.1680E+03
     17.942  0.0000E+00  0.1680E+03
     18.076  0.0000E+00  0.1680E+03
     18.210  0.0000E+00  0.1680E+03
     18.344  0.0000E+00  0.1680E+03
     18.478  0.0000E+00  0.1680E+03
     18.611  0.0000E+00  0.1680E+03
     18.745  0.0000E+00  0.1680E+03
     18.879  0.0000E+00  0.1680E+03
     19.013  0.0000E+00  0.1680E+03
     19.146  0.0000E+00  0.1680E+03
