       N       E                     dE             d eps       ncg     rms          rms(c)
DAV:   1     0.481341300162E+03    0.48134E+03   -0.53264E+04 18144   0.121E+03
DAV:   2    -0.150682813494E+03   -0.63202E+03   -0.59029E+03 22480   0.305E+02
DAV:   3    -0.187998469664E+03   -0.37316E+02   -0.36762E+02 22712   0.710E+01
DAV:   4    -0.188444958221E+03   -0.44649E+00   -0.44517E+00 23368   0.794E+00
DAV:   5    -0.188454201913E+03   -0.92437E-02   -0.92370E-02 22808   0.102E+00    0.245E+01
DAV:   6    -0.177683251845E+03    0.10771E+02   -0.18384E+01 23440   0.181E+01    0.122E+01
DAV:   7    -0.176573520146E+03    0.11097E+01   -0.31921E+00 22304   0.688E+00    0.729E+00
DAV:   8    -0.176290693674E+03    0.28283E+00   -0.11352E+00 22080   0.340E+00    0.180E+00
DAV:   9    -0.176283503664E+03    0.71900E-02   -0.54461E-02 21784   0.105E+00    0.691E-01
DAV:  10    -0.176284018119E+03   -0.51445E-03   -0.15480E-02 21376   0.526E-01    0.126E-01
DAV:  11    -0.176284431335E+03   -0.41322E-03   -0.92409E-04 22568   0.117E-01    0.682E-02
DAV:  12    -0.176284615955E+03   -0.18462E-03   -0.14248E-04 20048   0.466E-02    0.243E-02
DAV:  13    -0.176284661038E+03   -0.45083E-04   -0.45841E-05 21096   0.297E-02    0.623E-03
DAV:  14    -0.176284662523E+03   -0.14846E-05   -0.31665E-06 21728   0.738E-03    0.389E-03
DAV:  15    -0.176284662984E+03   -0.46124E-06   -0.42014E-07 15600   0.288E-03
   1 F= -.17628466E+03 E0= -.17628466E+03  d E =-.140976E-19
