C9 N12
1.0
   2.3579469999999998   -4.0840829999999997    0.0000000000000000
   2.3579469999999998    4.0840829999999997    0.0000000000000000
   0.0000000000000000    0.0000000000000000   10.1889590000000005
C N
9 12
direct
   0.8367210000000000    0.9718380000000000    0.3218400000000000 C
   0.3080240000000000    0.4443910000000000    0.3329770000000000 C
   0.8377050000000000    0.4463280000000000    0.3450240000000000 C
   0.5536720000000001    0.3913770000000000    0.6783580000000000 C
   0.0281620000000000    0.8648830000000000    0.6551740000000000 C
   0.5556090000000000    0.8636330000000000    0.6663110000000000 C
   0.1363670000000000    0.6919760000000000    0.9996440000000000 C
   0.6086230000000000    0.1622950000000000    0.0116910000000000 C
   0.1351170000000000    0.1632790000000000    0.9885070000000000 C
   0.8690300000000000    0.0255370000000000    0.6269640000000000 N
   0.3934840000000000    0.5514559999999999    0.7055620000000000 N
   0.8746300000000000    0.5442669999999999    0.6670630000000000 N
   0.4557330000000000    0.3303630000000000    0.0003960000000000 N
   0.9744630000000000    0.8434940000000000    0.9602980000000000 N
   0.4485440000000000    0.8420280000000000    0.0388960000000000 N
   0.1579720000000000    0.6065160000000001    0.3722290000000000 N
   0.6696370000000000    0.1253700000000000    0.3337300000000000 N
   0.1565060000000000    0.1309700000000000    0.2936310000000000 N
   0.6626700000000000    0.6216980000000000    0.3338040000000000 N
   0.3783020000000000    0.0409720000000000    0.6671370000000000 N
   0.9590280000000000    0.3373300000000000    0.0004700000000000 N
