   5   5   0   0
  0.2263388E+02  0.5277768E-09  0.5277769E-09  0.5277769E-09  0.5000000E-15
  1.000000000000000E-004
  CAR 
 unknown system                          
     22.36733200    -64.44127823  301      2.73363113      1.00000000
    -64.441  0.0000E+00  0.0000E+00
    -64.152  0.0000E+00  0.0000E+00
    -63.863  0.0000E+00  0.0000E+00
    -63.573  0.0000E+00  0.0000E+00
    -63.284  0.0000E+00  0.0000E+00
    -62.994  0.0000E+00  0.0000E+00
    -62.705  0.0000E+00  0.0000E+00
    -62.416  0.0000E+00  0.0000E+00
    -62.126  0.0000E+00  0.0000E+00
    -61.837  0.0000E+00  0.0000E+00
    -61.548  0.0000E+00  0.0000E+00
    -61.258  0.0000E+00  0.0000E+00
    -60.969  0.0000E+00  0.0000E+00
    -60.680  0.1944E-05  0.5626E-06
    -60.390  0.2070E+02  0.5991E+01
    -60.101  0.3056E-01  0.6000E+01
    -59.811  0.0000E+00  0.6000E+01
    -59.522  0.0000E+00  0.6000E+01
    -59.233  0.0000E+00  0.6000E+01
    -58.943  0.0000E+00  0.6000E+01
    -58.654  0.0000E+00  0.6000E+01
    -58.365  0.0000E+00  0.6000E+01
    -58.075  0.0000E+00  0.6000E+01
    -57.786  0.0000E+00  0.6000E+01
    -57.497  0.0000E+00  0.6000E+01
    -57.207  0.0000E+00  0.6000E+01
    -56.918  0.0000E+00  0.6000E+01
    -56.629  0.0000E+00  0.6000E+01
    -56.339  0.0000E+00  0.6000E+01
    -56.050  0.0000E+00  0.6000E+01
    -55.760  0.0000E+00  0.6000E+01
    -55.471  0.0000E+00  0.6000E+01
    -55.182  0.0000E+00  0.6000E+01
    -54.892  0.0000E+00  0.6000E+01
    -54.603  0.0000E+00  0.6000E+01
    -54.314  0.0000E+00  0.6000E+01
    -54.024  0.0000E+00  0.6000E+01
    -53.735  0.0000E+00  0.6000E+01
    -53.446  0.0000E+00  0.6000E+01
    -53.156  0.0000E+00  0.6000E+01
    -52.867  0.0000E+00  0.6000E+01
    -52.577  0.0000E+00  0.6000E+01
    -52.288  0.0000E+00  0.6000E+01
    -51.999  0.0000E+00  0.6000E+01
    -51.709  0.0000E+00  0.6000E+01
    -51.420  0.0000E+00  0.6000E+01
    -51.131  0.0000E+00  0.6000E+01
    -50.841  0.0000E+00  0.6000E+01
    -50.552  0.0000E+00  0.6000E+01
    -50.263  0.0000E+00  0.6000E+01
    -49.973  0.0000E+00  0.6000E+01
    -49.684  0.0000E+00  0.6000E+01
    -49.394  0.0000E+00  0.6000E+01
    -49.105  0.0000E+00  0.6000E+01
    -48.816  0.0000E+00  0.6000E+01
    -48.526  0.0000E+00  0.6000E+01
    -48.237  0.0000E+00  0.6000E+01
    -47.948  0.0000E+00  0.6000E+01
    -47.658  0.0000E+00  0.6000E+01
    -47.369  0.0000E+00  0.6000E+01
    -47.080  0.0000E+00  0.6000E+01
    -46.790  0.0000E+00  0.6000E+01
    -46.501  0.0000E+00  0.6000E+01
    -46.211  0.0000E+00  0.6000E+01
    -45.922  0.0000E+00  0.6000E+01
    -45.633  0.0000E+00  0.6000E+01
    -45.343  0.0000E+00  0.6000E+01
    -45.054  0.0000E+00  0.6000E+01
    -44.765  0.0000E+00  0.6000E+01
    -44.475  0.0000E+00  0.6000E+01
    -44.186  0.0000E+00  0.6000E+01
    -43.897  0.0000E+00  0.6000E+01
    -43.607  0.0000E+00  0.6000E+01
    -43.318  0.0000E+00  0.6000E+01
    -43.028  0.0000E+00  0.6000E+01
    -42.739  0.0000E+00  0.6000E+01
    -42.450  0.0000E+00  0.6000E+01
    -42.160  0.0000E+00  0.6000E+01
    -41.871  0.0000E+00  0.6000E+01
    -41.582  0.0000E+00  0.6000E+01
    -41.292  0.0000E+00  0.6000E+01
    -41.003  0.0000E+00  0.6000E+01
    -40.714  0.0000E+00  0.6000E+01
    -40.424  0.0000E+00  0.6000E+01
    -40.135  0.0000E+00  0.6000E+01
    -39.846  0.0000E+00  0.6000E+01
    -39.556  0.0000E+00  0.6000E+01
    -39.267  0.0000E+00  0.6000E+01
    -38.977  0.0000E+00  0.6000E+01
    -38.688  0.0000E+00  0.6000E+01
    -38.399  0.0000E+00  0.6000E+01
    -38.109  0.0000E+00  0.6000E+01
    -37.820  0.0000E+00  0.6000E+01
    -37.531  0.0000E+00  0.6000E+01
    -37.241  0.0000E+00  0.6000E+01
    -36.952  0.0000E+00  0.6000E+01
    -36.663  0.0000E+00  0.6000E+01
    -36.373  0.0000E+00  0.6000E+01
    -36.084  0.0000E+00  0.6000E+01
    -35.794  0.0000E+00  0.6000E+01
    -35.505  0.0000E+00  0.6000E+01
    -35.216  0.0000E+00  0.6000E+01
    -34.926  0.0000E+00  0.6000E+01
    -34.637  0.0000E+00  0.6000E+01
    -34.348  0.0000E+00  0.6000E+01
    -34.058  0.0000E+00  0.6000E+01
    -33.769  0.0000E+00  0.6000E+01
    -33.480  0.0000E+00  0.6000E+01
    -33.190  0.0000E+00  0.6000E+01
    -32.901  0.0000E+00  0.6000E+01
    -32.611  0.0000E+00  0.6000E+01
    -32.322  0.0000E+00  0.6000E+01
    -32.033  0.0000E+00  0.6000E+01
    -31.743  0.0000E+00  0.6000E+01
    -31.454  0.0000E+00  0.6000E+01
    -31.165  0.0000E+00  0.6000E+01
    -30.875  0.0000E+00  0.6000E+01
    -30.586  0.0000E+00  0.6000E+01
    -30.297  0.0000E+00  0.6000E+01
    -30.007  0.0000E+00  0.6000E+01
    -29.718  0.0000E+00  0.6000E+01
    -29.428  0.0000E+00  0.6000E+01
    -29.139  0.0000E+00  0.6000E+01
    -28.850  0.0000E+00  0.6000E+01
    -28.560  0.0000E+00  0.6000E+01
    -28.271  0.0000E+00  0.6000E+01
    -27.982  0.0000E+00  0.6000E+01
    -27.692  0.0000E+00  0.6000E+01
    -27.403  0.0000E+00  0.6000E+01
    -27.114  0.0000E+00  0.6000E+01
    -26.824  0.0000E+00  0.6000E+01
    -26.535  0.0000E+00  0.6000E+01
    -26.245  0.0000E+00  0.6000E+01
    -25.956  0.0000E+00  0.6000E+01
    -25.667  0.0000E+00  0.6000E+01
    -25.377  0.0000E+00  0.6000E+01
    -25.088  0.0000E+00  0.6000E+01
    -24.799  0.0000E+00  0.6000E+01
    -24.509  0.0000E+00  0.6000E+01
    -24.220  0.0000E+00  0.6000E+01
    -23.931  0.0000E+00  0.6000E+01
    -23.641  0.0000E+00  0.6000E+01
    -23.352  0.0000E+00  0.6000E+01
    -23.063  0.0000E+00  0.6000E+01
    -22.773  0.0000E+00  0.6000E+01
    -22.484  0.0000E+00  0.6000E+01
    -22.194  0.0000E+00  0.6000E+01
    -21.905  0.0000E+00  0.6000E+01
    -21.616  0.0000E+00  0.6000E+01
    -21.326  0.0000E+00  0.6000E+01
    -21.037  0.0000E+00  0.6000E+01
    -20.748  0.0000E+00  0.6000E+01
    -20.458  0.0000E+00  0.6000E+01
    -20.169  0.0000E+00  0.6000E+01
    -19.880  0.0000E+00  0.6000E+01
    -19.590  0.0000E+00  0.6000E+01
    -19.301  0.0000E+00  0.6000E+01
    -19.011  0.0000E+00  0.6000E+01
    -18.722  0.0000E+00  0.6000E+01
    -18.433  0.0000E+00  0.6000E+01
    -18.143  0.0000E+00  0.6000E+01
    -17.854  0.0000E+00  0.6000E+01
    -17.565  0.0000E+00  0.6000E+01
    -17.275  0.0000E+00  0.6000E+01
    -16.986  0.0000E+00  0.6000E+01
    -16.697  0.0000E+00  0.6000E+01
    -16.407  0.0000E+00  0.6000E+01
    -16.118  0.0000E+00  0.6000E+01
    -15.828  0.0000E+00  0.6000E+01
    -15.539  0.0000E+00  0.6000E+01
    -15.250  0.0000E+00  0.6000E+01
    -14.960  0.0000E+00  0.6000E+01
    -14.671  0.0000E+00  0.6000E+01
    -14.382  0.0000E+00  0.6000E+01
    -14.092  0.0000E+00  0.6000E+01
    -13.803  0.0000E+00  0.6000E+01
    -13.514  0.0000E+00  0.6000E+01
    -13.224  0.0000E+00  0.6000E+01
    -12.935  0.0000E+00  0.6000E+01
    -12.645  0.0000E+00  0.6000E+01
    -12.356  0.0000E+00  0.6000E+01
    -12.067  0.0000E+00  0.6000E+01
    -11.777  0.0000E+00  0.6000E+01
    -11.488  0.0000E+00  0.6000E+01
    -11.199  0.0000E+00  0.6000E+01
    -10.909  0.0000E+00  0.6000E+01
    -10.620  0.0000E+00  0.6000E+01
    -10.331  0.0000E+00  0.6000E+01
    -10.041  0.0000E+00  0.6000E+01
     -9.752  0.0000E+00  0.6000E+01
     -9.462  0.0000E+00  0.6000E+01
     -9.173  0.0000E+00  0.6000E+01
     -8.884  0.0000E+00  0.6000E+01
     -8.594  0.0000E+00  0.6000E+01
     -8.305  0.0000E+00  0.6000E+01
     -8.016  0.0000E+00  0.6000E+01
     -7.726  0.0000E+00  0.6000E+01
     -7.437  0.0000E+00  0.6000E+01
     -7.148  0.0000E+00  0.6000E+01
     -6.858  0.0000E+00  0.6000E+01
     -6.569  0.0000E+00  0.6000E+01
     -6.280  0.5389E-02  0.6002E+01
     -5.990  0.3423E+00  0.6101E+01
     -5.701  0.8697E+00  0.6352E+01
     -5.411  0.1996E+01  0.6930E+01
     -5.122  0.5424E+01  0.8499E+01
     -4.833  0.1846E+02  0.1384E+02
     -4.543  0.1778E+02  0.1899E+02
     -4.254  0.2016E+02  0.2482E+02
     -3.965  0.2503E+02  0.3206E+02
     -3.675  0.2042E+02  0.3797E+02
     -3.386  0.1899E+02  0.4347E+02
     -3.097  0.8557E+01  0.4594E+02
     -2.807  0.5509E+01  0.4754E+02
     -2.518  0.1837E+01  0.4807E+02
     -2.228  0.1017E+01  0.4836E+02
     -1.939  0.1088E+01  0.4868E+02
     -1.650  0.1301E+01  0.4906E+02
     -1.360  0.1892E+01  0.4960E+02
     -1.071  0.9479E+00  0.4988E+02
     -0.782  0.1702E+01  0.5037E+02
     -0.492  0.6573E+00  0.5056E+02
     -0.203  0.3432E+01  0.5155E+02
      0.086  0.2053E+01  0.5215E+02
      0.376  0.1514E+01  0.5259E+02
      0.665  0.2567E+01  0.5333E+02
      0.955  0.2967E+01  0.5419E+02
      1.244  0.9160E+01  0.5684E+02
      1.533  0.1362E+02  0.6078E+02
      1.823  0.5049E+01  0.6224E+02
      2.112  0.7759E+00  0.6247E+02
      2.401  0.2944E+01  0.6332E+02
      2.691  0.1718E+01  0.6381E+02
      2.980  0.1303E+01  0.6419E+02
      3.269  0.1997E+01  0.6477E+02
      3.559  0.2262E+01  0.6542E+02
      3.848  0.2008E+00  0.6548E+02
      4.138  0.2519E+01  0.6621E+02
      4.427  0.3291E+01  0.6716E+02
      4.716  0.3415E+01  0.6815E+02
      5.006  0.2441E+00  0.6822E+02
      5.295  0.1536E+01  0.6867E+02
      5.584  0.1683E+01  0.6915E+02
      5.874  0.1941E+01  0.6972E+02
      6.163  0.2891E+01  0.7055E+02
      6.452  0.7894E+00  0.7078E+02
      6.742  0.1556E+01  0.7123E+02
      7.031  0.2655E+01  0.7200E+02
      7.321  0.1155E+01  0.7233E+02
      7.610  0.3178E+01  0.7325E+02
      7.899  0.2578E+01  0.7400E+02
      8.189  0.7746E+00  0.7422E+02
      8.478  0.8280E+00  0.7446E+02
      8.767  0.2636E+01  0.7523E+02
      9.057  0.1864E+01  0.7576E+02
      9.346  0.3680E+01  0.7683E+02
      9.635  0.1751E+01  0.7734E+02
      9.925  0.1599E+01  0.7780E+02
     10.214  0.9602E+00  0.7808E+02
     10.503  0.4348E+01  0.7933E+02
     10.793  0.3184E+01  0.8026E+02
     11.082  0.2301E+01  0.8092E+02
     11.372  0.2637E+01  0.8169E+02
     11.661  0.1517E+01  0.8212E+02
     11.950  0.3456E+01  0.8312E+02
     12.240  0.3667E+01  0.8419E+02
     12.529  0.2896E+01  0.8502E+02
     12.818  0.2099E+01  0.8563E+02
     13.108  0.3501E+01  0.8664E+02
     13.397  0.2917E+01  0.8749E+02
     13.686  0.4353E+01  0.8875E+02
     13.976  0.6357E+00  0.8893E+02
     14.265  0.3167E+01  0.8985E+02
     14.555  0.2254E+01  0.9050E+02
     14.844  0.1408E+01  0.9091E+02
     15.133  0.3990E+01  0.9206E+02
     15.423  0.3005E+01  0.9293E+02
     15.712  0.3940E+01  0.9407E+02
     16.001  0.5853E+00  0.9424E+02
     16.291  0.2654E+01  0.9501E+02
     16.580  0.4799E+00  0.9515E+02
     16.869  0.4518E-01  0.9516E+02
     17.159  0.1498E+01  0.9559E+02
     17.448  0.7587E+00  0.9581E+02
     17.738  0.6570E-01  0.9583E+02
     18.027  0.1918E+00  0.9589E+02
     18.316  0.1898E+00  0.9594E+02
     18.606  0.1942E+00  0.9600E+02
     18.895  0.0000E+00  0.9600E+02
     19.184  0.0000E+00  0.9600E+02
     19.474  0.0000E+00  0.9600E+02
     19.763  0.0000E+00  0.9600E+02
     20.052  0.0000E+00  0.9600E+02
     20.342  0.0000E+00  0.9600E+02
     20.631  0.0000E+00  0.9600E+02
     20.921  0.0000E+00  0.9600E+02
     21.210  0.0000E+00  0.9600E+02
     21.499  0.0000E+00  0.9600E+02
     21.789  0.0000E+00  0.9600E+02
     22.078  0.0000E+00  0.9600E+02
     22.367  0.0000E+00  0.9600E+02
