   8   8   0   0
  0.1487951E+02  0.5464294E-09  0.5464294E-09  0.4603411E-09  0.5000000E-15
  1.000000000000000E-004
  CAR 
 unknown system                          
     23.62306863     -6.71789451  301      5.32999734      1.00000000
     -6.718  0.0000E+00  0.0000E+00
     -6.617  0.0000E+00  0.0000E+00
     -6.516  0.0000E+00  0.0000E+00
     -6.414  0.0000E+00  0.0000E+00
     -6.313  0.0000E+00  0.0000E+00
     -6.212  0.0000E+00  0.0000E+00
     -6.111  0.0000E+00  0.0000E+00
     -6.010  0.0000E+00  0.0000E+00
     -5.909  0.0000E+00  0.0000E+00
     -5.808  0.0000E+00  0.0000E+00
     -5.707  0.0000E+00  0.0000E+00
     -5.605  0.3059E-14  0.3094E-15
     -5.504  0.1882E-06  0.1904E-07
     -5.403  0.4529E-02  0.4580E-03
     -5.302  0.1076E+00  0.1135E-01
     -5.201  0.2375E-01  0.1375E-01
     -5.100  0.2385E+00  0.3787E-01
     -4.999  0.7285E+00  0.1115E+00
     -4.897  0.1364E+00  0.1253E+00
     -4.796  0.1289E+01  0.2557E+00
     -4.695  0.2406E+00  0.2800E+00
     -4.594  0.3618E-02  0.2804E+00
     -4.493  0.4271E+00  0.3235E+00
     -4.392  0.6172E+00  0.3860E+00
     -4.291  0.6617E+00  0.4529E+00
     -4.189  0.2937E+01  0.7499E+00
     -4.088  0.4214E+00  0.7925E+00
     -3.987  0.1299E+01  0.9239E+00
     -3.886  0.2250E+00  0.9467E+00
     -3.785  0.6821E-01  0.9536E+00
     -3.684  0.1464E+01  0.1102E+01
     -3.583  0.4060E+00  0.1143E+01
     -3.482  0.2323E+01  0.1378E+01
     -3.380  0.3188E+01  0.1700E+01
     -3.279  0.2157E+01  0.1918E+01
     -3.178  0.1252E+01  0.2045E+01
     -3.077  0.2490E+01  0.2297E+01
     -2.976  0.1036E+02  0.3345E+01
     -2.875  0.1809E+02  0.5174E+01
     -2.774  0.2501E+02  0.7703E+01
     -2.672  0.3772E+02  0.1152E+02
     -2.571  0.3253E+02  0.1481E+02
     -2.470  0.4884E+02  0.1975E+02
     -2.369  0.3946E+02  0.2374E+02
     -2.268  0.3915E+02  0.2770E+02
     -2.167  0.4963E+02  0.3272E+02
     -2.066  0.4933E+02  0.3771E+02
     -1.964  0.6190E+02  0.4397E+02
     -1.863  0.5499E+02  0.4953E+02
     -1.762  0.5355E+02  0.5494E+02
     -1.661  0.2715E+02  0.5769E+02
     -1.560  0.3549E+02  0.6128E+02
     -1.459  0.1724E+02  0.6302E+02
     -1.358  0.4644E+01  0.6349E+02
     -1.257  0.2893E+01  0.6379E+02
     -1.155  0.1223E+01  0.6391E+02
     -1.054  0.4203E+01  0.6433E+02
     -0.953  0.2601E+01  0.6460E+02
     -0.852  0.3632E+01  0.6497E+02
     -0.751  0.3356E+01  0.6530E+02
     -0.650  0.3394E+01  0.6565E+02
     -0.549  0.3271E+01  0.6598E+02
     -0.447  0.3056E+01  0.6629E+02
     -0.346  0.5732E+01  0.6687E+02
     -0.245  0.4795E+01  0.6735E+02
     -0.144  0.5208E+01  0.6788E+02
     -0.043  0.6782E+01  0.6857E+02
      0.058  0.9297E+01  0.6951E+02
      0.159  0.1322E+02  0.7084E+02
      0.261  0.1764E+02  0.7263E+02
      0.362  0.1847E+02  0.7450E+02
      0.463  0.1322E+02  0.7583E+02
      0.564  0.1512E+02  0.7736E+02
      0.665  0.1328E+02  0.7871E+02
      0.766  0.1413E+02  0.8013E+02
      0.867  0.1935E+02  0.8209E+02
      0.968  0.1264E+02  0.8337E+02
      1.070  0.5368E+01  0.8391E+02
      1.171  0.2652E+01  0.8418E+02
      1.272  0.1223E+01  0.8430E+02
      1.373  0.2483E+01  0.8456E+02
      1.474  0.5857E+01  0.8515E+02
      1.575  0.2582E+01  0.8541E+02
      1.676  0.2909E+01  0.8570E+02
      1.778  0.1681E+01  0.8587E+02
      1.879  0.2117E+01  0.8609E+02
      1.980  0.2125E+01  0.8630E+02
      2.081  0.6896E+00  0.8637E+02
      2.182  0.2163E+01  0.8659E+02
      2.283  0.2643E+01  0.8686E+02
      2.384  0.2495E+01  0.8711E+02
      2.486  0.2396E+01  0.8735E+02
      2.587  0.4407E+01  0.8780E+02
      2.688  0.8226E+00  0.8788E+02
      2.789  0.9512E+00  0.8798E+02
      2.890  0.1422E+01  0.8812E+02
      2.991  0.1975E+01  0.8832E+02
      3.092  0.1672E+01  0.8849E+02
      3.193  0.3550E+01  0.8885E+02
      3.295  0.4064E+01  0.8926E+02
      3.396  0.1499E+01  0.8941E+02
      3.497  0.1656E+01  0.8958E+02
      3.598  0.1820E+01  0.8976E+02
      3.699  0.4081E+01  0.9018E+02
      3.800  0.2702E+01  0.9045E+02
      3.901  0.2565E+01  0.9071E+02
      4.003  0.7811E+00  0.9079E+02
      4.104  0.5561E+00  0.9084E+02
      4.205  0.2818E+01  0.9113E+02
      4.306  0.2336E+01  0.9137E+02
      4.407  0.1751E+01  0.9154E+02
      4.508  0.9345E+00  0.9164E+02
      4.609  0.2152E+01  0.9185E+02
      4.711  0.2303E+01  0.9209E+02
      4.812  0.1632E+01  0.9225E+02
      4.913  0.3319E+01  0.9259E+02
      5.014  0.4018E+01  0.9299E+02
      5.115  0.4264E+01  0.9343E+02
      5.216  0.3151E+01  0.9374E+02
      5.317  0.2125E+01  0.9396E+02
      5.418  0.2836E+01  0.9425E+02
      5.520  0.2943E+01  0.9454E+02
      5.621  0.1275E+01  0.9467E+02
      5.722  0.1122E+01  0.9479E+02
      5.823  0.6345E+00  0.9485E+02
      5.924  0.1198E+01  0.9497E+02
      6.025  0.7517E+00  0.9505E+02
      6.126  0.3156E+00  0.9508E+02
      6.228  0.5787E-03  0.9508E+02
      6.329  0.3286E-06  0.9508E+02
      6.430  0.2232E-01  0.9508E+02
      6.531  0.1659E+01  0.9525E+02
      6.632  0.4016E+01  0.9566E+02
      6.733  0.1756E+01  0.9583E+02
      6.834  0.3065E+01  0.9614E+02
      6.936  0.1762E+01  0.9632E+02
      7.037  0.6000E+00  0.9638E+02
      7.138  0.3789E+01  0.9677E+02
      7.239  0.4909E+01  0.9726E+02
      7.340  0.3316E+01  0.9760E+02
      7.441  0.2361E+01  0.9784E+02
      7.542  0.3426E+01  0.9818E+02
      7.643  0.3791E+01  0.9857E+02
      7.745  0.4543E+01  0.9903E+02
      7.846  0.4128E+01  0.9944E+02
      7.947  0.3425E+01  0.9979E+02
      8.048  0.3665E+01  0.1002E+03
      8.149  0.2767E+01  0.1004E+03
      8.250  0.1806E+01  0.1006E+03
      8.351  0.6931E+00  0.1007E+03
      8.453  0.4178E+01  0.1011E+03
      8.554  0.2244E+01  0.1013E+03
      8.655  0.1528E+01  0.1015E+03
      8.756  0.8061E+00  0.1016E+03
      8.857  0.4764E+01  0.1021E+03
      8.958  0.2537E+01  0.1023E+03
      9.059  0.3220E+01  0.1026E+03
      9.161  0.4626E+01  0.1031E+03
      9.262  0.3676E+01  0.1035E+03
      9.363  0.2454E+01  0.1037E+03
      9.464  0.1696E+01  0.1039E+03
      9.565  0.1777E+00  0.1039E+03
      9.666  0.1603E+00  0.1039E+03
      9.767  0.4067E+01  0.1043E+03
      9.868  0.5692E+01  0.1049E+03
      9.970  0.4834E+01  0.1054E+03
     10.071  0.3916E+01  0.1058E+03
     10.172  0.8585E+00  0.1059E+03
     10.273  0.4962E+01  0.1064E+03
     10.374  0.7883E+01  0.1072E+03
     10.475  0.3431E+01  0.1075E+03
     10.576  0.4460E+01  0.1080E+03
     10.678  0.1930E+01  0.1082E+03
     10.779  0.8001E+00  0.1083E+03
     10.880  0.3066E+01  0.1086E+03
     10.981  0.3162E+01  0.1089E+03
     11.082  0.1602E+01  0.1091E+03
     11.183  0.1431E+01  0.1092E+03
     11.284  0.6698E+00  0.1093E+03
     11.386  0.4376E+01  0.1097E+03
     11.487  0.3426E+01  0.1101E+03
     11.588  0.1432E+01  0.1102E+03
     11.689  0.3815E+01  0.1106E+03
     11.790  0.8308E+00  0.1107E+03
     11.891  0.3317E+01  0.1110E+03
     11.992  0.3887E+01  0.1114E+03
     12.094  0.2410E+01  0.1116E+03
     12.195  0.1543E+01  0.1118E+03
     12.296  0.4483E+01  0.1123E+03
     12.397  0.3802E+01  0.1126E+03
     12.498  0.1562E+01  0.1128E+03
     12.599  0.1295E+01  0.1129E+03
     12.700  0.6396E+00  0.1130E+03
     12.801  0.6996E+00  0.1131E+03
     12.903  0.3093E+01  0.1134E+03
     13.004  0.2892E+01  0.1137E+03
     13.105  0.3781E+01  0.1141E+03
     13.206  0.3063E+01  0.1144E+03
     13.307  0.5875E+01  0.1150E+03
     13.408  0.3855E+01  0.1153E+03
     13.509  0.4193E+01  0.1158E+03
     13.611  0.6848E+01  0.1165E+03
     13.712  0.6829E+01  0.1172E+03
     13.813  0.2418E+01  0.1174E+03
     13.914  0.2618E+01  0.1177E+03
     14.015  0.4261E+01  0.1181E+03
     14.116  0.3062E+01  0.1184E+03
     14.217  0.1813E+01  0.1186E+03
     14.319  0.1772E+01  0.1188E+03
     14.420  0.4275E+01  0.1192E+03
     14.521  0.3403E+01  0.1195E+03
     14.622  0.3412E+01  0.1199E+03
     14.723  0.3773E+01  0.1203E+03
     14.824  0.2285E+01  0.1205E+03
     14.925  0.2837E+01  0.1208E+03
     15.026  0.1375E+01  0.1209E+03
     15.128  0.3847E+01  0.1213E+03
     15.229  0.5395E+01  0.1219E+03
     15.330  0.4179E+01  0.1223E+03
     15.431  0.6416E+01  0.1229E+03
     15.532  0.6153E+01  0.1236E+03
     15.633  0.2052E+01  0.1238E+03
     15.734  0.3210E+01  0.1241E+03
     15.836  0.2216E+01  0.1243E+03
     15.937  0.4768E+01  0.1248E+03
     16.038  0.4601E+01  0.1253E+03
     16.139  0.5309E+01  0.1258E+03
     16.240  0.1101E+01  0.1259E+03
     16.341  0.1615E+01  0.1261E+03
     16.442  0.1444E+01  0.1262E+03
     16.544  0.4097E+01  0.1266E+03
     16.645  0.3121E+01  0.1269E+03
     16.746  0.8329E+01  0.1278E+03
     16.847  0.8823E+01  0.1287E+03
     16.948  0.2803E+01  0.1290E+03
     17.049  0.2276E+01  0.1292E+03
     17.150  0.2048E+01  0.1294E+03
     17.251  0.2488E+01  0.1297E+03
     17.353  0.4122E+01  0.1301E+03
     17.454  0.2041E+01  0.1303E+03
     17.555  0.2831E+01  0.1306E+03
     17.656  0.4755E+01  0.1310E+03
     17.757  0.5142E+01  0.1316E+03
     17.858  0.6097E+01  0.1322E+03
     17.959  0.5096E+01  0.1327E+03
     18.061  0.2944E+01  0.1330E+03
     18.162  0.3068E+01  0.1333E+03
     18.263  0.3065E+01  0.1336E+03
     18.364  0.2621E+01  0.1339E+03
     18.465  0.3079E+01  0.1342E+03
     18.566  0.5644E+01  0.1348E+03
     18.667  0.2249E+01  0.1350E+03
     18.769  0.2850E+01  0.1353E+03
     18.870  0.1811E+01  0.1355E+03
     18.971  0.5147E+01  0.1360E+03
     19.072  0.6990E+01  0.1367E+03
     19.173  0.3079E+01  0.1370E+03
     19.274  0.1727E+01  0.1372E+03
     19.375  0.4855E+00  0.1372E+03
     19.476  0.3429E+01  0.1376E+03
     19.578  0.6533E+01  0.1382E+03
     19.679  0.3349E+01  0.1386E+03
     19.780  0.4411E+01  0.1390E+03
     19.881  0.1746E+01  0.1392E+03
     19.982  0.2055E+01  0.1394E+03
     20.083  0.2595E+01  0.1397E+03
     20.184  0.4351E+01  0.1401E+03
     20.286  0.6324E+01  0.1407E+03
     20.387  0.3216E+01  0.1411E+03
     20.488  0.4301E+01  0.1415E+03
     20.589  0.1748E+01  0.1417E+03
     20.690  0.2292E+01  0.1419E+03
     20.791  0.2826E+01  0.1422E+03
     20.892  0.2086E+01  0.1424E+03
     20.994  0.2960E+01  0.1427E+03
     21.095  0.2726E+01  0.1430E+03
     21.196  0.1539E+01  0.1431E+03
     21.297  0.3222E+01  0.1435E+03
     21.398  0.2903E+01  0.1438E+03
     21.499  0.1318E+01  0.1439E+03
     21.600  0.2395E+00  0.1439E+03
     21.701  0.2006E-01  0.1439E+03
     21.803  0.2328E-05  0.1439E+03
     21.904  0.1118E-12  0.1439E+03
     22.005  0.2394E-09  0.1439E+03
     22.106  0.2572E-03  0.1439E+03
     22.207  0.1958E+00  0.1439E+03
     22.308  0.5788E+00  0.1440E+03
     22.409  0.1611E-01  0.1440E+03
     22.511  0.5498E-06  0.1440E+03
     22.612  0.8211E-14  0.1440E+03
     22.713  0.0000E+00  0.1440E+03
     22.814  0.0000E+00  0.1440E+03
     22.915  0.0000E+00  0.1440E+03
     23.016  0.0000E+00  0.1440E+03
     23.117  0.0000E+00  0.1440E+03
     23.219  0.0000E+00  0.1440E+03
     23.320  0.0000E+00  0.1440E+03
     23.421  0.0000E+00  0.1440E+03
     23.522  0.0000E+00  0.1440E+03
     23.623  0.0000E+00  0.1440E+03
