       N       E                     dE             d eps       ncg     rms          rms(c)
DAV:   1     0.943632720294E+03    0.94363E+03   -0.43854E+04 22104   0.217E+03
DAV:   2     0.117634393935E+03   -0.82600E+03   -0.74585E+03 21600   0.512E+02
DAV:   3    -0.106328281328E+02   -0.12827E+03   -0.12132E+03 22784   0.172E+02
DAV:   4    -0.157150218718E+02   -0.50822E+01   -0.50574E+01 24232   0.380E+01
DAV:   5    -0.157597068291E+02   -0.44685E-01   -0.44680E-01 23072   0.305E+00    0.138E+01
DAV:   6    -0.142794521671E+02    0.14803E+01   -0.36524E+00 25888   0.154E+01    0.917E+00
DAV:   7    -0.142041633594E+02    0.75289E-01   -0.16691E-01 26488   0.330E+00    0.501E+00
DAV:   8    -0.141733224945E+02    0.30841E-01   -0.57455E-02 23944   0.155E+00    0.414E-01
DAV:   9    -0.141725835598E+02    0.73893E-03   -0.21872E-03 28264   0.652E-01    0.167E-01
DAV:  10    -0.141725825881E+02    0.97179E-06   -0.34947E-04 23240   0.110E-01    0.603E-02
DAV:  11    -0.141725834657E+02   -0.87768E-06   -0.67707E-05 23632   0.701E-02    0.101E-02
DAV:  12    -0.141725824127E+02    0.10530E-05   -0.64905E-06 24416   0.407E-02    0.444E-03
DAV:  13    -0.141725822396E+02    0.17315E-06   -0.10847E-06 13112   0.150E-02
   1 F= -.14172582E+02 E0= -.14170615E+02  d E =-.393476E-02
