Zn6 Au2
1.0
   2.7321467899999998   -4.7322176899999997   -0.0000000000000000
   2.7321467899999998    4.7322176899999997    0.0000000000000000
  -0.0000000000000000    0.0000000000000000    4.6034111900000001
Zn Au
6 2
direct
   0.1650769500000000    0.3301538900000000    0.2500000000000000 Zn
   0.6698461100000001    0.8349230500000000    0.2500000000000000 Zn
   0.1650769500000000    0.8349230500000000    0.2500000000000000 Zn
   0.8349230500000000    0.6698461100000001    0.7500000000000000 Zn
   0.3301538900000000    0.1650769500000000    0.7500000000000000 Zn
   0.8349230500000000    0.1650769500000000    0.7500000000000000 Zn
   0.3333330000000000    0.6666670000000000    0.7500000000000000 Au
   0.6666670000000000    0.3333330000000000    0.2500000000000000 Au
