unknown system                          
           1
     2.732147   -4.732218    0.000000
     2.732147    4.732218    0.000000
     0.000000    0.000000    4.603411
   Zn   Au
     6     2
Direct configuration=     1
   0.16507695  0.33015389  0.25000000
   0.66984611  0.83492305  0.25000000
   0.16507695  0.83492305  0.25000000
   0.83492305  0.66984611  0.75000000
   0.33015389  0.16507695  0.75000000
   0.83492305  0.16507695  0.75000000
   0.33333300  0.66666700  0.75000000
   0.66666700  0.33333300  0.25000000
