Sr2 N12                                 
   1.00000000000000     
     5.4456466600000004    0.0000000000000000    2.8181878299999998
     2.7228233300000002    5.8029519799999996    1.4090939200000001
     0.0222607500000000    0.0000000000000000    6.6274530100000000
   Sr   N 
     2    12
Direct
     0.6250000000000000    0.7500000000000000    0.7500000000000000
     0.3750000000000000    0.2500000000000000    0.2500000000000000
     0.8309603900000013    0.3821876800000013    0.4969730299999995
     0.2101191000000000    0.1178123199999987    0.0030269700000005
     0.9999251200000003    0.2500000000000000    0.0001497599999993
     0.7500748799999997    0.2500000000000000    0.4998502400000007
     0.0000748799999997    0.7500000000000000    0.9998502400000007
     0.2499251200000003    0.7500000000000000    0.5001497599999993
     0.3279324200000033    0.8821876800000013    0.5030269700000005
     0.2131460700000005    0.6178123199999987    0.9969730299999995
     0.7898809000000000    0.8821876800000013    0.9969730299999995
     0.1690396099999987    0.6178123199999987    0.5030269700000005
     0.6720675799999967    0.1178123199999987    0.4969730299999995
     0.7868539299999995    0.3821876800000013    0.0030269700000005
 
  0.00000000E+00  0.00000000E+00  0.00000000E+00
  0.00000000E+00  0.00000000E+00  0.00000000E+00
  0.00000000E+00  0.00000000E+00  0.00000000E+00
  0.00000000E+00  0.00000000E+00  0.00000000E+00
  0.00000000E+00  0.00000000E+00  0.00000000E+00
  0.00000000E+00  0.00000000E+00  0.00000000E+00
  0.00000000E+00  0.00000000E+00  0.00000000E+00
  0.00000000E+00  0.00000000E+00  0.00000000E+00
  0.00000000E+00  0.00000000E+00  0.00000000E+00
  0.00000000E+00  0.00000000E+00  0.00000000E+00
  0.00000000E+00  0.00000000E+00  0.00000000E+00
  0.00000000E+00  0.00000000E+00  0.00000000E+00
  0.00000000E+00  0.00000000E+00  0.00000000E+00
  0.00000000E+00  0.00000000E+00  0.00000000E+00
