  14  14   0   0
  0.1493350E+02  0.6131660E-09  0.6563045E-09  0.6627490E-09  0.5000000E-15
  1.000000000000000E-004
  CAR 
 unknown system                          
     12.47515895    -34.74277310  301      0.69035008      1.00000000
    -34.743  0.0000E+00  0.0000E+00
    -34.585  0.0000E+00  0.0000E+00
    -34.428  0.0000E+00  0.0000E+00
    -34.271  0.0000E+00  0.0000E+00
    -34.113  0.0000E+00  0.0000E+00
    -33.956  0.0000E+00  0.0000E+00
    -33.798  0.0000E+00  0.0000E+00
    -33.641  0.0000E+00  0.0000E+00
    -33.484  0.0000E+00  0.0000E+00
    -33.326  0.0000E+00  0.0000E+00
    -33.169  0.0000E+00  0.0000E+00
    -33.011  0.0000E+00  0.0000E+00
    -32.854  0.1621E-11  0.2552E-12
    -32.697  0.3824E-01  0.6019E-02
    -32.539  0.2359E+02  0.3719E+01
    -32.382  0.1782E+01  0.4000E+01
    -32.224  0.4178E-07  0.4000E+01
    -32.067  0.0000E+00  0.4000E+01
    -31.910  0.0000E+00  0.4000E+01
    -31.752  0.0000E+00  0.4000E+01
    -31.595  0.0000E+00  0.4000E+01
    -31.438  0.0000E+00  0.4000E+01
    -31.280  0.0000E+00  0.4000E+01
    -31.123  0.0000E+00  0.4000E+01
    -30.965  0.0000E+00  0.4000E+01
    -30.808  0.0000E+00  0.4000E+01
    -30.651  0.0000E+00  0.4000E+01
    -30.493  0.0000E+00  0.4000E+01
    -30.336  0.0000E+00  0.4000E+01
    -30.178  0.0000E+00  0.4000E+01
    -30.021  0.0000E+00  0.4000E+01
    -29.864  0.0000E+00  0.4000E+01
    -29.706  0.0000E+00  0.4000E+01
    -29.549  0.0000E+00  0.4000E+01
    -29.391  0.0000E+00  0.4000E+01
    -29.234  0.0000E+00  0.4000E+01
    -29.077  0.0000E+00  0.4000E+01
    -28.919  0.0000E+00  0.4000E+01
    -28.762  0.0000E+00  0.4000E+01
    -28.604  0.0000E+00  0.4000E+01
    -28.447  0.0000E+00  0.4000E+01
    -28.290  0.0000E+00  0.4000E+01
    -28.132  0.0000E+00  0.4000E+01
    -27.975  0.0000E+00  0.4000E+01
    -27.817  0.0000E+00  0.4000E+01
    -27.660  0.0000E+00  0.4000E+01
    -27.503  0.0000E+00  0.4000E+01
    -27.345  0.0000E+00  0.4000E+01
    -27.188  0.0000E+00  0.4000E+01
    -27.031  0.0000E+00  0.4000E+01
    -26.873  0.0000E+00  0.4000E+01
    -26.716  0.0000E+00  0.4000E+01
    -26.558  0.0000E+00  0.4000E+01
    -26.401  0.0000E+00  0.4000E+01
    -26.244  0.0000E+00  0.4000E+01
    -26.086  0.0000E+00  0.4000E+01
    -25.929  0.0000E+00  0.4000E+01
    -25.771  0.0000E+00  0.4000E+01
    -25.614  0.0000E+00  0.4000E+01
    -25.457  0.0000E+00  0.4000E+01
    -25.299  0.0000E+00  0.4000E+01
    -25.142  0.0000E+00  0.4000E+01
    -24.984  0.0000E+00  0.4000E+01
    -24.827  0.0000E+00  0.4000E+01
    -24.670  0.0000E+00  0.4000E+01
    -24.512  0.0000E+00  0.4000E+01
    -24.355  0.0000E+00  0.4000E+01
    -24.197  0.0000E+00  0.4000E+01
    -24.040  0.0000E+00  0.4000E+01
    -23.883  0.0000E+00  0.4000E+01
    -23.725  0.0000E+00  0.4000E+01
    -23.568  0.0000E+00  0.4000E+01
    -23.410  0.0000E+00  0.4000E+01
    -23.253  0.0000E+00  0.4000E+01
    -23.096  0.0000E+00  0.4000E+01
    -22.938  0.0000E+00  0.4000E+01
    -22.781  0.0000E+00  0.4000E+01
    -22.624  0.0000E+00  0.4000E+01
    -22.466  0.0000E+00  0.4000E+01
    -22.309  0.1675E-15  0.4000E+01
    -22.151  0.1839E-03  0.4000E+01
    -21.994  0.6642E+01  0.5045E+01
    -21.837  0.2496E+02  0.8974E+01
    -21.679  0.1919E+02  0.1199E+02
    -21.522  0.3932E-01  0.1200E+02
    -21.364  0.2359E-10  0.1200E+02
    -21.207  0.0000E+00  0.1200E+02
    -21.050  0.0000E+00  0.1200E+02
    -20.892  0.0000E+00  0.1200E+02
    -20.735  0.0000E+00  0.1200E+02
    -20.577  0.0000E+00  0.1200E+02
    -20.420  0.0000E+00  0.1200E+02
    -20.263  0.0000E+00  0.1200E+02
    -20.105  0.0000E+00  0.1200E+02
    -19.948  0.0000E+00  0.1200E+02
    -19.790  0.0000E+00  0.1200E+02
    -19.633  0.0000E+00  0.1200E+02
    -19.476  0.0000E+00  0.1200E+02
    -19.318  0.0000E+00  0.1200E+02
    -19.161  0.0000E+00  0.1200E+02
    -19.003  0.0000E+00  0.1200E+02
    -18.846  0.0000E+00  0.1200E+02
    -18.689  0.0000E+00  0.1200E+02
    -18.531  0.0000E+00  0.1200E+02
    -18.374  0.0000E+00  0.1200E+02
    -18.216  0.0000E+00  0.1200E+02
    -18.059  0.0000E+00  0.1200E+02
    -17.902  0.8823E-07  0.1200E+02
    -17.744  0.9764E+00  0.1215E+02
    -17.587  0.4234E+02  0.1882E+02
    -17.430  0.7514E+01  0.2000E+02
    -17.272  0.3953E-04  0.2000E+02
    -17.115  0.0000E+00  0.2000E+02
    -16.957  0.0000E+00  0.2000E+02
    -16.800  0.0000E+00  0.2000E+02
    -16.643  0.0000E+00  0.2000E+02
    -16.485  0.0000E+00  0.2000E+02
    -16.328  0.0000E+00  0.2000E+02
    -16.170  0.0000E+00  0.2000E+02
    -16.013  0.0000E+00  0.2000E+02
    -15.856  0.0000E+00  0.2000E+02
    -15.698  0.0000E+00  0.2000E+02
    -15.541  0.0000E+00  0.2000E+02
    -15.383  0.0000E+00  0.2000E+02
    -15.226  0.0000E+00  0.2000E+02
    -15.069  0.0000E+00  0.2000E+02
    -14.911  0.7683E-06  0.2000E+02
    -14.754  0.2081E+01  0.2033E+02
    -14.596  0.6320E+02  0.3027E+02
    -14.439  0.1096E+02  0.3200E+02
    -14.282  0.8030E-04  0.3200E+02
    -14.124  0.0000E+00  0.3200E+02
    -13.967  0.0000E+00  0.3200E+02
    -13.809  0.0000E+00  0.3200E+02
    -13.652  0.0000E+00  0.3200E+02
    -13.495  0.0000E+00  0.3200E+02
    -13.337  0.0000E+00  0.3200E+02
    -13.180  0.0000E+00  0.3200E+02
    -13.023  0.0000E+00  0.3200E+02
    -12.865  0.0000E+00  0.3200E+02
    -12.708  0.0000E+00  0.3200E+02
    -12.550  0.0000E+00  0.3200E+02
    -12.393  0.0000E+00  0.3200E+02
    -12.236  0.0000E+00  0.3200E+02
    -12.078  0.0000E+00  0.3200E+02
    -11.921  0.0000E+00  0.3200E+02
    -11.763  0.0000E+00  0.3200E+02
    -11.606  0.0000E+00  0.3200E+02
    -11.449  0.0000E+00  0.3200E+02
    -11.291  0.0000E+00  0.3200E+02
    -11.134  0.0000E+00  0.3200E+02
    -10.976  0.0000E+00  0.3200E+02
    -10.819  0.0000E+00  0.3200E+02
    -10.662  0.0000E+00  0.3200E+02
    -10.504  0.0000E+00  0.3200E+02
    -10.347  0.0000E+00  0.3200E+02
    -10.189  0.0000E+00  0.3200E+02
    -10.032  0.0000E+00  0.3200E+02
     -9.875  0.0000E+00  0.3200E+02
     -9.717  0.0000E+00  0.3200E+02
     -9.560  0.0000E+00  0.3200E+02
     -9.402  0.0000E+00  0.3200E+02
     -9.245  0.0000E+00  0.3200E+02
     -9.088  0.0000E+00  0.3200E+02
     -8.930  0.0000E+00  0.3200E+02
     -8.773  0.0000E+00  0.3200E+02
     -8.616  0.0000E+00  0.3200E+02
     -8.458  0.0000E+00  0.3200E+02
     -8.301  0.0000E+00  0.3200E+02
     -8.143  0.0000E+00  0.3200E+02
     -7.986  0.0000E+00  0.3200E+02
     -7.829  0.0000E+00  0.3200E+02
     -7.671  0.0000E+00  0.3200E+02
     -7.514  0.0000E+00  0.3200E+02
     -7.356  0.0000E+00  0.3200E+02
     -7.199  0.0000E+00  0.3200E+02
     -7.042  0.2072E-12  0.3200E+02
     -6.884  0.8716E-03  0.3200E+02
     -6.727  0.9743E+00  0.3215E+02
     -6.569  0.1306E+02  0.3421E+02
     -6.412  0.2044E+02  0.3742E+02
     -6.255  0.1359E+02  0.3956E+02
     -6.097  0.1061E+02  0.4123E+02
     -5.940  0.6179E+01  0.4221E+02
     -5.782  0.1266E+02  0.4420E+02
     -5.625  0.2367E+02  0.4793E+02
     -5.468  0.3334E+02  0.5317E+02
     -5.310  0.1754E+02  0.5593E+02
     -5.153  0.4169E+00  0.5600E+02
     -4.995  0.9379E-02  0.5600E+02
     -4.838  0.7300E+00  0.5612E+02
     -4.681  0.3744E+01  0.5671E+02
     -4.523  0.6700E+01  0.5776E+02
     -4.366  0.9743E+01  0.5929E+02
     -4.209  0.8882E+01  0.6069E+02
     -4.051  0.1134E+02  0.6248E+02
     -3.894  0.9648E+01  0.6399E+02
     -3.736  0.3409E-01  0.6400E+02
     -3.579  0.3733E-10  0.6400E+02
     -3.422  0.0000E+00  0.6400E+02
     -3.264  0.0000E+00  0.6400E+02
     -3.107  0.0000E+00  0.6400E+02
     -2.949  0.0000E+00  0.6400E+02
     -2.792  0.0000E+00  0.6400E+02
     -2.635  0.0000E+00  0.6400E+02
     -2.477  0.0000E+00  0.6400E+02
     -2.320  0.0000E+00  0.6400E+02
     -2.162  0.0000E+00  0.6400E+02
     -2.005  0.0000E+00  0.6400E+02
     -1.848  0.0000E+00  0.6400E+02
     -1.690  0.0000E+00  0.6400E+02
     -1.533  0.0000E+00  0.6400E+02
     -1.375  0.0000E+00  0.6400E+02
     -1.218  0.5219E-05  0.6400E+02
     -1.061  0.1103E+00  0.6402E+02
     -0.903  0.4973E+00  0.6410E+02
     -0.746  0.3726E+01  0.6468E+02
     -0.588  0.9455E+01  0.6617E+02
     -0.431  0.1474E+02  0.6849E+02
     -0.274  0.1431E+02  0.7074E+02
     -0.116  0.1394E+02  0.7294E+02
      0.041  0.1170E+02  0.7478E+02
      0.198  0.1566E+02  0.7724E+02
      0.356  0.1379E+02  0.7941E+02
      0.513  0.3728E+01  0.8000E+02
      0.671  0.3081E-03  0.8000E+02
      0.828  0.0000E+00  0.8000E+02
      0.985  0.0000E+00  0.8000E+02
      1.143  0.0000E+00  0.8000E+02
      1.300  0.0000E+00  0.8000E+02
      1.458  0.0000E+00  0.8000E+02
      1.615  0.0000E+00  0.8000E+02
      1.772  0.0000E+00  0.8000E+02
      1.930  0.0000E+00  0.8000E+02
      2.087  0.0000E+00  0.8000E+02
      2.245  0.0000E+00  0.8000E+02
      2.402  0.0000E+00  0.8000E+02
      2.559  0.0000E+00  0.8000E+02
      2.717  0.0000E+00  0.8000E+02
      2.874  0.0000E+00  0.8000E+02
      3.032  0.0000E+00  0.8000E+02
      3.189  0.0000E+00  0.8000E+02
      3.346  0.0000E+00  0.8000E+02
      3.504  0.0000E+00  0.8000E+02
      3.661  0.0000E+00  0.8000E+02
      3.819  0.0000E+00  0.8000E+02
      3.976  0.1647E-05  0.8000E+02
      4.133  0.9254E-01  0.8001E+02
      4.291  0.3688E+00  0.8007E+02
      4.448  0.4434E+00  0.8014E+02
      4.606  0.5726E+01  0.8104E+02
      4.763  0.5041E+01  0.8184E+02
      4.920  0.6675E+01  0.8289E+02
      5.078  0.7828E+01  0.8412E+02
      5.235  0.1129E+02  0.8590E+02
      5.392  0.1481E+02  0.8823E+02
      5.550  0.1507E+02  0.9060E+02
      5.707  0.9060E+01  0.9203E+02
      5.865  0.1194E+02  0.9391E+02
      6.022  0.1063E+02  0.9558E+02
      6.179  0.2710E+01  0.9601E+02
      6.337  0.1249E+00  0.9602E+02
      6.494  0.1971E-04  0.9603E+02
      6.652  0.5649E-02  0.9603E+02
      6.809  0.9892E+00  0.9618E+02
      6.966  0.9072E+00  0.9632E+02
      7.124  0.7106E+00  0.9644E+02
      7.281  0.4526E+01  0.9715E+02
      7.439  0.6557E+01  0.9818E+02
      7.596  0.8829E+01  0.9957E+02
      7.753  0.8274E+01  0.1009E+03
      7.911  0.7472E+01  0.1020E+03
      8.068  0.6207E+01  0.1030E+03
      8.226  0.9854E+01  0.1046E+03
      8.383  0.1680E+02  0.1072E+03
      8.540  0.5411E+01  0.1081E+03
      8.698  0.3104E+01  0.1086E+03
      8.855  0.6516E+01  0.1096E+03
      9.013  0.8531E+01  0.1109E+03
      9.170  0.9071E+01  0.1124E+03
      9.327  0.9361E+01  0.1138E+03
      9.485  0.9332E+01  0.1153E+03
      9.642  0.1218E+02  0.1172E+03
      9.799  0.9672E+01  0.1187E+03
      9.957  0.2965E+01  0.1192E+03
     10.114  0.2672E+01  0.1196E+03
     10.272  0.1810E+01  0.1199E+03
     10.429  0.5652E+00  0.1200E+03
     10.586  0.7632E-03  0.1200E+03
     10.744  0.0000E+00  0.1200E+03
     10.901  0.0000E+00  0.1200E+03
     11.059  0.0000E+00  0.1200E+03
     11.216  0.0000E+00  0.1200E+03
     11.373  0.0000E+00  0.1200E+03
     11.531  0.0000E+00  0.1200E+03
     11.688  0.0000E+00  0.1200E+03
     11.846  0.0000E+00  0.1200E+03
     12.003  0.0000E+00  0.1200E+03
     12.160  0.0000E+00  0.1200E+03
     12.318  0.0000E+00  0.1200E+03
     12.475  0.0000E+00  0.1200E+03
