       N       E                     dE             d eps       ncg     rms          rms(c)
DAV:   1     0.923253822686E+04    0.92325E+04   -0.30484E+05 22896   0.296E+03
DAV:   2     0.152655246609E+04   -0.77060E+04   -0.75408E+04 22176   0.986E+02
DAV:   3     0.306750286896E+02   -0.14959E+04   -0.14177E+04 22176   0.367E+02
DAV:   4    -0.124144519569E+03   -0.15482E+03   -0.14706E+03 26284   0.123E+02
DAV:   5    -0.131109845549E+03   -0.69653E+01   -0.68571E+01 26152   0.261E+01    0.528E+01
DAV:   6    -0.132030516515E+03   -0.92067E+00   -0.31720E+02 24264   0.795E+01    0.693E+01
DAV:   7    -0.112874596034E+03    0.19156E+02   -0.63286E+01 24032   0.399E+01    0.204E+01
DAV:   8    -0.111142200895E+03    0.17324E+01   -0.18725E+01 27168   0.189E+01    0.736E+00
DAV:   9    -0.110903353997E+03    0.23885E+00   -0.23888E+00 23692   0.845E+00    0.661E+00
DAV:  10    -0.110895080574E+03    0.82734E-02   -0.56126E-01 27112   0.473E+00    0.729E+00
DAV:  11    -0.110903856133E+03   -0.87756E-02   -0.10674E-01 26868   0.201E+00    0.438E+00
DAV:  12    -0.110869518421E+03    0.34338E-01   -0.42160E-02 26136   0.165E+00    0.861E+00
DAV:  13    -0.110854406590E+03    0.15112E-01   -0.45039E-02 24712   0.166E+00    0.518E+00
DAV:  14    -0.110853286373E+03    0.11202E-02   -0.27343E-02 25456   0.691E-01    0.261E+00
DAV:  15    -0.110853536171E+03   -0.24980E-03   -0.34538E-03 28696   0.184E-01    0.199E+00
DAV:  16    -0.110853512553E+03    0.23617E-04   -0.23105E-04 27808   0.477E-02    0.161E+00
DAV:  17    -0.110853487385E+03    0.25169E-04   -0.14777E-04 24984   0.101E-01    0.103E+00
DAV:  18    -0.110853486054E+03    0.13308E-05   -0.25878E-04 24912   0.118E-01    0.167E-01
DAV:  19    -0.110853498829E+03   -0.12775E-04   -0.10667E-04 24928   0.508E-02    0.248E-01
DAV:  20    -0.110853491424E+03    0.74051E-05   -0.19125E-05 23600   0.214E-02    0.143E-01
DAV:  21    -0.110853486441E+03    0.49834E-05   -0.36403E-06 16432   0.131E-02    0.885E-02
DAV:  22    -0.110853484480E+03    0.19609E-05   -0.25852E-06 17016   0.125E-02    0.721E-02
DAV:  23    -0.110853481905E+03    0.25745E-05   -0.46098E-06 17292   0.138E-02    0.281E-02
DAV:  24    -0.110853481327E+03    0.57834E-06   -0.12557E-06 12772   0.575E-03
   1 F= -.11085348E+03 E0= -.11084895E+03  d E =-.905878E-02
