Li2 Se1                                 
   1.00000000000000     
     3.6448950000000000    0.0000000000000000    2.1043810000000001
     1.2149650000000001    3.4364400000000002    2.1043810000000001
     0.0000000000000000    0.0000000000000000    4.2087620000000001
   Li   Se
     2     1
Direct
     0.2500000000000000    0.2500000000000000    0.2500000000000000
     0.7500000000000000    0.7500000000000000    0.7500000000000000
     0.0000000000000000    0.0000000000000000    0.0000000000000000
 
  0.00000000E+00  0.00000000E+00  0.00000000E+00
  0.00000000E+00  0.00000000E+00  0.00000000E+00
  0.00000000E+00  0.00000000E+00  0.00000000E+00
