       N       E                     dE             d eps       ncg     rms          rms(c)
DAV:   1     0.524503604381E+02    0.52450E+02   -0.55409E+03 10976   0.809E+02
DAV:   2    -0.364488915203E+01   -0.56095E+02   -0.52698E+02 14328   0.181E+02
DAV:   3    -0.112177343147E+02   -0.75728E+01   -0.75104E+01 21472   0.405E+01
DAV:   4    -0.113063513037E+02   -0.88617E-01   -0.88608E-01 11808   0.682E+00
DAV:   5    -0.113073697298E+02   -0.10184E-02   -0.10184E-02 16368   0.646E-01    0.276E+00
DAV:   6    -0.111347063841E+02    0.17266E+00   -0.19284E-01 14872   0.153E+00    0.170E+00
DAV:   7    -0.111200241584E+02    0.14682E-01   -0.96636E-02 16336   0.118E+00    0.746E-01
DAV:   8    -0.111275429143E+02   -0.75188E-02   -0.13781E-02 13744   0.563E-01    0.274E-01
DAV:   9    -0.111273924180E+02    0.15050E-03   -0.30600E-04 14824   0.950E-02    0.192E-01
DAV:  10    -0.111275906850E+02   -0.19827E-03   -0.47455E-04 13912   0.923E-02    0.583E-02
DAV:  11    -0.111275978619E+02   -0.71768E-05   -0.18357E-05 15520   0.257E-02    0.167E-02
DAV:  12    -0.111276041359E+02   -0.62741E-05   -0.10563E-05 14256   0.139E-02    0.252E-02
DAV:  13    -0.111276017625E+02    0.23735E-05   -0.13216E-06 12592   0.663E-03    0.325E-03
DAV:  14    -0.111276017261E+02    0.36407E-07   -0.66377E-08  6696   0.161E-03
   1 F= -.11127602E+02 E0= -.11127602E+02  d E =-.447979E-26
