unknown system                          
           1
     0.000000   -5.730346    0.000000
     6.131450   -2.865173   -2.629331
     6.102581   -2.865173    7.025820
   H    C    N 
     8     4    20
Direct configuration=     1
   0.66218100  0.51031700  0.16189700
   0.33781900  0.48968300  0.83810300
   0.33439500  0.98968300  0.33810300
   0.66560500  0.01031700  0.66189700
   0.92849700  0.42710800  0.65660200
   0.07150300  0.57289200  0.34339800
   0.01220800  0.07289200  0.84339800
   0.98779200  0.92710800  0.15660200
   0.35708400  0.78849100  0.06284600
   0.64291600  0.21150900  0.93715400
   0.20842100  0.71150900  0.43715400
   0.79157900  0.28849100  0.56284600
   0.58802200  0.63498900  0.06935000
   0.41197800  0.36501100  0.93065000
   0.29236000  0.86501100  0.43065000
   0.70764000  0.13498900  0.56935000
   0.65294500  0.09166500  0.08082600
   0.34705500  0.90833500  0.91917400
   0.82543600  0.40833500  0.41917400
   0.17456400  0.59166500  0.58082600
   0.16899100  0.82849800  0.18129800
   0.83100900  0.17150200  0.81870200
   0.17878800  0.67150200  0.31870200
   0.82121200  0.32849800  0.68129800
   0.68534600  0.16169900  0.42710400
   0.31465400  0.83830100  0.57289600
   0.27414900  0.33830100  0.07289600
   0.72585100  0.66169900  0.92710400
   0.42028000  0.17563100  0.15950000
   0.57972000  0.82436900  0.84050000
   0.75541100  0.32436900  0.34050000
   0.24458900  0.67563100  0.65950000
