   5   5   0   0
  0.1161285E+02  0.2561726E-09  0.2561726E-09  0.1032325E-08  0.5000000E-15
  1.000000000000000E-004
  CAR 
 unknown system                          
     31.70695096    -41.85027755  301      9.78646880      1.00000000
    -41.850  0.0000E+00  0.0000E+00
    -41.605  0.0000E+00  0.0000E+00
    -41.360  0.0000E+00  0.0000E+00
    -41.115  0.0000E+00  0.0000E+00
    -40.870  0.0000E+00  0.0000E+00
    -40.624  0.0000E+00  0.0000E+00
    -40.379  0.0000E+00  0.0000E+00
    -40.134  0.0000E+00  0.0000E+00
    -39.889  0.0000E+00  0.0000E+00
    -39.644  0.0000E+00  0.0000E+00
    -39.398  0.0000E+00  0.0000E+00
    -39.153  0.0000E+00  0.0000E+00
    -38.908  0.0000E+00  0.0000E+00
    -38.663  0.3241E-05  0.7947E-06
    -38.418  0.9958E+01  0.2442E+01
    -38.172  0.2844E+02  0.9414E+01
    -37.927  0.5043E+02  0.2178E+02
    -37.682  0.9057E+01  0.2400E+02
    -37.437  0.0000E+00  0.2400E+02
    -37.192  0.0000E+00  0.2400E+02
    -36.946  0.0000E+00  0.2400E+02
    -36.701  0.0000E+00  0.2400E+02
    -36.456  0.0000E+00  0.2400E+02
    -36.211  0.0000E+00  0.2400E+02
    -35.966  0.0000E+00  0.2400E+02
    -35.721  0.0000E+00  0.2400E+02
    -35.475  0.0000E+00  0.2400E+02
    -35.230  0.0000E+00  0.2400E+02
    -34.985  0.0000E+00  0.2400E+02
    -34.740  0.0000E+00  0.2400E+02
    -34.495  0.0000E+00  0.2400E+02
    -34.249  0.0000E+00  0.2400E+02
    -34.004  0.0000E+00  0.2400E+02
    -33.759  0.0000E+00  0.2400E+02
    -33.514  0.0000E+00  0.2400E+02
    -33.269  0.0000E+00  0.2400E+02
    -33.023  0.0000E+00  0.2400E+02
    -32.778  0.0000E+00  0.2400E+02
    -32.533  0.0000E+00  0.2400E+02
    -32.288  0.0000E+00  0.2400E+02
    -32.043  0.0000E+00  0.2400E+02
    -31.797  0.0000E+00  0.2400E+02
    -31.552  0.0000E+00  0.2400E+02
    -31.307  0.0000E+00  0.2400E+02
    -31.062  0.0000E+00  0.2400E+02
    -30.817  0.0000E+00  0.2400E+02
    -30.572  0.0000E+00  0.2400E+02
    -30.326  0.0000E+00  0.2400E+02
    -30.081  0.0000E+00  0.2400E+02
    -29.836  0.0000E+00  0.2400E+02
    -29.591  0.0000E+00  0.2400E+02
    -29.346  0.0000E+00  0.2400E+02
    -29.100  0.0000E+00  0.2400E+02
    -28.855  0.0000E+00  0.2400E+02
    -28.610  0.0000E+00  0.2400E+02
    -28.365  0.0000E+00  0.2400E+02
    -28.120  0.0000E+00  0.2400E+02
    -27.874  0.0000E+00  0.2400E+02
    -27.629  0.0000E+00  0.2400E+02
    -27.384  0.0000E+00  0.2400E+02
    -27.139  0.0000E+00  0.2400E+02
    -26.894  0.0000E+00  0.2400E+02
    -26.648  0.0000E+00  0.2400E+02
    -26.403  0.0000E+00  0.2400E+02
    -26.158  0.0000E+00  0.2400E+02
    -25.913  0.0000E+00  0.2400E+02
    -25.668  0.0000E+00  0.2400E+02
    -25.422  0.0000E+00  0.2400E+02
    -25.177  0.0000E+00  0.2400E+02
    -24.932  0.0000E+00  0.2400E+02
    -24.687  0.0000E+00  0.2400E+02
    -24.442  0.0000E+00  0.2400E+02
    -24.197  0.0000E+00  0.2400E+02
    -23.951  0.0000E+00  0.2400E+02
    -23.706  0.0000E+00  0.2400E+02
    -23.461  0.0000E+00  0.2400E+02
    -23.216  0.0000E+00  0.2400E+02
    -22.971  0.0000E+00  0.2400E+02
    -22.725  0.0000E+00  0.2400E+02
    -22.480  0.0000E+00  0.2400E+02
    -22.235  0.0000E+00  0.2400E+02
    -21.990  0.0000E+00  0.2400E+02
    -21.745  0.0000E+00  0.2400E+02
    -21.499  0.0000E+00  0.2400E+02
    -21.254  0.0000E+00  0.2400E+02
    -21.009  0.0000E+00  0.2400E+02
    -20.764  0.0000E+00  0.2400E+02
    -20.519  0.0000E+00  0.2400E+02
    -20.273  0.0000E+00  0.2400E+02
    -20.028  0.0000E+00  0.2400E+02
    -19.783  0.0000E+00  0.2400E+02
    -19.538  0.0000E+00  0.2400E+02
    -19.293  0.0000E+00  0.2400E+02
    -19.048  0.0000E+00  0.2400E+02
    -18.802  0.0000E+00  0.2400E+02
    -18.557  0.0000E+00  0.2400E+02
    -18.312  0.0000E+00  0.2400E+02
    -18.067  0.0000E+00  0.2400E+02
    -17.822  0.0000E+00  0.2400E+02
    -17.576  0.0000E+00  0.2400E+02
    -17.331  0.0000E+00  0.2400E+02
    -17.086  0.0000E+00  0.2400E+02
    -16.841  0.0000E+00  0.2400E+02
    -16.596  0.0000E+00  0.2400E+02
    -16.350  0.0000E+00  0.2400E+02
    -16.105  0.0000E+00  0.2400E+02
    -15.860  0.0000E+00  0.2400E+02
    -15.615  0.0000E+00  0.2400E+02
    -15.370  0.0000E+00  0.2400E+02
    -15.124  0.0000E+00  0.2400E+02
    -14.879  0.0000E+00  0.2400E+02
    -14.634  0.0000E+00  0.2400E+02
    -14.389  0.0000E+00  0.2400E+02
    -14.144  0.0000E+00  0.2400E+02
    -13.899  0.0000E+00  0.2400E+02
    -13.653  0.0000E+00  0.2400E+02
    -13.408  0.0000E+00  0.2400E+02
    -13.163  0.0000E+00  0.2400E+02
    -12.918  0.0000E+00  0.2400E+02
    -12.673  0.0000E+00  0.2400E+02
    -12.427  0.0000E+00  0.2400E+02
    -12.182  0.0000E+00  0.2400E+02
    -11.937  0.0000E+00  0.2400E+02
    -11.692  0.0000E+00  0.2400E+02
    -11.447  0.0000E+00  0.2400E+02
    -11.201  0.0000E+00  0.2400E+02
    -10.956  0.0000E+00  0.2400E+02
    -10.711  0.0000E+00  0.2400E+02
    -10.466  0.0000E+00  0.2400E+02
    -10.221  0.0000E+00  0.2400E+02
     -9.975  0.0000E+00  0.2400E+02
     -9.730  0.0000E+00  0.2400E+02
     -9.485  0.0000E+00  0.2400E+02
     -9.240  0.0000E+00  0.2400E+02
     -8.995  0.0000E+00  0.2400E+02
     -8.750  0.0000E+00  0.2400E+02
     -8.504  0.0000E+00  0.2400E+02
     -8.259  0.0000E+00  0.2400E+02
     -8.014  0.0000E+00  0.2400E+02
     -7.769  0.0000E+00  0.2400E+02
     -7.524  0.0000E+00  0.2400E+02
     -7.278  0.0000E+00  0.2400E+02
     -7.033  0.0000E+00  0.2400E+02
     -6.788  0.0000E+00  0.2400E+02
     -6.543  0.0000E+00  0.2400E+02
     -6.298  0.0000E+00  0.2400E+02
     -6.052  0.4445E-02  0.2400E+02
     -5.807  0.2975E+01  0.2473E+02
     -5.562  0.7595E+01  0.2659E+02
     -5.317  0.1216E+02  0.2957E+02
     -5.072  0.1685E+02  0.3371E+02
     -4.826  0.1201E+01  0.3400E+02
     -4.581  0.0000E+00  0.3400E+02
     -4.336  0.0000E+00  0.3400E+02
     -4.091  0.0000E+00  0.3400E+02
     -3.846  0.0000E+00  0.3400E+02
     -3.601  0.0000E+00  0.3400E+02
     -3.355  0.0000E+00  0.3400E+02
     -3.110  0.0000E+00  0.3400E+02
     -2.865  0.0000E+00  0.3400E+02
     -2.620  0.0000E+00  0.3400E+02
     -2.375  0.1858E-07  0.3400E+02
     -2.129  0.6553E-01  0.3402E+02
     -1.884  0.4030E+00  0.3411E+02
     -1.639  0.3351E-02  0.3412E+02
     -1.394  0.4040E+00  0.3421E+02
     -1.149  0.4047E+00  0.3431E+02
     -0.903  0.2713E-03  0.3431E+02
     -0.658  0.1182E-03  0.3431E+02
     -0.413  0.8085E+00  0.3451E+02
     -0.168  0.4526E-03  0.3451E+02
      0.077  0.4043E+00  0.3461E+02
      0.323  0.1447E-03  0.3461E+02
      0.568  0.8243E-05  0.3461E+02
      0.813  0.4036E+00  0.3471E+02
      1.058  0.8089E+00  0.3491E+02
      1.303  0.9694E-03  0.3491E+02
      1.548  0.8164E-04  0.3491E+02
      1.794  0.4044E+00  0.3501E+02
      2.039  0.3371E-01  0.3502E+02
      2.284  0.2018E+00  0.3507E+02
      2.529  0.8593E+00  0.3528E+02
      2.774  0.3696E+00  0.3537E+02
      3.020  0.1158E+01  0.3565E+02
      3.265  0.3097E+00  0.3573E+02
      3.510  0.3530E+00  0.3581E+02
      3.755  0.5064E+00  0.3594E+02
      4.000  0.7794E+00  0.3613E+02
      4.246  0.6275E+00  0.3628E+02
      4.491  0.1784E+01  0.3672E+02
      4.736  0.7551E+00  0.3691E+02
      4.981  0.1235E+01  0.3721E+02
      5.226  0.1660E+01  0.3762E+02
      5.472  0.1588E+01  0.3800E+02
      5.717  0.2673E+01  0.3866E+02
      5.962  0.4336E+01  0.3972E+02
      6.207  0.4844E+01  0.4091E+02
      6.452  0.5388E+01  0.4223E+02
      6.697  0.6347E+01  0.4379E+02
      6.943  0.7431E+01  0.4561E+02
      7.188  0.6759E+01  0.4727E+02
      7.433  0.5440E+01  0.4860E+02
      7.678  0.4047E+01  0.4959E+02
      7.923  0.6036E+01  0.5107E+02
      8.169  0.4487E+01  0.5217E+02
      8.414  0.8065E+01  0.5415E+02
      8.659  0.8965E+01  0.5635E+02
      8.904  0.1033E+02  0.5888E+02
      9.149  0.8690E+01  0.6101E+02
      9.395  0.8423E+01  0.6308E+02
      9.640  0.5009E+01  0.6431E+02
      9.885  0.5220E+01  0.6559E+02
     10.130  0.6908E+01  0.6728E+02
     10.375  0.8945E+01  0.6947E+02
     10.621  0.7351E+01  0.7128E+02
     10.866  0.3918E+01  0.7224E+02
     11.111  0.9569E+01  0.7458E+02
     11.356  0.1074E+02  0.7722E+02
     11.601  0.6303E+01  0.7876E+02
     11.846  0.2608E+01  0.7940E+02
     12.092  0.2201E+01  0.7994E+02
     12.337  0.2118E+01  0.8046E+02
     12.582  0.2342E+01  0.8103E+02
     12.827  0.1199E+01  0.8133E+02
     13.072  0.1433E+01  0.8168E+02
     13.318  0.1789E+01  0.8212E+02
     13.563  0.1203E+01  0.8241E+02
     13.808  0.1564E+01  0.8280E+02
     14.053  0.1390E+01  0.8314E+02
     14.298  0.1027E+01  0.8339E+02
     14.544  0.1019E+01  0.8364E+02
     14.789  0.1743E+01  0.8407E+02
     15.034  0.1428E+01  0.8442E+02
     15.279  0.9965E+00  0.8466E+02
     15.524  0.1532E+01  0.8504E+02
     15.770  0.9303E+00  0.8527E+02
     16.015  0.1618E+01  0.8566E+02
     16.260  0.1260E+01  0.8597E+02
     16.505  0.1295E+01  0.8629E+02
     16.750  0.7377E+00  0.8647E+02
     16.996  0.4398E+00  0.8658E+02
     17.241  0.1466E+00  0.8661E+02
     17.486  0.1741E+01  0.8704E+02
     17.731  0.2382E+01  0.8762E+02
     17.976  0.2651E+01  0.8827E+02
     18.221  0.1521E+01  0.8865E+02
     18.467  0.1881E+01  0.8911E+02
     18.712  0.1017E+01  0.8936E+02
     18.957  0.1987E+01  0.8984E+02
     19.202  0.1300E+01  0.9016E+02
     19.447  0.1499E+01  0.9053E+02
     19.693  0.2074E+01  0.9104E+02
     19.938  0.1147E+01  0.9132E+02
     20.183  0.1675E+01  0.9173E+02
     20.428  0.9025E+00  0.9195E+02
     20.673  0.1823E+01  0.9240E+02
     20.919  0.3838E+00  0.9249E+02
     21.164  0.5424E+00  0.9263E+02
     21.409  0.1054E+01  0.9289E+02
     21.654  0.1276E+01  0.9320E+02
     21.899  0.2000E+01  0.9369E+02
     22.145  0.1230E+01  0.9399E+02
     22.390  0.1044E+01  0.9425E+02
     22.635  0.3910E+00  0.9434E+02
     22.880  0.8210E+00  0.9454E+02
     23.125  0.1931E+00  0.9459E+02
     23.370  0.6439E+00  0.9475E+02
     23.616  0.7288E+00  0.9493E+02
     23.861  0.4178E+00  0.9503E+02
     24.106  0.8305E+00  0.9523E+02
     24.351  0.1271E+00  0.9526E+02
     24.596  0.1346E+00  0.9530E+02
     24.842  0.1564E+00  0.9534E+02
     25.087  0.1998E+00  0.9538E+02
     25.332  0.6561E-01  0.9540E+02
     25.577  0.7689E+00  0.9559E+02
     25.822  0.3737E+00  0.9568E+02
     26.068  0.1208E+00  0.9571E+02
     26.313  0.1690E+00  0.9575E+02
     26.558  0.0000E+00  0.9575E+02
     26.803  0.8730E-06  0.9575E+02
     27.048  0.2891E+00  0.9582E+02
     27.294  0.6023E+00  0.9597E+02
     27.539  0.8602E-01  0.9599E+02
     27.784  0.0000E+00  0.9599E+02
     28.029  0.0000E+00  0.9599E+02
     28.274  0.1968E-03  0.9599E+02
     28.519  0.3351E-01  0.9600E+02
     28.765  0.0000E+00  0.9600E+02
     29.010  0.0000E+00  0.9600E+02
     29.255  0.0000E+00  0.9600E+02
     29.500  0.0000E+00  0.9600E+02
     29.745  0.0000E+00  0.9600E+02
     29.991  0.0000E+00  0.9600E+02
     30.236  0.0000E+00  0.9600E+02
     30.481  0.0000E+00  0.9600E+02
     30.726  0.0000E+00  0.9600E+02
     30.971  0.0000E+00  0.9600E+02
     31.217  0.0000E+00  0.9600E+02
     31.462  0.0000E+00  0.9600E+02
     31.707  0.0000E+00  0.9600E+02
