Mn4 Ga1
1.0
  -1.8114140000000001   -1.8114140000000001    0.0000000000000000
   0.0000000000000000    1.8114140000000001   -1.8114140000000001
   5.2948380000000004   -5.2948380000000004   -7.1062500000000002
Mn Ga
4 1
direct
   0.5961720000000000    0.1923440000000000    0.2114840000000000 Mn
   0.2011200000000000    0.4022400000000000    0.3966390000000000 Mn
   0.7988800000000000    0.5977600000000000    0.6033610000000000 Mn
   0.4038280000000000    0.8076560000000000    0.7885160000000000 Mn
   0.0000000000000000    0.0000000000000000    0.0000000000000000 Ga
