B6 Ir4                                  
   1.00000000000000     
     0.0000000000000000   -3.1171489999999999    0.0000000000000000
    -5.2495989999999999   -1.5585739999999999    0.0679120000000000
    -0.0336350000000000    0.0000000000000000   -6.2503029999999997
   B    Ir
     6     4
Direct
     0.8256159999999966    0.3487679999999997    0.4720810000000029
     0.1743840000000034    0.6512320000000003    0.5279189999999971
     0.4411369999999977    0.1177259999999976    0.3862110000000030
     0.5588630000000023    0.8822740000000024    0.6137889999999970
     0.2588509999999999    0.4822989999999976    0.0762169999999998
     0.7411490000000001    0.5177010000000024    0.9237830000000002
     0.8968479999999985    0.2063040000000029    0.1478469999999987
     0.1031520000000015    0.7936959999999971    0.8521530000000013
     0.6401030000000034    0.7197930000000028    0.2997969999999981
     0.3598969999999966    0.2802069999999972    0.7002030000000019
 
  0.00000000E+00  0.00000000E+00  0.00000000E+00
  0.00000000E+00  0.00000000E+00  0.00000000E+00
  0.00000000E+00  0.00000000E+00  0.00000000E+00
  0.00000000E+00  0.00000000E+00  0.00000000E+00
  0.00000000E+00  0.00000000E+00  0.00000000E+00
  0.00000000E+00  0.00000000E+00  0.00000000E+00
  0.00000000E+00  0.00000000E+00  0.00000000E+00
  0.00000000E+00  0.00000000E+00  0.00000000E+00
  0.00000000E+00  0.00000000E+00  0.00000000E+00
  0.00000000E+00  0.00000000E+00  0.00000000E+00
