B6 Ir4
1.0
   0.0000000000000000   -3.1171489999999999    0.0000000000000000
  -5.2495989999999999   -1.5585739999999999    0.0679120000000000
  -0.0336350000000000    0.0000000000000000   -6.2503029999999997
B Ir
6 4
direct
   0.8256160000000000    0.3487680000000000    0.4720810000000000 B
   0.1743840000000000    0.6512320000000000    0.5279190000000000 B
   0.4411370000000000    0.1177260000000000    0.3862110000000000 B
   0.5588630000000000    0.8822740000000000    0.6137890000000000 B
   0.2588510000000000    0.4822990000000000    0.0762170000000000 B
   0.7411489999999999    0.5177010000000000    0.9237830000000000 B
   0.8968480000000000    0.2063040000000000    0.1478470000000000 Ir
   0.1031520000000000    0.7936960000000000    0.8521530000000000 Ir
   0.6401030000000000    0.7197930000000000    0.2997970000000000 Ir
   0.3598970000000000    0.2802070000000000    0.7002030000000000 Ir
