   4   4   0   0
  0.3730262E+02  0.4994857E-09  0.6080710E-09  0.6080711E-09  0.5000000E-15
  1.000000000000000E-004
  CAR 
 unknown system                          
      8.48964184    -27.54938424  301      0.92895449      1.00000000
    -27.549  0.0000E+00  0.0000E+00
    -27.429  0.0000E+00  0.0000E+00
    -27.309  0.0000E+00  0.0000E+00
    -27.189  0.0000E+00  0.0000E+00
    -27.069  0.0000E+00  0.0000E+00
    -26.949  0.0000E+00  0.0000E+00
    -26.829  0.0000E+00  0.0000E+00
    -26.708  0.0000E+00  0.0000E+00
    -26.588  0.0000E+00  0.0000E+00
    -26.468  0.0000E+00  0.0000E+00
    -26.348  0.0000E+00  0.0000E+00
    -26.228  0.0000E+00  0.0000E+00
    -26.108  0.2986E-07  0.3587E-08
    -25.988  0.1054E+00  0.1267E-01
    -25.868  0.2311E+02  0.2788E+01
    -25.747  0.1008E+02  0.4000E+01
    -25.627  0.2599E-02  0.4000E+01
    -25.507  0.2147E-10  0.4000E+01
    -25.387  0.0000E+00  0.4000E+01
    -25.267  0.0000E+00  0.4000E+01
    -25.147  0.0000E+00  0.4000E+01
    -25.027  0.0000E+00  0.4000E+01
    -24.907  0.0000E+00  0.4000E+01
    -24.786  0.0000E+00  0.4000E+01
    -24.666  0.0000E+00  0.4000E+01
    -24.546  0.0000E+00  0.4000E+01
    -24.426  0.0000E+00  0.4000E+01
    -24.306  0.0000E+00  0.4000E+01
    -24.186  0.0000E+00  0.4000E+01
    -24.066  0.0000E+00  0.4000E+01
    -23.945  0.0000E+00  0.4000E+01
    -23.825  0.0000E+00  0.4000E+01
    -23.705  0.0000E+00  0.4000E+01
    -23.585  0.0000E+00  0.4000E+01
    -23.465  0.0000E+00  0.4000E+01
    -23.345  0.0000E+00  0.4000E+01
    -23.225  0.0000E+00  0.4000E+01
    -23.105  0.0000E+00  0.4000E+01
    -22.984  0.0000E+00  0.4000E+01
    -22.864  0.0000E+00  0.4000E+01
    -22.744  0.0000E+00  0.4000E+01
    -22.624  0.0000E+00  0.4000E+01
    -22.504  0.0000E+00  0.4000E+01
    -22.384  0.0000E+00  0.4000E+01
    -22.264  0.0000E+00  0.4000E+01
    -22.144  0.0000E+00  0.4000E+01
    -22.023  0.0000E+00  0.4000E+01
    -21.903  0.0000E+00  0.4000E+01
    -21.783  0.0000E+00  0.4000E+01
    -21.663  0.0000E+00  0.4000E+01
    -21.543  0.0000E+00  0.4000E+01
    -21.423  0.0000E+00  0.4000E+01
    -21.303  0.0000E+00  0.4000E+01
    -21.182  0.0000E+00  0.4000E+01
    -21.062  0.0000E+00  0.4000E+01
    -20.942  0.0000E+00  0.4000E+01
    -20.822  0.0000E+00  0.4000E+01
    -20.702  0.0000E+00  0.4000E+01
    -20.582  0.0000E+00  0.4000E+01
    -20.462  0.0000E+00  0.4000E+01
    -20.342  0.0000E+00  0.4000E+01
    -20.221  0.0000E+00  0.4000E+01
    -20.101  0.0000E+00  0.4000E+01
    -19.981  0.0000E+00  0.4000E+01
    -19.861  0.0000E+00  0.4000E+01
    -19.741  0.0000E+00  0.4000E+01
    -19.621  0.0000E+00  0.4000E+01
    -19.501  0.0000E+00  0.4000E+01
    -19.381  0.0000E+00  0.4000E+01
    -19.260  0.0000E+00  0.4000E+01
    -19.140  0.0000E+00  0.4000E+01
    -19.020  0.0000E+00  0.4000E+01
    -18.900  0.0000E+00  0.4000E+01
    -18.780  0.0000E+00  0.4000E+01
    -18.660  0.0000E+00  0.4000E+01
    -18.540  0.0000E+00  0.4000E+01
    -18.419  0.0000E+00  0.4000E+01
    -18.299  0.0000E+00  0.4000E+01
    -18.179  0.0000E+00  0.4000E+01
    -18.059  0.0000E+00  0.4000E+01
    -17.939  0.0000E+00  0.4000E+01
    -17.819  0.0000E+00  0.4000E+01
    -17.699  0.0000E+00  0.4000E+01
    -17.579  0.0000E+00  0.4000E+01
    -17.458  0.0000E+00  0.4000E+01
    -17.338  0.0000E+00  0.4000E+01
    -17.218  0.0000E+00  0.4000E+01
    -17.098  0.0000E+00  0.4000E+01
    -16.978  0.0000E+00  0.4000E+01
    -16.858  0.0000E+00  0.4000E+01
    -16.738  0.0000E+00  0.4000E+01
    -16.618  0.0000E+00  0.4000E+01
    -16.497  0.0000E+00  0.4000E+01
    -16.377  0.0000E+00  0.4000E+01
    -16.257  0.0000E+00  0.4000E+01
    -16.137  0.0000E+00  0.4000E+01
    -16.017  0.0000E+00  0.4000E+01
    -15.897  0.0000E+00  0.4000E+01
    -15.777  0.0000E+00  0.4000E+01
    -15.657  0.0000E+00  0.4000E+01
    -15.536  0.0000E+00  0.4000E+01
    -15.416  0.0000E+00  0.4000E+01
    -15.296  0.0000E+00  0.4000E+01
    -15.176  0.0000E+00  0.4000E+01
    -15.056  0.0000E+00  0.4000E+01
    -14.936  0.0000E+00  0.4000E+01
    -14.816  0.0000E+00  0.4000E+01
    -14.695  0.0000E+00  0.4000E+01
    -14.575  0.0000E+00  0.4000E+01
    -14.455  0.0000E+00  0.4000E+01
    -14.335  0.0000E+00  0.4000E+01
    -14.215  0.0000E+00  0.4000E+01
    -14.095  0.0000E+00  0.4000E+01
    -13.975  0.0000E+00  0.4000E+01
    -13.855  0.0000E+00  0.4000E+01
    -13.734  0.0000E+00  0.4000E+01
    -13.614  0.0000E+00  0.4000E+01
    -13.494  0.0000E+00  0.4000E+01
    -13.374  0.0000E+00  0.4000E+01
    -13.254  0.1754E-06  0.4000E+01
    -13.134  0.1263E+00  0.4015E+01
    -13.014  0.1143E+02  0.5388E+01
    -12.894  0.5078E+01  0.5998E+01
    -12.773  0.1297E-01  0.6000E+01
    -12.653  0.1016E-07  0.6000E+01
    -12.533  0.0000E+00  0.6000E+01
    -12.413  0.0000E+00  0.6000E+01
    -12.293  0.0000E+00  0.6000E+01
    -12.173  0.0000E+00  0.6000E+01
    -12.053  0.0000E+00  0.6000E+01
    -11.932  0.0000E+00  0.6000E+01
    -11.812  0.0000E+00  0.6000E+01
    -11.692  0.0000E+00  0.6000E+01
    -11.572  0.0000E+00  0.6000E+01
    -11.452  0.0000E+00  0.6000E+01
    -11.332  0.0000E+00  0.6000E+01
    -11.212  0.0000E+00  0.6000E+01
    -11.092  0.0000E+00  0.6000E+01
    -10.971  0.0000E+00  0.6000E+01
    -10.851  0.0000E+00  0.6000E+01
    -10.731  0.1205E-11  0.6000E+01
    -10.611  0.1056E-03  0.6000E+01
    -10.491  0.2900E+00  0.6035E+01
    -10.371  0.2949E+01  0.6389E+01
    -10.251  0.8279E+01  0.7384E+01
    -10.131  0.1619E+02  0.9329E+01
    -10.010  0.2206E+02  0.1198E+02
     -9.890  0.3829E+02  0.1658E+02
     -9.770  0.1181E+02  0.1800E+02
     -9.650  0.1863E-01  0.1800E+02
     -9.530  0.2798E-08  0.1800E+02
     -9.410  0.7270E-15  0.1800E+02
     -9.290  0.9227E-06  0.1800E+02
     -9.169  0.2740E-01  0.1800E+02
     -9.049  0.1510E+01  0.1818E+02
     -8.929  0.7363E+01  0.1907E+02
     -8.809  0.6096E+01  0.1980E+02
     -8.689  0.1589E+01  0.1999E+02
     -8.569  0.6265E-01  0.2000E+02
     -8.449  0.7558E-06  0.2000E+02
     -8.329  0.0000E+00  0.2000E+02
     -8.208  0.0000E+00  0.2000E+02
     -8.088  0.0000E+00  0.2000E+02
     -7.968  0.0000E+00  0.2000E+02
     -7.848  0.0000E+00  0.2000E+02
     -7.728  0.0000E+00  0.2000E+02
     -7.608  0.0000E+00  0.2000E+02
     -7.488  0.0000E+00  0.2000E+02
     -7.368  0.0000E+00  0.2000E+02
     -7.247  0.0000E+00  0.2000E+02
     -7.127  0.0000E+00  0.2000E+02
     -7.007  0.0000E+00  0.2000E+02
     -6.887  0.0000E+00  0.2000E+02
     -6.767  0.0000E+00  0.2000E+02
     -6.647  0.0000E+00  0.2000E+02
     -6.527  0.0000E+00  0.2000E+02
     -6.406  0.0000E+00  0.2000E+02
     -6.286  0.0000E+00  0.2000E+02
     -6.166  0.0000E+00  0.2000E+02
     -6.046  0.0000E+00  0.2000E+02
     -5.926  0.0000E+00  0.2000E+02
     -5.806  0.0000E+00  0.2000E+02
     -5.686  0.0000E+00  0.2000E+02
     -5.566  0.0000E+00  0.2000E+02
     -5.445  0.0000E+00  0.2000E+02
     -5.325  0.0000E+00  0.2000E+02
     -5.205  0.0000E+00  0.2000E+02
     -5.085  0.0000E+00  0.2000E+02
     -4.965  0.0000E+00  0.2000E+02
     -4.845  0.0000E+00  0.2000E+02
     -4.725  0.0000E+00  0.2000E+02
     -4.605  0.0000E+00  0.2000E+02
     -4.484  0.0000E+00  0.2000E+02
     -4.364  0.0000E+00  0.2000E+02
     -4.244  0.0000E+00  0.2000E+02
     -4.124  0.0000E+00  0.2000E+02
     -4.004  0.0000E+00  0.2000E+02
     -3.884  0.0000E+00  0.2000E+02
     -3.764  0.0000E+00  0.2000E+02
     -3.643  0.0000E+00  0.2000E+02
     -3.523  0.3150E-12  0.2000E+02
     -3.403  0.7156E-04  0.2000E+02
     -3.283  0.5108E+00  0.2006E+02
     -3.163  0.7234E+01  0.2093E+02
     -3.043  0.7954E+01  0.2189E+02
     -2.923  0.9499E+00  0.2200E+02
     -2.803  0.6017E-04  0.2200E+02
     -2.682  0.1079E-12  0.2200E+02
     -2.562  0.1061E-07  0.2200E+02
     -2.442  0.7715E-02  0.2200E+02
     -2.322  0.4977E+00  0.2206E+02
     -2.202  0.2023E+01  0.2230E+02
     -2.082  0.8617E+01  0.2334E+02
     -1.962  0.8754E+01  0.2439E+02
     -1.842  0.1212E+02  0.2585E+02
     -1.721  0.1272E+01  0.2600E+02
     -1.601  0.1060E-02  0.2600E+02
     -1.481  0.1033E-09  0.2600E+02
     -1.361  0.0000E+00  0.2600E+02
     -1.241  0.0000E+00  0.2600E+02
     -1.121  0.0000E+00  0.2600E+02
     -1.001  0.0000E+00  0.2600E+02
     -0.881  0.0000E+00  0.2600E+02
     -0.760  0.0000E+00  0.2600E+02
     -0.640  0.0000E+00  0.2600E+02
     -0.520  0.0000E+00  0.2600E+02
     -0.400  0.0000E+00  0.2600E+02
     -0.280  0.0000E+00  0.2600E+02
     -0.160  0.1972E-15  0.2600E+02
     -0.040  0.1128E-05  0.2600E+02
      0.081  0.9908E-01  0.2601E+02
      0.201  0.3003E+01  0.2637E+02
      0.321  0.1084E+02  0.2767E+02
      0.441  0.1393E+02  0.2935E+02
      0.561  0.4660E+01  0.2991E+02
      0.681  0.7392E+00  0.3000E+02
      0.801  0.2936E-01  0.3000E+02
      0.921  0.3149E-06  0.3000E+02
      1.042  0.0000E+00  0.3000E+02
      1.162  0.0000E+00  0.3000E+02
      1.282  0.0000E+00  0.3000E+02
      1.402  0.0000E+00  0.3000E+02
      1.522  0.0000E+00  0.3000E+02
      1.642  0.0000E+00  0.3000E+02
      1.762  0.0000E+00  0.3000E+02
      1.882  0.0000E+00  0.3000E+02
      2.003  0.0000E+00  0.3000E+02
      2.123  0.0000E+00  0.3000E+02
      2.243  0.3769E-07  0.3000E+02
      2.363  0.9846E-02  0.3000E+02
      2.483  0.2034E+00  0.3003E+02
      2.603  0.4838E+00  0.3008E+02
      2.723  0.1806E+01  0.3030E+02
      2.844  0.1046E+01  0.3043E+02
      2.964  0.2688E+01  0.3075E+02
      3.084  0.1408E+01  0.3092E+02
      3.204  0.5709E+00  0.3099E+02
      3.324  0.1976E+01  0.3122E+02
      3.444  0.2500E+01  0.3152E+02
      3.564  0.1339E+01  0.3169E+02
      3.684  0.6612E-01  0.3169E+02
      3.805  0.8842E+00  0.3180E+02
      3.925  0.3915E+01  0.3227E+02
      4.045  0.1393E+01  0.3244E+02
      4.165  0.3068E+01  0.3281E+02
      4.285  0.2097E+01  0.3306E+02
      4.405  0.2816E+01  0.3340E+02
      4.525  0.1744E+01  0.3361E+02
      4.645  0.8242E+00  0.3370E+02
      4.766  0.2147E+01  0.3396E+02
      4.886  0.4098E+01  0.3446E+02
      5.006  0.2096E+01  0.3471E+02
      5.126  0.2785E+01  0.3504E+02
      5.246  0.2470E+01  0.3534E+02
      5.366  0.2243E+01  0.3561E+02
      5.486  0.3186E+01  0.3599E+02
      5.607  0.3023E+01  0.3635E+02
      5.727  0.3301E+01  0.3675E+02
      5.847  0.3124E+01  0.3713E+02
      5.967  0.2309E+01  0.3740E+02
      6.087  0.3450E+01  0.3782E+02
      6.207  0.3963E+01  0.3829E+02
      6.327  0.4751E+01  0.3886E+02
      6.447  0.5083E+01  0.3947E+02
      6.568  0.2590E+01  0.3979E+02
      6.688  0.1223E+01  0.3993E+02
      6.808  0.3636E+00  0.3998E+02
      6.928  0.1962E+00  0.4000E+02
      7.048  0.3372E-02  0.4000E+02
      7.168  0.2945E-08  0.4000E+02
      7.288  0.0000E+00  0.4000E+02
      7.408  0.0000E+00  0.4000E+02
      7.529  0.0000E+00  0.4000E+02
      7.649  0.0000E+00  0.4000E+02
      7.769  0.0000E+00  0.4000E+02
      7.889  0.0000E+00  0.4000E+02
      8.009  0.0000E+00  0.4000E+02
      8.129  0.0000E+00  0.4000E+02
      8.249  0.0000E+00  0.4000E+02
      8.370  0.0000E+00  0.4000E+02
      8.490  0.0000E+00  0.4000E+02
