       N       E                     dE             d eps       ncg     rms          rms(c)
DAV:   1     0.193968840489E+03    0.19397E+03   -0.13721E+04  6000   0.140E+03
DAV:   2     0.125678195336E+01   -0.19271E+03   -0.18671E+03  8360   0.249E+02
DAV:   3    -0.144871957833E+02   -0.15744E+02   -0.15694E+02  9232   0.727E+01
DAV:   4    -0.148436521242E+02   -0.35646E+00   -0.35585E+00  8532   0.105E+01
DAV:   5    -0.148585434696E+02   -0.14891E-01   -0.14890E-01  8784   0.168E+00    0.933E+00
DAV:   6    -0.139061977581E+02    0.95235E+00   -0.15233E+00  6760   0.521E+00    0.608E+00
DAV:   7    -0.137555786625E+02    0.15062E+00   -0.99473E-01  8124   0.446E+00    0.242E+00
DAV:   8    -0.137787923790E+02   -0.23214E-01   -0.16195E-01  7856   0.202E+00    0.374E-01
DAV:   9    -0.137792418439E+02   -0.44946E-03   -0.13223E-02  7400   0.533E-01    0.302E-01
DAV:  10    -0.137842536163E+02   -0.50118E-02   -0.43759E-03  6544   0.383E-01    0.112E-01
DAV:  11    -0.137851316235E+02   -0.87801E-03   -0.26359E-03  6992   0.247E-01    0.561E-02
DAV:  12    -0.137853587235E+02   -0.22710E-03   -0.44494E-04  7760   0.100E-01    0.308E-02
DAV:  13    -0.137853836369E+02   -0.24913E-04   -0.19466E-04  7484   0.634E-02    0.151E-02
DAV:  14    -0.137853974620E+02   -0.13825E-04   -0.22958E-05  6852   0.263E-02    0.793E-03
DAV:  15    -0.137853986205E+02   -0.11585E-05   -0.43094E-06  6436   0.116E-02    0.177E-03
DAV:  16    -0.137853987458E+02   -0.12531E-06   -0.37461E-07  5688   0.387E-03
   1 F= -.13785399E+02 E0= -.13785399E+02  d E =-.397814E-18
