   3   3   0   0
  0.2789815E+02  0.4044958E-09  0.4044958E-09  0.5115270E-09  0.5000000E-15
  1.000000000000000E-004
  CAR 
 unknown system                          
      8.76475723    -32.03870151  301      0.43565187      1.00000000
    -32.039  0.0000E+00  0.0000E+00
    -31.903  0.0000E+00  0.0000E+00
    -31.767  0.0000E+00  0.0000E+00
    -31.631  0.0000E+00  0.0000E+00
    -31.495  0.0000E+00  0.0000E+00
    -31.359  0.0000E+00  0.0000E+00
    -31.223  0.0000E+00  0.0000E+00
    -31.087  0.0000E+00  0.0000E+00
    -30.951  0.0000E+00  0.0000E+00
    -30.815  0.0000E+00  0.0000E+00
    -30.679  0.0000E+00  0.0000E+00
    -30.543  0.0000E+00  0.0000E+00
    -30.407  0.3523E-09  0.4791E-10
    -30.271  0.4079E-01  0.5548E-02
    -30.135  0.1243E+02  0.1696E+01
    -29.999  0.2234E+01  0.2000E+01
    -29.863  0.9903E-05  0.2000E+01
    -29.727  0.0000E+00  0.2000E+01
    -29.590  0.0000E+00  0.2000E+01
    -29.454  0.1240E-05  0.2000E+01
    -29.318  0.1144E+01  0.2156E+01
    -29.182  0.1344E+02  0.3983E+01
    -29.046  0.1238E+00  0.4000E+01
    -28.910  0.4076E-08  0.4000E+01
    -28.774  0.0000E+00  0.4000E+01
    -28.638  0.0000E+00  0.4000E+01
    -28.502  0.0000E+00  0.4000E+01
    -28.366  0.0000E+00  0.4000E+01
    -28.230  0.0000E+00  0.4000E+01
    -28.094  0.0000E+00  0.4000E+01
    -27.958  0.0000E+00  0.4000E+01
    -27.822  0.0000E+00  0.4000E+01
    -27.686  0.0000E+00  0.4000E+01
    -27.550  0.0000E+00  0.4000E+01
    -27.414  0.0000E+00  0.4000E+01
    -27.278  0.0000E+00  0.4000E+01
    -27.142  0.0000E+00  0.4000E+01
    -27.006  0.0000E+00  0.4000E+01
    -26.870  0.0000E+00  0.4000E+01
    -26.734  0.0000E+00  0.4000E+01
    -26.598  0.0000E+00  0.4000E+01
    -26.462  0.0000E+00  0.4000E+01
    -26.326  0.0000E+00  0.4000E+01
    -26.190  0.0000E+00  0.4000E+01
    -26.054  0.0000E+00  0.4000E+01
    -25.918  0.0000E+00  0.4000E+01
    -25.782  0.0000E+00  0.4000E+01
    -25.646  0.0000E+00  0.4000E+01
    -25.510  0.0000E+00  0.4000E+01
    -25.374  0.0000E+00  0.4000E+01
    -25.238  0.0000E+00  0.4000E+01
    -25.102  0.0000E+00  0.4000E+01
    -24.966  0.0000E+00  0.4000E+01
    -24.830  0.0000E+00  0.4000E+01
    -24.694  0.0000E+00  0.4000E+01
    -24.558  0.0000E+00  0.4000E+01
    -24.422  0.0000E+00  0.4000E+01
    -24.286  0.0000E+00  0.4000E+01
    -24.150  0.0000E+00  0.4000E+01
    -24.014  0.0000E+00  0.4000E+01
    -23.878  0.0000E+00  0.4000E+01
    -23.742  0.0000E+00  0.4000E+01
    -23.606  0.0000E+00  0.4000E+01
    -23.470  0.0000E+00  0.4000E+01
    -23.334  0.0000E+00  0.4000E+01
    -23.198  0.0000E+00  0.4000E+01
    -23.062  0.0000E+00  0.4000E+01
    -22.926  0.0000E+00  0.4000E+01
    -22.790  0.0000E+00  0.4000E+01
    -22.654  0.0000E+00  0.4000E+01
    -22.518  0.0000E+00  0.4000E+01
    -22.382  0.0000E+00  0.4000E+01
    -22.246  0.0000E+00  0.4000E+01
    -22.110  0.0000E+00  0.4000E+01
    -21.974  0.0000E+00  0.4000E+01
    -21.838  0.0000E+00  0.4000E+01
    -21.702  0.0000E+00  0.4000E+01
    -21.566  0.0000E+00  0.4000E+01
    -21.430  0.0000E+00  0.4000E+01
    -21.294  0.0000E+00  0.4000E+01
    -21.158  0.0000E+00  0.4000E+01
    -21.022  0.0000E+00  0.4000E+01
    -20.886  0.0000E+00  0.4000E+01
    -20.750  0.0000E+00  0.4000E+01
    -20.614  0.0000E+00  0.4000E+01
    -20.478  0.0000E+00  0.4000E+01
    -20.342  0.0000E+00  0.4000E+01
    -20.206  0.0000E+00  0.4000E+01
    -20.070  0.0000E+00  0.4000E+01
    -19.934  0.0000E+00  0.4000E+01
    -19.798  0.0000E+00  0.4000E+01
    -19.662  0.0000E+00  0.4000E+01
    -19.526  0.0000E+00  0.4000E+01
    -19.390  0.0000E+00  0.4000E+01
    -19.254  0.0000E+00  0.4000E+01
    -19.118  0.0000E+00  0.4000E+01
    -18.982  0.0000E+00  0.4000E+01
    -18.846  0.0000E+00  0.4000E+01
    -18.710  0.0000E+00  0.4000E+01
    -18.574  0.0000E+00  0.4000E+01
    -18.438  0.0000E+00  0.4000E+01
    -18.302  0.0000E+00  0.4000E+01
    -18.166  0.0000E+00  0.4000E+01
    -18.030  0.0000E+00  0.4000E+01
    -17.894  0.0000E+00  0.4000E+01
    -17.757  0.0000E+00  0.4000E+01
    -17.621  0.0000E+00  0.4000E+01
    -17.485  0.0000E+00  0.4000E+01
    -17.349  0.0000E+00  0.4000E+01
    -17.213  0.0000E+00  0.4000E+01
    -17.077  0.0000E+00  0.4000E+01
    -16.941  0.0000E+00  0.4000E+01
    -16.805  0.0000E+00  0.4000E+01
    -16.669  0.0000E+00  0.4000E+01
    -16.533  0.0000E+00  0.4000E+01
    -16.397  0.0000E+00  0.4000E+01
    -16.261  0.0000E+00  0.4000E+01
    -16.125  0.0000E+00  0.4000E+01
    -15.989  0.0000E+00  0.4000E+01
    -15.853  0.0000E+00  0.4000E+01
    -15.717  0.0000E+00  0.4000E+01
    -15.581  0.0000E+00  0.4000E+01
    -15.445  0.0000E+00  0.4000E+01
    -15.309  0.0000E+00  0.4000E+01
    -15.173  0.5720E-13  0.4000E+01
    -15.037  0.1309E-03  0.4000E+01
    -14.901  0.8845E+00  0.4120E+01
    -14.765  0.4597E+01  0.4746E+01
    -14.629  0.2497E+01  0.5085E+01
    -14.493  0.3774E+01  0.5598E+01
    -14.357  0.2009E+01  0.5872E+01
    -14.221  0.9317E+00  0.5998E+01
    -14.085  0.4386E-01  0.6004E+01
    -13.949  0.8855E+01  0.7209E+01
    -13.813  0.1695E+02  0.9514E+01
    -13.677  0.3571E+01  0.1000E+02
    -13.541  0.3677E-01  0.1000E+02
    -13.405  0.1755E+01  0.1024E+02
    -13.269  0.1443E+01  0.1044E+02
    -13.133  0.5307E+01  0.1116E+02
    -12.997  0.1375E+02  0.1303E+02
    -12.861  0.2787E+01  0.1341E+02
    -12.725  0.4966E+01  0.1409E+02
    -12.589  0.1115E+02  0.1560E+02
    -12.453  0.1240E+02  0.1729E+02
    -12.317  0.5132E+01  0.1799E+02
    -12.181  0.9785E-01  0.1800E+02
    -12.045  0.3359E-06  0.1800E+02
    -11.909  0.0000E+00  0.1800E+02
    -11.773  0.0000E+00  0.1800E+02
    -11.637  0.0000E+00  0.1800E+02
    -11.501  0.0000E+00  0.1800E+02
    -11.365  0.0000E+00  0.1800E+02
    -11.229  0.0000E+00  0.1800E+02
    -11.093  0.0000E+00  0.1800E+02
    -10.957  0.0000E+00  0.1800E+02
    -10.821  0.0000E+00  0.1800E+02
    -10.685  0.0000E+00  0.1800E+02
    -10.549  0.0000E+00  0.1800E+02
    -10.413  0.0000E+00  0.1800E+02
    -10.277  0.0000E+00  0.1800E+02
    -10.141  0.0000E+00  0.1800E+02
    -10.005  0.0000E+00  0.1800E+02
     -9.869  0.0000E+00  0.1800E+02
     -9.733  0.0000E+00  0.1800E+02
     -9.597  0.0000E+00  0.1800E+02
     -9.461  0.0000E+00  0.1800E+02
     -9.325  0.0000E+00  0.1800E+02
     -9.189  0.0000E+00  0.1800E+02
     -9.053  0.0000E+00  0.1800E+02
     -8.917  0.0000E+00  0.1800E+02
     -8.781  0.0000E+00  0.1800E+02
     -8.645  0.0000E+00  0.1800E+02
     -8.509  0.0000E+00  0.1800E+02
     -8.373  0.0000E+00  0.1800E+02
     -8.237  0.0000E+00  0.1800E+02
     -8.101  0.0000E+00  0.1800E+02
     -7.965  0.0000E+00  0.1800E+02
     -7.829  0.0000E+00  0.1800E+02
     -7.693  0.0000E+00  0.1800E+02
     -7.557  0.0000E+00  0.1800E+02
     -7.421  0.0000E+00  0.1800E+02
     -7.285  0.0000E+00  0.1800E+02
     -7.149  0.0000E+00  0.1800E+02
     -7.013  0.0000E+00  0.1800E+02
     -6.877  0.0000E+00  0.1800E+02
     -6.741  0.0000E+00  0.1800E+02
     -6.605  0.0000E+00  0.1800E+02
     -6.469  0.0000E+00  0.1800E+02
     -6.333  0.0000E+00  0.1800E+02
     -6.197  0.0000E+00  0.1800E+02
     -6.060  0.0000E+00  0.1800E+02
     -5.924  0.0000E+00  0.1800E+02
     -5.788  0.0000E+00  0.1800E+02
     -5.652  0.0000E+00  0.1800E+02
     -5.516  0.0000E+00  0.1800E+02
     -5.380  0.0000E+00  0.1800E+02
     -5.244  0.0000E+00  0.1800E+02
     -5.108  0.0000E+00  0.1800E+02
     -4.972  0.0000E+00  0.1800E+02
     -4.836  0.0000E+00  0.1800E+02
     -4.700  0.0000E+00  0.1800E+02
     -4.564  0.0000E+00  0.1800E+02
     -4.428  0.0000E+00  0.1800E+02
     -4.292  0.0000E+00  0.1800E+02
     -4.156  0.0000E+00  0.1800E+02
     -4.020  0.0000E+00  0.1800E+02
     -3.884  0.0000E+00  0.1800E+02
     -3.748  0.0000E+00  0.1800E+02
     -3.612  0.0000E+00  0.1800E+02
     -3.476  0.0000E+00  0.1800E+02
     -3.340  0.0000E+00  0.1800E+02
     -3.204  0.0000E+00  0.1800E+02
     -3.068  0.0000E+00  0.1800E+02
     -2.932  0.0000E+00  0.1800E+02
     -2.796  0.0000E+00  0.1800E+02
     -2.660  0.0000E+00  0.1800E+02
     -2.524  0.0000E+00  0.1800E+02
     -2.388  0.0000E+00  0.1800E+02
     -2.252  0.0000E+00  0.1800E+02
     -2.116  0.0000E+00  0.1800E+02
     -1.980  0.0000E+00  0.1800E+02
     -1.844  0.0000E+00  0.1800E+02
     -1.708  0.0000E+00  0.1800E+02
     -1.572  0.0000E+00  0.1800E+02
     -1.436  0.0000E+00  0.1800E+02
     -1.300  0.0000E+00  0.1800E+02
     -1.164  0.0000E+00  0.1800E+02
     -1.028  0.7996E-16  0.1800E+02
     -0.892  0.2097E-05  0.1800E+02
     -0.756  0.8728E-01  0.1801E+02
     -0.620  0.2388E+01  0.1834E+02
     -0.484  0.4976E+01  0.1901E+02
     -0.348  0.6135E+01  0.1985E+02
     -0.212  0.4329E+01  0.2044E+02
     -0.076  0.3960E+01  0.2098E+02
      0.060  0.9922E+01  0.2232E+02
      0.196  0.6466E+01  0.2320E+02
      0.332  0.4637E+01  0.2383E+02
      0.468  0.1266E+01  0.2401E+02
      0.604  0.3203E+00  0.2405E+02
      0.740  0.9690E-01  0.2406E+02
      0.876  0.5857E+00  0.2414E+02
      1.012  0.1794E+00  0.2417E+02
      1.148  0.5266E+00  0.2424E+02
      1.284  0.3647E+00  0.2429E+02
      1.420  0.1045E+01  0.2443E+02
      1.556  0.9268E+00  0.2456E+02
      1.692  0.7643E+00  0.2466E+02
      1.828  0.5645E+00  0.2474E+02
      1.964  0.8585E+00  0.2485E+02
      2.100  0.8365E+00  0.2497E+02
      2.236  0.1195E+01  0.2513E+02
      2.372  0.1804E+01  0.2538E+02
      2.508  0.1764E+01  0.2562E+02
      2.644  0.8310E+00  0.2573E+02
      2.780  0.7319E+00  0.2583E+02
      2.916  0.1122E+01  0.2598E+02
      3.052  0.1368E+00  0.2600E+02
      3.188  0.1285E-02  0.2600E+02
      3.324  0.5176E+00  0.2607E+02
      3.460  0.1036E+01  0.2621E+02
      3.596  0.2037E+01  0.2649E+02
      3.732  0.9539E-02  0.2649E+02
      3.868  0.5568E+00  0.2657E+02
      4.004  0.5216E+00  0.2664E+02
      4.140  0.2393E+01  0.2696E+02
      4.276  0.3216E+01  0.2740E+02
      4.412  0.3037E+01  0.2781E+02
      4.548  0.2303E+01  0.2813E+02
      4.684  0.1142E+01  0.2828E+02
      4.820  0.3000E+01  0.2869E+02
      4.956  0.2015E+01  0.2896E+02
      5.092  0.1038E+01  0.2910E+02
      5.228  0.2864E+01  0.2949E+02
      5.364  0.1885E+01  0.2975E+02
      5.500  0.2249E+01  0.3006E+02
      5.636  0.3923E+01  0.3059E+02
      5.773  0.1495E+01  0.3079E+02
      5.909  0.2409E+01  0.3112E+02
      6.045  0.8648E+00  0.3124E+02
      6.181  0.1493E+01  0.3144E+02
      6.317  0.1946E+01  0.3171E+02
      6.453  0.4821E+00  0.3177E+02
      6.589  0.1124E+01  0.3192E+02
      6.725  0.1503E+00  0.3194E+02
      6.861  0.1823E+00  0.3197E+02
      6.997  0.2224E+00  0.3200E+02
      7.133  0.8557E-03  0.3200E+02
      7.269  0.1750E-10  0.3200E+02
      7.405  0.0000E+00  0.3200E+02
      7.541  0.0000E+00  0.3200E+02
      7.677  0.0000E+00  0.3200E+02
      7.813  0.0000E+00  0.3200E+02
      7.949  0.0000E+00  0.3200E+02
      8.085  0.0000E+00  0.3200E+02
      8.221  0.0000E+00  0.3200E+02
      8.357  0.0000E+00  0.3200E+02
      8.493  0.0000E+00  0.3200E+02
      8.629  0.0000E+00  0.3200E+02
      8.765  0.0000E+00  0.3200E+02
