Mn2 O4                                  
   1.00000000000000     
     2.9446006804624902    0.0000000003829127   -0.0000000000935426
     0.0000000005127582    4.4142777273900711    0.0000007656220490
    -0.0000000008612327    0.0000007638498525    4.4142657704403883
   Mn   O 
     2     4
Direct
     0.0000000000236540    0.9999999999966676    0.0000000000150422
     0.4999999999823928    0.5000000000186873    0.5000000000211031
     0.0000000000106510    0.3064670940619152    0.3064672711719325
     0.4999999999769287    0.1935332957615614    0.8064668876503731
     0.0000000000032401    0.6935329059563031    0.6935327288357982
     0.5000000000031335    0.8064667042048654    0.1935331123057509
 
  0.00000000E+00  0.00000000E+00  0.00000000E+00
  0.00000000E+00  0.00000000E+00  0.00000000E+00
  0.00000000E+00  0.00000000E+00  0.00000000E+00
  0.00000000E+00  0.00000000E+00  0.00000000E+00
  0.00000000E+00  0.00000000E+00  0.00000000E+00
  0.00000000E+00  0.00000000E+00  0.00000000E+00
