   6   6   0   0
  0.9562981E+01  0.2944601E-09  0.4414278E-09  0.4414266E-09  0.5000000E-15
  1.000000000000000E-004
  CAR 
 unknown system                          
     11.86583412    -48.88195964  301      4.57199442      1.00000000
    -48.882  0.0000E+00  0.0000E+00
    -48.679  0.0000E+00  0.0000E+00
    -48.477  0.0000E+00  0.0000E+00
    -48.274  0.0000E+00  0.0000E+00
    -48.072  0.0000E+00  0.0000E+00
    -47.869  0.0000E+00  0.0000E+00
    -47.667  0.0000E+00  0.0000E+00
    -47.465  0.0000E+00  0.0000E+00
    -47.262  0.0000E+00  0.0000E+00
    -47.060  0.0000E+00  0.0000E+00
    -46.857  0.0000E+00  0.0000E+00
    -46.655  0.0000E+00  0.0000E+00
    -46.452  0.0000E+00  0.0000E+00
    -46.250  0.0000E+00  0.0000E+00
    -46.047  0.1975E+02  0.4000E+01
    -45.845  0.0000E+00  0.4000E+01
    -45.642  0.3951E+02  0.1200E+02
    -45.440  0.0000E+00  0.1200E+02
    -45.237  0.0000E+00  0.1200E+02
    -45.035  0.0000E+00  0.1200E+02
    -44.832  0.0000E+00  0.1200E+02
    -44.630  0.0000E+00  0.1200E+02
    -44.427  0.0000E+00  0.1200E+02
    -44.225  0.0000E+00  0.1200E+02
    -44.022  0.0000E+00  0.1200E+02
    -43.820  0.0000E+00  0.1200E+02
    -43.617  0.0000E+00  0.1200E+02
    -43.415  0.0000E+00  0.1200E+02
    -43.212  0.0000E+00  0.1200E+02
    -43.010  0.0000E+00  0.1200E+02
    -42.807  0.0000E+00  0.1200E+02
    -42.605  0.0000E+00  0.1200E+02
    -42.402  0.0000E+00  0.1200E+02
    -42.200  0.0000E+00  0.1200E+02
    -41.997  0.0000E+00  0.1200E+02
    -41.795  0.0000E+00  0.1200E+02
    -41.592  0.0000E+00  0.1200E+02
    -41.390  0.0000E+00  0.1200E+02
    -41.187  0.0000E+00  0.1200E+02
    -40.985  0.0000E+00  0.1200E+02
    -40.782  0.0000E+00  0.1200E+02
    -40.580  0.0000E+00  0.1200E+02
    -40.377  0.0000E+00  0.1200E+02
    -40.175  0.0000E+00  0.1200E+02
    -39.972  0.0000E+00  0.1200E+02
    -39.770  0.0000E+00  0.1200E+02
    -39.567  0.0000E+00  0.1200E+02
    -39.365  0.0000E+00  0.1200E+02
    -39.162  0.0000E+00  0.1200E+02
    -38.960  0.0000E+00  0.1200E+02
    -38.757  0.0000E+00  0.1200E+02
    -38.555  0.0000E+00  0.1200E+02
    -38.352  0.0000E+00  0.1200E+02
    -38.150  0.0000E+00  0.1200E+02
    -37.947  0.0000E+00  0.1200E+02
    -37.745  0.0000E+00  0.1200E+02
    -37.542  0.0000E+00  0.1200E+02
    -37.340  0.0000E+00  0.1200E+02
    -37.137  0.0000E+00  0.1200E+02
    -36.935  0.0000E+00  0.1200E+02
    -36.732  0.0000E+00  0.1200E+02
    -36.530  0.0000E+00  0.1200E+02
    -36.327  0.0000E+00  0.1200E+02
    -36.125  0.0000E+00  0.1200E+02
    -35.922  0.0000E+00  0.1200E+02
    -35.720  0.0000E+00  0.1200E+02
    -35.517  0.0000E+00  0.1200E+02
    -35.315  0.0000E+00  0.1200E+02
    -35.112  0.0000E+00  0.1200E+02
    -34.910  0.0000E+00  0.1200E+02
    -34.707  0.0000E+00  0.1200E+02
    -34.505  0.0000E+00  0.1200E+02
    -34.302  0.0000E+00  0.1200E+02
    -34.100  0.0000E+00  0.1200E+02
    -33.898  0.0000E+00  0.1200E+02
    -33.695  0.0000E+00  0.1200E+02
    -33.493  0.0000E+00  0.1200E+02
    -33.290  0.0000E+00  0.1200E+02
    -33.088  0.0000E+00  0.1200E+02
    -32.885  0.0000E+00  0.1200E+02
    -32.683  0.0000E+00  0.1200E+02
    -32.480  0.0000E+00  0.1200E+02
    -32.278  0.0000E+00  0.1200E+02
    -32.075  0.0000E+00  0.1200E+02
    -31.873  0.0000E+00  0.1200E+02
    -31.670  0.0000E+00  0.1200E+02
    -31.468  0.0000E+00  0.1200E+02
    -31.265  0.0000E+00  0.1200E+02
    -31.063  0.0000E+00  0.1200E+02
    -30.860  0.0000E+00  0.1200E+02
    -30.658  0.0000E+00  0.1200E+02
    -30.455  0.0000E+00  0.1200E+02
    -30.253  0.0000E+00  0.1200E+02
    -30.050  0.0000E+00  0.1200E+02
    -29.848  0.0000E+00  0.1200E+02
    -29.645  0.0000E+00  0.1200E+02
    -29.443  0.0000E+00  0.1200E+02
    -29.240  0.0000E+00  0.1200E+02
    -29.038  0.0000E+00  0.1200E+02
    -28.835  0.0000E+00  0.1200E+02
    -28.633  0.0000E+00  0.1200E+02
    -28.430  0.0000E+00  0.1200E+02
    -28.228  0.0000E+00  0.1200E+02
    -28.025  0.0000E+00  0.1200E+02
    -27.823  0.0000E+00  0.1200E+02
    -27.620  0.0000E+00  0.1200E+02
    -27.418  0.0000E+00  0.1200E+02
    -27.215  0.0000E+00  0.1200E+02
    -27.013  0.0000E+00  0.1200E+02
    -26.810  0.0000E+00  0.1200E+02
    -26.608  0.0000E+00  0.1200E+02
    -26.405  0.0000E+00  0.1200E+02
    -26.203  0.0000E+00  0.1200E+02
    -26.000  0.0000E+00  0.1200E+02
    -25.798  0.0000E+00  0.1200E+02
    -25.595  0.0000E+00  0.1200E+02
    -25.393  0.0000E+00  0.1200E+02
    -25.190  0.0000E+00  0.1200E+02
    -24.988  0.0000E+00  0.1200E+02
    -24.785  0.0000E+00  0.1200E+02
    -24.583  0.0000E+00  0.1200E+02
    -24.380  0.0000E+00  0.1200E+02
    -24.178  0.0000E+00  0.1200E+02
    -23.975  0.0000E+00  0.1200E+02
    -23.773  0.0000E+00  0.1200E+02
    -23.570  0.0000E+00  0.1200E+02
    -23.368  0.0000E+00  0.1200E+02
    -23.165  0.0000E+00  0.1200E+02
    -22.963  0.0000E+00  0.1200E+02
    -22.760  0.0000E+00  0.1200E+02
    -22.558  0.0000E+00  0.1200E+02
    -22.355  0.0000E+00  0.1200E+02
    -22.153  0.0000E+00  0.1200E+02
    -21.950  0.0000E+00  0.1200E+02
    -21.748  0.0000E+00  0.1200E+02
    -21.545  0.0000E+00  0.1200E+02
    -21.343  0.0000E+00  0.1200E+02
    -21.140  0.0000E+00  0.1200E+02
    -20.938  0.0000E+00  0.1200E+02
    -20.735  0.0000E+00  0.1200E+02
    -20.533  0.0000E+00  0.1200E+02
    -20.330  0.0000E+00  0.1200E+02
    -20.128  0.0000E+00  0.1200E+02
    -19.926  0.0000E+00  0.1200E+02
    -19.723  0.0000E+00  0.1200E+02
    -19.521  0.0000E+00  0.1200E+02
    -19.318  0.0000E+00  0.1200E+02
    -19.116  0.0000E+00  0.1200E+02
    -18.913  0.0000E+00  0.1200E+02
    -18.711  0.0000E+00  0.1200E+02
    -18.508  0.0000E+00  0.1200E+02
    -18.306  0.0000E+00  0.1200E+02
    -18.103  0.0000E+00  0.1200E+02
    -17.901  0.0000E+00  0.1200E+02
    -17.698  0.0000E+00  0.1200E+02
    -17.496  0.0000E+00  0.1200E+02
    -17.293  0.0000E+00  0.1200E+02
    -17.091  0.0000E+00  0.1200E+02
    -16.888  0.0000E+00  0.1200E+02
    -16.686  0.0000E+00  0.1200E+02
    -16.483  0.0000E+00  0.1200E+02
    -16.281  0.0000E+00  0.1200E+02
    -16.078  0.6573E+00  0.1206E+02
    -15.876  0.9930E+00  0.1220E+02
    -15.673  0.1318E+01  0.1241E+02
    -15.471  0.1972E+01  0.1271E+02
    -15.268  0.3150E+01  0.1314E+02
    -15.066  0.3349E+01  0.1371E+02
    -14.863  0.4268E+01  0.1438E+02
    -14.661  0.7069E+01  0.1523E+02
    -14.458  0.1145E+02  0.1635E+02
    -14.256  0.2564E+02  0.1913E+02
    -14.053  0.2940E+01  0.2000E+02
    -13.851  0.0000E+00  0.2000E+02
    -13.648  0.0000E+00  0.2000E+02
    -13.446  0.0000E+00  0.2000E+02
    -13.243  0.0000E+00  0.2000E+02
    -13.041  0.0000E+00  0.2000E+02
    -12.838  0.0000E+00  0.2000E+02
    -12.636  0.0000E+00  0.2000E+02
    -12.433  0.0000E+00  0.2000E+02
    -12.231  0.0000E+00  0.2000E+02
    -12.028  0.0000E+00  0.2000E+02
    -11.826  0.0000E+00  0.2000E+02
    -11.623  0.0000E+00  0.2000E+02
    -11.421  0.0000E+00  0.2000E+02
    -11.218  0.0000E+00  0.2000E+02
    -11.016  0.0000E+00  0.2000E+02
    -10.813  0.0000E+00  0.2000E+02
    -10.611  0.0000E+00  0.2000E+02
    -10.408  0.0000E+00  0.2000E+02
    -10.206  0.0000E+00  0.2000E+02
    -10.003  0.0000E+00  0.2000E+02
     -9.801  0.0000E+00  0.2000E+02
     -9.598  0.0000E+00  0.2000E+02
     -9.396  0.0000E+00  0.2000E+02
     -9.193  0.0000E+00  0.2000E+02
     -8.991  0.0000E+00  0.2000E+02
     -8.788  0.0000E+00  0.2000E+02
     -8.586  0.0000E+00  0.2000E+02
     -8.383  0.0000E+00  0.2000E+02
     -8.181  0.0000E+00  0.2000E+02
     -7.978  0.0000E+00  0.2000E+02
     -7.776  0.0000E+00  0.2000E+02
     -7.573  0.0000E+00  0.2000E+02
     -7.371  0.0000E+00  0.2000E+02
     -7.168  0.0000E+00  0.2000E+02
     -6.966  0.0000E+00  0.2000E+02
     -6.763  0.0000E+00  0.2000E+02
     -6.561  0.0000E+00  0.2000E+02
     -6.359  0.0000E+00  0.2000E+02
     -6.156  0.0000E+00  0.2000E+02
     -5.954  0.0000E+00  0.2000E+02
     -5.751  0.0000E+00  0.2000E+02
     -5.549  0.0000E+00  0.2000E+02
     -5.346  0.0000E+00  0.2000E+02
     -5.144  0.0000E+00  0.2000E+02
     -4.941  0.0000E+00  0.2000E+02
     -4.739  0.0000E+00  0.2000E+02
     -4.536  0.0000E+00  0.2000E+02
     -4.334  0.0000E+00  0.2000E+02
     -4.131  0.0000E+00  0.2000E+02
     -3.929  0.0000E+00  0.2000E+02
     -3.726  0.0000E+00  0.2000E+02
     -3.524  0.0000E+00  0.2000E+02
     -3.321  0.0000E+00  0.2000E+02
     -3.119  0.0000E+00  0.2000E+02
     -2.916  0.1174E+00  0.2000E+02
     -2.714  0.3966E+00  0.2005E+02
     -2.511  0.1672E+01  0.2018E+02
     -2.309  0.2293E+01  0.2054E+02
     -2.106  0.2540E+01  0.2094E+02
     -1.904  0.7704E+01  0.2189E+02
     -1.701  0.4311E+01  0.2284E+02
     -1.499  0.7788E+01  0.2389E+02
     -1.296  0.7438E+01  0.2509E+02
     -1.094  0.5014E+01  0.2603E+02
     -0.891  0.5589E+01  0.2694E+02
     -0.689  0.7557E+01  0.2793E+02
     -0.486  0.5462E+01  0.2896E+02
     -0.284  0.4494E+01  0.2971E+02
     -0.081  0.4240E+01  0.3051E+02
      0.121  0.4421E+01  0.3112E+02
      0.324  0.6228E+01  0.3206E+02
      0.526  0.5877E+01  0.3307E+02
      0.729  0.7311E+01  0.3423E+02
      0.931  0.5688E+01  0.3531E+02
      1.134  0.4632E+01  0.3620E+02
      1.336  0.5943E+01  0.3724E+02
      1.539  0.5684E+01  0.3812E+02
      1.741  0.5774E+01  0.3921E+02
      1.944  0.3900E+01  0.3997E+02
      2.146  0.4027E+01  0.4067E+02
      2.349  0.4210E+01  0.4141E+02
      2.551  0.4114E+01  0.4215E+02
      2.754  0.4762E+01  0.4300E+02
      2.956  0.2011E+01  0.4350E+02
      3.159  0.1068E+01  0.4374E+02
      3.361  0.6619E+00  0.4390E+02
      3.564  0.5209E+00  0.4399E+02
      3.766  0.3316E+00  0.4401E+02
      3.969  0.6133E+01  0.4461E+02
      4.171  0.7222E+01  0.4569E+02
      4.374  0.1390E+02  0.4733E+02
      4.576  0.1801E+02  0.5005E+02
      4.779  0.6863E+01  0.5155E+02
      4.981  0.3080E+01  0.5227E+02
      5.184  0.5564E+01  0.5294E+02
      5.386  0.6716E+01  0.5397E+02
      5.589  0.8032E+01  0.5520E+02
      5.791  0.2567E+01  0.5593E+02
      5.994  0.3563E+00  0.5602E+02
      6.196  0.2356E+00  0.5606E+02
      6.399  0.2535E+01  0.5624E+02
      6.601  0.3056E+01  0.5673E+02
      6.804  0.2887E+01  0.5733E+02
      7.006  0.2610E+01  0.5782E+02
      7.209  0.2937E+01  0.5836E+02
      7.411  0.3596E+01  0.5900E+02
      7.613  0.2275E+01  0.5943E+02
      7.816  0.3029E+01  0.5992E+02
      8.018  0.3476E+01  0.6052E+02
      8.221  0.5331E+01  0.6133E+02
      8.423  0.6993E+01  0.6249E+02
      8.626  0.6391E+01  0.6338E+02
      8.828  0.1698E+01  0.6392E+02
      9.031  0.2577E+00  0.6399E+02
      9.233  0.0000E+00  0.6400E+02
      9.436  0.0000E+00  0.6400E+02
      9.638  0.0000E+00  0.6400E+02
      9.841  0.0000E+00  0.6400E+02
     10.043  0.0000E+00  0.6400E+02
     10.246  0.0000E+00  0.6400E+02
     10.448  0.0000E+00  0.6400E+02
     10.651  0.0000E+00  0.6400E+02
     10.853  0.0000E+00  0.6400E+02
     11.056  0.0000E+00  0.6400E+02
     11.258  0.0000E+00  0.6400E+02
     11.461  0.0000E+00  0.6400E+02
     11.663  0.0000E+00  0.6400E+02
     11.866  0.0000E+00  0.6400E+02
