Mn2 O4                                  
   1.00000000000000     
     2.9446006804624902    0.0000000003829127   -0.0000000000935426
     0.0000000005127582    4.4142777273900711    0.0000007656220490
    -0.0000000008612327    0.0000007638498525    4.4142657704403883
   Mn   O 
     2     4
Direct
     0.0000000000236525    0.9999999999966690    0.0000000000150422
     0.4999999999823926    0.5000000000186861    0.5000000000211015
     0.0000000000106545    0.3064670940619159    0.3064672711719313
     0.4999999999769316    0.1935332957615581    0.8064668876503750
     0.0000000000032366    0.6935329059563046    0.6935327288357972
     0.5000000000031322    0.8064667042048665    0.1935331123057530
 
  0.00000000E+00  0.00000000E+00  0.00000000E+00
  0.00000000E+00  0.00000000E+00  0.00000000E+00
  0.00000000E+00  0.00000000E+00  0.00000000E+00
  0.00000000E+00  0.00000000E+00  0.00000000E+00
  0.00000000E+00  0.00000000E+00  0.00000000E+00
  0.00000000E+00  0.00000000E+00  0.00000000E+00
