unknown system                          
           1
     2.867078    0.000000    0.000000
     0.000000    4.400418   -0.000077
     0.000000   -0.000077    4.400418
   Mn   O 
     2     4
Direct configuration=     1
   0.00000000  0.00000000  0.00000000
   0.50000000  0.50000000  0.50000000
   0.00000000  0.30491615  0.30491615
   0.50000000  0.19500250  0.80499750
   0.00000000  0.69508385  0.69508385
   0.50000000  0.80499750  0.19500250
unknown system                          
           1
     2.967087   -0.000000    0.000000
    -0.000000    4.461389    0.000074
     0.000000    0.000074    4.461382
   Mn   O 
     2     4
Direct configuration=     2
   1.00000000  1.00000000  1.00000000
   0.50000000  0.50000000  0.50000000
   0.00000000  0.30454447  0.30454454
   0.50000000  0.19550455  0.80449552
   0.00000000  0.69545553  0.69545546
   0.50000000  0.80449545  0.19550448
unknown system                          
           1
     2.922544   -0.000000    0.000000
    -0.000000    4.434233    0.000007
     0.000000    0.000007    4.434230
   Mn   O 
     2     4
Direct configuration=     3
   1.00000000  1.00000000  1.00000000
   0.50000000  0.50000000  0.50000000
   0.00000000  0.30470775  0.30470778
   0.50000000  0.19528399  0.80471605
   0.00000000  0.69529225  0.69529222
   0.50000000  0.80471601  0.19528395
unknown system                          
           1
     2.936107    0.000000    0.000000
     0.000000    4.424331    0.000010
    -0.000000    0.000010    4.424325
   Mn   O 
     2     4
Direct configuration=     4
   1.00000000  0.00000000  1.00000000
   0.50000000  0.50000000  0.50000000
   1.00000000  0.30609393  0.30609400
   0.50000000  0.19391517  0.80608492
   0.00000000  0.69390607  0.69390600
   0.50000000  0.80608483  0.19391508
unknown system                          
           1
     2.941353    0.000000   -0.000000
     0.000000    4.420501    0.000012
    -0.000000    0.000012    4.420494
   Mn   O 
     2     4
Direct configuration=     5
   1.00000000  0.00000000  0.00000000
   0.50000000  0.50000000  0.50000000
   1.00000000  0.30663127  0.30663136
   0.50000000  0.19338455  0.80661555
   0.00000000  0.69336873  0.69336864
   0.50000000  0.80661545  0.19338445
