Mg3 Al1
1.0
   4.3478060400000000   -0.0000000000000000   -0.0000000000000000
   0.0000000000000000    4.3478060400000000   -0.0000000000000000
   0.0000000000000000    0.0000000000000000    4.3478060400000000
Mg Al
3 1
direct
   0.5000000000000000    0.5000000000000000   -0.0000000000000000 Mg
   0.5000000000000000   -0.0000000000000000    0.5000000000000000 Mg
  -0.0000000000000000    0.5000000000000000    0.5000000000000000 Mg
   0.0000000000000000    0.0000000000000000    0.0000000000000000 Al
