  16  16   0   0
  0.1841892E+02  0.6475604E-09  0.6475604E-09  0.7027870E-09  0.5000000E-15
  1.000000000000000E-004
  CAR 
 unknown system                          
     18.74477664    -39.06727971  301      5.46942850      1.00000000
    -39.067  0.0000E+00  0.0000E+00
    -38.875  0.0000E+00  0.0000E+00
    -38.682  0.0000E+00  0.0000E+00
    -38.489  0.0000E+00  0.0000E+00
    -38.296  0.0000E+00  0.0000E+00
    -38.104  0.0000E+00  0.0000E+00
    -37.911  0.0000E+00  0.0000E+00
    -37.718  0.0000E+00  0.0000E+00
    -37.526  0.0000E+00  0.0000E+00
    -37.333  0.0000E+00  0.0000E+00
    -37.140  0.0000E+00  0.0000E+00
    -36.948  0.0000E+00  0.0000E+00
    -36.755  0.0000E+00  0.0000E+00
    -36.562  0.4876E-02  0.9396E-03
    -36.369  0.2022E+02  0.3898E+01
    -36.177  0.2683E+02  0.9068E+01
    -35.984  0.5924E+02  0.2048E+02
    -35.791  0.1825E+02  0.2400E+02
    -35.599  0.1113E-03  0.2400E+02
    -35.406  0.0000E+00  0.2400E+02
    -35.213  0.0000E+00  0.2400E+02
    -35.020  0.0000E+00  0.2400E+02
    -34.828  0.0000E+00  0.2400E+02
    -34.635  0.0000E+00  0.2400E+02
    -34.442  0.0000E+00  0.2400E+02
    -34.250  0.0000E+00  0.2400E+02
    -34.057  0.0000E+00  0.2400E+02
    -33.864  0.0000E+00  0.2400E+02
    -33.671  0.0000E+00  0.2400E+02
    -33.479  0.0000E+00  0.2400E+02
    -33.286  0.0000E+00  0.2400E+02
    -33.093  0.0000E+00  0.2400E+02
    -32.901  0.0000E+00  0.2400E+02
    -32.708  0.0000E+00  0.2400E+02
    -32.515  0.0000E+00  0.2400E+02
    -32.323  0.0000E+00  0.2400E+02
    -32.130  0.0000E+00  0.2400E+02
    -31.937  0.0000E+00  0.2400E+02
    -31.744  0.0000E+00  0.2400E+02
    -31.552  0.0000E+00  0.2400E+02
    -31.359  0.0000E+00  0.2400E+02
    -31.166  0.0000E+00  0.2400E+02
    -30.974  0.0000E+00  0.2400E+02
    -30.781  0.0000E+00  0.2400E+02
    -30.588  0.0000E+00  0.2400E+02
    -30.395  0.0000E+00  0.2400E+02
    -30.203  0.0000E+00  0.2400E+02
    -30.010  0.0000E+00  0.2400E+02
    -29.817  0.0000E+00  0.2400E+02
    -29.625  0.0000E+00  0.2400E+02
    -29.432  0.0000E+00  0.2400E+02
    -29.239  0.0000E+00  0.2400E+02
    -29.047  0.0000E+00  0.2400E+02
    -28.854  0.0000E+00  0.2400E+02
    -28.661  0.0000E+00  0.2400E+02
    -28.468  0.0000E+00  0.2400E+02
    -28.276  0.0000E+00  0.2400E+02
    -28.083  0.0000E+00  0.2400E+02
    -27.890  0.0000E+00  0.2400E+02
    -27.698  0.0000E+00  0.2400E+02
    -27.505  0.0000E+00  0.2400E+02
    -27.312  0.0000E+00  0.2400E+02
    -27.119  0.0000E+00  0.2400E+02
    -26.927  0.0000E+00  0.2400E+02
    -26.734  0.0000E+00  0.2400E+02
    -26.541  0.0000E+00  0.2400E+02
    -26.349  0.0000E+00  0.2400E+02
    -26.156  0.0000E+00  0.2400E+02
    -25.963  0.0000E+00  0.2400E+02
    -25.771  0.0000E+00  0.2400E+02
    -25.578  0.0000E+00  0.2400E+02
    -25.385  0.0000E+00  0.2400E+02
    -25.192  0.0000E+00  0.2400E+02
    -25.000  0.0000E+00  0.2400E+02
    -24.807  0.0000E+00  0.2400E+02
    -24.614  0.0000E+00  0.2400E+02
    -24.422  0.0000E+00  0.2400E+02
    -24.229  0.0000E+00  0.2400E+02
    -24.036  0.0000E+00  0.2400E+02
    -23.843  0.0000E+00  0.2400E+02
    -23.651  0.0000E+00  0.2400E+02
    -23.458  0.0000E+00  0.2400E+02
    -23.265  0.0000E+00  0.2400E+02
    -23.073  0.0000E+00  0.2400E+02
    -22.880  0.0000E+00  0.2400E+02
    -22.687  0.0000E+00  0.2400E+02
    -22.494  0.0000E+00  0.2400E+02
    -22.302  0.0000E+00  0.2400E+02
    -22.109  0.0000E+00  0.2400E+02
    -21.916  0.0000E+00  0.2400E+02
    -21.724  0.0000E+00  0.2400E+02
    -21.531  0.0000E+00  0.2400E+02
    -21.338  0.0000E+00  0.2400E+02
    -21.146  0.0000E+00  0.2400E+02
    -20.953  0.0000E+00  0.2400E+02
    -20.760  0.0000E+00  0.2400E+02
    -20.567  0.0000E+00  0.2400E+02
    -20.375  0.0000E+00  0.2400E+02
    -20.182  0.0000E+00  0.2400E+02
    -19.989  0.0000E+00  0.2400E+02
    -19.797  0.0000E+00  0.2400E+02
    -19.604  0.0000E+00  0.2400E+02
    -19.411  0.0000E+00  0.2400E+02
    -19.218  0.0000E+00  0.2400E+02
    -19.026  0.0000E+00  0.2400E+02
    -18.833  0.0000E+00  0.2400E+02
    -18.640  0.0000E+00  0.2400E+02
    -18.448  0.0000E+00  0.2400E+02
    -18.255  0.0000E+00  0.2400E+02
    -18.062  0.0000E+00  0.2400E+02
    -17.870  0.0000E+00  0.2400E+02
    -17.677  0.0000E+00  0.2400E+02
    -17.484  0.0000E+00  0.2400E+02
    -17.291  0.0000E+00  0.2400E+02
    -17.099  0.0000E+00  0.2400E+02
    -16.906  0.0000E+00  0.2400E+02
    -16.713  0.0000E+00  0.2400E+02
    -16.521  0.0000E+00  0.2400E+02
    -16.328  0.0000E+00  0.2400E+02
    -16.135  0.0000E+00  0.2400E+02
    -15.942  0.0000E+00  0.2400E+02
    -15.750  0.0000E+00  0.2400E+02
    -15.557  0.0000E+00  0.2400E+02
    -15.364  0.0000E+00  0.2400E+02
    -15.172  0.0000E+00  0.2400E+02
    -14.979  0.0000E+00  0.2400E+02
    -14.786  0.0000E+00  0.2400E+02
    -14.594  0.0000E+00  0.2400E+02
    -14.401  0.0000E+00  0.2400E+02
    -14.208  0.0000E+00  0.2400E+02
    -14.015  0.0000E+00  0.2400E+02
    -13.823  0.0000E+00  0.2400E+02
    -13.630  0.0000E+00  0.2400E+02
    -13.437  0.0000E+00  0.2400E+02
    -13.245  0.0000E+00  0.2400E+02
    -13.052  0.0000E+00  0.2400E+02
    -12.859  0.0000E+00  0.2400E+02
    -12.666  0.0000E+00  0.2400E+02
    -12.474  0.0000E+00  0.2400E+02
    -12.281  0.0000E+00  0.2400E+02
    -12.088  0.0000E+00  0.2400E+02
    -11.896  0.0000E+00  0.2400E+02
    -11.703  0.0000E+00  0.2400E+02
    -11.510  0.0000E+00  0.2400E+02
    -11.317  0.0000E+00  0.2400E+02
    -11.125  0.0000E+00  0.2400E+02
    -10.932  0.0000E+00  0.2400E+02
    -10.739  0.0000E+00  0.2400E+02
    -10.547  0.0000E+00  0.2400E+02
    -10.354  0.0000E+00  0.2400E+02
    -10.161  0.0000E+00  0.2400E+02
     -9.969  0.0000E+00  0.2400E+02
     -9.776  0.0000E+00  0.2400E+02
     -9.583  0.6158E-06  0.2400E+02
     -9.390  0.2339E+02  0.2851E+02
     -9.198  0.3176E+03  0.8971E+02
     -9.005  0.2775E+03  0.1432E+03
     -8.812  0.4247E+01  0.1440E+03
     -8.620  0.0000E+00  0.1440E+03
     -8.427  0.0000E+00  0.1440E+03
     -8.234  0.0000E+00  0.1440E+03
     -8.041  0.0000E+00  0.1440E+03
     -7.849  0.0000E+00  0.1440E+03
     -7.656  0.0000E+00  0.1440E+03
     -7.463  0.0000E+00  0.1440E+03
     -7.271  0.0000E+00  0.1440E+03
     -7.078  0.0000E+00  0.1440E+03
     -6.885  0.0000E+00  0.1440E+03
     -6.693  0.0000E+00  0.1440E+03
     -6.500  0.0000E+00  0.1440E+03
     -6.307  0.0000E+00  0.1440E+03
     -6.114  0.0000E+00  0.1440E+03
     -5.922  0.0000E+00  0.1440E+03
     -5.729  0.0000E+00  0.1440E+03
     -5.536  0.0000E+00  0.1440E+03
     -5.344  0.0000E+00  0.1440E+03
     -5.151  0.3013E-03  0.1440E+03
     -4.958  0.1264E+01  0.1442E+03
     -4.765  0.3338E-01  0.1443E+03
     -4.573  0.1974E+01  0.1446E+03
     -4.380  0.1917E+01  0.1450E+03
     -4.187  0.1358E+01  0.1453E+03
     -3.995  0.2522E+01  0.1457E+03
     -3.802  0.1322E+01  0.1460E+03
     -3.609  0.4918E+01  0.1470E+03
     -3.417  0.1556E+01  0.1473E+03
     -3.224  0.1169E+01  0.1475E+03
     -3.031  0.2615E+01  0.1480E+03
     -2.838  0.4593E+01  0.1489E+03
     -2.646  0.7042E+00  0.1490E+03
     -2.453  0.7950E+00  0.1492E+03
     -2.260  0.6804E+01  0.1505E+03
     -2.068  0.3356E+01  0.1511E+03
     -1.875  0.3081E+01  0.1517E+03
     -1.682  0.2611E+01  0.1522E+03
     -1.489  0.2934E+01  0.1528E+03
     -1.297  0.7668E+01  0.1543E+03
     -1.104  0.3411E+01  0.1549E+03
     -0.911  0.7607E+01  0.1564E+03
     -0.719  0.6893E+01  0.1577E+03
     -0.526  0.6269E+01  0.1589E+03
     -0.333  0.5615E+01  0.1600E+03
     -0.140  0.7216E+01  0.1614E+03
      0.052  0.9918E+01  0.1633E+03
      0.245  0.2924E+01  0.1639E+03
      0.438  0.1038E+02  0.1659E+03
      0.630  0.5787E+01  0.1670E+03
      0.823  0.5232E+01  0.1680E+03
      1.016  0.7366E+00  0.1681E+03
      1.208  0.7782E+01  0.1696E+03
      1.401  0.6888E+01  0.1710E+03
      1.594  0.6730E+01  0.1722E+03
      1.787  0.1105E+01  0.1725E+03
      1.979  0.7617E+01  0.1739E+03
      2.172  0.5494E+01  0.1750E+03
      2.365  0.1172E+02  0.1772E+03
      2.557  0.1264E+02  0.1797E+03
      2.750  0.6791E+01  0.1810E+03
      2.943  0.1204E+02  0.1833E+03
      3.136  0.1243E+02  0.1857E+03
      3.328  0.1670E+02  0.1889E+03
      3.521  0.1162E+02  0.1912E+03
      3.714  0.1666E+02  0.1944E+03
      3.906  0.1603E+02  0.1975E+03
      4.099  0.1455E+02  0.2003E+03
      4.292  0.1494E+02  0.2031E+03
      4.484  0.3023E+01  0.2037E+03
      4.677  0.1405E+01  0.2040E+03
      4.870  0.3265E-02  0.2040E+03
      5.063  0.1564E+01  0.2043E+03
      5.255  0.8415E+01  0.2059E+03
      5.448  0.9746E+01  0.2078E+03
      5.641  0.1020E+02  0.2098E+03
      5.833  0.7059E+01  0.2111E+03
      6.026  0.5635E+01  0.2122E+03
      6.219  0.7732E+00  0.2124E+03
      6.412  0.1038E+01  0.2126E+03
      6.604  0.6588E+01  0.2138E+03
      6.797  0.6233E+01  0.2150E+03
      6.990  0.4250E+01  0.2159E+03
      7.182  0.4674E+01  0.2168E+03
      7.375  0.8597E+01  0.2184E+03
      7.568  0.7076E+01  0.2198E+03
      7.760  0.1320E+02  0.2223E+03
      7.953  0.8626E+01  0.2240E+03
      8.146  0.1037E+02  0.2260E+03
      8.339  0.1468E+02  0.2288E+03
      8.531  0.7227E+01  0.2302E+03
      8.724  0.1207E+02  0.2325E+03
      8.917  0.1187E+02  0.2348E+03
      9.109  0.1035E+02  0.2368E+03
      9.302  0.1500E+02  0.2397E+03
      9.495  0.4644E+01  0.2406E+03
      9.688  0.5001E+01  0.2416E+03
      9.880  0.4928E+01  0.2425E+03
     10.073  0.7891E+01  0.2440E+03
     10.266  0.7565E+01  0.2455E+03
     10.458  0.1187E+02  0.2478E+03
     10.651  0.6667E+01  0.2491E+03
     10.844  0.1161E+02  0.2513E+03
     11.037  0.7368E+01  0.2527E+03
     11.229  0.8492E+01  0.2544E+03
     11.422  0.6893E+01  0.2557E+03
     11.615  0.4838E+01  0.2566E+03
     11.807  0.8599E+01  0.2583E+03
     12.000  0.8156E+01  0.2598E+03
     12.193  0.1140E+02  0.2620E+03
     12.385  0.5931E+01  0.2632E+03
     12.578  0.1286E+02  0.2657E+03
     12.771  0.4931E+01  0.2666E+03
     12.964  0.5795E+01  0.2677E+03
     13.156  0.5713E+01  0.2688E+03
     13.349  0.1102E+02  0.2710E+03
     13.542  0.9540E+01  0.2728E+03
     13.734  0.8986E+01  0.2745E+03
     13.927  0.2617E+01  0.2750E+03
     14.120  0.5962E+01  0.2762E+03
     14.313  0.8008E+01  0.2777E+03
     14.505  0.6033E+01  0.2789E+03
     14.698  0.8605E+01  0.2805E+03
     14.891  0.7004E+01  0.2819E+03
     15.083  0.6193E+01  0.2831E+03
     15.276  0.6824E+01  0.2844E+03
     15.469  0.7056E+01  0.2858E+03
     15.661  0.6020E+01  0.2869E+03
     15.854  0.2669E+01  0.2874E+03
     16.047  0.2762E+01  0.2880E+03
     16.240  0.1955E+00  0.2880E+03
     16.432  0.4243E-04  0.2880E+03
     16.625  0.0000E+00  0.2880E+03
     16.818  0.0000E+00  0.2880E+03
     17.010  0.0000E+00  0.2880E+03
     17.203  0.0000E+00  0.2880E+03
     17.396  0.0000E+00  0.2880E+03
     17.589  0.0000E+00  0.2880E+03
     17.781  0.0000E+00  0.2880E+03
     17.974  0.0000E+00  0.2880E+03
     18.167  0.0000E+00  0.2880E+03
     18.359  0.0000E+00  0.2880E+03
     18.552  0.0000E+00  0.2880E+03
     18.745  0.0000E+00  0.2880E+03
