       N       E                     dE             d eps       ncg     rms          rms(c)
DAV:   1     0.316772035757E+04    0.31677E+04   -0.85880E+04 19800   0.286E+03
DAV:   2     0.499097091140E+03   -0.26686E+04   -0.25318E+04 26632   0.105E+03
DAV:   3    -0.280295132614E+02   -0.52713E+03   -0.48000E+03 32448   0.379E+02
DAV:   4    -0.854842335870E+02   -0.57455E+02   -0.53871E+02 36432   0.144E+02
DAV:   5    -0.886539817955E+02   -0.31697E+01   -0.30313E+01 33936   0.305E+01    0.541E+01
DAV:   6    -0.866036957531E+02    0.20503E+01   -0.34638E+00 31848   0.146E+01    0.245E+01
DAV:   7    -0.857476240101E+02    0.85607E+00   -0.19753E+00 32304   0.828E+00    0.111E+00
DAV:   8    -0.857594851194E+02   -0.11861E-01   -0.32719E-01 31792   0.393E+00    0.808E-01
DAV:   9    -0.857605686211E+02   -0.10835E-02   -0.49923E-02 31840   0.271E+00    0.581E-01
DAV:  10    -0.857615505639E+02   -0.98194E-03   -0.88138E-03 32712   0.105E+00    0.106E-01
DAV:  11    -0.857619714082E+02   -0.42084E-03   -0.34096E-03 30248   0.879E-01    0.883E-02
DAV:  12    -0.857621374115E+02   -0.16600E-03   -0.16279E-03 33864   0.290E-01    0.418E-02
DAV:  13    -0.857621673486E+02   -0.29937E-04   -0.18921E-04 33976   0.137E-01    0.190E-02
DAV:  14    -0.857621827622E+02   -0.15414E-04   -0.53620E-05 30384   0.104E-01    0.996E-03
DAV:  15    -0.857621868370E+02   -0.40748E-05   -0.25520E-05 27736   0.559E-02    0.555E-03
DAV:  16    -0.857621888657E+02   -0.20287E-05   -0.18271E-05 25320   0.286E-02    0.745E-03
DAV:  17    -0.857621885156E+02    0.35005E-06   -0.23026E-06 15744   0.292E-02
   1 F= -.85762189E+02 E0= -.85756489E+02  d E =-.113988E-01
