Ga12Re4
1.0
      6.4756037       0.0000000       0.0000000
      0.0000000       6.4756037       0.0000000
      0.0000000       0.0000000       7.0278697
  Ga    Re  
  12    4   
Direct
      0.0000000       0.5000000       0.5000000
      0.5000000       0.0000000       0.0000000
      0.5000000       0.0000000       0.5000000
      0.0000000       0.5000000       0.0000000
      0.3330116       0.6669884       0.2434584
      0.6669884       0.3330116       0.2434584
      0.1669884       0.1669884       0.7434584
      0.8330116       0.8330116       0.7434584
      0.6669884       0.3330116       0.7565416
      0.3330116       0.6669884       0.7565416
      0.8330116       0.8330116       0.2565416
      0.1669884       0.1669884       0.2565416
      0.1436262       0.8563738       0.5000000
      0.8563738       0.1436262       0.5000000
      0.3563738       0.3563738       0.0000000
      0.6436262       0.6436262       0.0000000
