Ga12 Re4
1.0
   6.4756036999999997    0.0000000000000000    0.0000000000000000
   0.0000000000000000    6.4756036999999997    0.0000000000000000
   0.0000000000000000    0.0000000000000000    7.0278696800000002
Ga Re
12 4
direct
  -0.0000000000000000    0.5000000000000000    0.5000000000000000 Ga
   0.5000000000000000   -0.0000000000000000    0.0000000000000000 Ga
   0.5000000000000000   -0.0000000000000000    0.5000000000000000 Ga
  -0.0000000000000000    0.5000000000000000    0.0000000000000000 Ga
   0.3330116000000000    0.6669884000000000    0.2434583700000000 Ga
   0.6669884000000000    0.3330116000000000    0.2434583700000000 Ga
   0.1669884000000000    0.1669884000000000    0.7434583700000000 Ga
   0.8330116000000000    0.8330116000000000    0.7434583700000000 Ga
   0.6669884000000000    0.3330116000000000    0.7565416300000000 Ga
   0.3330116000000000    0.6669884000000000    0.7565416300000000 Ga
   0.8330116000000000    0.8330116000000000    0.2565416300000000 Ga
   0.1669884000000000    0.1669884000000000    0.2565416300000000 Ga
   0.1436262400000000    0.8563737600000000    0.5000000000000000 Re
   0.8563737600000000    0.1436262400000000    0.5000000000000000 Re
   0.3563737600000000    0.3563737600000000    0.0000000000000000 Re
   0.6436262400000000    0.6436262400000000    0.0000000000000000 Re
