       N       E                     dE             d eps       ncg     rms          rms(c)
DAV:   1     0.769996085908E+03    0.77000E+03   -0.54225E+04  5760   0.137E+03
DAV:   2    -0.407935472150E+02   -0.81079E+03   -0.76342E+03  7408   0.262E+02
DAV:   3    -0.130787032693E+03   -0.89993E+02   -0.88188E+02  6632   0.927E+01
DAV:   4    -0.133252981693E+03   -0.24659E+01   -0.24473E+01  7456   0.149E+01
DAV:   5    -0.133311146537E+03   -0.58165E-01   -0.58143E-01  6568   0.215E+00    0.302E+01
DAV:   6    -0.110016491147E+03    0.23295E+02   -0.97362E+01  5888   0.387E+01    0.134E+01
DAV:   7    -0.109238454010E+03    0.77804E+00   -0.13889E+01  6096   0.118E+01    0.779E+00
DAV:   8    -0.109035139819E+03    0.20331E+00   -0.13407E+00  6336   0.476E+00    0.312E+00
DAV:   9    -0.108990054427E+03    0.45085E-01   -0.16463E-01  6920   0.218E+00    0.488E-01
DAV:  10    -0.108994351672E+03   -0.42972E-02   -0.50539E-02  6456   0.832E-01    0.404E-01
DAV:  11    -0.108995927345E+03   -0.15757E-02   -0.62679E-03  6544   0.323E-01    0.259E-01
DAV:  12    -0.108997028637E+03   -0.11013E-02   -0.23791E-03  6448   0.196E-01    0.504E-02
DAV:  13    -0.108997103915E+03   -0.75278E-04   -0.27384E-04  7216   0.780E-02    0.361E-02
DAV:  14    -0.108997133394E+03   -0.29479E-04   -0.56757E-05  6536   0.303E-02    0.174E-02
DAV:  15    -0.108997158795E+03   -0.25402E-04   -0.28224E-05  7072   0.191E-02    0.102E-02
DAV:  16    -0.108997166909E+03   -0.81136E-05   -0.67457E-06  6464   0.968E-03    0.742E-03
DAV:  17    -0.108997169121E+03   -0.22123E-05   -0.22689E-06  5744   0.618E-03    0.197E-03
DAV:  18    -0.108997169600E+03   -0.47909E-06   -0.62022E-07  3376   0.294E-03
   1 F= -.10899717E+03 E0= -.10899717E+03  d E =-.418945E-15
