unknown system                          
           1
     6.908646    0.000000    0.000000
    -2.738325    7.152650    0.000000
    -0.001786   -2.578265    7.748191
   Bi   O 
     8    12
Direct configuration=     1
   0.80138500  0.91149200  0.88234100
   0.17533300  0.07977000  0.62013000
   0.03827500  0.52327300  0.48574200
   0.58506800  0.91866800  0.40717400
   0.81978900  0.44262300  0.93559200
   0.28188500  0.96731200  0.08598600
   0.55093400  0.50107600  0.55418600
   0.36067800  0.49143400  0.05779900
   0.39749700  0.60484900  0.34930900
   0.81627000  0.85099600  0.58616600
   0.38233000  0.88493200  0.66055300
   0.47829500  0.35637200  0.77917400
   0.47553500  0.96935600  0.84356500
   0.16336900  0.30782200  0.50088900
   0.62383200  0.76413000  0.11467100
   0.70895000  0.33570500  0.37943800
   0.16490200  0.64697500  0.01928500
   0.88971800  0.56654600  0.72904700
   0.26506500  0.94475400  0.36842600
   0.95749100  0.22391400  0.89632700
