Ti8 O16                                 
   1.00000000000000     
    18.7655230786872842    0.0000000000000000    0.0000000000000000
     0.0000000000000000    4.6825827277060945    0.0000000000000000
     0.0000000000000000    0.0000000000000000    2.9653377295712988
   Ti   O 
     8    16
Direct
  0.0695422854969934  0.4523238792703950  0.2500000000000000
  0.1888449479341290  0.9538465126647395  0.7500000000000000
  0.3111550520658710  0.4538465126647395  0.2500000000000000
  0.4304577145030066  0.9523238792703950  0.7500000000000000
  0.5695422854969934  0.0476761207296050  0.2500000000000000
  0.6888449479341290  0.5461534873352605  0.7500000000000000
  0.8111550520658710  0.0461534873352605  0.2500000000000000
  0.9304577145030066  0.5476761207296050  0.7500000000000000
  0.0176377407681585  0.2908593438668134  0.7500000000000000
  0.1407426710487059  0.1580173125933229  0.2500000000000000
  0.1155493124718419  0.6673203813242523  0.7500000000000000
  0.2622932632212880  0.2755479236767471  0.7500000000000000
  0.2377067367787120  0.7755479236767471  0.2500000000000000
  0.3844506875281581  0.1673203813242523  0.2500000000000000
  0.3592573289512941  0.6580173125933229  0.7500000000000000
  0.4823622592318415  0.7908593438668134  0.2500000000000000
  0.5176377407681656  0.2091406561331866  0.7500000000000000
  0.6407426710487059  0.3419826874066771  0.2500000000000000
  0.6155493124718419  0.8326796186757477  0.7500000000000000
  0.7622932632212880  0.2244520763232529  0.7500000000000000
  0.7377067367787120  0.7244520763232529  0.2500000000000000
  0.8844506875281581  0.3326796186757477  0.2500000000000000
  0.8592573289512941  0.8419826874066771  0.7500000000000000
  0.9823622592318344  0.7091406561331866  0.2500000000000000
 
  0.00000000E+00  0.00000000E+00  0.00000000E+00
  0.00000000E+00  0.00000000E+00  0.00000000E+00
  0.00000000E+00  0.00000000E+00  0.00000000E+00
  0.00000000E+00  0.00000000E+00  0.00000000E+00
  0.00000000E+00  0.00000000E+00  0.00000000E+00
  0.00000000E+00  0.00000000E+00  0.00000000E+00
  0.00000000E+00  0.00000000E+00  0.00000000E+00
  0.00000000E+00  0.00000000E+00  0.00000000E+00
  0.00000000E+00  0.00000000E+00  0.00000000E+00
  0.00000000E+00  0.00000000E+00  0.00000000E+00
  0.00000000E+00  0.00000000E+00  0.00000000E+00
  0.00000000E+00  0.00000000E+00  0.00000000E+00
  0.00000000E+00  0.00000000E+00  0.00000000E+00
  0.00000000E+00  0.00000000E+00  0.00000000E+00
  0.00000000E+00  0.00000000E+00  0.00000000E+00
  0.00000000E+00  0.00000000E+00  0.00000000E+00
  0.00000000E+00  0.00000000E+00  0.00000000E+00
  0.00000000E+00  0.00000000E+00  0.00000000E+00
  0.00000000E+00  0.00000000E+00  0.00000000E+00
  0.00000000E+00  0.00000000E+00  0.00000000E+00
  0.00000000E+00  0.00000000E+00  0.00000000E+00
  0.00000000E+00  0.00000000E+00  0.00000000E+00
  0.00000000E+00  0.00000000E+00  0.00000000E+00
  0.00000000E+00  0.00000000E+00  0.00000000E+00
