Ti8 O16                                 
   1.00000000000000     
    18.7655230786872842    0.0000000000000000    0.0000000000000000
     0.0000000000000000    4.6825827277060945   -0.0000000000000000
     0.0000000000000000    0.0000000000000000    2.9653377295712988
   Ti   O 
     8    16
Direct
  0.0695422854969959  0.4523238792703952  0.2500000000000000
  0.1888449479341300  0.9538465126647422  0.7500000000000000
  0.3111550520658700  0.4538465126647423  0.2500000000000000
  0.4304577145030041  0.9523238792703953  0.7500000000000000
  0.5695422854969959  0.0476761207296047  0.2500000000000000
  0.6888449479341301  0.5461534873352578  0.7500000000000000
  0.8111550520658699  0.0461534873352578  0.2500000000000000
  0.9304577145030041  0.5476761207296047  0.7500000000000000
  0.0176377407681620  0.2908593438668141  0.7500000000000000
  0.1407426710487039  0.1580173125933259  0.2500000000000000
  0.1155493124718428  0.6673203813242521  0.7500000000000000
  0.2622932632212852  0.2755479236767502  0.7500000000000000
  0.2377067367787148  0.7755479236767501  0.2500000000000000
  0.3844506875281572  0.1673203813242520  0.2500000000000000
  0.3592573289512961  0.6580173125933259  0.7500000000000000
  0.4823622592318380  0.7908593438668140  0.2500000000000000
  0.5176377407681620  0.2091406561331859  0.7500000000000000
  0.6407426710487040  0.3419826874066741  0.2500000000000000
  0.6155493124718427  0.8326796186757479  0.7500000000000000
  0.7622932632212851  0.2244520763232498  0.7500000000000000
  0.7377067367787149  0.7244520763232499  0.2500000000000000
  0.8844506875281573  0.3326796186757479  0.2500000000000000
  0.8592573289512960  0.8419826874066741  0.7500000000000000
  0.9823622592318380  0.7091406561331860  0.2500000000000000
 
  0.00000000E+00  0.00000000E+00  0.00000000E+00
  0.00000000E+00  0.00000000E+00  0.00000000E+00
  0.00000000E+00  0.00000000E+00  0.00000000E+00
  0.00000000E+00  0.00000000E+00  0.00000000E+00
  0.00000000E+00  0.00000000E+00  0.00000000E+00
  0.00000000E+00  0.00000000E+00  0.00000000E+00
  0.00000000E+00  0.00000000E+00  0.00000000E+00
  0.00000000E+00  0.00000000E+00  0.00000000E+00
  0.00000000E+00  0.00000000E+00  0.00000000E+00
  0.00000000E+00  0.00000000E+00  0.00000000E+00
  0.00000000E+00  0.00000000E+00  0.00000000E+00
  0.00000000E+00  0.00000000E+00  0.00000000E+00
  0.00000000E+00  0.00000000E+00  0.00000000E+00
  0.00000000E+00  0.00000000E+00  0.00000000E+00
  0.00000000E+00  0.00000000E+00  0.00000000E+00
  0.00000000E+00  0.00000000E+00  0.00000000E+00
  0.00000000E+00  0.00000000E+00  0.00000000E+00
  0.00000000E+00  0.00000000E+00  0.00000000E+00
  0.00000000E+00  0.00000000E+00  0.00000000E+00
  0.00000000E+00  0.00000000E+00  0.00000000E+00
  0.00000000E+00  0.00000000E+00  0.00000000E+00
  0.00000000E+00  0.00000000E+00  0.00000000E+00
  0.00000000E+00  0.00000000E+00  0.00000000E+00
  0.00000000E+00  0.00000000E+00  0.00000000E+00
