unknown system                          
           1
    18.757299    0.000000    0.000000
     0.000000    4.681524    0.000000
     0.000000    0.000000    2.965611
   Ti   O 
     8    16
Direct configuration=     1
   0.06954483  0.45225143  0.25000000
   0.18883400  0.95371187  0.75000000
   0.31116600  0.45371187  0.25000000
   0.43045517  0.95225143  0.75000000
   0.56954483  0.04774857  0.25000000
   0.68883400  0.54628813  0.75000000
   0.81116600  0.04628813  0.25000000
   0.93045517  0.54774857  0.75000000
   0.01761517  0.29073283  0.75000000
   0.14076952  0.15805693  0.25000000
   0.11550882  0.66730497  0.75000000
   0.26231389  0.27548342  0.75000000
   0.23768611  0.77548342  0.25000000
   0.38449118  0.16730497  0.25000000
   0.35923048  0.65805693  0.75000000
   0.48238483  0.79073283  0.25000000
   0.51761517  0.20926717  0.75000000
   0.64076952  0.34194307  0.25000000
   0.61550882  0.83269503  0.75000000
   0.76231389  0.22451658  0.75000000
   0.73768611  0.72451658  0.25000000
   0.88449118  0.33269503  0.25000000
   0.85923048  0.84194307  0.75000000
   0.98238483  0.70926717  0.25000000
