F4                                      
   1.00000000000000     
     3.0050472400000001    0.0522189900000000   -0.1043772900000000
    -1.3823760199999999    2.6687197100000000    0.1043772900000000
    -0.2510038400000000    0.1496912200000000    6.6151584000000003
   F 
     4
Direct
     0.9153359700000010    0.4041671199999968    0.5979554999999976
     0.4041671199999968    0.9153359700000010    0.9020445000000024
     0.0846640299999990    0.5958328800000032    0.4020445000000024
     0.5958328800000032    0.0846640299999990    0.0979554999999976
 
  0.00000000E+00  0.00000000E+00  0.00000000E+00
  0.00000000E+00  0.00000000E+00  0.00000000E+00
  0.00000000E+00  0.00000000E+00  0.00000000E+00
  0.00000000E+00  0.00000000E+00  0.00000000E+00
