   4   4   0   0
  0.1335800E+02  0.3007313E-09  0.3007312E-09  0.6621611E-09  0.5000000E-15
  1.000000000000000E-004
  CAR 
 unknown system                          
      0.99132952    -30.83834814  301     -3.98868880      1.00000000
    -30.838  0.0000E+00  0.0000E+00
    -30.732  0.0000E+00  0.0000E+00
    -30.626  0.0000E+00  0.0000E+00
    -30.520  0.0000E+00  0.0000E+00
    -30.414  0.0000E+00  0.0000E+00
    -30.308  0.0000E+00  0.0000E+00
    -30.202  0.0000E+00  0.0000E+00
    -30.096  0.0000E+00  0.0000E+00
    -29.990  0.0000E+00  0.0000E+00
    -29.883  0.0000E+00  0.0000E+00
    -29.777  0.0000E+00  0.0000E+00
    -29.671  0.6017E-16  0.6384E-17
    -29.565  0.2827E-07  0.3000E-08
    -29.459  0.3995E-02  0.4239E-03
    -29.353  0.7790E+00  0.8307E-01
    -29.247  0.4891E+01  0.6020E+00
    -29.141  0.1591E+02  0.2290E+01
    -29.035  0.1530E+02  0.3913E+01
    -28.929  0.8171E+00  0.4000E+01
    -28.822  0.3984E-03  0.4000E+01
    -28.716  0.1215E-09  0.4000E+01
    -28.610  0.0000E+00  0.4000E+01
    -28.504  0.0000E+00  0.4000E+01
    -28.398  0.0000E+00  0.4000E+01
    -28.292  0.0000E+00  0.4000E+01
    -28.186  0.0000E+00  0.4000E+01
    -28.080  0.0000E+00  0.4000E+01
    -27.974  0.0000E+00  0.4000E+01
    -27.868  0.0000E+00  0.4000E+01
    -27.761  0.0000E+00  0.4000E+01
    -27.655  0.0000E+00  0.4000E+01
    -27.549  0.0000E+00  0.4000E+01
    -27.443  0.0000E+00  0.4000E+01
    -27.337  0.0000E+00  0.4000E+01
    -27.231  0.0000E+00  0.4000E+01
    -27.125  0.0000E+00  0.4000E+01
    -27.019  0.0000E+00  0.4000E+01
    -26.913  0.0000E+00  0.4000E+01
    -26.807  0.0000E+00  0.4000E+01
    -26.700  0.0000E+00  0.4000E+01
    -26.594  0.0000E+00  0.4000E+01
    -26.488  0.0000E+00  0.4000E+01
    -26.382  0.0000E+00  0.4000E+01
    -26.276  0.0000E+00  0.4000E+01
    -26.170  0.0000E+00  0.4000E+01
    -26.064  0.0000E+00  0.4000E+01
    -25.958  0.0000E+00  0.4000E+01
    -25.852  0.0000E+00  0.4000E+01
    -25.746  0.0000E+00  0.4000E+01
    -25.640  0.0000E+00  0.4000E+01
    -25.533  0.0000E+00  0.4000E+01
    -25.427  0.0000E+00  0.4000E+01
    -25.321  0.0000E+00  0.4000E+01
    -25.215  0.0000E+00  0.4000E+01
    -25.109  0.0000E+00  0.4000E+01
    -25.003  0.0000E+00  0.4000E+01
    -24.897  0.0000E+00  0.4000E+01
    -24.791  0.0000E+00  0.4000E+01
    -24.685  0.0000E+00  0.4000E+01
    -24.579  0.0000E+00  0.4000E+01
    -24.472  0.0000E+00  0.4000E+01
    -24.366  0.0000E+00  0.4000E+01
    -24.260  0.0000E+00  0.4000E+01
    -24.154  0.0000E+00  0.4000E+01
    -24.048  0.0000E+00  0.4000E+01
    -23.942  0.0000E+00  0.4000E+01
    -23.836  0.0000E+00  0.4000E+01
    -23.730  0.0000E+00  0.4000E+01
    -23.624  0.0000E+00  0.4000E+01
    -23.518  0.0000E+00  0.4000E+01
    -23.411  0.1658E-09  0.4000E+01
    -23.305  0.2294E-03  0.4000E+01
    -23.199  0.1727E+00  0.4018E+01
    -23.093  0.1930E+01  0.4223E+01
    -22.987  0.5169E+01  0.4772E+01
    -22.881  0.1075E+02  0.5912E+01
    -22.775  0.1074E+02  0.7051E+01
    -22.669  0.6674E+01  0.7759E+01
    -22.563  0.2220E+01  0.7995E+01
    -22.457  0.4960E-01  0.8000E+01
    -22.350  0.3025E-05  0.8000E+01
    -22.244  0.6087E-13  0.8000E+01
    -22.138  0.0000E+00  0.8000E+01
    -22.032  0.0000E+00  0.8000E+01
    -21.926  0.0000E+00  0.8000E+01
    -21.820  0.0000E+00  0.8000E+01
    -21.714  0.0000E+00  0.8000E+01
    -21.608  0.0000E+00  0.8000E+01
    -21.502  0.0000E+00  0.8000E+01
    -21.396  0.0000E+00  0.8000E+01
    -21.289  0.0000E+00  0.8000E+01
    -21.183  0.0000E+00  0.8000E+01
    -21.077  0.0000E+00  0.8000E+01
    -20.971  0.0000E+00  0.8000E+01
    -20.865  0.0000E+00  0.8000E+01
    -20.759  0.0000E+00  0.8000E+01
    -20.653  0.0000E+00  0.8000E+01
    -20.547  0.0000E+00  0.8000E+01
    -20.441  0.0000E+00  0.8000E+01
    -20.335  0.0000E+00  0.8000E+01
    -20.228  0.0000E+00  0.8000E+01
    -20.122  0.0000E+00  0.8000E+01
    -20.016  0.0000E+00  0.8000E+01
    -19.910  0.0000E+00  0.8000E+01
    -19.804  0.0000E+00  0.8000E+01
    -19.698  0.0000E+00  0.8000E+01
    -19.592  0.0000E+00  0.8000E+01
    -19.486  0.0000E+00  0.8000E+01
    -19.380  0.0000E+00  0.8000E+01
    -19.274  0.0000E+00  0.8000E+01
    -19.167  0.0000E+00  0.8000E+01
    -19.061  0.0000E+00  0.8000E+01
    -18.955  0.0000E+00  0.8000E+01
    -18.849  0.0000E+00  0.8000E+01
    -18.743  0.0000E+00  0.8000E+01
    -18.637  0.0000E+00  0.8000E+01
    -18.531  0.0000E+00  0.8000E+01
    -18.425  0.0000E+00  0.8000E+01
    -18.319  0.0000E+00  0.8000E+01
    -18.213  0.0000E+00  0.8000E+01
    -18.106  0.0000E+00  0.8000E+01
    -18.000  0.0000E+00  0.8000E+01
    -17.894  0.0000E+00  0.8000E+01
    -17.788  0.0000E+00  0.8000E+01
    -17.682  0.0000E+00  0.8000E+01
    -17.576  0.0000E+00  0.8000E+01
    -17.470  0.0000E+00  0.8000E+01
    -17.364  0.0000E+00  0.8000E+01
    -17.258  0.0000E+00  0.8000E+01
    -17.152  0.0000E+00  0.8000E+01
    -17.045  0.0000E+00  0.8000E+01
    -16.939  0.0000E+00  0.8000E+01
    -16.833  0.0000E+00  0.8000E+01
    -16.727  0.0000E+00  0.8000E+01
    -16.621  0.0000E+00  0.8000E+01
    -16.515  0.0000E+00  0.8000E+01
    -16.409  0.0000E+00  0.8000E+01
    -16.303  0.0000E+00  0.8000E+01
    -16.197  0.0000E+00  0.8000E+01
    -16.091  0.0000E+00  0.8000E+01
    -15.984  0.0000E+00  0.8000E+01
    -15.878  0.0000E+00  0.8000E+01
    -15.772  0.0000E+00  0.8000E+01
    -15.666  0.0000E+00  0.8000E+01
    -15.560  0.0000E+00  0.8000E+01
    -15.454  0.0000E+00  0.8000E+01
    -15.348  0.0000E+00  0.8000E+01
    -15.242  0.0000E+00  0.8000E+01
    -15.136  0.0000E+00  0.8000E+01
    -15.030  0.0000E+00  0.8000E+01
    -14.924  0.0000E+00  0.8000E+01
    -14.817  0.0000E+00  0.8000E+01
    -14.711  0.0000E+00  0.8000E+01
    -14.605  0.0000E+00  0.8000E+01
    -14.499  0.0000E+00  0.8000E+01
    -14.393  0.0000E+00  0.8000E+01
    -14.287  0.0000E+00  0.8000E+01
    -14.181  0.0000E+00  0.8000E+01
    -14.075  0.0000E+00  0.8000E+01
    -13.969  0.0000E+00  0.8000E+01
    -13.863  0.0000E+00  0.8000E+01
    -13.756  0.0000E+00  0.8000E+01
    -13.650  0.0000E+00  0.8000E+01
    -13.544  0.0000E+00  0.8000E+01
    -13.438  0.0000E+00  0.8000E+01
    -13.332  0.0000E+00  0.8000E+01
    -13.226  0.0000E+00  0.8000E+01
    -13.120  0.0000E+00  0.8000E+01
    -13.014  0.0000E+00  0.8000E+01
    -12.908  0.0000E+00  0.8000E+01
    -12.802  0.0000E+00  0.8000E+01
    -12.695  0.0000E+00  0.8000E+01
    -12.589  0.0000E+00  0.8000E+01
    -12.483  0.0000E+00  0.8000E+01
    -12.377  0.0000E+00  0.8000E+01
    -12.271  0.0000E+00  0.8000E+01
    -12.165  0.0000E+00  0.8000E+01
    -12.059  0.0000E+00  0.8000E+01
    -11.953  0.0000E+00  0.8000E+01
    -11.847  0.0000E+00  0.8000E+01
    -11.741  0.0000E+00  0.8000E+01
    -11.634  0.0000E+00  0.8000E+01
    -11.528  0.0000E+00  0.8000E+01
    -11.422  0.7848E-17  0.8000E+01
    -11.316  0.6841E-08  0.8000E+01
    -11.210  0.1645E-02  0.8000E+01
    -11.104  0.2984E+00  0.8032E+01
    -10.998  0.1189E+01  0.8158E+01
    -10.892  0.3231E+01  0.8501E+01
    -10.786  0.4120E+01  0.8938E+01
    -10.680  0.3843E+01  0.9346E+01
    -10.573  0.7143E+01  0.1010E+02
    -10.467  0.6761E+01  0.1082E+02
    -10.361  0.2635E+01  0.1110E+02
    -10.255  0.3355E+01  0.1146E+02
    -10.149  0.3344E+01  0.1181E+02
    -10.043  0.1402E+01  0.1196E+02
     -9.937  0.3774E+00  0.1200E+02
     -9.831  0.1493E-02  0.1200E+02
     -9.725  0.4711E-08  0.1200E+02
     -9.619  0.0000E+00  0.1200E+02
     -9.512  0.0000E+00  0.1200E+02
     -9.406  0.0000E+00  0.1200E+02
     -9.300  0.0000E+00  0.1200E+02
     -9.194  0.1308E-16  0.1200E+02
     -9.088  0.7773E-08  0.1200E+02
     -8.982  0.8376E-03  0.1200E+02
     -8.876  0.7202E-01  0.1201E+02
     -8.770  0.4996E+00  0.1206E+02
     -8.664  0.8484E+00  0.1215E+02
     -8.558  0.2832E+01  0.1245E+02
     -8.451  0.6343E+01  0.1312E+02
     -8.345  0.7556E+01  0.1393E+02
     -8.239  0.5749E+01  0.1454E+02
     -8.133  0.3340E+01  0.1489E+02
     -8.027  0.4356E+01  0.1535E+02
     -7.921  0.4174E+01  0.1580E+02
     -7.815  0.5612E+01  0.1639E+02
     -7.709  0.8071E+01  0.1725E+02
     -7.603  0.9426E+01  0.1825E+02
     -7.497  0.9760E+01  0.1928E+02
     -7.390  0.5251E+01  0.1984E+02
     -7.284  0.1468E+01  0.2000E+02
     -7.178  0.4359E-01  0.2000E+02
     -7.072  0.6252E-05  0.2000E+02
     -6.966  0.3205E-12  0.2000E+02
     -6.860  0.0000E+00  0.2000E+02
     -6.754  0.0000E+00  0.2000E+02
     -6.648  0.0000E+00  0.2000E+02
     -6.542  0.0000E+00  0.2000E+02
     -6.436  0.0000E+00  0.2000E+02
     -6.329  0.0000E+00  0.2000E+02
     -6.223  0.0000E+00  0.2000E+02
     -6.117  0.0000E+00  0.2000E+02
     -6.011  0.0000E+00  0.2000E+02
     -5.905  0.0000E+00  0.2000E+02
     -5.799  0.0000E+00  0.2000E+02
     -5.693  0.0000E+00  0.2000E+02
     -5.587  0.0000E+00  0.2000E+02
     -5.481  0.1429E-11  0.2000E+02
     -5.375  0.9487E-05  0.2000E+02
     -5.269  0.1981E-01  0.2000E+02
     -5.162  0.3048E+00  0.2003E+02
     -5.056  0.9852E+00  0.2014E+02
     -4.950  0.1621E+01  0.2031E+02
     -4.844  0.5212E+01  0.2086E+02
     -4.738  0.1328E+02  0.2227E+02
     -4.632  0.1171E+02  0.2352E+02
     -4.526  0.1115E+02  0.2470E+02
     -4.420  0.1563E+02  0.2636E+02
     -4.314  0.1301E+02  0.2774E+02
     -4.208  0.2464E+01  0.2800E+02
     -4.101  0.1642E-01  0.2800E+02
     -3.995  0.2489E-06  0.2800E+02
     -3.889  0.1334E-14  0.2800E+02
     -3.783  0.0000E+00  0.2800E+02
     -3.677  0.0000E+00  0.2800E+02
     -3.571  0.0000E+00  0.2800E+02
     -3.465  0.0000E+00  0.2800E+02
     -3.359  0.0000E+00  0.2800E+02
     -3.253  0.0000E+00  0.2800E+02
     -3.147  0.0000E+00  0.2800E+02
     -3.040  0.0000E+00  0.2800E+02
     -2.934  0.0000E+00  0.2800E+02
     -2.828  0.0000E+00  0.2800E+02
     -2.722  0.0000E+00  0.2800E+02
     -2.616  0.0000E+00  0.2800E+02
     -2.510  0.0000E+00  0.2800E+02
     -2.404  0.0000E+00  0.2800E+02
     -2.298  0.0000E+00  0.2800E+02
     -2.192  0.0000E+00  0.2800E+02
     -2.086  0.0000E+00  0.2800E+02
     -1.979  0.0000E+00  0.2800E+02
     -1.873  0.1308E-16  0.2800E+02
     -1.767  0.8508E-08  0.2800E+02
     -1.661  0.1033E-02  0.2800E+02
     -1.555  0.1549E+00  0.2802E+02
     -1.449  0.5371E+00  0.2807E+02
     -1.343  0.1512E+01  0.2823E+02
     -1.237  0.2604E+01  0.2851E+02
     -1.131  0.3286E+01  0.2886E+02
     -1.025  0.3668E+01  0.2925E+02
     -0.918  0.8735E+01  0.3017E+02
     -0.812  0.5544E+01  0.3076E+02
     -0.706  0.3869E+01  0.3117E+02
     -0.600  0.5171E+01  0.3172E+02
     -0.494  0.2050E+01  0.3194E+02
     -0.388  0.5646E+00  0.3200E+02
     -0.282  0.4764E-02  0.3200E+02
     -0.176  0.3862E-07  0.3200E+02
     -0.070  0.8371E-16  0.3200E+02
      0.036  0.0000E+00  0.3200E+02
      0.143  0.0000E+00  0.3200E+02
      0.249  0.0000E+00  0.3200E+02
      0.355  0.0000E+00  0.3200E+02
      0.461  0.0000E+00  0.3200E+02
      0.567  0.0000E+00  0.3200E+02
      0.673  0.0000E+00  0.3200E+02
      0.779  0.0000E+00  0.3200E+02
      0.885  0.0000E+00  0.3200E+02
      0.991  0.0000E+00  0.3200E+02
