       N       E                     dE             d eps       ncg     rms          rms(c)
DAV:   1     0.234193050099E+03    0.23419E+03   -0.18706E+04 12808   0.188E+03
DAV:   2    -0.793878675618E+00   -0.23499E+03   -0.23282E+03 20976   0.398E+02
DAV:   3    -0.876436841495E+01   -0.79705E+01   -0.79656E+01 13048   0.846E+01
DAV:   4    -0.882324418868E+01   -0.58876E-01   -0.58873E-01 15536   0.779E+00
DAV:   5    -0.882361173697E+01   -0.36755E-03   -0.36755E-03 13016   0.576E-01    0.112E+01
DAV:   6    -0.762742949543E+01    0.11962E+01   -0.47692E-01 12800   0.926E+00    0.631E+00
DAV:   7    -0.720936851876E+01    0.41806E+00   -0.64586E-01 12856   0.101E+01    0.685E-01
DAV:   8    -0.720842375908E+01    0.94476E-03   -0.88737E-02 12800   0.276E+00    0.130E-01
DAV:   9    -0.720852203636E+01   -0.98277E-04   -0.10211E-03 15016   0.303E-01    0.725E-02
DAV:  10    -0.720855875640E+01   -0.36720E-04   -0.20841E-04 12856   0.151E-01    0.196E-02
DAV:  11    -0.720855791568E+01    0.84072E-06   -0.16321E-05 12864   0.491E-02    0.661E-03
DAV:  12    -0.720855748046E+01    0.43522E-06   -0.39997E-06 12672   0.184E-02
   1 F= -.72085575E+01 E0= -.72085575E+01  d E =-.930551E-17
