Ge2 Se4                                 
   1.00000000000000     
     5.2906872399999996   -0.0000000200000000   -2.6929911400000002
    -1.3707486799999999    5.1100320600000000   -2.6929911500000001
    -0.0913546000000000   -0.1190909300000000    6.3640989599999997
   Ge   Se
     2     4
Direct
     0.0000000000000000    0.0000000000000000    0.0000000000000000
     0.2500000000000000    0.7500000000000000    0.5000000000000000
     0.3629567799999975    0.3750000000000000    0.2500000000000000
     0.1250000000000000    0.6370432200000025    0.7500000000000000
     0.6250000000000000    0.1129567799999975    0.7500000000000000
     0.8870432200000025    0.8750000000000000    0.2500000000000000
 
  0.00000000E+00  0.00000000E+00  0.00000000E+00
  0.00000000E+00  0.00000000E+00  0.00000000E+00
  0.00000000E+00  0.00000000E+00  0.00000000E+00
  0.00000000E+00  0.00000000E+00  0.00000000E+00
  0.00000000E+00  0.00000000E+00  0.00000000E+00
  0.00000000E+00  0.00000000E+00  0.00000000E+00
