   6   6   0   0
  0.2811059E+02  0.5936630E-09  0.5936631E-09  0.6365869E-09  0.5000000E-15
  1.000000000000000E-004
  CAR 
 unknown system                          
     11.63113692    -24.50533250  301      2.12272840      1.00000000
    -24.505  0.0000E+00  0.0000E+00
    -24.385  0.0000E+00  0.0000E+00
    -24.264  0.0000E+00  0.0000E+00
    -24.144  0.0000E+00  0.0000E+00
    -24.024  0.0000E+00  0.0000E+00
    -23.903  0.0000E+00  0.0000E+00
    -23.783  0.0000E+00  0.0000E+00
    -23.662  0.0000E+00  0.0000E+00
    -23.542  0.0000E+00  0.0000E+00
    -23.421  0.0000E+00  0.0000E+00
    -23.301  0.0000E+00  0.0000E+00
    -23.180  0.0000E+00  0.0000E+00
    -23.060  0.2836E-06  0.3416E-07
    -22.939  0.6760E+00  0.8142E-01
    -22.819  0.1103E+03  0.1337E+02
    -22.699  0.5501E+02  0.2000E+02
    -22.578  0.3217E-01  0.2000E+02
    -22.458  0.6351E-09  0.2000E+02
    -22.337  0.0000E+00  0.2000E+02
    -22.217  0.0000E+00  0.2000E+02
    -22.096  0.0000E+00  0.2000E+02
    -21.976  0.0000E+00  0.2000E+02
    -21.855  0.0000E+00  0.2000E+02
    -21.735  0.0000E+00  0.2000E+02
    -21.614  0.0000E+00  0.2000E+02
    -21.494  0.0000E+00  0.2000E+02
    -21.374  0.0000E+00  0.2000E+02
    -21.253  0.0000E+00  0.2000E+02
    -21.133  0.0000E+00  0.2000E+02
    -21.012  0.0000E+00  0.2000E+02
    -20.892  0.0000E+00  0.2000E+02
    -20.771  0.0000E+00  0.2000E+02
    -20.651  0.0000E+00  0.2000E+02
    -20.530  0.0000E+00  0.2000E+02
    -20.410  0.0000E+00  0.2000E+02
    -20.289  0.0000E+00  0.2000E+02
    -20.169  0.0000E+00  0.2000E+02
    -20.049  0.0000E+00  0.2000E+02
    -19.928  0.0000E+00  0.2000E+02
    -19.808  0.0000E+00  0.2000E+02
    -19.687  0.0000E+00  0.2000E+02
    -19.567  0.0000E+00  0.2000E+02
    -19.446  0.0000E+00  0.2000E+02
    -19.326  0.0000E+00  0.2000E+02
    -19.205  0.0000E+00  0.2000E+02
    -19.085  0.0000E+00  0.2000E+02
    -18.964  0.0000E+00  0.2000E+02
    -18.844  0.0000E+00  0.2000E+02
    -18.723  0.0000E+00  0.2000E+02
    -18.603  0.0000E+00  0.2000E+02
    -18.483  0.0000E+00  0.2000E+02
    -18.362  0.0000E+00  0.2000E+02
    -18.242  0.0000E+00  0.2000E+02
    -18.121  0.0000E+00  0.2000E+02
    -18.001  0.0000E+00  0.2000E+02
    -17.880  0.0000E+00  0.2000E+02
    -17.760  0.0000E+00  0.2000E+02
    -17.639  0.0000E+00  0.2000E+02
    -17.519  0.0000E+00  0.2000E+02
    -17.398  0.0000E+00  0.2000E+02
    -17.278  0.0000E+00  0.2000E+02
    -17.158  0.0000E+00  0.2000E+02
    -17.037  0.0000E+00  0.2000E+02
    -16.917  0.0000E+00  0.2000E+02
    -16.796  0.0000E+00  0.2000E+02
    -16.676  0.0000E+00  0.2000E+02
    -16.555  0.0000E+00  0.2000E+02
    -16.435  0.0000E+00  0.2000E+02
    -16.314  0.0000E+00  0.2000E+02
    -16.194  0.0000E+00  0.2000E+02
    -16.073  0.0000E+00  0.2000E+02
    -15.953  0.0000E+00  0.2000E+02
    -15.833  0.0000E+00  0.2000E+02
    -15.712  0.0000E+00  0.2000E+02
    -15.592  0.0000E+00  0.2000E+02
    -15.471  0.0000E+00  0.2000E+02
    -15.351  0.0000E+00  0.2000E+02
    -15.230  0.0000E+00  0.2000E+02
    -15.110  0.0000E+00  0.2000E+02
    -14.989  0.0000E+00  0.2000E+02
    -14.869  0.0000E+00  0.2000E+02
    -14.748  0.0000E+00  0.2000E+02
    -14.628  0.0000E+00  0.2000E+02
    -14.508  0.0000E+00  0.2000E+02
    -14.387  0.0000E+00  0.2000E+02
    -14.267  0.0000E+00  0.2000E+02
    -14.146  0.0000E+00  0.2000E+02
    -14.026  0.0000E+00  0.2000E+02
    -13.905  0.0000E+00  0.2000E+02
    -13.785  0.0000E+00  0.2000E+02
    -13.664  0.0000E+00  0.2000E+02
    -13.544  0.0000E+00  0.2000E+02
    -13.423  0.0000E+00  0.2000E+02
    -13.303  0.0000E+00  0.2000E+02
    -13.183  0.0000E+00  0.2000E+02
    -13.062  0.0000E+00  0.2000E+02
    -12.942  0.0000E+00  0.2000E+02
    -12.821  0.0000E+00  0.2000E+02
    -12.701  0.0000E+00  0.2000E+02
    -12.580  0.0000E+00  0.2000E+02
    -12.460  0.4449E-08  0.2000E+02
    -12.339  0.3079E-02  0.2000E+02
    -12.219  0.1448E+00  0.2002E+02
    -12.098  0.1428E+01  0.2019E+02
    -11.978  0.9757E+00  0.2031E+02
    -11.858  0.3294E+01  0.2070E+02
    -11.737  0.2512E+01  0.2101E+02
    -11.617  0.4171E+01  0.2151E+02
    -11.496  0.2604E+01  0.2182E+02
    -11.376  0.1449E+01  0.2200E+02
    -11.255  0.1336E+01  0.2216E+02
    -11.135  0.1905E+01  0.2239E+02
    -11.014  0.4747E+01  0.2296E+02
    -10.894  0.2065E+01  0.2321E+02
    -10.773  0.2927E+01  0.2356E+02
    -10.653  0.1591E+01  0.2375E+02
    -10.533  0.8368E+00  0.2385E+02
    -10.412  0.1112E+02  0.2519E+02
    -10.292  0.1261E+02  0.2671E+02
    -10.171  0.7018E+01  0.2756E+02
    -10.051  0.2937E+01  0.2791E+02
     -9.930  0.7171E+00  0.2800E+02
     -9.810  0.2461E-01  0.2800E+02
     -9.689  0.1094E-05  0.2800E+02
     -9.569  0.7963E-15  0.2800E+02
     -9.448  0.0000E+00  0.2800E+02
     -9.328  0.0000E+00  0.2800E+02
     -9.208  0.0000E+00  0.2800E+02
     -9.087  0.0000E+00  0.2800E+02
     -8.967  0.0000E+00  0.2800E+02
     -8.846  0.0000E+00  0.2800E+02
     -8.726  0.0000E+00  0.2800E+02
     -8.605  0.0000E+00  0.2800E+02
     -8.485  0.0000E+00  0.2800E+02
     -8.364  0.0000E+00  0.2800E+02
     -8.244  0.0000E+00  0.2800E+02
     -8.123  0.0000E+00  0.2800E+02
     -8.003  0.0000E+00  0.2800E+02
     -7.883  0.0000E+00  0.2800E+02
     -7.762  0.0000E+00  0.2800E+02
     -7.642  0.0000E+00  0.2800E+02
     -7.521  0.0000E+00  0.2800E+02
     -7.401  0.7264E-11  0.2800E+02
     -7.280  0.1538E-03  0.2800E+02
     -7.160  0.8496E-01  0.2801E+02
     -7.039  0.4906E-01  0.2802E+02
     -6.919  0.7480E+00  0.2811E+02
     -6.798  0.9706E+00  0.2822E+02
     -6.678  0.2045E+00  0.2825E+02
     -6.558  0.1560E+01  0.2844E+02
     -6.437  0.2968E+01  0.2879E+02
     -6.317  0.1345E+01  0.2896E+02
     -6.196  0.3010E+01  0.2932E+02
     -6.076  0.1523E+01  0.2950E+02
     -5.955  0.2252E+01  0.2977E+02
     -5.835  0.1234E+01  0.2992E+02
     -5.714  0.6382E+00  0.3000E+02
     -5.594  0.2301E+00  0.3003E+02
     -5.473  0.9333E+00  0.3014E+02
     -5.353  0.9990E+00  0.3026E+02
     -5.233  0.2638E+01  0.3058E+02
     -5.112  0.8085E+00  0.3067E+02
     -4.992  0.1847E+01  0.3090E+02
     -4.871  0.2509E+01  0.3120E+02
     -4.751  0.2036E+01  0.3144E+02
     -4.630  0.2015E+01  0.3169E+02
     -4.510  0.6707E+00  0.3177E+02
     -4.389  0.7248E+00  0.3185E+02
     -4.269  0.9391E+00  0.3197E+02
     -4.148  0.1364E+00  0.3198E+02
     -4.028  0.3528E-01  0.3199E+02
     -3.908  0.9719E-01  0.3200E+02
     -3.787  0.3602E-03  0.3200E+02
     -3.667  0.4054E-10  0.3200E+02
     -3.546  0.0000E+00  0.3200E+02
     -3.426  0.0000E+00  0.3200E+02
     -3.305  0.0000E+00  0.3200E+02
     -3.185  0.0000E+00  0.3200E+02
     -3.064  0.0000E+00  0.3200E+02
     -2.944  0.0000E+00  0.3200E+02
     -2.823  0.7023E-08  0.3200E+02
     -2.703  0.1557E-01  0.3200E+02
     -2.583  0.2116E+01  0.3226E+02
     -2.462  0.1947E+01  0.3249E+02
     -2.342  0.6896E+01  0.3332E+02
     -2.221  0.3398E+01  0.3373E+02
     -2.101  0.4868E+01  0.3432E+02
     -1.980  0.3685E+01  0.3476E+02
     -1.860  0.8082E+01  0.3574E+02
     -1.739  0.1911E+01  0.3597E+02
     -1.619  0.1249E+01  0.3612E+02
     -1.498  0.3394E+01  0.3652E+02
     -1.378  0.1668E+01  0.3673E+02
     -1.258  0.3341E+01  0.3713E+02
     -1.137  0.5249E+01  0.3776E+02
     -1.017  0.6076E+01  0.3849E+02
     -0.896  0.4128E+01  0.3899E+02
     -0.776  0.5783E+01  0.3969E+02
     -0.655  0.1504E+01  0.3987E+02
     -0.535  0.3098E+01  0.4024E+02
     -0.414  0.8081E+01  0.4121E+02
     -0.294  0.7586E+01  0.4213E+02
     -0.173  0.4904E+01  0.4272E+02
     -0.053  0.4928E+01  0.4331E+02
      0.067  0.4677E+01  0.4387E+02
      0.188  0.3504E+01  0.4430E+02
      0.308  0.1062E+01  0.4443E+02
      0.429  0.1758E+01  0.4464E+02
      0.549  0.3118E+01  0.4501E+02
      0.670  0.4622E+01  0.4557E+02
      0.790  0.3447E+01  0.4598E+02
      0.911  0.3289E+01  0.4638E+02
      1.031  0.9319E+01  0.4750E+02
      1.152  0.5021E+01  0.4811E+02
      1.272  0.6231E+01  0.4886E+02
      1.392  0.8723E+01  0.4991E+02
      1.513  0.4874E+01  0.5050E+02
      1.633  0.8110E+01  0.5147E+02
      1.754  0.4137E+01  0.5197E+02
      1.874  0.2060E+00  0.5200E+02
      1.995  0.3131E-01  0.5200E+02
      2.115  0.2440E-05  0.5200E+02
      2.236  0.3274E-14  0.5200E+02
      2.356  0.0000E+00  0.5200E+02
      2.477  0.0000E+00  0.5200E+02
      2.597  0.0000E+00  0.5200E+02
      2.717  0.0000E+00  0.5200E+02
      2.838  0.0000E+00  0.5200E+02
      2.958  0.0000E+00  0.5200E+02
      3.079  0.0000E+00  0.5200E+02
      3.199  0.0000E+00  0.5200E+02
      3.320  0.2626E-11  0.5200E+02
      3.440  0.1296E-03  0.5200E+02
      3.561  0.2128E+00  0.5203E+02
      3.681  0.7408E+00  0.5211E+02
      3.802  0.1164E+01  0.5226E+02
      3.922  0.5397E+01  0.5291E+02
      4.042  0.1040E+02  0.5416E+02
      4.163  0.6905E+01  0.5499E+02
      4.283  0.3656E+01  0.5543E+02
      4.404  0.2842E+01  0.5577E+02
      4.524  0.1698E+01  0.5598E+02
      4.645  0.3263E+00  0.5602E+02
      4.765  0.4388E-03  0.5602E+02
      4.886  0.3617E+00  0.5606E+02
      5.006  0.1477E+01  0.5624E+02
      5.127  0.6288E+00  0.5631E+02
      5.247  0.1745E+01  0.5652E+02
      5.367  0.2940E+01  0.5688E+02
      5.488  0.2602E+01  0.5719E+02
      5.608  0.4395E+01  0.5772E+02
      5.729  0.4620E+01  0.5828E+02
      5.849  0.4677E+01  0.5884E+02
      5.970  0.3690E+01  0.5928E+02
      6.090  0.4367E+01  0.5981E+02
      6.211  0.5350E+01  0.6046E+02
      6.331  0.4583E+01  0.6101E+02
      6.452  0.5016E+01  0.6161E+02
      6.572  0.4779E+01  0.6219E+02
      6.692  0.3887E+01  0.6266E+02
      6.813  0.4952E+01  0.6325E+02
      6.933  0.3704E+01  0.6370E+02
      7.054  0.1770E+01  0.6391E+02
      7.174  0.2960E+01  0.6427E+02
      7.295  0.1884E+01  0.6449E+02
      7.415  0.3365E+01  0.6490E+02
      7.536  0.2392E+01  0.6519E+02
      7.656  0.1757E+01  0.6540E+02
      7.777  0.2381E+01  0.6569E+02
      7.897  0.3155E+01  0.6607E+02
      8.017  0.2573E+01  0.6638E+02
      8.138  0.3798E+01  0.6683E+02
      8.258  0.5072E+01  0.6744E+02
      8.379  0.1887E+01  0.6767E+02
      8.499  0.1790E+01  0.6789E+02
      8.620  0.1031E+01  0.6801E+02
      8.740  0.1168E+01  0.6815E+02
      8.861  0.2330E+01  0.6843E+02
      8.981  0.1815E+01  0.6865E+02
      9.102  0.1845E+01  0.6887E+02
      9.222  0.5171E+01  0.6950E+02
      9.342  0.5183E+01  0.7012E+02
      9.463  0.5168E+01  0.7074E+02
      9.583  0.5981E+01  0.7146E+02
      9.704  0.2787E+01  0.7180E+02
      9.824  0.5877E+00  0.7187E+02
      9.945  0.1248E+00  0.7189E+02
     10.065  0.9319E+00  0.7200E+02
     10.186  0.1595E-01  0.7200E+02
     10.306  0.1302E-07  0.7200E+02
     10.427  0.0000E+00  0.7200E+02
     10.547  0.0000E+00  0.7200E+02
     10.667  0.0000E+00  0.7200E+02
     10.788  0.0000E+00  0.7200E+02
     10.908  0.0000E+00  0.7200E+02
     11.029  0.0000E+00  0.7200E+02
     11.149  0.0000E+00  0.7200E+02
     11.270  0.0000E+00  0.7200E+02
     11.390  0.0000E+00  0.7200E+02
     11.511  0.0000E+00  0.7200E+02
     11.631  0.0000E+00  0.7200E+02
