B12                                     
   1.00000000000000     
     4.2804640999999997   -0.0017224300000000    2.6653321299999999
     1.4793197100000000    4.0167142199999999    2.6653321299999999
    -0.0024716200000000   -0.0017224400000000    5.0424568699999996
   B 
    12
Direct
     0.0099700399999989    0.6542851199999973    0.0099700399999989
     0.0099700399999989    0.0099700399999989    0.6542851199999973
     0.6542851199999973    0.0099700399999989    0.0099700399999989
     0.3457148800000027    0.9900299600000011    0.9900299600000011
     0.9900299600000011    0.3457148800000027    0.9900299600000011
     0.9900299600000011    0.9900299600000011    0.3457148800000027
     0.2205655699999980    0.6316348300000030    0.2205655699999980
     0.2205655699999980    0.2205655699999980    0.6316348300000030
     0.6316348300000030    0.2205655699999980    0.2205655699999980
     0.3683651699999970    0.7794344300000020    0.7794344300000020
     0.7794344300000020    0.3683651699999970    0.7794344300000020
     0.7794344300000020    0.7794344300000020    0.3683651699999970
 
  0.00000000E+00  0.00000000E+00  0.00000000E+00
  0.00000000E+00  0.00000000E+00  0.00000000E+00
  0.00000000E+00  0.00000000E+00  0.00000000E+00
  0.00000000E+00  0.00000000E+00  0.00000000E+00
  0.00000000E+00  0.00000000E+00  0.00000000E+00
  0.00000000E+00  0.00000000E+00  0.00000000E+00
  0.00000000E+00  0.00000000E+00  0.00000000E+00
  0.00000000E+00  0.00000000E+00  0.00000000E+00
  0.00000000E+00  0.00000000E+00  0.00000000E+00
  0.00000000E+00  0.00000000E+00  0.00000000E+00
  0.00000000E+00  0.00000000E+00  0.00000000E+00
  0.00000000E+00  0.00000000E+00  0.00000000E+00
