   2   2   0   0
  0.5643302E+02  0.4301199E-09  0.4301198E-09  0.7044557E-09  0.5000000E-15
  1.000000000000000E-004
  CAR 
 unknown system                          
      5.71618899    -37.12182209  301      1.54897288      1.00000000
    -37.122  0.0000E+00  0.0000E+00
    -36.979  0.0000E+00  0.0000E+00
    -36.836  0.0000E+00  0.0000E+00
    -36.693  0.0000E+00  0.0000E+00
    -36.551  0.0000E+00  0.0000E+00
    -36.408  0.0000E+00  0.0000E+00
    -36.265  0.0000E+00  0.0000E+00
    -36.122  0.0000E+00  0.0000E+00
    -35.979  0.0000E+00  0.0000E+00
    -35.837  0.0000E+00  0.0000E+00
    -35.694  0.0000E+00  0.0000E+00
    -35.551  0.0000E+00  0.0000E+00
    -35.408  0.6711E-10  0.9584E-11
    -35.266  0.5220E-01  0.7454E-02
    -35.123  0.2426E+02  0.3472E+01
    -34.980  0.3697E+01  0.4000E+01
    -34.837  0.3844E-05  0.4000E+01
    -34.694  0.0000E+00  0.4000E+01
    -34.552  0.0000E+00  0.4000E+01
    -34.409  0.0000E+00  0.4000E+01
    -34.266  0.0000E+00  0.4000E+01
    -34.123  0.0000E+00  0.4000E+01
    -33.980  0.0000E+00  0.4000E+01
    -33.838  0.0000E+00  0.4000E+01
    -33.695  0.0000E+00  0.4000E+01
    -33.552  0.0000E+00  0.4000E+01
    -33.409  0.0000E+00  0.4000E+01
    -33.266  0.0000E+00  0.4000E+01
    -33.124  0.0000E+00  0.4000E+01
    -32.981  0.0000E+00  0.4000E+01
    -32.838  0.0000E+00  0.4000E+01
    -32.695  0.0000E+00  0.4000E+01
    -32.552  0.0000E+00  0.4000E+01
    -32.410  0.0000E+00  0.4000E+01
    -32.267  0.0000E+00  0.4000E+01
    -32.124  0.0000E+00  0.4000E+01
    -31.981  0.0000E+00  0.4000E+01
    -31.838  0.0000E+00  0.4000E+01
    -31.696  0.0000E+00  0.4000E+01
    -31.553  0.0000E+00  0.4000E+01
    -31.410  0.0000E+00  0.4000E+01
    -31.267  0.0000E+00  0.4000E+01
    -31.125  0.0000E+00  0.4000E+01
    -30.982  0.0000E+00  0.4000E+01
    -30.839  0.0000E+00  0.4000E+01
    -30.696  0.0000E+00  0.4000E+01
    -30.553  0.0000E+00  0.4000E+01
    -30.411  0.0000E+00  0.4000E+01
    -30.268  0.0000E+00  0.4000E+01
    -30.125  0.0000E+00  0.4000E+01
    -29.982  0.0000E+00  0.4000E+01
    -29.839  0.0000E+00  0.4000E+01
    -29.697  0.0000E+00  0.4000E+01
    -29.554  0.0000E+00  0.4000E+01
    -29.411  0.0000E+00  0.4000E+01
    -29.268  0.0000E+00  0.4000E+01
    -29.125  0.0000E+00  0.4000E+01
    -28.983  0.0000E+00  0.4000E+01
    -28.840  0.0000E+00  0.4000E+01
    -28.697  0.0000E+00  0.4000E+01
    -28.554  0.0000E+00  0.4000E+01
    -28.411  0.0000E+00  0.4000E+01
    -28.269  0.0000E+00  0.4000E+01
    -28.126  0.0000E+00  0.4000E+01
    -27.983  0.0000E+00  0.4000E+01
    -27.840  0.0000E+00  0.4000E+01
    -27.697  0.0000E+00  0.4000E+01
    -27.555  0.0000E+00  0.4000E+01
    -27.412  0.0000E+00  0.4000E+01
    -27.269  0.0000E+00  0.4000E+01
    -27.126  0.0000E+00  0.4000E+01
    -26.983  0.0000E+00  0.4000E+01
    -26.841  0.0000E+00  0.4000E+01
    -26.698  0.0000E+00  0.4000E+01
    -26.555  0.0000E+00  0.4000E+01
    -26.412  0.0000E+00  0.4000E+01
    -26.270  0.0000E+00  0.4000E+01
    -26.127  0.0000E+00  0.4000E+01
    -25.984  0.0000E+00  0.4000E+01
    -25.841  0.0000E+00  0.4000E+01
    -25.698  0.0000E+00  0.4000E+01
    -25.556  0.0000E+00  0.4000E+01
    -25.413  0.0000E+00  0.4000E+01
    -25.270  0.0000E+00  0.4000E+01
    -25.127  0.0000E+00  0.4000E+01
    -24.984  0.0000E+00  0.4000E+01
    -24.842  0.0000E+00  0.4000E+01
    -24.699  0.0000E+00  0.4000E+01
    -24.556  0.0000E+00  0.4000E+01
    -24.413  0.0000E+00  0.4000E+01
    -24.270  0.0000E+00  0.4000E+01
    -24.128  0.0000E+00  0.4000E+01
    -23.985  0.0000E+00  0.4000E+01
    -23.842  0.0000E+00  0.4000E+01
    -23.699  0.0000E+00  0.4000E+01
    -23.556  0.0000E+00  0.4000E+01
    -23.414  0.0000E+00  0.4000E+01
    -23.271  0.0000E+00  0.4000E+01
    -23.128  0.0000E+00  0.4000E+01
    -22.985  0.0000E+00  0.4000E+01
    -22.842  0.0000E+00  0.4000E+01
    -22.700  0.0000E+00  0.4000E+01
    -22.557  0.0000E+00  0.4000E+01
    -22.414  0.0000E+00  0.4000E+01
    -22.271  0.0000E+00  0.4000E+01
    -22.129  0.0000E+00  0.4000E+01
    -21.986  0.0000E+00  0.4000E+01
    -21.843  0.0000E+00  0.4000E+01
    -21.700  0.0000E+00  0.4000E+01
    -21.557  0.0000E+00  0.4000E+01
    -21.415  0.0000E+00  0.4000E+01
    -21.272  0.0000E+00  0.4000E+01
    -21.129  0.0000E+00  0.4000E+01
    -20.986  0.0000E+00  0.4000E+01
    -20.843  0.0000E+00  0.4000E+01
    -20.701  0.0000E+00  0.4000E+01
    -20.558  0.0000E+00  0.4000E+01
    -20.415  0.0000E+00  0.4000E+01
    -20.272  0.0000E+00  0.4000E+01
    -20.129  0.0000E+00  0.4000E+01
    -19.987  0.0000E+00  0.4000E+01
    -19.844  0.0000E+00  0.4000E+01
    -19.701  0.0000E+00  0.4000E+01
    -19.558  0.0000E+00  0.4000E+01
    -19.415  0.0000E+00  0.4000E+01
    -19.273  0.0000E+00  0.4000E+01
    -19.130  0.0000E+00  0.4000E+01
    -18.987  0.0000E+00  0.4000E+01
    -18.844  0.0000E+00  0.4000E+01
    -18.701  0.0000E+00  0.4000E+01
    -18.559  0.0000E+00  0.4000E+01
    -18.416  0.0000E+00  0.4000E+01
    -18.273  0.0000E+00  0.4000E+01
    -18.130  0.0000E+00  0.4000E+01
    -17.988  0.0000E+00  0.4000E+01
    -17.845  0.0000E+00  0.4000E+01
    -17.702  0.0000E+00  0.4000E+01
    -17.559  0.0000E+00  0.4000E+01
    -17.416  0.4277E-06  0.4000E+01
    -17.274  0.1022E+01  0.4146E+01
    -17.131  0.4411E+02  0.1044E+02
    -16.988  0.3884E+02  0.1599E+02
    -16.845  0.6984E-01  0.1600E+02
    -16.702  0.4449E-09  0.1600E+02
    -16.560  0.0000E+00  0.1600E+02
    -16.417  0.0000E+00  0.1600E+02
    -16.274  0.0000E+00  0.1600E+02
    -16.131  0.0000E+00  0.1600E+02
    -15.988  0.0000E+00  0.1600E+02
    -15.846  0.0000E+00  0.1600E+02
    -15.703  0.0000E+00  0.1600E+02
    -15.560  0.0000E+00  0.1600E+02
    -15.417  0.0000E+00  0.1600E+02
    -15.274  0.0000E+00  0.1600E+02
    -15.132  0.0000E+00  0.1600E+02
    -14.989  0.0000E+00  0.1600E+02
    -14.846  0.0000E+00  0.1600E+02
    -14.703  0.0000E+00  0.1600E+02
    -14.560  0.0000E+00  0.1600E+02
    -14.418  0.0000E+00  0.1600E+02
    -14.275  0.0000E+00  0.1600E+02
    -14.132  0.0000E+00  0.1600E+02
    -13.989  0.0000E+00  0.1600E+02
    -13.847  0.0000E+00  0.1600E+02
    -13.704  0.0000E+00  0.1600E+02
    -13.561  0.0000E+00  0.1600E+02
    -13.418  0.0000E+00  0.1600E+02
    -13.275  0.0000E+00  0.1600E+02
    -13.133  0.0000E+00  0.1600E+02
    -12.990  0.0000E+00  0.1600E+02
    -12.847  0.0000E+00  0.1600E+02
    -12.704  0.0000E+00  0.1600E+02
    -12.561  0.0000E+00  0.1600E+02
    -12.419  0.0000E+00  0.1600E+02
    -12.276  0.0000E+00  0.1600E+02
    -12.133  0.0000E+00  0.1600E+02
    -11.990  0.0000E+00  0.1600E+02
    -11.847  0.0000E+00  0.1600E+02
    -11.705  0.0000E+00  0.1600E+02
    -11.562  0.0000E+00  0.1600E+02
    -11.419  0.0000E+00  0.1600E+02
    -11.276  0.0000E+00  0.1600E+02
    -11.133  0.0000E+00  0.1600E+02
    -10.991  0.0000E+00  0.1600E+02
    -10.848  0.0000E+00  0.1600E+02
    -10.705  0.0000E+00  0.1600E+02
    -10.562  0.0000E+00  0.1600E+02
    -10.419  0.0000E+00  0.1600E+02
    -10.277  0.0000E+00  0.1600E+02
    -10.134  0.0000E+00  0.1600E+02
     -9.991  0.0000E+00  0.1600E+02
     -9.848  0.0000E+00  0.1600E+02
     -9.705  0.0000E+00  0.1600E+02
     -9.563  0.0000E+00  0.1600E+02
     -9.420  0.0000E+00  0.1600E+02
     -9.277  0.0000E+00  0.1600E+02
     -9.134  0.0000E+00  0.1600E+02
     -8.992  0.0000E+00  0.1600E+02
     -8.849  0.0000E+00  0.1600E+02
     -8.706  0.0000E+00  0.1600E+02
     -8.563  0.0000E+00  0.1600E+02
     -8.420  0.0000E+00  0.1600E+02
     -8.278  0.0000E+00  0.1600E+02
     -8.135  0.0000E+00  0.1600E+02
     -7.992  0.0000E+00  0.1600E+02
     -7.849  0.0000E+00  0.1600E+02
     -7.706  0.0000E+00  0.1600E+02
     -7.564  0.0000E+00  0.1600E+02
     -7.421  0.0000E+00  0.1600E+02
     -7.278  0.0000E+00  0.1600E+02
     -7.135  0.0000E+00  0.1600E+02
     -6.992  0.0000E+00  0.1600E+02
     -6.850  0.0000E+00  0.1600E+02
     -6.707  0.0000E+00  0.1600E+02
     -6.564  0.0000E+00  0.1600E+02
     -6.421  0.0000E+00  0.1600E+02
     -6.278  0.0000E+00  0.1600E+02
     -6.136  0.0000E+00  0.1600E+02
     -5.993  0.0000E+00  0.1600E+02
     -5.850  0.0000E+00  0.1600E+02
     -5.707  0.0000E+00  0.1600E+02
     -5.564  0.0000E+00  0.1600E+02
     -5.422  0.0000E+00  0.1600E+02
     -5.279  0.0000E+00  0.1600E+02
     -5.136  0.0000E+00  0.1600E+02
     -4.993  0.0000E+00  0.1600E+02
     -4.851  0.0000E+00  0.1600E+02
     -4.708  0.0000E+00  0.1600E+02
     -4.565  0.0000E+00  0.1600E+02
     -4.422  0.0000E+00  0.1600E+02
     -4.279  0.0000E+00  0.1600E+02
     -4.137  0.0000E+00  0.1600E+02
     -3.994  0.0000E+00  0.1600E+02
     -3.851  0.0000E+00  0.1600E+02
     -3.708  0.0000E+00  0.1600E+02
     -3.565  0.0000E+00  0.1600E+02
     -3.423  0.0000E+00  0.1600E+02
     -3.280  0.0000E+00  0.1600E+02
     -3.137  0.0000E+00  0.1600E+02
     -2.994  0.0000E+00  0.1600E+02
     -2.851  0.0000E+00  0.1600E+02
     -2.709  0.0000E+00  0.1600E+02
     -2.566  0.0000E+00  0.1600E+02
     -2.423  0.0000E+00  0.1600E+02
     -2.280  0.7337E-07  0.1600E+02
     -2.137  0.1708E-01  0.1600E+02
     -1.995  0.5438E-01  0.1601E+02
     -1.852  0.2154E+00  0.1604E+02
     -1.709  0.3567E+00  0.1609E+02
     -1.566  0.6816E+00  0.1619E+02
     -1.423  0.1755E+00  0.1621E+02
     -1.281  0.2832E+00  0.1625E+02
     -1.138  0.3203E+00  0.1630E+02
     -0.995  0.1261E+01  0.1648E+02
     -0.852  0.1164E+01  0.1665E+02
     -0.710  0.5438E+00  0.1672E+02
     -0.567  0.1309E-02  0.1672E+02
     -0.424  0.7414E+00  0.1683E+02
     -0.281  0.1186E+01  0.1700E+02
     -0.138  0.2152E+01  0.1731E+02
      0.004  0.1095E+01  0.1746E+02
      0.147  0.8639E+00  0.1759E+02
      0.290  0.7500E+00  0.1769E+02
      0.433  0.2084E+01  0.1799E+02
      0.576  0.1587E+01  0.1822E+02
      0.718  0.2398E+01  0.1856E+02
      0.861  0.1093E+01  0.1872E+02
      1.004  0.1707E+01  0.1896E+02
      1.147  0.3365E+01  0.1944E+02
      1.290  0.1176E+01  0.1961E+02
      1.432  0.6210E+00  0.1970E+02
      1.575  0.3037E+01  0.2013E+02
      1.718  0.4721E+01  0.2081E+02
      1.861  0.6062E+01  0.2167E+02
      2.004  0.5910E+01  0.2251E+02
      2.146  0.3267E+01  0.2298E+02
      2.289  0.6449E+00  0.2307E+02
      2.432  0.1667E+01  0.2331E+02
      2.575  0.1166E+01  0.2348E+02
      2.718  0.1594E+01  0.2371E+02
      2.860  0.5633E+00  0.2379E+02
      3.003  0.2775E-03  0.2379E+02
      3.146  0.2803E+00  0.2383E+02
      3.289  0.9938E+00  0.2397E+02
      3.431  0.4595E-01  0.2397E+02
      3.574  0.1091E+00  0.2399E+02
      3.717  0.5135E-02  0.2399E+02
      3.860  0.6603E-01  0.2400E+02
      4.003  0.3632E-03  0.2400E+02
      4.145  0.1383E-11  0.2400E+02
      4.288  0.0000E+00  0.2400E+02
      4.431  0.0000E+00  0.2400E+02
      4.574  0.0000E+00  0.2400E+02
      4.717  0.0000E+00  0.2400E+02
      4.859  0.0000E+00  0.2400E+02
      5.002  0.0000E+00  0.2400E+02
      5.145  0.0000E+00  0.2400E+02
      5.288  0.0000E+00  0.2400E+02
      5.431  0.0000E+00  0.2400E+02
      5.573  0.0000E+00  0.2400E+02
      5.716  0.0000E+00  0.2400E+02
