Tl1 Au3                                 
   1.00000000000000     
     4.3260750000000003    0.0000000000000000    0.0000000000000000
     0.0000000000000000    4.3260750000000003    0.0000000000000000
     0.0000000000000000    0.0000000000000000    4.3260750000000003
   Tl   Au
     1     3
Direct
     0.0000000000000000    0.0000000000000000    0.0000000000000000
     0.0000000000000000    0.5000000000000000    0.5000000000000000
     0.5000000000000000    0.0000000000000000    0.5000000000000000
     0.5000000000000000    0.5000000000000000    0.0000000000000000
 
  0.00000000E+00  0.00000000E+00  0.00000000E+00
  0.00000000E+00  0.00000000E+00  0.00000000E+00
  0.00000000E+00  0.00000000E+00  0.00000000E+00
  0.00000000E+00  0.00000000E+00  0.00000000E+00
