   4   4   0   0
  0.2024054E+02  0.4326075E-09  0.4326075E-09  0.4326075E-09  0.5000000E-15
  1.000000000000000E-004
  CAR 
 unknown system                          
     24.21901666     -4.83021001  301      7.98334498      1.00000000
     -4.830  0.0000E+00  0.0000E+00
     -4.733  0.0000E+00  0.0000E+00
     -4.637  0.0000E+00  0.0000E+00
     -4.540  0.0000E+00  0.0000E+00
     -4.443  0.0000E+00  0.0000E+00
     -4.346  0.0000E+00  0.0000E+00
     -4.249  0.0000E+00  0.0000E+00
     -4.152  0.0000E+00  0.0000E+00
     -4.056  0.0000E+00  0.0000E+00
     -3.959  0.0000E+00  0.0000E+00
     -3.862  0.0000E+00  0.0000E+00
     -3.765  0.7770E-12  0.7523E-13
     -3.668  0.1416E-04  0.1371E-05
     -3.571  0.2371E+00  0.2296E-01
     -3.475  0.1557E+02  0.1530E+01
     -3.378  0.5946E+02  0.7288E+01
     -3.281  0.2498E+02  0.9707E+01
     -3.184  0.3017E+01  0.9999E+01
     -3.087  0.8012E-02  0.1000E+02
     -2.990  0.3399E-07  0.1000E+02
     -2.894  0.0000E+00  0.1000E+02
     -2.797  0.0000E+00  0.1000E+02
     -2.700  0.0000E+00  0.1000E+02
     -2.603  0.0000E+00  0.1000E+02
     -2.506  0.0000E+00  0.1000E+02
     -2.409  0.0000E+00  0.1000E+02
     -2.313  0.0000E+00  0.1000E+02
     -2.216  0.0000E+00  0.1000E+02
     -2.119  0.0000E+00  0.1000E+02
     -2.022  0.0000E+00  0.1000E+02
     -1.925  0.0000E+00  0.1000E+02
     -1.828  0.1411E-11  0.1000E+02
     -1.732  0.9775E-05  0.1000E+02
     -1.635  0.5403E-01  0.1001E+02
     -1.538  0.6326E+00  0.1007E+02
     -1.441  0.7834E-01  0.1007E+02
     -1.344  0.2357E-04  0.1007E+02
     -1.247  0.9418E-06  0.1007E+02
     -1.151  0.3260E-01  0.1008E+02
     -1.054  0.1592E+01  0.1023E+02
     -0.957  0.6692E+00  0.1030E+02
     -0.860  0.1166E-02  0.1030E+02
     -0.763  0.8387E-05  0.1030E+02
     -0.666  0.9277E-01  0.1031E+02
     -0.570  0.1834E+01  0.1048E+02
     -0.473  0.3678E+00  0.1052E+02
     -0.376  0.2185E-03  0.1052E+02
     -0.279  0.1648E-01  0.1052E+02
     -0.182  0.1624E+01  0.1068E+02
     -0.086  0.1411E+01  0.1081E+02
      0.011  0.8738E-02  0.1081E+02
      0.108  0.4922E+00  0.1086E+02
      0.205  0.3790E+01  0.1123E+02
      0.302  0.7451E+00  0.1130E+02
      0.399  0.2493E+01  0.1154E+02
      0.495  0.1602E+01  0.1170E+02
      0.592  0.1452E+01  0.1184E+02
      0.689  0.1628E+01  0.1200E+02
      0.786  0.3685E-01  0.1200E+02
      0.883  0.1207E-05  0.1200E+02
      0.980  0.2905E-13  0.1200E+02
      1.076  0.0000E+00  0.1200E+02
      1.173  0.0000E+00  0.1200E+02
      1.270  0.0000E+00  0.1200E+02
      1.367  0.3379E-10  0.1200E+02
      1.464  0.1057E-03  0.1200E+02
      1.561  0.2768E+00  0.1203E+02
      1.657  0.1884E+01  0.1221E+02
      1.754  0.1344E+00  0.1222E+02
      1.851  0.1052E+00  0.1223E+02
      1.948  0.4132E+01  0.1263E+02
      2.045  0.3799E+01  0.1300E+02
      2.142  0.1580E+01  0.1315E+02
      2.238  0.4664E+01  0.1360E+02
      2.335  0.3447E+01  0.1394E+02
      2.432  0.6396E+00  0.1400E+02
      2.529  0.1623E+01  0.1416E+02
      2.626  0.3760E+01  0.1452E+02
      2.723  0.3719E+01  0.1488E+02
      2.819  0.6762E+01  0.1554E+02
      2.916  0.7923E+01  0.1630E+02
      3.013  0.7705E+01  0.1705E+02
      3.110  0.1287E+02  0.1830E+02
      3.207  0.1226E+02  0.1948E+02
      3.304  0.1035E+02  0.2049E+02
      3.400  0.8032E+01  0.2126E+02
      3.497  0.7262E+01  0.2197E+02
      3.594  0.7975E+01  0.2274E+02
      3.691  0.9415E+01  0.2365E+02
      3.788  0.1311E+02  0.2492E+02
      3.885  0.9011E+01  0.2579E+02
      3.981  0.8395E+01  0.2661E+02
      4.078  0.9580E+01  0.2753E+02
      4.175  0.7454E+01  0.2826E+02
      4.272  0.7562E+01  0.2899E+02
      4.369  0.6448E+01  0.2961E+02
      4.466  0.5529E+01  0.3015E+02
      4.562  0.9165E+01  0.3103E+02
      4.659  0.1057E+02  0.3206E+02
      4.756  0.1510E+02  0.3352E+02
      4.853  0.1676E+02  0.3514E+02
      4.950  0.1210E+02  0.3632E+02
      5.047  0.1066E+02  0.3735E+02
      5.143  0.1029E+02  0.3834E+02
      5.240  0.7503E+01  0.3907E+02
      5.337  0.5467E+01  0.3960E+02
      5.434  0.6566E+01  0.4024E+02
      5.531  0.4619E+01  0.4068E+02
      5.628  0.6865E+01  0.4135E+02
      5.724  0.7980E+01  0.4212E+02
      5.821  0.4325E+01  0.4254E+02
      5.918  0.4962E+01  0.4302E+02
      6.015  0.4168E+01  0.4342E+02
      6.112  0.1423E+01  0.4356E+02
      6.208  0.1782E+01  0.4373E+02
      6.305  0.4561E+00  0.4378E+02
      6.402  0.4249E-03  0.4378E+02
      6.499  0.9409E-01  0.4379E+02
      6.596  0.6271E+00  0.4385E+02
      6.693  0.4374E-01  0.4385E+02
      6.789  0.5912E-01  0.4386E+02
      6.886  0.1731E+01  0.4403E+02
      6.983  0.1632E+01  0.4418E+02
      7.080  0.3261E+01  0.4450E+02
      7.177  0.2018E+00  0.4452E+02
      7.274  0.4915E+00  0.4457E+02
      7.370  0.2363E+01  0.4480E+02
      7.467  0.2384E+00  0.4482E+02
      7.564  0.1605E+01  0.4497E+02
      7.661  0.8579E+00  0.4506E+02
      7.758  0.4128E+01  0.4546E+02
      7.855  0.2909E+01  0.4574E+02
      7.951  0.1665E+01  0.4590E+02
      8.048  0.3093E+01  0.4620E+02
      8.145  0.2440E+00  0.4622E+02
      8.242  0.1684E+00  0.4624E+02
      8.339  0.5785E+00  0.4629E+02
      8.436  0.6145E+00  0.4635E+02
      8.532  0.2142E+01  0.4656E+02
      8.629  0.1792E+01  0.4674E+02
      8.726  0.8316E+00  0.4682E+02
      8.823  0.1541E+01  0.4696E+02
      8.920  0.2958E+01  0.4725E+02
      9.017  0.2141E+01  0.4746E+02
      9.113  0.3559E+01  0.4780E+02
      9.210  0.5189E+00  0.4785E+02
      9.307  0.1376E+01  0.4799E+02
      9.404  0.9467E+00  0.4808E+02
      9.501  0.1188E+01  0.4819E+02
      9.598  0.3101E+00  0.4822E+02
      9.694  0.1276E+01  0.4835E+02
      9.791  0.1024E+01  0.4845E+02
      9.888  0.1469E+01  0.4859E+02
      9.985  0.8070E+00  0.4867E+02
     10.082  0.2172E-02  0.4867E+02
     10.179  0.2427E+00  0.4869E+02
     10.275  0.1896E+01  0.4887E+02
     10.372  0.1679E+00  0.4889E+02
     10.469  0.5353E+00  0.4894E+02
     10.566  0.2306E+00  0.4896E+02
     10.663  0.1314E+01  0.4909E+02
     10.760  0.1111E+01  0.4920E+02
     10.856  0.5753E+01  0.4976E+02
     10.953  0.4373E+01  0.5018E+02
     11.050  0.1874E+01  0.5036E+02
     11.147  0.1048E+00  0.5037E+02
     11.244  0.4953E+00  0.5042E+02
     11.341  0.3173E+00  0.5045E+02
     11.437  0.1859E+01  0.5063E+02
     11.534  0.4814E+01  0.5110E+02
     11.631  0.1684E+01  0.5126E+02
     11.728  0.3313E-02  0.5126E+02
     11.825  0.2357E+00  0.5128E+02
     11.922  0.1898E+01  0.5147E+02
     12.018  0.3659E+00  0.5150E+02
     12.115  0.1254E+01  0.5162E+02
     12.212  0.2002E+01  0.5182E+02
     12.309  0.2634E+01  0.5207E+02
     12.406  0.2557E-01  0.5207E+02
     12.502  0.3014E-06  0.5207E+02
     12.599  0.2394E-04  0.5207E+02
     12.696  0.1534E+00  0.5209E+02
     12.793  0.2938E+01  0.5237E+02
     12.890  0.1489E+01  0.5252E+02
     12.987  0.7789E-01  0.5253E+02
     13.083  0.2938E+01  0.5281E+02
     13.180  0.1578E+01  0.5296E+02
     13.277  0.6206E+00  0.5302E+02
     13.374  0.5288E+01  0.5353E+02
     13.471  0.9806E+00  0.5363E+02
     13.568  0.1444E-02  0.5363E+02
     13.664  0.5242E+00  0.5368E+02
     13.761  0.4015E+01  0.5407E+02
     13.858  0.2333E+01  0.5430E+02
     13.955  0.2054E+01  0.5449E+02
     14.052  0.3448E+00  0.5453E+02
     14.149  0.1831E+01  0.5470E+02
     14.245  0.3721E+00  0.5474E+02
     14.342  0.2307E-03  0.5474E+02
     14.439  0.7880E-01  0.5475E+02
     14.536  0.2193E+01  0.5496E+02
     14.633  0.3785E+01  0.5533E+02
     14.730  0.2455E+01  0.5556E+02
     14.826  0.6683E+00  0.5563E+02
     14.923  0.1028E+01  0.5573E+02
     15.020  0.3453E+01  0.5606E+02
     15.117  0.6157E+00  0.5612E+02
     15.214  0.2254E+01  0.5634E+02
     15.311  0.1166E+01  0.5645E+02
     15.407  0.3672E+01  0.5681E+02
     15.504  0.1983E+01  0.5700E+02
     15.601  0.3698E+00  0.5704E+02
     15.698  0.8784E+00  0.5712E+02
     15.795  0.7843E+00  0.5720E+02
     15.892  0.2467E+01  0.5744E+02
     15.988  0.8161E+00  0.5752E+02
     16.085  0.1837E+01  0.5769E+02
     16.182  0.2103E+00  0.5771E+02
     16.279  0.2433E+01  0.5795E+02
     16.376  0.2355E+01  0.5818E+02
     16.473  0.5230E+01  0.5869E+02
     16.569  0.5017E+01  0.5917E+02
     16.666  0.1630E+00  0.5919E+02
     16.763  0.1944E+01  0.5937E+02
     16.860  0.3405E+01  0.5970E+02
     16.957  0.5678E+01  0.6025E+02
     17.054  0.1126E+01  0.6036E+02
     17.150  0.1571E+00  0.6038E+02
     17.247  0.1831E+01  0.6056E+02
     17.344  0.2509E+01  0.6080E+02
     17.441  0.2448E+01  0.6104E+02
     17.538  0.1428E+01  0.6117E+02
     17.635  0.3526E+01  0.6152E+02
     17.731  0.2189E+01  0.6173E+02
     17.828  0.1931E+01  0.6191E+02
     17.925  0.1189E+00  0.6193E+02
     18.022  0.6539E+00  0.6199E+02
     18.119  0.3718E+01  0.6235E+02
     18.216  0.2179E+00  0.6237E+02
     18.312  0.1222E+00  0.6238E+02
     18.409  0.3123E+01  0.6268E+02
     18.506  0.3389E+01  0.6301E+02
     18.603  0.3139E+01  0.6332E+02
     18.700  0.1665E+01  0.6348E+02
     18.796  0.1052E+01  0.6358E+02
     18.893  0.3931E+01  0.6396E+02
     18.990  0.1169E+01  0.6407E+02
     19.087  0.6651E+00  0.6414E+02
     19.184  0.3718E+01  0.6450E+02
     19.281  0.1440E+01  0.6464E+02
     19.377  0.2293E+01  0.6486E+02
     19.474  0.1655E+01  0.6502E+02
     19.571  0.4193E+00  0.6506E+02
     19.668  0.1896E+01  0.6524E+02
     19.765  0.1573E+00  0.6526E+02
     19.862  0.1943E+00  0.6528E+02
     19.958  0.3683E+01  0.6563E+02
     20.055  0.7321E+00  0.6571E+02
     20.152  0.3248E+01  0.6602E+02
     20.249  0.3621E+01  0.6637E+02
     20.346  0.4520E+01  0.6681E+02
     20.443  0.6777E+01  0.6746E+02
     20.539  0.2128E+01  0.6767E+02
     20.636  0.3409E+00  0.6770E+02
     20.733  0.1826E-03  0.6770E+02
     20.830  0.6296E-01  0.6771E+02
     20.927  0.2158E+01  0.6792E+02
     21.024  0.2364E+01  0.6815E+02
     21.120  0.7151E+00  0.6822E+02
     21.217  0.5451E-01  0.6822E+02
     21.314  0.6679E-01  0.6823E+02
     21.411  0.3004E+01  0.6852E+02
     21.508  0.3529E+01  0.6886E+02
     21.605  0.4330E+01  0.6928E+02
     21.701  0.3289E+01  0.6960E+02
     21.798  0.2417E+01  0.6983E+02
     21.895  0.2152E+00  0.6985E+02
     21.992  0.1844E+01  0.7003E+02
     22.089  0.2493E+01  0.7027E+02
     22.186  0.1974E+01  0.7047E+02
     22.282  0.2734E+01  0.7073E+02
     22.379  0.3368E+01  0.7106E+02
     22.476  0.1937E+01  0.7124E+02
     22.573  0.2800E+01  0.7151E+02
     22.670  0.4228E+00  0.7156E+02
     22.767  0.7385E-03  0.7156E+02
     22.863  0.7323E+00  0.7163E+02
     22.960  0.3670E+01  0.7198E+02
     23.057  0.1867E+00  0.7200E+02
     23.154  0.1700E-04  0.7200E+02
     23.251  0.1189E-11  0.7200E+02
     23.348  0.0000E+00  0.7200E+02
     23.444  0.0000E+00  0.7200E+02
     23.541  0.0000E+00  0.7200E+02
     23.638  0.0000E+00  0.7200E+02
     23.735  0.0000E+00  0.7200E+02
     23.832  0.0000E+00  0.7200E+02
     23.929  0.0000E+00  0.7200E+02
     24.025  0.0000E+00  0.7200E+02
     24.122  0.0000E+00  0.7200E+02
     24.219  0.0000E+00  0.7200E+02
