       N       E                     dE             d eps       ncg     rms          rms(c)
DAV:   1     0.315651322379E+03    0.31565E+03   -0.25255E+04 15560   0.137E+03
DAV:   2    -0.320188202355E+01   -0.31885E+03   -0.29923E+03 16508   0.321E+02
DAV:   3    -0.121954711837E+02   -0.89936E+01   -0.88897E+01 17580   0.520E+01
DAV:   4    -0.122552860732E+02   -0.59815E-01   -0.59788E-01 17260   0.438E+00
DAV:   5    -0.122559644356E+02   -0.67836E-03   -0.67836E-03 16996   0.508E-01    0.124E+01
DAV:   6    -0.114662363615E+02    0.78973E+00   -0.18718E+00 16688   0.864E+00    0.807E+00
DAV:   7    -0.114297500644E+02    0.36486E-01   -0.66375E-02 17232   0.161E+00    0.437E+00
DAV:   8    -0.114238307492E+02    0.59193E-02   -0.10339E-02 16856   0.633E-01    0.203E-01
DAV:   9    -0.114230816608E+02    0.74909E-03   -0.30165E-03 16364   0.351E-01    0.661E-02
DAV:  10    -0.114230979387E+02   -0.16278E-04   -0.10246E-04 17632   0.523E-02    0.341E-02
DAV:  11    -0.114231101641E+02   -0.12225E-04   -0.19277E-05 16852   0.283E-02    0.116E-02
DAV:  12    -0.114231102412E+02   -0.77172E-07   -0.22441E-06 14848   0.995E-03
   1 F= -.11423110E+02 E0= -.11420657E+02  d E =-.490636E-02
