Cs4 S2                                  
   1.00000000000000     
    -2.9236529999999998   -5.0636219999999996   -0.0000110000000000
    -5.8473110000000004    0.0000040000000000   -0.0000070000000000
    -0.0000100000000000   -0.0000120000000000   -8.2234960000000008
   Cs   S 
     4     2
Direct
     0.0000020000000021    0.9999979999999979    0.5000000000000000
     0.0000000000000000    0.0000009999999975    0.0000009999999975
     0.6666820000000016    0.6666590000000028    0.7499889999999994
     0.3333179999999984    0.3333420000000018    0.2500119999999981
     0.3333609999999965    0.3333200000000005    0.7499869999999973
     0.6666379999999990    0.6666799999999995    0.2500110000000006
 
  0.00000000E+00  0.00000000E+00  0.00000000E+00
  0.00000000E+00  0.00000000E+00  0.00000000E+00
  0.00000000E+00  0.00000000E+00  0.00000000E+00
  0.00000000E+00  0.00000000E+00  0.00000000E+00
  0.00000000E+00  0.00000000E+00  0.00000000E+00
  0.00000000E+00  0.00000000E+00  0.00000000E+00
