       N       E                     dE             d eps       ncg     rms          rms(c)
DAV:   1     0.371510715743E+03    0.37151E+03   -0.21364E+04  4200   0.161E+03
DAV:   2     0.172999556631E+02   -0.35421E+03   -0.34612E+03  6040   0.245E+02
DAV:   3    -0.199076273877E+02   -0.37208E+02   -0.37126E+02  4840   0.890E+01
DAV:   4    -0.205610201997E+02   -0.65339E+00   -0.65185E+00  4796   0.142E+01
DAV:   5    -0.205755697192E+02   -0.14550E-01   -0.14537E-01  4872   0.190E+00    0.586E+00
DAV:   6    -0.174310508714E+02    0.31445E+01   -0.87722E+00  4656   0.836E+00    0.460E+00
DAV:   7    -0.172228489981E+02    0.20820E+00   -0.18783E+00  5340   0.449E+00    0.240E+00
DAV:   8    -0.172068350051E+02    0.16014E-01   -0.14844E-01  4992   0.163E+00    0.638E-01
DAV:   9    -0.172004063858E+02    0.64286E-02   -0.19839E-01  5292   0.182E+00    0.772E-01
DAV:  10    -0.172024766580E+02   -0.20703E-02   -0.14593E-02  4784   0.524E-01    0.942E-01
DAV:  11    -0.172000259404E+02    0.24507E-02   -0.13678E-03  5356   0.143E-01    0.841E-01
DAV:  12    -0.171971044639E+02    0.29215E-02   -0.12930E-02  4640   0.369E-01    0.557E-01
DAV:  13    -0.171971680860E+02   -0.63622E-04   -0.11731E-03  4768   0.147E-01    0.537E-01
DAV:  14    -0.171970980106E+02    0.70075E-04   -0.27093E-05  5072   0.258E-02    0.499E-01
DAV:  15    -0.171968753014E+02    0.22271E-03   -0.10668E-04  4756   0.372E-02    0.441E-01
DAV:  16    -0.171967282308E+02    0.14707E-03   -0.52628E-05  4644   0.319E-02    0.381E-01
DAV:  17    -0.171965061132E+02    0.22212E-03   -0.11729E-04  5216   0.461E-02    0.289E-01
DAV:  18    -0.171962573094E+02    0.24880E-03   -0.34758E-04  5216   0.796E-02    0.134E-01
DAV:  19    -0.171962058117E+02    0.51498E-04   -0.10747E-04  5148   0.426E-02    0.904E-02
DAV:  20    -0.171961946999E+02    0.11112E-04   -0.11540E-05  4736   0.159E-02    0.611E-02
DAV:  21    -0.171961839139E+02    0.10786E-04   -0.37238E-05  4704   0.245E-02    0.184E-02
DAV:  22    -0.171961842697E+02   -0.35585E-06   -0.69730E-06  4728   0.116E-02
   1 F= -.17196184E+02 E0= -.17196184E+02  d E =-.216769E-13
