   1   1   0   0
  0.1084154E+02  0.2484289E-09  0.2484289E-09  0.2484288E-09  0.5000000E-15
  1.000000000000000E-004
  CAR 
 unknown system                          
     53.13997601     -1.12415688  301     10.35702984      1.00000000
     -1.124  0.0000E+00  0.0000E+00  0.0000E+00  0.0000E+00
     -0.943  0.0000E+00  0.0000E+00  0.0000E+00  0.0000E+00
     -0.762  0.0000E+00  0.0000E+00  0.0000E+00  0.0000E+00
     -0.582  0.0000E+00  0.0000E+00  0.0000E+00  0.0000E+00
     -0.401  0.0000E+00  0.0000E+00  0.0000E+00  0.0000E+00
     -0.220  0.0000E+00  0.0000E+00  0.0000E+00  0.0000E+00
     -0.039  0.0000E+00  0.0000E+00  0.0000E+00  0.0000E+00
      0.142  0.0000E+00  0.0000E+00  0.0000E+00  0.0000E+00
      0.323  0.0000E+00  0.0000E+00  0.0000E+00  0.0000E+00
      0.504  0.0000E+00  0.0000E+00  0.0000E+00  0.0000E+00
      0.685  0.0000E+00  0.0000E+00  0.0000E+00  0.0000E+00
      0.866  0.0000E+00  0.0000E+00  0.0000E+00  0.0000E+00
      1.046  0.1397E-18  0.0000E+00  0.2527E-19  0.0000E+00
      1.227  0.1423E-05  0.1694E-06  0.2574E-06  0.3065E-07
      1.408  0.2436E-02  0.2272E-02  0.4409E-03  0.4110E-03
      1.589  0.1322E-01  0.8384E-02  0.2832E-02  0.1927E-02
      1.770  0.2208E-01  0.2703E-01  0.6826E-02  0.6816E-02
      1.951  0.1177E-01  0.5292E-02  0.8954E-02  0.7774E-02
      2.132  0.2232E-01  0.2570E-01  0.1299E-01  0.1242E-01
      2.313  0.7549E-01  0.7540E-01  0.2665E-01  0.2606E-01
      2.493  0.1941E-02  0.4477E-02  0.2700E-01  0.2687E-01
      2.674  0.1474E-01  0.1495E-01  0.2966E-01  0.2957E-01
      2.855  0.1035E+00  0.7632E-01  0.4838E-01  0.4338E-01
      3.036  0.1924E-01  0.4457E-01  0.5186E-01  0.5144E-01
      3.217  0.5934E-01  0.5877E-01  0.6259E-01  0.6207E-01
      3.398  0.7901E-01  0.7219E-01  0.7688E-01  0.7513E-01
      3.579  0.1946E-02  0.9922E-02  0.7724E-01  0.7692E-01
      3.760  0.4069E-01  0.2870E-01  0.8460E-01  0.8212E-01
      3.940  0.1839E+00  0.1530E+00  0.1179E+00  0.1098E+00
      4.121  0.5294E-01  0.4537E-01  0.1274E+00  0.1180E+00
      4.302  0.1064E+00  0.6615E-01  0.1467E+00  0.1300E+00
      4.483  0.4230E-01  0.1082E+00  0.1543E+00  0.1495E+00
      4.664  0.7778E-01  0.2616E-01  0.1684E+00  0.1543E+00
      4.845  0.2489E+00  0.7217E-01  0.2134E+00  0.1673E+00
      5.026  0.2300E+00  0.1155E+00  0.2550E+00  0.1882E+00
      5.207  0.3162E+00  0.1793E+00  0.3122E+00  0.2206E+00
      5.388  0.4706E+00  0.1284E+00  0.3973E+00  0.2439E+00
      5.568  0.6243E+00  0.1086E+00  0.5103E+00  0.2635E+00
      5.749  0.7206E+00  0.1059E+00  0.6406E+00  0.2826E+00
      5.930  0.7700E+00  0.1105E+00  0.7799E+00  0.3026E+00
      6.111  0.9268E+00  0.4608E+00  0.9475E+00  0.3860E+00
      6.292  0.9081E+00  0.2876E+00  0.1112E+01  0.4380E+00
      6.473  0.8779E+00  0.4798E+00  0.1271E+01  0.5248E+00
      6.654  0.8702E+00  0.3482E+00  0.1428E+01  0.5878E+00
      6.835  0.7844E+00  0.4007E+00  0.1570E+01  0.6603E+00
      7.015  0.8617E+00  0.6986E+00  0.1726E+01  0.7866E+00
      7.196  0.8684E+00  0.5182E+00  0.1883E+01  0.8803E+00
      7.377  0.1199E+01  0.6542E+00  0.2100E+01  0.9987E+00
      7.558  0.1210E+01  0.9343E+00  0.2318E+01  0.1168E+01
      7.739  0.1639E+01  0.7090E+00  0.2615E+01  0.1296E+01
      7.920  0.1625E+01  0.6555E+00  0.2909E+01  0.1414E+01
      8.101  0.1167E+01  0.6854E+00  0.3120E+01  0.1538E+01
      8.282  0.1033E+01  0.8030E+00  0.3307E+01  0.1684E+01
      8.463  0.1142E+01  0.7598E+00  0.3513E+01  0.1821E+01
      8.643  0.1561E+01  0.1075E+01  0.3796E+01  0.2016E+01
      8.824  0.9347E+00  0.8340E+00  0.3965E+01  0.2166E+01
      9.005  0.1329E+01  0.1156E+01  0.4205E+01  0.2376E+01
      9.186  0.8736E+00  0.8972E+00  0.4363E+01  0.2538E+01
      9.367  0.1213E+01  0.1137E+01  0.4583E+01  0.2743E+01
      9.548  0.1444E+01  0.1300E+01  0.4844E+01  0.2979E+01
      9.729  0.1488E+01  0.1029E+01  0.5113E+01  0.3165E+01
      9.910  0.8973E+00  0.7668E+00  0.5275E+01  0.3303E+01
     10.090  0.1327E+00  0.7406E+00  0.5299E+01  0.3437E+01
     10.271  0.4357E-01  0.8104E+00  0.5307E+01  0.3584E+01
     10.452  0.7079E-01  0.9765E+00  0.5320E+01  0.3760E+01
     10.633  0.9628E-01  0.9805E+00  0.5337E+01  0.3938E+01
     10.814  0.2487E+00  0.1472E+01  0.5382E+01  0.4204E+01
     10.995  0.2113E+00  0.6282E+00  0.5421E+01  0.4318E+01
     11.176  0.1764E+00  0.1111E+01  0.5452E+01  0.4519E+01
     11.357  0.1183E+00  0.1369E+01  0.5474E+01  0.4766E+01
     11.537  0.2510E-01  0.1971E+01  0.5478E+01  0.5123E+01
     11.718  0.5473E-01  0.1026E+01  0.5488E+01  0.5308E+01
     11.899  0.2066E+00  0.1091E+00  0.5526E+01  0.5328E+01
     12.080  0.1232E+00  0.2001E-01  0.5548E+01  0.5332E+01
     12.261  0.2176E+00  0.2055E+00  0.5587E+01  0.5369E+01
     12.442  0.6813E-01  0.4406E+00  0.5600E+01  0.5449E+01
     12.623  0.2384E+00  0.1804E+00  0.5643E+01  0.5481E+01
     12.804  0.6419E-01  0.6697E-01  0.5654E+01  0.5493E+01
     12.985  0.1923E-01  0.2344E+00  0.5658E+01  0.5536E+01
     13.165  0.1107E+00  0.6077E-01  0.5678E+01  0.5547E+01
     13.346  0.1548E+00  0.5818E-01  0.5706E+01  0.5557E+01
     13.527  0.1539E+00  0.2430E+00  0.5734E+01  0.5601E+01
     13.708  0.1090E+00  0.2678E+00  0.5753E+01  0.5650E+01
     13.889  0.4754E-01  0.1178E+00  0.5762E+01  0.5671E+01
     14.070  0.2080E+00  0.1859E+00  0.5800E+01  0.5705E+01
     14.251  0.5126E-01  0.6356E-01  0.5809E+01  0.5716E+01
     14.432  0.1773E+00  0.1321E+00  0.5841E+01  0.5740E+01
     14.612  0.3577E-02  0.1029E+00  0.5842E+01  0.5759E+01
     14.793  0.4422E-01  0.6756E-01  0.5850E+01  0.5771E+01
     14.974  0.1446E+00  0.1923E+00  0.5876E+01  0.5806E+01
     15.155  0.1735E+00  0.2482E-01  0.5907E+01  0.5810E+01
     15.336  0.9603E-04  0.2315E+00  0.5907E+01  0.5852E+01
     15.517  0.8002E-01  0.3643E-02  0.5922E+01  0.5853E+01
     15.698  0.4101E-01  0.1689E+00  0.5929E+01  0.5883E+01
     15.879  0.6483E-01  0.1325E+00  0.5941E+01  0.5907E+01
     16.059  0.2552E-01  0.1322E-02  0.5945E+01  0.5907E+01
     16.240  0.5134E-01  0.1194E+00  0.5955E+01  0.5929E+01
     16.421  0.3794E-01  0.4724E-02  0.5962E+01  0.5930E+01
     16.602  0.1374E+00  0.8626E-01  0.5986E+01  0.5945E+01
     16.783  0.1165E+00  0.6638E-04  0.6007E+01  0.5945E+01
     16.964  0.1761E+00  0.5668E-01  0.6039E+01  0.5956E+01
     17.145  0.1657E+00  0.9068E-01  0.6069E+01  0.5972E+01
     17.326  0.1767E+00  0.8223E-01  0.6101E+01  0.5987E+01
     17.507  0.1082E+00  0.1822E-01  0.6121E+01  0.5990E+01
     17.687  0.1409E+00  0.1937E+00  0.6146E+01  0.6025E+01
     17.868  0.2897E+00  0.1502E+00  0.6199E+01  0.6052E+01
     18.049  0.3716E-01  0.2724E+00  0.6205E+01  0.6102E+01
     18.230  0.9259E-01  0.7582E-01  0.6222E+01  0.6115E+01
     18.411  0.6452E-01  0.2818E+00  0.6234E+01  0.6166E+01
     18.592  0.3898E-01  0.1608E+00  0.6241E+01  0.6195E+01
     18.773  0.1725E+00  0.7169E-01  0.6272E+01  0.6208E+01
     18.954  0.1305E+00  0.7788E-01  0.6296E+01  0.6222E+01
     19.134  0.2922E+00  0.8231E-01  0.6349E+01  0.6237E+01
     19.315  0.4018E-01  0.1259E+00  0.6356E+01  0.6260E+01
     19.496  0.8697E-01  0.1966E+00  0.6372E+01  0.6296E+01
     19.677  0.1811E+00  0.2398E+00  0.6404E+01  0.6339E+01
     19.858  0.1333E+00  0.7936E-01  0.6428E+01  0.6353E+01
     20.039  0.9417E-01  0.3307E-01  0.6445E+01  0.6359E+01
     20.220  0.1038E+00  0.2490E+00  0.6464E+01  0.6404E+01
     20.401  0.1013E+00  0.1460E+00  0.6483E+01  0.6431E+01
     20.581  0.1305E+00  0.1359E-01  0.6506E+01  0.6433E+01
     20.762  0.2770E+00  0.5048E-01  0.6556E+01  0.6442E+01
     20.943  0.6166E-01  0.2179E+00  0.6567E+01  0.6482E+01
     21.124  0.2354E+00  0.1799E-01  0.6610E+01  0.6485E+01
     21.305  0.1341E+00  0.2323E+00  0.6634E+01  0.6527E+01
     21.486  0.1470E+00  0.1633E+00  0.6661E+01  0.6557E+01
     21.667  0.2373E+00  0.2209E+00  0.6704E+01  0.6597E+01
     21.848  0.2040E+00  0.1251E+00  0.6741E+01  0.6619E+01
     22.029  0.1885E+00  0.3120E+00  0.6775E+01  0.6676E+01
     22.209  0.2012E+00  0.1897E+00  0.6811E+01  0.6710E+01
     22.390  0.1469E+00  0.1191E+00  0.6838E+01  0.6732E+01
     22.571  0.1247E+00  0.2609E+00  0.6860E+01  0.6779E+01
     22.752  0.2477E+00  0.2417E+00  0.6905E+01  0.6822E+01
     22.933  0.3252E+00  0.8931E-01  0.6964E+01  0.6839E+01
     23.114  0.9159E-01  0.1195E+00  0.6980E+01  0.6860E+01
     23.295  0.1356E+00  0.3881E+00  0.7005E+01  0.6930E+01
     23.476  0.1212E+00  0.2732E+00  0.7027E+01  0.6980E+01
     23.656  0.2046E+00  0.6798E-01  0.7064E+01  0.6992E+01
     23.837  0.1762E+00  0.8637E-01  0.7096E+01  0.7008E+01
     24.018  0.1806E+00  0.1789E+00  0.7128E+01  0.7040E+01
     24.199  0.1351E+00  0.2520E+00  0.7153E+01  0.7086E+01
     24.380  0.2693E+00  0.1864E+00  0.7202E+01  0.7119E+01
     24.561  0.4273E+00  0.1054E+00  0.7279E+01  0.7139E+01
     24.742  0.2272E+00  0.2821E+00  0.7320E+01  0.7190E+01
     24.923  0.1518E+00  0.3504E+00  0.7347E+01  0.7253E+01
     25.104  0.1077E-01  0.3794E+00  0.7349E+01  0.7322E+01
     25.284  0.2590E+00  0.1052E+00  0.7396E+01  0.7341E+01
     25.465  0.1775E+00  0.6388E-01  0.7428E+01  0.7352E+01
     25.646  0.1931E+00  0.2305E+00  0.7463E+01  0.7394E+01
     25.827  0.3452E+00  0.1809E+00  0.7526E+01  0.7427E+01
     26.008  0.2742E+00  0.1645E+00  0.7575E+01  0.7456E+01
     26.189  0.9750E-01  0.4406E+00  0.7593E+01  0.7536E+01
     26.370  0.2690E+00  0.1616E+00  0.7642E+01  0.7565E+01
     26.551  0.2830E+00  0.2036E+00  0.7693E+01  0.7602E+01
     26.731  0.1858E+00  0.2555E+00  0.7726E+01  0.7648E+01
     26.912  0.3387E-01  0.2629E+00  0.7733E+01  0.7696E+01
     27.093  0.1429E+00  0.1414E+00  0.7758E+01  0.7721E+01
     27.274  0.3711E+00  0.6686E-01  0.7826E+01  0.7734E+01
     27.455  0.3554E+00  0.2175E+00  0.7890E+01  0.7773E+01
     27.636  0.1681E+00  0.4043E+00  0.7920E+01  0.7846E+01
     27.817  0.1684E+00  0.3291E+00  0.7951E+01  0.7906E+01
     27.998  0.7376E-01  0.1603E+00  0.7964E+01  0.7935E+01
     28.178  0.1370E+00  0.9008E-01  0.7989E+01  0.7951E+01
     28.359  0.1090E+00  0.1122E+00  0.8009E+01  0.7971E+01
     28.540  0.2835E+00  0.1395E+00  0.8060E+01  0.7996E+01
     28.721  0.6062E-01  0.9826E-01  0.8071E+01  0.8014E+01
     28.902  0.1637E+00  0.2603E+00  0.8100E+01  0.8061E+01
     29.083  0.2803E+00  0.5723E-01  0.8151E+01  0.8072E+01
     29.264  0.4672E+00  0.2358E+00  0.8236E+01  0.8114E+01
     29.445  0.1107E+00  0.5604E+00  0.8256E+01  0.8216E+01
     29.626  0.9194E-01  0.1673E+00  0.8272E+01  0.8246E+01
     29.806  0.1733E+00  0.6215E-01  0.8304E+01  0.8257E+01
     29.987  0.1228E+00  0.2440E+00  0.8326E+01  0.8301E+01
     30.168  0.1138E+00  0.7087E-01  0.8346E+01  0.8314E+01
     30.349  0.7663E-01  0.7844E-01  0.8360E+01  0.8328E+01
     30.530  0.6868E-01  0.1682E+00  0.8373E+01  0.8359E+01
     30.711  0.1471E+00  0.5661E-02  0.8399E+01  0.8360E+01
     30.892  0.3089E+00  0.2172E+00  0.8455E+01  0.8399E+01
     31.073  0.2187E+00  0.2327E+00  0.8495E+01  0.8441E+01
     31.253  0.3046E+00  0.2365E+00  0.8550E+01  0.8484E+01
     31.434  0.1302E+00  0.3103E+00  0.8573E+01  0.8540E+01
     31.615  0.1412E+00  0.1906E+00  0.8599E+01  0.8574E+01
     31.796  0.1745E+00  0.1249E+00  0.8630E+01  0.8597E+01
     31.977  0.3741E+00  0.2074E+00  0.8698E+01  0.8635E+01
     32.158  0.1927E+00  0.2033E+00  0.8733E+01  0.8671E+01
     32.339  0.1909E+00  0.3369E+00  0.8768E+01  0.8732E+01
     32.520  0.3342E+00  0.2284E+00  0.8828E+01  0.8774E+01
     32.700  0.1074E+00  0.2784E+00  0.8847E+01  0.8824E+01
     32.881  0.1073E+00  0.1670E+00  0.8867E+01  0.8854E+01
     33.062  0.1722E+00  0.1360E+00  0.8898E+01  0.8879E+01
     33.243  0.3893E+00  0.1034E+00  0.8968E+01  0.8897E+01
     33.424  0.4624E+00  0.3655E+00  0.9052E+01  0.8964E+01
     33.605  0.7608E-01  0.4254E+00  0.9066E+01  0.9040E+01
     33.786  0.1490E+00  0.1259E+00  0.9093E+01  0.9063E+01
     33.967  0.3799E+00  0.1661E+00  0.9161E+01  0.9093E+01
     34.148  0.2076E+00  0.3425E+00  0.9199E+01  0.9155E+01
     34.328  0.2120E+00  0.2760E+00  0.9237E+01  0.9205E+01
     34.509  0.3204E+00  0.1324E+00  0.9295E+01  0.9229E+01
     34.690  0.2183E+00  0.4031E+00  0.9335E+01  0.9302E+01
     34.871  0.5799E+00  0.2379E+00  0.9440E+01  0.9345E+01
     35.052  0.1591E+00  0.4572E+00  0.9468E+01  0.9428E+01
     35.233  0.1625E+00  0.2463E+00  0.9498E+01  0.9472E+01
     35.414  0.3126E+00  0.9637E-01  0.9554E+01  0.9490E+01
     35.595  0.2132E+00  0.1930E+00  0.9593E+01  0.9525E+01
     35.775  0.2331E+00  0.4414E+00  0.9635E+01  0.9605E+01
     35.956  0.2469E+00  0.1652E+00  0.9680E+01  0.9634E+01
     36.137  0.1083E+00  0.1114E+00  0.9699E+01  0.9655E+01
     36.318  0.2465E+00  0.2239E+00  0.9744E+01  0.9695E+01
     36.499  0.7716E-01  0.2540E+00  0.9758E+01  0.9741E+01
     36.680  0.1807E+00  0.1217E+00  0.9791E+01  0.9763E+01
     36.861  0.1417E+00  0.1745E+00  0.9816E+01  0.9795E+01
     37.042  0.3757E+00  0.1238E+00  0.9884E+01  0.9817E+01
     37.222  0.3608E+00  0.2846E+00  0.9949E+01  0.9868E+01
     37.403  0.1693E+00  0.4036E+00  0.9980E+01  0.9941E+01
     37.584  0.1076E+00  0.1771E+00  0.9999E+01  0.9973E+01
     37.765  0.5472E-01  0.1534E+00  0.1001E+02  0.1000E+02
     37.946  0.1037E+00  0.8084E-01  0.1003E+02  0.1002E+02
     38.127  0.1834E+00  0.6989E-01  0.1006E+02  0.1003E+02
     38.308  0.1947E+00  0.1100E+00  0.1010E+02  0.1005E+02
     38.489  0.5026E-01  0.1004E+00  0.1011E+02  0.1007E+02
     38.670  0.2219E+00  0.2135E+00  0.1015E+02  0.1011E+02
     38.850  0.2542E+00  0.4359E-01  0.1019E+02  0.1011E+02
     39.031  0.9728E-01  0.2063E+00  0.1021E+02  0.1015E+02
     39.212  0.7296E-01  0.2317E+00  0.1022E+02  0.1019E+02
     39.393  0.3063E+00  0.1280E+00  0.1028E+02  0.1022E+02
     39.574  0.2331E+00  0.1751E+00  0.1032E+02  0.1025E+02
     39.755  0.5936E+00  0.4820E+00  0.1043E+02  0.1033E+02
     39.936  0.3462E+00  0.2231E+00  0.1049E+02  0.1037E+02
     40.117  0.1430E+00  0.5685E+00  0.1052E+02  0.1048E+02
     40.297  0.3214E+00  0.1963E+00  0.1057E+02  0.1051E+02
     40.478  0.2677E+00  0.3428E+00  0.1062E+02  0.1057E+02
     40.659  0.3102E-01  0.2332E+00  0.1063E+02  0.1062E+02
     40.840  0.1156E+00  0.4900E-01  0.1065E+02  0.1063E+02
     41.021  0.1778E+00  0.1578E+00  0.1068E+02  0.1065E+02
     41.202  0.2157E+00  0.1854E+00  0.1072E+02  0.1069E+02
     41.383  0.5366E+00  0.2368E-01  0.1082E+02  0.1069E+02
     41.564  0.6240E+00  0.5970E+00  0.1093E+02  0.1080E+02
     41.745  0.2772E+00  0.5230E+00  0.1098E+02  0.1089E+02
     41.925  0.9712E-01  0.3526E+00  0.1100E+02  0.1096E+02
     42.106  0.2092E+00  0.1985E+00  0.1104E+02  0.1099E+02
     42.287  0.1740E+00  0.5305E-01  0.1107E+02  0.1100E+02
     42.468  0.1439E+00  0.4634E+00  0.1109E+02  0.1109E+02
     42.649  0.4556E-01  0.2914E-01  0.1110E+02  0.1109E+02
     42.830  0.3996E+00  0.9336E-01  0.1117E+02  0.1111E+02
     43.011  0.1849E+00  0.3923E+00  0.1121E+02  0.1118E+02
     43.192  0.1424E+00  0.8237E-01  0.1123E+02  0.1120E+02
     43.372  0.2036E+00  0.2208E+00  0.1127E+02  0.1124E+02
     43.553  0.3647E-01  0.1023E+00  0.1128E+02  0.1125E+02
     43.734  0.1099E+00  0.6069E-01  0.1130E+02  0.1127E+02
     43.915  0.3753E+00  0.1824E+00  0.1136E+02  0.1130E+02
     44.096  0.1352E+00  0.2225E+00  0.1139E+02  0.1134E+02
     44.277  0.3402E+00  0.1634E+00  0.1145E+02  0.1137E+02
     44.458  0.6587E-01  0.2447E+00  0.1146E+02  0.1141E+02
     44.639  0.1232E+00  0.1956E+00  0.1148E+02  0.1145E+02
     44.819  0.1426E+00  0.2164E+00  0.1151E+02  0.1149E+02
     45.000  0.2388E+00  0.1187E+00  0.1155E+02  0.1151E+02
     45.181  0.8162E-01  0.7681E-01  0.1157E+02  0.1152E+02
     45.362  0.1187E+00  0.1838E+00  0.1159E+02  0.1156E+02
     45.543  0.2112E+00  0.1135E+00  0.1163E+02  0.1158E+02
     45.724  0.2538E+00  0.1368E+00  0.1167E+02  0.1160E+02
     45.905  0.1745E+00  0.2007E+00  0.1171E+02  0.1164E+02
     46.086  0.3568E+00  0.1267E+00  0.1177E+02  0.1166E+02
     46.267  0.9588E-01  0.1600E+00  0.1179E+02  0.1169E+02
     46.447  0.2111E+00  0.2810E+00  0.1183E+02  0.1174E+02
     46.628  0.1027E+00  0.1764E+00  0.1184E+02  0.1177E+02
     46.809  0.3053E+00  0.5337E-01  0.1190E+02  0.1178E+02
     46.990  0.5175E+00  0.4305E-01  0.1199E+02  0.1179E+02
     47.171  0.4053E-01  0.7324E-01  0.1200E+02  0.1180E+02
     47.352  0.1738E-08  0.1339E+00  0.1200E+02  0.1183E+02
     47.533  0.0000E+00  0.5176E-01  0.1200E+02  0.1184E+02
     47.714  0.0000E+00  0.1541E-05  0.1200E+02  0.1184E+02
     47.894  0.0000E+00  0.3314E-01  0.1200E+02  0.1184E+02
     48.075  0.0000E+00  0.6476E-01  0.1200E+02  0.1185E+02
     48.256  0.0000E+00  0.2448E+00  0.1200E+02  0.1190E+02
     48.437  0.0000E+00  0.3471E-01  0.1200E+02  0.1190E+02
     48.618  0.0000E+00  0.8255E-09  0.1200E+02  0.1190E+02
     48.799  0.0000E+00  0.8381E-17  0.1200E+02  0.1190E+02
     48.980  0.0000E+00  0.4400E-04  0.1200E+02  0.1190E+02
     49.161  0.0000E+00  0.6292E-01  0.1200E+02  0.1192E+02
     49.341  0.0000E+00  0.2769E-01  0.1200E+02  0.1192E+02
     49.522  0.0000E+00  0.6889E-01  0.1200E+02  0.1193E+02
     49.703  0.0000E+00  0.5182E-01  0.1200E+02  0.1194E+02
     49.884  0.0000E+00  0.1124E-05  0.1200E+02  0.1194E+02
     50.065  0.0000E+00  0.0000E+00  0.1200E+02  0.1194E+02
     50.246  0.0000E+00  0.2098E-07  0.1200E+02  0.1194E+02
     50.427  0.0000E+00  0.3387E-01  0.1200E+02  0.1195E+02
     50.608  0.0000E+00  0.1770E+00  0.1200E+02  0.1198E+02
     50.789  0.0000E+00  0.1061E+00  0.1200E+02  0.1200E+02
     50.969  0.0000E+00  0.1187E-04  0.1200E+02  0.1200E+02
     51.150  0.0000E+00  0.0000E+00  0.1200E+02  0.1200E+02
     51.331  0.0000E+00  0.0000E+00  0.1200E+02  0.1200E+02
     51.512  0.0000E+00  0.0000E+00  0.1200E+02  0.1200E+02
     51.693  0.0000E+00  0.0000E+00  0.1200E+02  0.1200E+02
     51.874  0.0000E+00  0.0000E+00  0.1200E+02  0.1200E+02
     52.055  0.0000E+00  0.0000E+00  0.1200E+02  0.1200E+02
     52.236  0.0000E+00  0.0000E+00  0.1200E+02  0.1200E+02
     52.416  0.0000E+00  0.0000E+00  0.1200E+02  0.1200E+02
     52.597  0.0000E+00  0.0000E+00  0.1200E+02  0.1200E+02
     52.778  0.0000E+00  0.0000E+00  0.1200E+02  0.1200E+02
     52.959  0.0000E+00  0.0000E+00  0.1200E+02  0.1200E+02
     53.140  0.0000E+00  0.0000E+00  0.1200E+02  0.1200E+02
