       N       E                     dE             d eps       ncg     rms          rms(c)
DAV:   1     0.294815029127E+02    0.29482E+02   -0.43621E+03107508   0.999E+02
DAV:   2    -0.687629992350E+01   -0.36358E+02   -0.34173E+02112116   0.165E+02
DAV:   3    -0.805385836274E+01   -0.11776E+01   -0.11636E+01123456   0.328E+01
DAV:   4    -0.806567719366E+01   -0.11819E-01   -0.11815E-01125760   0.300E+00
DAV:   5    -0.806596548847E+01   -0.28829E-03   -0.28829E-03138732   0.425E-01    0.104E+01
DAV:   6    -0.723510728562E+01    0.83086E+00   -0.13547E+01137832   0.469E+01    0.517E+00
DAV:   7    -0.704138040817E+01    0.19373E+00   -0.16399E+00132680   0.154E+01    0.264E+00
DAV:   8    -0.703127595888E+01    0.10104E-01   -0.18820E-02131148   0.968E-01    0.132E+00
DAV:   9    -0.702460141598E+01    0.66745E-02   -0.70919E-03153352   0.685E-01    0.364E-01
DAV:  10    -0.702424398167E+01    0.35743E-03   -0.26165E-03135748   0.384E-01    0.166E-01
DAV:  11    -0.702434974454E+01   -0.10576E-03   -0.10432E-04136872   0.725E-02    0.601E-02
DAV:  12    -0.702435986000E+01   -0.10115E-04   -0.89717E-06134488   0.288E-02    0.261E-02
DAV:  13    -0.702436297106E+01   -0.31111E-05   -0.37785E-06119328   0.159E-02    0.702E-03
DAV:  14    -0.702436250033E+01    0.47073E-06   -0.13752E-07 69744   0.428E-03
   1 F= -.70243625E+01 E0= -.70237111E+01  d E =-.130284E-02  mag=     1.6318
