Tl2 Cl2                                 
   1.00000000000000     
     4.0386319100000003    0.0000000000000000   -1.3907220199999999
     0.0000000000000000    4.7170688900000002    0.0000000000000000
    -0.0296222500000000    0.0000000000000000    6.4733923700000000
   Tl   Cl
     2     2
Direct
     0.6131460200000021    0.2500000000000000    0.2262910399999996
     0.3868539799999979    0.7500000000000000    0.7737089600000004
     0.1434951100000035    0.7500000000000000    0.2869922200000019
     0.8565048899999965    0.2500000000000000    0.7130077799999981
 
  0.00000000E+00  0.00000000E+00  0.00000000E+00
  0.00000000E+00  0.00000000E+00  0.00000000E+00
  0.00000000E+00  0.00000000E+00  0.00000000E+00
  0.00000000E+00  0.00000000E+00  0.00000000E+00
