       N       E                     dE             d eps       ncg     rms          rms(c)
DAV:   1     0.254983815285E+03    0.25498E+03   -0.21465E+04  8080   0.143E+03
DAV:   2     0.246928556555E+01   -0.25251E+03   -0.24550E+03  9852   0.293E+02
DAV:   3    -0.126560064288E+02   -0.15125E+02   -0.15036E+02  9136   0.607E+01
DAV:   4    -0.128353854524E+02   -0.17938E+00   -0.17930E+00  8880   0.757E+00
DAV:   5    -0.128382945106E+02   -0.29091E-02   -0.29090E-02  9260   0.101E+00    0.486E+00
DAV:   6    -0.121338387433E+02    0.70446E+00   -0.12688E+00  8648   0.512E+00    0.315E+00
DAV:   7    -0.121067933943E+02    0.27045E-01   -0.40022E-01  8528   0.238E+00    0.189E+00
DAV:   8    -0.121147465253E+02   -0.79531E-02   -0.67108E-02  8544   0.143E+00    0.407E-01
DAV:   9    -0.121104935236E+02    0.42530E-02   -0.16658E-02  8680   0.626E-01    0.106E-01
DAV:  10    -0.121111243576E+02   -0.63083E-03   -0.21865E-03  8624   0.185E-01    0.448E-02
DAV:  11    -0.121112225678E+02   -0.98210E-04   -0.22945E-04  8696   0.721E-02    0.132E-02
DAV:  12    -0.121112220532E+02    0.51464E-06   -0.38217E-05  8820   0.390E-02    0.106E-02
DAV:  13    -0.121112225555E+02   -0.50228E-06   -0.39990E-06  7884   0.876E-03
   1 F= -.12111223E+02 E0= -.12111223E+02  d E =-.631298E-14
