       N       E                     dE             d eps       ncg     rms          rms(c)
DAV:   1     0.367067799920E+03    0.36707E+03   -0.18480E+04 23616   0.153E+03
DAV:   2    -0.137158034713E+02   -0.38078E+03   -0.36607E+03 24096   0.439E+02
DAV:   3    -0.319543906973E+02   -0.18239E+02   -0.17194E+02 26088   0.975E+01
DAV:   4    -0.322992347535E+02   -0.34484E+00   -0.34275E+00 26324   0.136E+01
DAV:   5    -0.323039697273E+02   -0.47350E-02   -0.47346E-02 26224   0.174E+00    0.240E+01
DAV:   6    -0.305005257664E+02    0.18034E+01   -0.54247E+00 27108   0.206E+01    0.833E+00
DAV:   7    -0.316044515366E+02   -0.11039E+01   -0.85673E+00 32092   0.305E+01    0.802E+00
DAV:   8    -0.298621851256E+02    0.17423E+01   -0.38956E+00 30568   0.112E+01    0.155E+00
DAV:   9    -0.298517929229E+02    0.10392E-01   -0.76476E-02 27060   0.173E+00    0.114E+00
DAV:  10    -0.298461168064E+02    0.56761E-02   -0.13424E-02 27716   0.803E-01    0.248E-01
DAV:  11    -0.298444709586E+02    0.16458E-02   -0.42057E-03 30844   0.538E-01    0.143E-01
DAV:  12    -0.298441701779E+02    0.30078E-03   -0.15929E-03 27904   0.336E-01    0.314E-02
DAV:  13    -0.298441729628E+02   -0.27849E-05   -0.12185E-04 26200   0.112E-01    0.182E-02
DAV:  14    -0.298441699349E+02    0.30279E-05   -0.18816E-05 29480   0.507E-02    0.106E-02
DAV:  15    -0.298441657922E+02    0.41427E-05   -0.43038E-06 25288   0.184E-02    0.240E-03
DAV:  16    -0.298441653376E+02    0.45464E-06   -0.44659E-07 13528   0.510E-03
   1 F= -.29844165E+02 E0= -.29841761E+02  d E =-.480877E-02
