Cu14 Te8                                
   1.00000000000000     
     3.8705609999999999   -6.7040090000000001    0.0000000000000000
     3.8705609999999999    6.7040090000000001    0.0000000000000000
     0.0000000000000000    0.0000000000000000    7.8512529999999998
   Cu   Te
    14     8
Direct
     0.3333330000000032    0.6666669999999968    0.2052669999999992
     0.6666669999999968    0.3333330000000032    0.9714430000000007
     0.7994290000000035    0.2005709999999965    0.4789329999999978
     0.7994290000000035    0.5988579999999999    0.4789329999999978
     0.4011420000000001    0.2005709999999965    0.4789329999999978
     0.2040810000000022    0.7959189999999978    0.4472340000000017
     0.2040810000000022    0.4081619999999972    0.4472340000000017
     0.5918380000000028    0.7959189999999978    0.4472340000000017
     0.8535970000000006    0.1464029999999994    0.8484959999999973
     0.8535970000000006    0.7071929999999966    0.8484959999999973
     0.2928070000000034    0.1464029999999994    0.8484959999999973
     0.2075269999999989    0.7924730000000011    0.9636369999999985
     0.2075269999999989    0.4150539999999978    0.9636369999999985
     0.5849460000000022    0.7924730000000011    0.9636369999999985
     0.0000000000000000    0.0000000000000000    0.0645200000000017
     0.0000000000000000    0.0000000000000000    0.5468230000000034
     0.5188630000000032    0.4811369999999968    0.2274749999999983
     0.5188630000000032    0.0377259999999993    0.2274749999999983
     0.9622740000000007    0.4811369999999968    0.2274749999999983
     0.4938080000000014    0.5061919999999986    0.7155399999999972
     0.4938080000000014    0.9876160000000027    0.7155399999999972
     0.0123839999999973    0.5061919999999986    0.7155399999999972
 
  0.00000000E+00  0.00000000E+00  0.00000000E+00
  0.00000000E+00  0.00000000E+00  0.00000000E+00
  0.00000000E+00  0.00000000E+00  0.00000000E+00
  0.00000000E+00  0.00000000E+00  0.00000000E+00
  0.00000000E+00  0.00000000E+00  0.00000000E+00
  0.00000000E+00  0.00000000E+00  0.00000000E+00
  0.00000000E+00  0.00000000E+00  0.00000000E+00
  0.00000000E+00  0.00000000E+00  0.00000000E+00
  0.00000000E+00  0.00000000E+00  0.00000000E+00
  0.00000000E+00  0.00000000E+00  0.00000000E+00
  0.00000000E+00  0.00000000E+00  0.00000000E+00
  0.00000000E+00  0.00000000E+00  0.00000000E+00
  0.00000000E+00  0.00000000E+00  0.00000000E+00
  0.00000000E+00  0.00000000E+00  0.00000000E+00
  0.00000000E+00  0.00000000E+00  0.00000000E+00
  0.00000000E+00  0.00000000E+00  0.00000000E+00
  0.00000000E+00  0.00000000E+00  0.00000000E+00
  0.00000000E+00  0.00000000E+00  0.00000000E+00
  0.00000000E+00  0.00000000E+00  0.00000000E+00
  0.00000000E+00  0.00000000E+00  0.00000000E+00
  0.00000000E+00  0.00000000E+00  0.00000000E+00
  0.00000000E+00  0.00000000E+00  0.00000000E+00
