       N       E                     dE             d eps       ncg     rms          rms(c)
DAV:   1     0.384893449615E+04    0.38489E+04   -0.19329E+05 10576   0.238E+03
DAV:   2     0.325268198789E+03   -0.35237E+04   -0.34546E+04  8640   0.687E+02
DAV:   3    -0.546344025069E+02   -0.37990E+03   -0.35819E+03  9736   0.226E+02
DAV:   4    -0.838736601592E+02   -0.29239E+02   -0.28592E+02 10000   0.544E+01
DAV:   5    -0.848960643404E+02   -0.10224E+01   -0.10181E+01 10560   0.110E+01    0.394E+01
DAV:   6    -0.850826426434E+02   -0.18658E+00   -0.19819E+02  9456   0.875E+01    0.503E+01
DAV:   7    -0.761965719082E+02    0.88861E+01   -0.33350E+01  9688   0.438E+01    0.180E+01
DAV:   8    -0.755300560748E+02    0.66652E+00   -0.13556E+01 10504   0.218E+01    0.727E+00
DAV:   9    -0.755624812172E+02   -0.32425E-01   -0.25099E+00 10448   0.178E+01    0.632E+00
DAV:  10    -0.754215421826E+02    0.14094E+00   -0.47184E-01  9488   0.103E+01    0.411E+00
DAV:  11    -0.754297384542E+02   -0.81963E-02   -0.83318E-02  9464   0.124E+00    0.389E+00
DAV:  12    -0.754333762483E+02   -0.36378E-02   -0.41671E-03  9824   0.797E-01    0.372E+00
DAV:  13    -0.754372446529E+02   -0.38684E-02   -0.76299E-03 13280   0.129E+00    0.233E+00
DAV:  14    -0.754208907568E+02    0.16354E-01   -0.22386E-02 11464   0.215E+00    0.122E+00
DAV:  15    -0.754185518846E+02    0.23389E-02   -0.93523E-03 10920   0.422E-01    0.999E-01
DAV:  16    -0.754167551507E+02    0.17967E-02   -0.19605E-03  9560   0.330E-01    0.687E-01
DAV:  17    -0.754152257238E+02    0.15294E-02   -0.21204E-03 11888   0.479E-01    0.389E-01
DAV:  18    -0.754148627814E+02    0.36294E-03   -0.26989E-03  9960   0.285E-01    0.172E-01
DAV:  19    -0.754148527443E+02    0.10037E-04   -0.19695E-04  9864   0.869E-02    0.175E-01
DAV:  20    -0.754147893125E+02    0.63432E-04   -0.92920E-05 12112   0.126E-01    0.110E-01
DAV:  21    -0.754147985611E+02   -0.92486E-05   -0.33974E-04 11112   0.151E-01    0.451E-02
DAV:  22    -0.754147847592E+02    0.13802E-04   -0.99086E-05  9208   0.878E-02    0.288E-02
DAV:  23    -0.754147828537E+02    0.19054E-05   -0.11863E-05 10120   0.173E-02    0.192E-02
DAV:  24    -0.754147827887E+02    0.65025E-07   -0.16992E-06  4728   0.737E-03
   1 F= -.75414783E+02 E0= -.75407062E+02  d E =-.154411E-01
