Cu14Te8
1.0
      3.8705610      -6.7040090       0.0000000
      3.8705610       6.7040090       0.0000000
      0.0000000       0.0000000       7.8512530
  Cu    Te  
  14    8   
Direct
      0.3333330       0.6666670       0.2052670
      0.6666670       0.3333330       0.9714430
      0.7994290       0.2005710       0.4789330
      0.7994290       0.5988580       0.4789330
      0.4011420       0.2005710       0.4789330
      0.2040810       0.7959190       0.4472340
      0.2040810       0.4081620       0.4472340
      0.5918380       0.7959190       0.4472340
      0.8535970       0.1464030       0.8484960
      0.8535970       0.7071930       0.8484960
      0.2928070       0.1464030       0.8484960
      0.2075270       0.7924730       0.9636370
      0.2075270       0.4150540       0.9636370
      0.5849460       0.7924730       0.9636370
      0.0000000       0.0000000       0.0645200
      0.0000000       0.0000000       0.5468230
      0.5188630       0.4811370       0.2274750
      0.5188630       0.0377260       0.2274750
      0.9622740       0.4811370       0.2274750
      0.4938080       0.5061920       0.7155400
      0.4938080       0.9876160       0.7155400
      0.0123840       0.5061920       0.7155400
