unknown system                          
           1
     3.870561   -6.704009    0.000000
     3.870561    6.704009    0.000000
     0.000000    0.000000    7.851253
   Cu   Te
    14     8
Direct configuration=     1
   0.33333300  0.66666700  0.20526700
   0.66666700  0.33333300  0.97144300
   0.79942900  0.20057100  0.47893300
   0.79942900  0.59885800  0.47893300
   0.40114200  0.20057100  0.47893300
   0.20408100  0.79591900  0.44723400
   0.20408100  0.40816200  0.44723400
   0.59183800  0.79591900  0.44723400
   0.85359700  0.14640300  0.84849600
   0.85359700  0.70719300  0.84849600
   0.29280700  0.14640300  0.84849600
   0.20752700  0.79247300  0.96363700
   0.20752700  0.41505400  0.96363700
   0.58494600  0.79247300  0.96363700
   0.00000000  0.00000000  0.06452000
   0.00000000  0.00000000  0.54682300
   0.51886300  0.48113700  0.22747500
   0.51886300  0.03772600  0.22747500
   0.96227400  0.48113700  0.22747500
   0.49380800  0.50619200  0.71554000
   0.49380800  0.98761600  0.71554000
   0.01238400  0.50619200  0.71554000
