Hg6 Pb2                                 
   1.00000000000000     
     3.4348396399999999   -5.9493164399999996    0.0000000000000000
     3.4348396399999999    5.9493164399999996    0.0000000000000000
     0.0000000000000000    0.0000000000000000    5.1477930699999996
   Hg   Pb
     6     2
Direct
     0.1618390599999984    0.3236781199999967    0.2500000000000000
     0.6763218800000033    0.8381609400000016    0.2500000000000000
     0.1618390599999984    0.8381609400000016    0.2500000000000000
     0.8381609400000016    0.6763218800000033    0.7500000000000000
     0.3236781199999967    0.1618390599999984    0.7500000000000000
     0.8381609400000016    0.1618390599999984    0.7500000000000000
     0.3333330000000032    0.6666669999999968    0.7500000000000000
     0.6666669999999968    0.3333330000000032    0.2500000000000000
 
  0.00000000E+00  0.00000000E+00  0.00000000E+00
  0.00000000E+00  0.00000000E+00  0.00000000E+00
  0.00000000E+00  0.00000000E+00  0.00000000E+00
  0.00000000E+00  0.00000000E+00  0.00000000E+00
  0.00000000E+00  0.00000000E+00  0.00000000E+00
  0.00000000E+00  0.00000000E+00  0.00000000E+00
  0.00000000E+00  0.00000000E+00  0.00000000E+00
  0.00000000E+00  0.00000000E+00  0.00000000E+00
