Hg6Pb2
1.0
      3.4348396      -5.9493164       0.0000000
      3.4348396       5.9493164       0.0000000
      0.0000000       0.0000000       5.1477931
  Hg    Pb  
  6     2   
Direct
      0.1618391       0.3236781       0.2500000
      0.6763219       0.8381609       0.2500000
      0.1618391       0.8381609       0.2500000
      0.8381609       0.6763219       0.7500000
      0.3236781       0.1618391       0.7500000
      0.8381609       0.1618391       0.7500000
      0.3333330       0.6666670       0.7500000
      0.6666670       0.3333330       0.2500000
