unknown system                          
           1
     3.434840   -5.949316    0.000000
     3.434840    5.949316    0.000000
     0.000000    0.000000    5.147793
   Hg   Pb
     6     2
Direct configuration=     1
   0.16183906  0.32367812  0.25000000
   0.67632188  0.83816094  0.25000000
   0.16183906  0.83816094  0.25000000
   0.83816094  0.67632188  0.75000000
   0.32367812  0.16183906  0.75000000
   0.83816094  0.16183906  0.75000000
   0.33333300  0.66666700  0.75000000
   0.66666700  0.33333300  0.25000000
