  36  36   0   0
  0.4200219E+03  0.2472814E-08  0.2472814E-08  0.2472814E-08  0.5000000E-15
  1.000000000000000E-004
  CAR 
 unknown system                          
      3.01562118   -112.03064388  301     -5.83749045      1.00000000
   -112.031  0.0000E+00  0.0000E+00
   -111.647  0.0000E+00  0.0000E+00
   -111.264  0.0000E+00  0.0000E+00
   -110.880  0.0000E+00  0.0000E+00
   -110.497  0.0000E+00  0.0000E+00
   -110.113  0.0000E+00  0.0000E+00
   -109.730  0.0000E+00  0.0000E+00
   -109.346  0.0000E+00  0.0000E+00
   -108.963  0.0000E+00  0.0000E+00
   -108.579  0.0000E+00  0.0000E+00
   -108.196  0.0000E+00  0.0000E+00
   -107.812  0.0000E+00  0.0000E+00
   -107.429  0.0000E+00  0.0000E+00
   -107.045  0.1116E-09  0.4279E-10
   -106.662  0.6258E+02  0.2400E+02
   -106.278  0.0000E+00  0.2400E+02
   -105.895  0.0000E+00  0.2400E+02
   -105.511  0.0000E+00  0.2400E+02
   -105.128  0.0000E+00  0.2400E+02
   -104.744  0.0000E+00  0.2400E+02
   -104.361  0.0000E+00  0.2400E+02
   -103.977  0.0000E+00  0.2400E+02
   -103.594  0.0000E+00  0.2400E+02
   -103.210  0.0000E+00  0.2400E+02
   -102.827  0.0000E+00  0.2400E+02
   -102.443  0.0000E+00  0.2400E+02
   -102.060  0.0000E+00  0.2400E+02
   -101.676  0.0000E+00  0.2400E+02
   -101.293  0.0000E+00  0.2400E+02
   -100.910  0.0000E+00  0.2400E+02
   -100.526  0.0000E+00  0.2400E+02
   -100.143  0.0000E+00  0.2400E+02
    -99.759  0.0000E+00  0.2400E+02
    -99.376  0.0000E+00  0.2400E+02
    -98.992  0.0000E+00  0.2400E+02
    -98.609  0.0000E+00  0.2400E+02
    -98.225  0.0000E+00  0.2400E+02
    -97.842  0.0000E+00  0.2400E+02
    -97.458  0.0000E+00  0.2400E+02
    -97.075  0.0000E+00  0.2400E+02
    -96.691  0.0000E+00  0.2400E+02
    -96.308  0.0000E+00  0.2400E+02
    -95.924  0.0000E+00  0.2400E+02
    -95.541  0.0000E+00  0.2400E+02
    -95.157  0.0000E+00  0.2400E+02
    -94.774  0.0000E+00  0.2400E+02
    -94.390  0.0000E+00  0.2400E+02
    -94.007  0.0000E+00  0.2400E+02
    -93.623  0.0000E+00  0.2400E+02
    -93.240  0.0000E+00  0.2400E+02
    -92.856  0.0000E+00  0.2400E+02
    -92.473  0.0000E+00  0.2400E+02
    -92.089  0.0000E+00  0.2400E+02
    -91.706  0.0000E+00  0.2400E+02
    -91.322  0.0000E+00  0.2400E+02
    -90.939  0.0000E+00  0.2400E+02
    -90.555  0.0000E+00  0.2400E+02
    -90.172  0.0000E+00  0.2400E+02
    -89.788  0.0000E+00  0.2400E+02
    -89.405  0.0000E+00  0.2400E+02
    -89.021  0.0000E+00  0.2400E+02
    -88.638  0.0000E+00  0.2400E+02
    -88.254  0.0000E+00  0.2400E+02
    -87.871  0.0000E+00  0.2400E+02
    -87.487  0.0000E+00  0.2400E+02
    -87.104  0.0000E+00  0.2400E+02
    -86.720  0.0000E+00  0.2400E+02
    -86.337  0.0000E+00  0.2400E+02
    -85.953  0.0000E+00  0.2400E+02
    -85.570  0.0000E+00  0.2400E+02
    -85.187  0.0000E+00  0.2400E+02
    -84.803  0.0000E+00  0.2400E+02
    -84.420  0.0000E+00  0.2400E+02
    -84.036  0.0000E+00  0.2400E+02
    -83.653  0.0000E+00  0.2400E+02
    -83.269  0.0000E+00  0.2400E+02
    -82.886  0.0000E+00  0.2400E+02
    -82.502  0.0000E+00  0.2400E+02
    -82.119  0.0000E+00  0.2400E+02
    -81.735  0.0000E+00  0.2400E+02
    -81.352  0.0000E+00  0.2400E+02
    -80.968  0.0000E+00  0.2400E+02
    -80.585  0.0000E+00  0.2400E+02
    -80.201  0.0000E+00  0.2400E+02
    -79.818  0.0000E+00  0.2400E+02
    -79.434  0.0000E+00  0.2400E+02
    -79.051  0.0000E+00  0.2400E+02
    -78.667  0.0000E+00  0.2400E+02
    -78.284  0.0000E+00  0.2400E+02
    -77.900  0.0000E+00  0.2400E+02
    -77.517  0.0000E+00  0.2400E+02
    -77.133  0.0000E+00  0.2400E+02
    -76.750  0.0000E+00  0.2400E+02
    -76.366  0.0000E+00  0.2400E+02
    -75.983  0.0000E+00  0.2400E+02
    -75.599  0.0000E+00  0.2400E+02
    -75.216  0.0000E+00  0.2400E+02
    -74.832  0.0000E+00  0.2400E+02
    -74.449  0.0000E+00  0.2400E+02
    -74.065  0.0000E+00  0.2400E+02
    -73.682  0.0000E+00  0.2400E+02
    -73.298  0.0000E+00  0.2400E+02
    -72.915  0.0000E+00  0.2400E+02
    -72.531  0.0000E+00  0.2400E+02
    -72.148  0.0000E+00  0.2400E+02
    -71.764  0.0000E+00  0.2400E+02
    -71.381  0.0000E+00  0.2400E+02
    -70.997  0.0000E+00  0.2400E+02
    -70.614  0.0000E+00  0.2400E+02
    -70.231  0.0000E+00  0.2400E+02
    -69.847  0.0000E+00  0.2400E+02
    -69.464  0.0000E+00  0.2400E+02
    -69.080  0.0000E+00  0.2400E+02
    -68.697  0.0000E+00  0.2400E+02
    -68.313  0.0000E+00  0.2400E+02
    -67.930  0.0000E+00  0.2400E+02
    -67.546  0.0000E+00  0.2400E+02
    -67.163  0.0000E+00  0.2400E+02
    -66.779  0.0000E+00  0.2400E+02
    -66.396  0.0000E+00  0.2400E+02
    -66.012  0.0000E+00  0.2400E+02
    -65.629  0.0000E+00  0.2400E+02
    -65.245  0.0000E+00  0.2400E+02
    -64.862  0.0000E+00  0.2400E+02
    -64.478  0.0000E+00  0.2400E+02
    -64.095  0.0000E+00  0.2400E+02
    -63.711  0.0000E+00  0.2400E+02
    -63.328  0.0000E+00  0.2400E+02
    -62.944  0.0000E+00  0.2400E+02
    -62.561  0.0000E+00  0.2400E+02
    -62.177  0.0000E+00  0.2400E+02
    -61.794  0.0000E+00  0.2400E+02
    -61.410  0.0000E+00  0.2400E+02
    -61.027  0.0000E+00  0.2400E+02
    -60.643  0.0000E+00  0.2400E+02
    -60.260  0.0000E+00  0.2400E+02
    -59.876  0.0000E+00  0.2400E+02
    -59.493  0.0000E+00  0.2400E+02
    -59.109  0.0000E+00  0.2400E+02
    -58.726  0.0000E+00  0.2400E+02
    -58.342  0.0000E+00  0.2400E+02
    -57.959  0.0000E+00  0.2400E+02
    -57.575  0.0000E+00  0.2400E+02
    -57.192  0.0000E+00  0.2400E+02
    -56.808  0.0000E+00  0.2400E+02
    -56.425  0.0000E+00  0.2400E+02
    -56.041  0.0000E+00  0.2400E+02
    -55.658  0.0000E+00  0.2400E+02
    -55.274  0.0000E+00  0.2400E+02
    -54.891  0.0000E+00  0.2400E+02
    -54.508  0.0000E+00  0.2400E+02
    -54.124  0.0000E+00  0.2400E+02
    -53.741  0.0000E+00  0.2400E+02
    -53.357  0.0000E+00  0.2400E+02
    -52.974  0.0000E+00  0.2400E+02
    -52.590  0.0000E+00  0.2400E+02
    -52.207  0.0000E+00  0.2400E+02
    -51.823  0.0000E+00  0.2400E+02
    -51.440  0.0000E+00  0.2400E+02
    -51.056  0.0000E+00  0.2400E+02
    -50.673  0.0000E+00  0.2400E+02
    -50.289  0.0000E+00  0.2400E+02
    -49.906  0.0000E+00  0.2400E+02
    -49.522  0.0000E+00  0.2400E+02
    -49.139  0.0000E+00  0.2400E+02
    -48.755  0.0000E+00  0.2400E+02
    -48.372  0.0000E+00  0.2400E+02
    -47.988  0.0000E+00  0.2400E+02
    -47.605  0.0000E+00  0.2400E+02
    -47.221  0.0000E+00  0.2400E+02
    -46.838  0.0000E+00  0.2400E+02
    -46.454  0.0000E+00  0.2400E+02
    -46.071  0.0000E+00  0.2400E+02
    -45.687  0.0000E+00  0.2400E+02
    -45.304  0.0000E+00  0.2400E+02
    -44.920  0.0000E+00  0.2400E+02
    -44.537  0.0000E+00  0.2400E+02
    -44.153  0.0000E+00  0.2400E+02
    -43.770  0.0000E+00  0.2400E+02
    -43.386  0.0000E+00  0.2400E+02
    -43.003  0.0000E+00  0.2400E+02
    -42.619  0.0000E+00  0.2400E+02
    -42.236  0.0000E+00  0.2400E+02
    -41.852  0.0000E+00  0.2400E+02
    -41.469  0.0000E+00  0.2400E+02
    -41.085  0.0000E+00  0.2400E+02
    -40.702  0.0000E+00  0.2400E+02
    -40.318  0.0000E+00  0.2400E+02
    -39.935  0.0000E+00  0.2400E+02
    -39.551  0.0000E+00  0.2400E+02
    -39.168  0.0000E+00  0.2400E+02
    -38.785  0.0000E+00  0.2400E+02
    -38.401  0.0000E+00  0.2400E+02
    -38.018  0.0000E+00  0.2400E+02
    -37.634  0.0000E+00  0.2400E+02
    -37.251  0.0000E+00  0.2400E+02
    -36.867  0.0000E+00  0.2400E+02
    -36.484  0.0000E+00  0.2400E+02
    -36.100  0.0000E+00  0.2400E+02
    -35.717  0.0000E+00  0.2400E+02
    -35.333  0.0000E+00  0.2400E+02
    -34.950  0.0000E+00  0.2400E+02
    -34.566  0.0000E+00  0.2400E+02
    -34.183  0.0000E+00  0.2400E+02
    -33.799  0.0000E+00  0.2400E+02
    -33.416  0.0000E+00  0.2400E+02
    -33.032  0.0000E+00  0.2400E+02
    -32.649  0.0000E+00  0.2400E+02
    -32.265  0.0000E+00  0.2400E+02
    -31.882  0.0000E+00  0.2400E+02
    -31.498  0.0000E+00  0.2400E+02
    -31.115  0.0000E+00  0.2400E+02
    -30.731  0.0000E+00  0.2400E+02
    -30.348  0.0000E+00  0.2400E+02
    -29.964  0.0000E+00  0.2400E+02
    -29.581  0.0000E+00  0.2400E+02
    -29.197  0.0000E+00  0.2400E+02
    -28.814  0.0000E+00  0.2400E+02
    -28.430  0.0000E+00  0.2400E+02
    -28.047  0.0000E+00  0.2400E+02
    -27.663  0.0000E+00  0.2400E+02
    -27.280  0.0000E+00  0.2400E+02
    -26.896  0.0000E+00  0.2400E+02
    -26.513  0.0000E+00  0.2400E+02
    -26.129  0.0000E+00  0.2400E+02
    -25.746  0.0000E+00  0.2400E+02
    -25.362  0.0000E+00  0.2400E+02
    -24.979  0.0000E+00  0.2400E+02
    -24.595  0.0000E+00  0.2400E+02
    -24.212  0.0000E+00  0.2400E+02
    -23.829  0.0000E+00  0.2400E+02
    -23.445  0.0000E+00  0.2400E+02
    -23.062  0.0000E+00  0.2400E+02
    -22.678  0.0000E+00  0.2400E+02
    -22.295  0.0000E+00  0.2400E+02
    -21.911  0.0000E+00  0.2400E+02
    -21.528  0.0000E+00  0.2400E+02
    -21.144  0.0000E+00  0.2400E+02
    -20.761  0.3941E+00  0.2415E+02
    -20.377  0.4133E+02  0.4000E+02
    -19.994  0.0000E+00  0.4000E+02
    -19.610  0.0000E+00  0.4000E+02
    -19.227  0.3110E-02  0.4000E+02
    -18.843  0.8344E+02  0.7200E+02
    -18.460  0.0000E+00  0.7200E+02
    -18.076  0.0000E+00  0.7200E+02
    -17.693  0.0000E+00  0.7200E+02
    -17.309  0.0000E+00  0.7200E+02
    -16.926  0.0000E+00  0.7200E+02
    -16.542  0.0000E+00  0.7200E+02
    -16.159  0.0000E+00  0.7200E+02
    -15.775  0.0000E+00  0.7200E+02
    -15.392  0.0000E+00  0.7200E+02
    -15.008  0.0000E+00  0.7200E+02
    -14.625  0.0000E+00  0.7200E+02
    -14.241  0.0000E+00  0.7200E+02
    -13.858  0.0000E+00  0.7200E+02
    -13.474  0.0000E+00  0.7200E+02
    -13.091  0.0000E+00  0.7200E+02
    -12.707  0.0000E+00  0.7200E+02
    -12.324  0.0000E+00  0.7200E+02
    -11.940  0.0000E+00  0.7200E+02
    -11.557  0.0000E+00  0.7200E+02
    -11.173  0.0000E+00  0.7200E+02
    -10.790  0.0000E+00  0.7200E+02
    -10.406  0.0000E+00  0.7200E+02
    -10.023  0.7816E-04  0.7200E+02
     -9.639  0.4172E+02  0.8800E+02
     -9.256  0.0000E+00  0.8800E+02
     -8.872  0.0000E+00  0.8800E+02
     -8.489  0.4675E+02  0.1059E+03
     -8.106  0.3861E+02  0.1207E+03
     -7.722  0.3980E+02  0.1360E+03
     -7.339  0.0000E+00  0.1360E+03
     -6.955  0.3375E-02  0.1360E+03
     -6.572  0.8344E+02  0.1680E+03
     -6.188  0.4922E-12  0.1680E+03
     -5.805  0.1584E+03  0.2287E+03
     -5.421  0.2902E+02  0.2400E+03
     -5.038  0.0000E+00  0.2400E+03
     -4.654  0.0000E+00  0.2400E+03
     -4.271  0.0000E+00  0.2400E+03
     -3.887  0.0000E+00  0.2400E+03
     -3.504  0.0000E+00  0.2400E+03
     -3.120  0.0000E+00  0.2400E+03
     -2.737  0.0000E+00  0.2400E+03
     -2.353  0.2976E+00  0.2401E+03
     -1.970  0.1875E+03  0.3120E+03
     -1.586  0.0000E+00  0.3120E+03
     -1.203  0.0000E+00  0.3120E+03
     -0.819  0.0000E+00  0.3120E+03
     -0.436  0.0000E+00  0.3120E+03
     -0.052  0.0000E+00  0.3120E+03
      0.331  0.0000E+00  0.3120E+03
      0.715  0.0000E+00  0.3120E+03
      1.098  0.0000E+00  0.3120E+03
      1.482  0.0000E+00  0.3120E+03
      1.865  0.0000E+00  0.3120E+03
      2.249  0.0000E+00  0.3120E+03
      2.632  0.0000E+00  0.3120E+03
      3.016  0.0000E+00  0.3120E+03
