Be1 O1                                  
   1.00000000000000     
     2.3254913300000002    0.0000000000000000    1.3426229000000001
     0.7751631100000000    2.1924938500000000    1.3426229000000001
     0.0000000000000000    0.0000000000000000    2.6852467999999998
   Be   O 
     1     1
Direct
     0.0000000000000000    0.0000000000000000    0.0000000000000000
     0.2500000000000000    0.2500000000000000    0.2500000000000000
 
  0.00000000E+00  0.00000000E+00  0.00000000E+00
  0.00000000E+00  0.00000000E+00  0.00000000E+00
