Sr2 Al4                                 
   1.00000000000000     
     5.0566614300000001    0.0000000000000000    2.9194647400000000
     1.6855538100000000    4.7674669600000001    2.9194647400000000
     0.0000000000000000    0.0000000000000000    5.8389294800000000
   Sr   Al
     2     4
Direct
     0.1250000000000000    0.1250000000000000    0.1250000000000000
     0.8750000000000000    0.8750000000000000    0.8750000000000000
     0.5000000000000000    0.0000000000000000    0.5000000000000000
     0.0000000000000000    0.5000000000000000    0.5000000000000000
     0.5000000000000000    0.5000000000000000    0.5000000000000000
     0.5000000000000000    0.5000000000000000    0.0000000000000000
 
  0.00000000E+00  0.00000000E+00  0.00000000E+00
  0.00000000E+00  0.00000000E+00  0.00000000E+00
  0.00000000E+00  0.00000000E+00  0.00000000E+00
  0.00000000E+00  0.00000000E+00  0.00000000E+00
  0.00000000E+00  0.00000000E+00  0.00000000E+00
  0.00000000E+00  0.00000000E+00  0.00000000E+00
