       N       E                     dE             d eps       ncg     rms          rms(c)
DAV:   1     0.134551047820E+03    0.13455E+03   -0.14448E+04  7000   0.109E+03
DAV:   2    -0.883994069934E+01   -0.14339E+03   -0.13694E+03  8364   0.215E+02
DAV:   3    -0.193212353097E+02   -0.10481E+02   -0.10359E+02 11392   0.430E+01
DAV:   4    -0.198740044950E+02   -0.55277E+00   -0.55101E+00  9644   0.860E+00
DAV:   5    -0.198893256671E+02   -0.15321E-01   -0.15319E-01 10124   0.131E+00    0.269E+01
DAV:   6    -0.198289396887E+02    0.60386E-01   -0.41199E-02  9832   0.128E+00    0.158E+01
DAV:   7    -0.197933386278E+02    0.35601E-01   -0.96196E-02 10908   0.185E+00    0.457E-01
DAV:   8    -0.197943994659E+02   -0.10608E-02   -0.79970E-03  9432   0.335E-01    0.362E-01
DAV:   9    -0.197945997256E+02   -0.20026E-03   -0.32292E-04  9572   0.763E-02    0.227E-01
DAV:  10    -0.197946273965E+02   -0.27671E-04   -0.40611E-05  8868   0.416E-02    0.513E-02
DAV:  11    -0.197946266668E+02    0.72963E-06   -0.98654E-06 10288   0.115E-02
   1 F= -.19794627E+02 E0= -.19790036E+02  d E =-.918094E-02
