   2   2   0   0
  0.1054212E+02  0.3100923E-09  0.3100923E-09  0.3100923E-09  0.5000000E-15
  1.000000000000000E-004
  CAR 
 unknown system                          
     40.50389255     -8.34847626  301      9.74126933      1.00000000
     -8.348  0.0000E+00  0.0000E+00
     -8.186  0.0000E+00  0.0000E+00
     -8.023  0.0000E+00  0.0000E+00
     -7.860  0.0000E+00  0.0000E+00
     -7.697  0.0000E+00  0.0000E+00
     -7.534  0.0000E+00  0.0000E+00
     -7.371  0.0000E+00  0.0000E+00
     -7.209  0.0000E+00  0.0000E+00
     -7.046  0.0000E+00  0.0000E+00
     -6.883  0.0000E+00  0.0000E+00
     -6.720  0.0000E+00  0.0000E+00
     -6.557  0.0000E+00  0.0000E+00
     -6.394  0.2959E-15  0.4818E-16
     -6.232  0.2075E-04  0.3379E-05
     -6.069  0.1168E-01  0.1906E-02
     -5.906  0.1118E-01  0.3727E-02
     -5.743  0.1506E+00  0.2826E-01
     -5.580  0.1071E-01  0.3000E-01
     -5.417  0.1072E+00  0.4745E-01
     -5.254  0.7021E-01  0.5889E-01
     -5.092  0.3267E+00  0.1121E+00
     -4.929  0.4910E-01  0.1201E+00
     -4.766  0.6088E-01  0.1300E+00
     -4.603  0.1060E+00  0.1473E+00
     -4.440  0.4834E+00  0.2260E+00
     -4.277  0.1099E+00  0.2439E+00
     -4.115  0.4819E+00  0.3224E+00
     -3.952  0.1357E+00  0.3445E+00
     -3.789  0.1969E+00  0.3765E+00
     -3.626  0.1482E+01  0.6178E+00
     -3.463  0.6032E+00  0.7161E+00
     -3.300  0.9659E+00  0.8734E+00
     -3.138  0.1169E+01  0.1064E+01
     -2.975  0.8605E+00  0.1204E+01
     -2.812  0.1153E+01  0.1392E+01
     -2.649  0.1636E+01  0.1658E+01
     -2.486  0.8709E+00  0.1800E+01
     -2.323  0.1466E+00  0.1824E+01
     -2.161  0.7038E+00  0.1938E+01
     -1.998  0.1710E+00  0.1966E+01
     -1.835  0.1587E+00  0.1992E+01
     -1.672  0.1257E-01  0.1994E+01
     -1.509  0.3656E-01  0.2000E+01
     -1.346  0.1925E-05  0.2000E+01
     -1.183  0.0000E+00  0.2000E+01
     -1.021  0.0000E+00  0.2000E+01
     -0.858  0.0000E+00  0.2000E+01
     -0.695  0.0000E+00  0.2000E+01
     -0.532  0.0000E+00  0.2000E+01
     -0.369  0.7418E-15  0.2000E+01
     -0.206  0.6814E-04  0.2000E+01
     -0.044  0.4644E-01  0.2008E+01
      0.119  0.2616E-02  0.2008E+01
      0.282  0.3182E-01  0.2013E+01
      0.445  0.2629E+00  0.2056E+01
      0.608  0.2345E+00  0.2094E+01
      0.771  0.3060E+00  0.2144E+01
      0.933  0.1980E+00  0.2176E+01
      1.096  0.2446E+00  0.2216E+01
      1.259  0.5617E+00  0.2308E+01
      1.422  0.6967E+00  0.2421E+01
      1.585  0.8722E+00  0.2563E+01
      1.748  0.4481E+00  0.2636E+01
      1.911  0.6775E+00  0.2746E+01
      2.073  0.7841E+00  0.2874E+01
      2.236  0.1142E+01  0.3060E+01
      2.399  0.6327E+00  0.3163E+01
      2.562  0.6874E+00  0.3275E+01
      2.725  0.1038E+01  0.3444E+01
      2.888  0.2729E+00  0.3488E+01
      3.050  0.2849E+00  0.3535E+01
      3.213  0.1306E+01  0.3748E+01
      3.376  0.1127E+01  0.3931E+01
      3.539  0.2817E+01  0.4390E+01
      3.702  0.4446E+01  0.5114E+01
      3.865  0.3982E+01  0.5762E+01
      4.027  0.2447E+01  0.6161E+01
      4.190  0.1840E+01  0.6460E+01
      4.353  0.1846E+01  0.6761E+01
      4.516  0.6883E+00  0.6873E+01
      4.679  0.8362E+00  0.7009E+01
      4.842  0.1544E+01  0.7261E+01
      5.005  0.1042E+00  0.7278E+01
      5.167  0.1024E+01  0.7444E+01
      5.330  0.3716E+00  0.7505E+01
      5.493  0.6571E+00  0.7612E+01
      5.656  0.4107E+00  0.7679E+01
      5.819  0.4188E+00  0.7747E+01
      5.982  0.2840E+00  0.7793E+01
      6.144  0.3362E+00  0.7848E+01
      6.307  0.1380E+00  0.7870E+01
      6.470  0.5309E+00  0.7957E+01
      6.633  0.3378E+00  0.8012E+01
      6.796  0.1819E+00  0.8042E+01
      6.959  0.5599E+00  0.8133E+01
      7.121  0.3509E+00  0.8190E+01
      7.284  0.3927E+00  0.8254E+01
      7.447  0.6883E+00  0.8366E+01
      7.610  0.6122E+00  0.8466E+01
      7.773  0.6173E+00  0.8566E+01
      7.936  0.4274E+00  0.8636E+01
      8.098  0.5891E+00  0.8732E+01
      8.261  0.1201E+01  0.8927E+01
      8.424  0.5180E+00  0.9012E+01
      8.587  0.2825E+00  0.9058E+01
      8.750  0.7017E+00  0.9172E+01
      8.913  0.6795E+00  0.9282E+01
      9.076  0.1277E+01  0.9490E+01
      9.238  0.1385E+01  0.9716E+01
      9.401  0.6883E+00  0.9828E+01
      9.564  0.5679E+00  0.9920E+01
      9.727  0.4056E+00  0.9987E+01
      9.890  0.1268E+01  0.1019E+02
     10.053  0.1516E+01  0.1044E+02
     10.215  0.1334E+01  0.1066E+02
     10.378  0.1273E+01  0.1086E+02
     10.541  0.1649E+01  0.1113E+02
     10.704  0.1628E+01  0.1140E+02
     10.867  0.2493E+01  0.1180E+02
     11.030  0.1038E+01  0.1197E+02
     11.192  0.9743E+00  0.1213E+02
     11.355  0.2510E+01  0.1254E+02
     11.518  0.1361E+01  0.1276E+02
     11.681  0.1427E+01  0.1299E+02
     11.844  0.2357E+01  0.1338E+02
     12.007  0.3797E+01  0.1400E+02
     12.170  0.2251E+01  0.1436E+02
     12.332  0.3328E+00  0.1442E+02
     12.495  0.5869E+00  0.1451E+02
     12.658  0.2775E+00  0.1456E+02
     12.821  0.7246E-01  0.1457E+02
     12.984  0.4057E+00  0.1464E+02
     13.147  0.1049E+01  0.1481E+02
     13.309  0.1298E+01  0.1502E+02
     13.472  0.5262E+00  0.1510E+02
     13.635  0.7018E+00  0.1522E+02
     13.798  0.6322E+00  0.1532E+02
     13.961  0.3459E+00  0.1538E+02
     14.124  0.5114E+00  0.1546E+02
     14.286  0.3287E+00  0.1551E+02
     14.449  0.2924E-05  0.1551E+02
     14.612  0.1027E+00  0.1553E+02
     14.775  0.8173E+00  0.1566E+02
     14.938  0.8491E+00  0.1580E+02
     15.101  0.1619E+01  0.1607E+02
     15.264  0.7688E+00  0.1619E+02
     15.426  0.6332E+00  0.1629E+02
     15.589  0.1519E+01  0.1654E+02
     15.752  0.9435E+00  0.1670E+02
     15.915  0.8454E+00  0.1683E+02
     16.078  0.1031E+01  0.1700E+02
     16.241  0.8106E+00  0.1713E+02
     16.403  0.1815E+00  0.1716E+02
     16.566  0.1117E+01  0.1734E+02
     16.729  0.5582E+00  0.1743E+02
     16.892  0.1324E+01  0.1765E+02
     17.055  0.4555E+00  0.1772E+02
     17.218  0.9953E-01  0.1774E+02
     17.380  0.9365E+00  0.1789E+02
     17.543  0.1146E+01  0.1808E+02
     17.706  0.3198E+00  0.1813E+02
     17.869  0.2047E+00  0.1817E+02
     18.032  0.1386E+01  0.1839E+02
     18.195  0.3399E+00  0.1845E+02
     18.357  0.1336E+01  0.1866E+02
     18.520  0.2469E+00  0.1870E+02
     18.683  0.5964E+00  0.1880E+02
     18.846  0.8499E+00  0.1894E+02
     19.009  0.7136E+00  0.1906E+02
     19.172  0.7034E+00  0.1917E+02
     19.335  0.6148E+00  0.1927E+02
     19.497  0.6743E+00  0.1938E+02
     19.660  0.1198E+01  0.1958E+02
     19.823  0.8852E+00  0.1972E+02
     19.986  0.7976E-01  0.1973E+02
     20.149  0.2552E+00  0.1977E+02
     20.312  0.4967E-01  0.1978E+02
     20.474  0.7106E+00  0.1990E+02
     20.637  0.4839E+00  0.1998E+02
     20.800  0.6334E+00  0.2008E+02
     20.963  0.6927E+00  0.2019E+02
     21.126  0.2036E+00  0.2023E+02
     21.289  0.1164E+01  0.2042E+02
     21.451  0.1009E+01  0.2058E+02
     21.614  0.1725E+01  0.2086E+02
     21.777  0.9172E+00  0.2101E+02
     21.940  0.2499E+01  0.2142E+02
     22.103  0.1935E+00  0.2145E+02
     22.266  0.8889E+00  0.2159E+02
     22.429  0.2513E+01  0.2200E+02
     22.591  0.6668E+00  0.2211E+02
     22.754  0.7063E+00  0.2223E+02
     22.917  0.2188E+01  0.2258E+02
     23.080  0.6028E+00  0.2268E+02
     23.243  0.1226E+01  0.2288E+02
     23.406  0.9289E+00  0.2303E+02
     23.568  0.1550E+01  0.2328E+02
     23.731  0.2281E+00  0.2332E+02
     23.894  0.7018E+00  0.2343E+02
     24.057  0.6558E+00  0.2354E+02
     24.220  0.4834E+00  0.2362E+02
     24.383  0.6722E+00  0.2373E+02
     24.545  0.1370E+01  0.2395E+02
     24.708  0.3878E+00  0.2402E+02
     24.871  0.2623E+00  0.2406E+02
     25.034  0.6376E+00  0.2416E+02
     25.197  0.5396E+00  0.2425E+02
     25.360  0.7136E+00  0.2437E+02
     25.522  0.8299E+00  0.2450E+02
     25.685  0.1036E+01  0.2467E+02
     25.848  0.9083E+00  0.2482E+02
     26.011  0.5489E+00  0.2491E+02
     26.174  0.1117E+01  0.2509E+02
     26.337  0.1018E+01  0.2526E+02
     26.500  0.3946E+00  0.2532E+02
     26.662  0.9545E+00  0.2548E+02
     26.825  0.3737E+00  0.2554E+02
     26.988  0.2899E-04  0.2554E+02
     27.151  0.1851E-02  0.2554E+02
     27.314  0.5325E+00  0.2562E+02
     27.477  0.4029E+00  0.2569E+02
     27.639  0.5025E+00  0.2577E+02
     27.802  0.1792E+00  0.2580E+02
     27.965  0.3922E+00  0.2586E+02
     28.128  0.4803E+00  0.2594E+02
     28.291  0.6617E+00  0.2605E+02
     28.454  0.4977E-01  0.2606E+02
     28.616  0.7955E+00  0.2619E+02
     28.779  0.2633E+00  0.2623E+02
     28.942  0.8247E-04  0.2623E+02
     29.105  0.2684E+00  0.2627E+02
     29.268  0.5634E+00  0.2637E+02
     29.431  0.5481E+00  0.2645E+02
     29.594  0.5771E+00  0.2655E+02
     29.756  0.9907E+00  0.2671E+02
     29.919  0.9190E+00  0.2686E+02
     30.082  0.8600E+00  0.2700E+02
     30.245  0.1273E+01  0.2721E+02
     30.408  0.1656E+01  0.2748E+02
     30.571  0.1072E+01  0.2765E+02
     30.733  0.4602E+00  0.2773E+02
     30.896  0.3931E-02  0.2773E+02
     31.059  0.8594E+00  0.2787E+02
     31.222  0.5859E+00  0.2796E+02
     31.385  0.9212E+00  0.2811E+02
     31.548  0.1043E+01  0.2828E+02
     31.710  0.8441E+00  0.2842E+02
     31.873  0.7887E+00  0.2855E+02
     32.036  0.4412E+00  0.2862E+02
     32.199  0.1954E+01  0.2894E+02
     32.362  0.2560E+01  0.2935E+02
     32.525  0.2690E+00  0.2940E+02
     32.688  0.2922E+00  0.2945E+02
     32.850  0.3118E+00  0.2950E+02
     33.013  0.7782E-01  0.2951E+02
     33.176  0.3545E+00  0.2957E+02
     33.339  0.7011E+00  0.2968E+02
     33.502  0.1468E+01  0.2992E+02
     33.665  0.9022E+00  0.3007E+02
     33.827  0.1704E-01  0.3007E+02
     33.990  0.3908E+00  0.3013E+02
     34.153  0.4501E+00  0.3021E+02
     34.316  0.3371E+00  0.3026E+02
     34.479  0.3934E+00  0.3033E+02
     34.642  0.1427E+01  0.3056E+02
     34.804  0.7526E+00  0.3068E+02
     34.967  0.4024E+00  0.3075E+02
     35.130  0.1733E+01  0.3103E+02
     35.293  0.3156E+00  0.3108E+02
     35.456  0.1099E+01  0.3126E+02
     35.619  0.1536E+01  0.3151E+02
     35.781  0.5749E+00  0.3160E+02
     35.944  0.1101E-01  0.3160E+02
     36.107  0.8419E+00  0.3174E+02
     36.270  0.4621E-01  0.3175E+02
     36.433  0.2942E+00  0.3180E+02
     36.596  0.2139E+00  0.3183E+02
     36.759  0.8633E-03  0.3183E+02
     36.921  0.3895E-01  0.3184E+02
     37.084  0.3474E-01  0.3184E+02
     37.247  0.2109E-01  0.3185E+02
     37.410  0.5659E+00  0.3194E+02
     37.573  0.2507E-02  0.3194E+02
     37.736  0.0000E+00  0.3194E+02
     37.898  0.7590E-08  0.3194E+02
     38.061  0.5907E-01  0.3195E+02
     38.224  0.2391E+00  0.3199E+02
     38.387  0.7013E-01  0.3200E+02
     38.550  0.1245E-03  0.3200E+02
     38.713  0.0000E+00  0.3200E+02
     38.875  0.0000E+00  0.3200E+02
     39.038  0.0000E+00  0.3200E+02
     39.201  0.0000E+00  0.3200E+02
     39.364  0.0000E+00  0.3200E+02
     39.527  0.0000E+00  0.3200E+02
     39.690  0.0000E+00  0.3200E+02
     39.853  0.0000E+00  0.3200E+02
     40.015  0.0000E+00  0.3200E+02
     40.178  0.0000E+00  0.3200E+02
     40.341  0.0000E+00  0.3200E+02
     40.504  0.0000E+00  0.3200E+02
