   2   2   0   0
  0.2226362E+02  0.3192385E-09  0.3192384E-09  0.5045042E-09  0.5000000E-15
  1.000000000000000E-004
  CAR 
 unknown system                          
     20.14173577    -28.32525610  301      4.88641378      1.00000000
    -28.325  0.0000E+00  0.0000E+00
    -28.164  0.0000E+00  0.0000E+00
    -28.002  0.0000E+00  0.0000E+00
    -27.841  0.0000E+00  0.0000E+00
    -27.679  0.0000E+00  0.0000E+00
    -27.517  0.0000E+00  0.0000E+00
    -27.356  0.0000E+00  0.0000E+00
    -27.194  0.0000E+00  0.0000E+00
    -27.033  0.0000E+00  0.0000E+00
    -26.871  0.0000E+00  0.0000E+00
    -26.710  0.0000E+00  0.0000E+00
    -26.548  0.0000E+00  0.0000E+00
    -26.387  0.9658E-15  0.1560E-15
    -26.225  0.5690E-04  0.9193E-05
    -26.063  0.3611E+00  0.5835E-01
    -25.902  0.9719E+01  0.1628E+01
    -25.740  0.1092E+02  0.3393E+01
    -25.579  0.1077E+02  0.5133E+01
    -25.417  0.2010E+02  0.8380E+01
    -25.256  0.2112E+02  0.1179E+02
    -25.094  0.1291E+01  0.1200E+02
    -24.933  0.8310E-05  0.1200E+02
    -24.771  0.0000E+00  0.1200E+02
    -24.609  0.0000E+00  0.1200E+02
    -24.448  0.0000E+00  0.1200E+02
    -24.286  0.0000E+00  0.1200E+02
    -24.125  0.0000E+00  0.1200E+02
    -23.963  0.0000E+00  0.1200E+02
    -23.802  0.0000E+00  0.1200E+02
    -23.640  0.0000E+00  0.1200E+02
    -23.479  0.0000E+00  0.1200E+02
    -23.317  0.0000E+00  0.1200E+02
    -23.155  0.0000E+00  0.1200E+02
    -22.994  0.0000E+00  0.1200E+02
    -22.832  0.0000E+00  0.1200E+02
    -22.671  0.0000E+00  0.1200E+02
    -22.509  0.0000E+00  0.1200E+02
    -22.348  0.0000E+00  0.1200E+02
    -22.186  0.0000E+00  0.1200E+02
    -22.025  0.0000E+00  0.1200E+02
    -21.863  0.0000E+00  0.1200E+02
    -21.701  0.0000E+00  0.1200E+02
    -21.540  0.0000E+00  0.1200E+02
    -21.378  0.0000E+00  0.1200E+02
    -21.217  0.0000E+00  0.1200E+02
    -21.055  0.0000E+00  0.1200E+02
    -20.894  0.0000E+00  0.1200E+02
    -20.732  0.0000E+00  0.1200E+02
    -20.571  0.0000E+00  0.1200E+02
    -20.409  0.0000E+00  0.1200E+02
    -20.247  0.0000E+00  0.1200E+02
    -20.086  0.0000E+00  0.1200E+02
    -19.924  0.0000E+00  0.1200E+02
    -19.763  0.0000E+00  0.1200E+02
    -19.601  0.0000E+00  0.1200E+02
    -19.440  0.0000E+00  0.1200E+02
    -19.278  0.0000E+00  0.1200E+02
    -19.117  0.0000E+00  0.1200E+02
    -18.955  0.0000E+00  0.1200E+02
    -18.793  0.0000E+00  0.1200E+02
    -18.632  0.0000E+00  0.1200E+02
    -18.470  0.0000E+00  0.1200E+02
    -18.309  0.0000E+00  0.1200E+02
    -18.147  0.0000E+00  0.1200E+02
    -17.986  0.0000E+00  0.1200E+02
    -17.824  0.0000E+00  0.1200E+02
    -17.663  0.0000E+00  0.1200E+02
    -17.501  0.0000E+00  0.1200E+02
    -17.339  0.0000E+00  0.1200E+02
    -17.178  0.0000E+00  0.1200E+02
    -17.016  0.0000E+00  0.1200E+02
    -16.855  0.0000E+00  0.1200E+02
    -16.693  0.0000E+00  0.1200E+02
    -16.532  0.0000E+00  0.1200E+02
    -16.370  0.0000E+00  0.1200E+02
    -16.209  0.0000E+00  0.1200E+02
    -16.047  0.0000E+00  0.1200E+02
    -15.885  0.0000E+00  0.1200E+02
    -15.724  0.0000E+00  0.1200E+02
    -15.562  0.0000E+00  0.1200E+02
    -15.401  0.0000E+00  0.1200E+02
    -15.239  0.0000E+00  0.1200E+02
    -15.078  0.0000E+00  0.1200E+02
    -14.916  0.0000E+00  0.1200E+02
    -14.754  0.0000E+00  0.1200E+02
    -14.593  0.0000E+00  0.1200E+02
    -14.431  0.0000E+00  0.1200E+02
    -14.270  0.0000E+00  0.1200E+02
    -14.108  0.0000E+00  0.1200E+02
    -13.947  0.0000E+00  0.1200E+02
    -13.785  0.0000E+00  0.1200E+02
    -13.624  0.0000E+00  0.1200E+02
    -13.462  0.0000E+00  0.1200E+02
    -13.300  0.0000E+00  0.1200E+02
    -13.139  0.0000E+00  0.1200E+02
    -12.977  0.0000E+00  0.1200E+02
    -12.816  0.0000E+00  0.1200E+02
    -12.654  0.0000E+00  0.1200E+02
    -12.493  0.0000E+00  0.1200E+02
    -12.331  0.0000E+00  0.1200E+02
    -12.170  0.0000E+00  0.1200E+02
    -12.008  0.0000E+00  0.1200E+02
    -11.846  0.0000E+00  0.1200E+02
    -11.685  0.0000E+00  0.1200E+02
    -11.523  0.0000E+00  0.1200E+02
    -11.362  0.0000E+00  0.1200E+02
    -11.200  0.0000E+00  0.1200E+02
    -11.039  0.0000E+00  0.1200E+02
    -10.877  0.0000E+00  0.1200E+02
    -10.716  0.0000E+00  0.1200E+02
    -10.554  0.0000E+00  0.1200E+02
    -10.392  0.0000E+00  0.1200E+02
    -10.231  0.0000E+00  0.1200E+02
    -10.069  0.0000E+00  0.1200E+02
     -9.908  0.0000E+00  0.1200E+02
     -9.746  0.0000E+00  0.1200E+02
     -9.585  0.0000E+00  0.1200E+02
     -9.423  0.0000E+00  0.1200E+02
     -9.262  0.0000E+00  0.1200E+02
     -9.100  0.0000E+00  0.1200E+02
     -8.938  0.0000E+00  0.1200E+02
     -8.777  0.0000E+00  0.1200E+02
     -8.615  0.0000E+00  0.1200E+02
     -8.454  0.0000E+00  0.1200E+02
     -8.292  0.0000E+00  0.1200E+02
     -8.131  0.0000E+00  0.1200E+02
     -7.969  0.0000E+00  0.1200E+02
     -7.808  0.0000E+00  0.1200E+02
     -7.646  0.0000E+00  0.1200E+02
     -7.484  0.0000E+00  0.1200E+02
     -7.323  0.0000E+00  0.1200E+02
     -7.161  0.0000E+00  0.1200E+02
     -7.000  0.0000E+00  0.1200E+02
     -6.838  0.0000E+00  0.1200E+02
     -6.677  0.0000E+00  0.1200E+02
     -6.515  0.0000E+00  0.1200E+02
     -6.354  0.0000E+00  0.1200E+02
     -6.192  0.0000E+00  0.1200E+02
     -6.030  0.0000E+00  0.1200E+02
     -5.869  0.0000E+00  0.1200E+02
     -5.707  0.0000E+00  0.1200E+02
     -5.546  0.0000E+00  0.1200E+02
     -5.384  0.0000E+00  0.1200E+02
     -5.223  0.0000E+00  0.1200E+02
     -5.061  0.0000E+00  0.1200E+02
     -4.900  0.0000E+00  0.1200E+02
     -4.738  0.0000E+00  0.1200E+02
     -4.576  0.0000E+00  0.1200E+02
     -4.415  0.0000E+00  0.1200E+02
     -4.253  0.0000E+00  0.1200E+02
     -4.092  0.0000E+00  0.1200E+02
     -3.930  0.0000E+00  0.1200E+02
     -3.769  0.0000E+00  0.1200E+02
     -3.607  0.0000E+00  0.1200E+02
     -3.446  0.0000E+00  0.1200E+02
     -3.284  0.0000E+00  0.1200E+02
     -3.122  0.0000E+00  0.1200E+02
     -2.961  0.0000E+00  0.1200E+02
     -2.799  0.0000E+00  0.1200E+02
     -2.638  0.6852E-09  0.1200E+02
     -2.476  0.4903E-02  0.1200E+02
     -2.315  0.2058E-01  0.1200E+02
     -2.153  0.4507E-01  0.1201E+02
     -1.992  0.1572E+00  0.1204E+02
     -1.830  0.1454E+00  0.1206E+02
     -1.668  0.1618E+00  0.1209E+02
     -1.507  0.7724E-02  0.1209E+02
     -1.345  0.1670E+00  0.1211E+02
     -1.184  0.1049E+00  0.1213E+02
     -1.022  0.6655E+00  0.1224E+02
     -0.861  0.1352E+00  0.1226E+02
     -0.699  0.1933E+00  0.1229E+02
     -0.538  0.6806E-01  0.1230E+02
     -0.376  0.2879E+00  0.1235E+02
     -0.214  0.2685E+00  0.1239E+02
     -0.053  0.6682E+00  0.1250E+02
      0.109  0.5907E+00  0.1260E+02
      0.270  0.4906E-01  0.1260E+02
      0.432  0.5117E+00  0.1269E+02
      0.593  0.8767E+00  0.1283E+02
      0.755  0.4693E+00  0.1290E+02
      0.916  0.4086E+00  0.1297E+02
      1.078  0.5509E-01  0.1298E+02
      1.240  0.1681E+01  0.1325E+02
      1.401  0.1988E+01  0.1357E+02
      1.563  0.1421E+01  0.1380E+02
      1.724  0.1326E+01  0.1402E+02
      1.886  0.6407E+00  0.1412E+02
      2.047  0.8067E+00  0.1425E+02
      2.209  0.1896E+01  0.1456E+02
      2.371  0.2600E+01  0.1498E+02
      2.532  0.1417E+01  0.1521E+02
      2.694  0.1029E+01  0.1537E+02
      2.855  0.1790E+01  0.1566E+02
      3.017  0.2032E+01  0.1599E+02
      3.178  0.1709E+01  0.1627E+02
      3.340  0.1818E+01  0.1656E+02
      3.501  0.9552E+00  0.1671E+02
      3.663  0.3283E+01  0.1724E+02
      3.825  0.2058E+01  0.1758E+02
      3.986  0.1553E+01  0.1783E+02
      4.148  0.4845E+01  0.1861E+02
      4.309  0.3079E+01  0.1911E+02
      4.471  0.1691E+01  0.1938E+02
      4.632  0.8620E+00  0.1952E+02
      4.794  0.1854E+01  0.1982E+02
      4.955  0.1596E+01  0.2008E+02
      5.117  0.4996E+00  0.2016E+02
      5.279  0.3059E+01  0.2065E+02
      5.440  0.4125E+01  0.2132E+02
      5.602  0.4039E+01  0.2197E+02
      5.763  0.2108E+01  0.2231E+02
      5.925  0.2974E+01  0.2279E+02
      6.086  0.4107E+01  0.2346E+02
      6.248  0.2293E+01  0.2383E+02
      6.409  0.3874E+01  0.2445E+02
      6.571  0.1469E+01  0.2469E+02
      6.733  0.4642E+01  0.2544E+02
      6.894  0.1466E+01  0.2568E+02
      7.056  0.1478E+01  0.2591E+02
      7.217  0.1183E+01  0.2611E+02
      7.379  0.1397E+01  0.2633E+02
      7.540  0.1944E+01  0.2665E+02
      7.702  0.8126E+00  0.2678E+02
      7.863  0.1622E+01  0.2704E+02
      8.025  0.3513E+00  0.2710E+02
      8.187  0.1640E+01  0.2736E+02
      8.348  0.1030E+01  0.2753E+02
      8.510  0.1358E+01  0.2775E+02
      8.671  0.8383E+00  0.2788E+02
      8.833  0.1938E+01  0.2820E+02
      8.994  0.1128E+01  0.2838E+02
      9.156  0.1089E+01  0.2855E+02
      9.317  0.1432E+01  0.2878E+02
      9.479  0.1762E+01  0.2907E+02
      9.641  0.1777E+01  0.2936E+02
      9.802  0.2281E+01  0.2972E+02
      9.964  0.1117E+01  0.2991E+02
     10.125  0.2481E+01  0.3031E+02
     10.287  0.2389E+01  0.3069E+02
     10.448  0.3479E+01  0.3125E+02
     10.610  0.2929E+01  0.3173E+02
     10.771  0.2565E+01  0.3214E+02
     10.933  0.3202E+01  0.3266E+02
     11.095  0.3565E+01  0.3324E+02
     11.256  0.2232E+01  0.3360E+02
     11.418  0.2032E+01  0.3392E+02
     11.579  0.1721E+01  0.3420E+02
     11.741  0.1585E+01  0.3446E+02
     11.902  0.2107E+01  0.3480E+02
     12.064  0.8465E+00  0.3494E+02
     12.225  0.1845E+01  0.3523E+02
     12.387  0.5114E+00  0.3532E+02
     12.549  0.7075E+00  0.3543E+02
     12.710  0.6211E+00  0.3553E+02
     12.872  0.1018E+01  0.3570E+02
     13.033  0.1906E+00  0.3573E+02
     13.195  0.1399E+01  0.3595E+02
     13.356  0.1265E+01  0.3616E+02
     13.518  0.7254E+00  0.3627E+02
     13.679  0.7173E+00  0.3639E+02
     13.841  0.1095E+01  0.3657E+02
     14.003  0.1621E+01  0.3683E+02
     14.164  0.1328E+01  0.3704E+02
     14.326  0.1901E+01  0.3735E+02
     14.487  0.1119E+01  0.3753E+02
     14.649  0.7286E+00  0.3765E+02
     14.810  0.2236E+01  0.3801E+02
     14.972  0.6955E+00  0.3812E+02
     15.133  0.1217E+01  0.3832E+02
     15.295  0.8672E+00  0.3846E+02
     15.457  0.8078E+00  0.3859E+02
     15.618  0.2714E+00  0.3863E+02
     15.780  0.6153E+00  0.3873E+02
     15.941  0.1108E+01  0.3891E+02
     16.103  0.2650E+00  0.3895E+02
     16.264  0.1411E-01  0.3896E+02
     16.426  0.4411E+00  0.3903E+02
     16.587  0.9850E+00  0.3919E+02
     16.749  0.7135E+00  0.3930E+02
     16.911  0.5064E+00  0.3938E+02
     17.072  0.6258E+00  0.3949E+02
     17.234  0.1429E+00  0.3951E+02
     17.395  0.8416E+00  0.3964E+02
     17.557  0.6265E-01  0.3965E+02
     17.718  0.5077E+00  0.3974E+02
     17.880  0.1056E+01  0.3991E+02
     18.041  0.5749E+00  0.4000E+02
     18.203  0.4445E-03  0.4000E+02
     18.365  0.0000E+00  0.4000E+02
     18.526  0.0000E+00  0.4000E+02
     18.688  0.0000E+00  0.4000E+02
     18.849  0.0000E+00  0.4000E+02
     19.011  0.0000E+00  0.4000E+02
     19.172  0.0000E+00  0.4000E+02
     19.334  0.0000E+00  0.4000E+02
     19.496  0.0000E+00  0.4000E+02
     19.657  0.0000E+00  0.4000E+02
     19.819  0.0000E+00  0.4000E+02
     19.980  0.0000E+00  0.4000E+02
     20.142  0.0000E+00  0.4000E+02
