       N       E                     dE             d eps       ncg     rms          rms(c)
DAV:   1     0.439163157462E+03    0.43916E+03   -0.29817E+04 27720   0.242E+03
DAV:   2     0.762338029545E+01   -0.43154E+03   -0.42555E+03 24944   0.626E+02
DAV:   3    -0.126117846781E+02   -0.20235E+02   -0.19982E+02 30544   0.152E+02
DAV:   4    -0.130409998578E+02   -0.42922E+00   -0.42859E+00 25792   0.216E+01
DAV:   5    -0.130537134505E+02   -0.12714E-01   -0.12712E-01 30816   0.403E+00    0.149E+01
DAV:   6    -0.127925290098E+02    0.26118E+00   -0.21732E+01 26320   0.675E+01    0.165E+01
DAV:   7    -0.117640649838E+02    0.10285E+01   -0.48383E+00 24840   0.368E+01    0.539E+00
DAV:   8    -0.117573241848E+02    0.67408E-02   -0.46058E-01 30824   0.875E+00    0.191E+00
DAV:   9    -0.117447345029E+02    0.12590E-01   -0.65187E-02 30504   0.352E+00    0.283E-01
DAV:  10    -0.117450270314E+02   -0.29253E-03   -0.22827E-03 25368   0.404E-01    0.145E-01
DAV:  11    -0.117450911193E+02   -0.64088E-04   -0.14958E-04 27792   0.134E-01    0.659E-02
DAV:  12    -0.117450886669E+02    0.24524E-05   -0.40192E-05 32936   0.848E-02    0.387E-02
DAV:  13    -0.117450877991E+02    0.86774E-06   -0.20867E-06 19792   0.282E-02
   1 F= -.11745088E+02 E0= -.11745012E+02  d E =-.150682E-03
