       N       E                     dE             d eps       ncg     rms          rms(c)
DAV:   1     0.136955935989E+03    0.13696E+03   -0.13134E+04 35608   0.147E+03
DAV:   2    -0.907558552331E+01   -0.14603E+03   -0.13928E+03 34072   0.375E+02
DAV:   3    -0.119699598952E+02   -0.28944E+01   -0.28787E+01 40408   0.625E+01
DAV:   4    -0.120124575548E+02   -0.42498E-01   -0.42493E-01 36512   0.717E+00
DAV:   5    -0.120137920462E+02   -0.13345E-02   -0.13345E-02 41240   0.130E+00    0.130E+01
DAV:   6    -0.141959303623E+02   -0.21821E+01   -0.22311E+01 32800   0.936E+01    0.218E+01
DAV:   7    -0.105548726332E+02    0.36411E+01   -0.76767E+00 33120   0.577E+01    0.185E+00
DAV:   8    -0.105322166051E+02    0.22656E-01   -0.26971E-01 39776   0.669E+00    0.918E-01
DAV:   9    -0.105226774563E+02    0.95391E-02   -0.22778E-02 43216   0.239E+00    0.386E-01
DAV:  10    -0.105213755691E+02    0.13019E-02   -0.28222E-03 40392   0.110E+00    0.826E-02
DAV:  11    -0.105213773369E+02   -0.17678E-05   -0.88534E-05 35112   0.838E-02    0.158E-02
DAV:  12    -0.105213773763E+02   -0.39346E-07   -0.14655E-06 39024   0.138E-02
   1 F= -.10521377E+02 E0= -.10520395E+02  d E =-.196494E-02
