       N       E                     dE             d eps       ncg     rms          rms(c)
DAV:   1     0.197262071199E+03    0.19726E+03   -0.27775E+04 22176   0.121E+03
DAV:   2    -0.819681381582E+02   -0.27923E+03   -0.26343E+03 26452   0.303E+02
DAV:   3    -0.951311397071E+02   -0.13163E+02   -0.12992E+02 29800   0.622E+01
DAV:   4    -0.952421594428E+02   -0.11102E+00   -0.11075E+00 27504   0.575E+00
DAV:   5    -0.952431041011E+02   -0.94466E-03   -0.94413E-03 28400   0.499E-01    0.164E+01
DAV:   6    -0.907558204333E+02    0.44873E+01   -0.59464E+00 29404   0.152E+01    0.783E+00
DAV:   7    -0.904837272687E+02    0.27209E+00   -0.15092E+00 29532   0.592E+00    0.471E+00
DAV:   8    -0.904298104840E+02    0.53917E-01   -0.14691E-01 27292   0.221E+00    0.921E-01
DAV:   9    -0.904242871074E+02    0.55234E-02   -0.16741E-02 27364   0.110E+00    0.367E-01
DAV:  10    -0.904249701897E+02   -0.68308E-03   -0.47500E-03 28712   0.332E-01    0.115E-01
DAV:  11    -0.904249269591E+02    0.43231E-04   -0.37099E-04 29516   0.137E-01    0.262E-02
DAV:  12    -0.904249605173E+02   -0.33558E-04   -0.79265E-05 26676   0.547E-02    0.152E-02
DAV:  13    -0.904249628416E+02   -0.23244E-05   -0.32531E-06 28748   0.134E-02    0.551E-03
DAV:  14    -0.904249630623E+02   -0.22066E-06   -0.57579E-07 15248   0.496E-03
   1 F= -.90424963E+02 E0= -.90424963E+02  d E =-.113176E-15
