unknown system                          
           1
     2.251375   -3.833765    0.000000
     2.251375    3.833765    0.000000
     0.000000    0.000000    4.056538
   H    C    N 
     2     4     6
Direct configuration=     1
   0.60167900  0.60167900  0.70119700
   0.39832100  0.39832100  0.20119700
   0.33156500  0.99013900  0.49846300
   0.99013900  0.33156500  0.49846300
   0.66843500  0.00986100  0.99846300
   0.00986100  0.66843500  0.99846300
   0.33282100  0.93735900  0.85663800
   0.93735900  0.33282100  0.85663800
   0.66717900  0.06264100  0.35663800
   0.06264100  0.66717900  0.35663800
   0.71482100  0.71482100  0.92460000
   0.28517900  0.28517900  0.42460000
