       N       E                     dE             d eps       ncg     rms          rms(c)
DAV:   1     0.847196133912E+03    0.84720E+03   -0.29465E+04 24616   0.149E+03
DAV:   2     0.385435778517E+01   -0.84334E+03   -0.80758E+03 24576   0.617E+02
DAV:   3    -0.486698330851E+02   -0.52524E+02   -0.46845E+02 36576   0.156E+02
DAV:   4    -0.510792847437E+02   -0.24095E+01   -0.23600E+01 38208   0.359E+01
DAV:   5    -0.511064779750E+02   -0.27193E-01   -0.27182E-01 38800   0.466E+00    0.360E+01
DAV:   6    -0.519333668631E+02   -0.82689E+00   -0.30473E+01 34984   0.282E+01    0.197E+01
DAV:   7    -0.539386683091E+02   -0.20053E+01   -0.55585E+01 39448   0.330E+01    0.183E+01
DAV:   8    -0.491854483550E+02    0.47532E+01   -0.31941E+01 39112   0.215E+01    0.623E+00
DAV:   9    -0.483676741040E+02    0.81777E+00   -0.14125E+00 37528   0.984E+00    0.319E+00
DAV:  10    -0.483301452606E+02    0.37529E-01   -0.16208E-01 36672   0.266E+00    0.219E+00
DAV:  11    -0.482955856901E+02    0.34560E-01   -0.19115E-02 36768   0.880E-01    0.166E+00
DAV:  12    -0.482605195060E+02    0.35066E-01   -0.72508E-02 38904   0.168E+00    0.121E-01
DAV:  13    -0.482611532064E+02   -0.63370E-03   -0.76786E-03 35344   0.514E-01    0.143E-01
DAV:  14    -0.482610511606E+02    0.10205E-03   -0.41133E-04 37392   0.155E-01    0.796E-02
DAV:  15    -0.482610333961E+02    0.17764E-04   -0.24162E-04 39352   0.119E-01    0.414E-02
DAV:  16    -0.482610251546E+02    0.82415E-05   -0.75839E-05 38304   0.631E-02    0.235E-02
DAV:  17    -0.482610208890E+02    0.42656E-05   -0.13646E-05 35864   0.283E-02    0.105E-02
DAV:  18    -0.482610196848E+02    0.12042E-05   -0.25933E-06 19688   0.163E-02    0.661E-03
DAV:  19    -0.482610196189E+02    0.65960E-07   -0.41515E-07 16208   0.582E-03
   1 F= -.48261020E+02 E0= -.48256952E+02  d E =-.813480E-02
