Nb4 Rh1
1.0
   0.0000000000000000    2.2845170000000001   11.2877290000000006
   1.6927000000000001    0.0000000000000000   11.2877290000000006
   1.6927000000000001    2.2845170000000001    0.0000000000000000
Nb Rh
4 1
direct
   0.4065020000000000    0.4065020000000000    0.5934980000000000 Nb
   0.8025220000000000    0.8025220000000000    0.1974780000000000 Nb
   0.1974780000000000    0.1974780000000000    0.8025220000000000 Nb
   0.5934980000000000    0.5934980000000000    0.4065020000000000 Nb
   0.0000000000000000    0.0000000000000000    0.0000000000000000 Rh
