Tc6 W2                                  
   1.00000000000000     
     2.7822529999999999   -4.8190039999999996    0.0000000000000000
     2.7822529999999999    4.8190039999999996    0.0000000000000000
     0.0000000000000000    0.0000000000000000    4.4809049999999999
   Tc   W 
     6     2
Direct
     0.1670670000000030    0.3341350000000034    0.2500000000000000
     0.6658649999999966    0.8329329999999970    0.2500000000000000
     0.1670670000000030    0.8329329999999970    0.2500000000000000
     0.8329329999999970    0.6658649999999966    0.7500000000000000
     0.3341350000000034    0.1670670000000030    0.7500000000000000
     0.8329329999999970    0.1670670000000030    0.7500000000000000
     0.3333330000000032    0.6666669999999968    0.7500000000000000
     0.6666669999999968    0.3333330000000032    0.2500000000000000
 
  0.00000000E+00  0.00000000E+00  0.00000000E+00
  0.00000000E+00  0.00000000E+00  0.00000000E+00
  0.00000000E+00  0.00000000E+00  0.00000000E+00
  0.00000000E+00  0.00000000E+00  0.00000000E+00
  0.00000000E+00  0.00000000E+00  0.00000000E+00
  0.00000000E+00  0.00000000E+00  0.00000000E+00
  0.00000000E+00  0.00000000E+00  0.00000000E+00
  0.00000000E+00  0.00000000E+00  0.00000000E+00
