   8   8   0   0
  0.1501964E+02  0.5564506E-09  0.5564506E-09  0.4480905E-09  0.5000000E-15
  1.000000000000000E-004
  CAR 
 unknown system                          
     27.90454212    -30.90322811  301     10.87545996      1.00000000
    -30.903  0.0000E+00  0.0000E+00
    -30.707  0.0000E+00  0.0000E+00
    -30.511  0.0000E+00  0.0000E+00
    -30.315  0.0000E+00  0.0000E+00
    -30.119  0.0000E+00  0.0000E+00
    -29.923  0.0000E+00  0.0000E+00
    -29.727  0.0000E+00  0.0000E+00
    -29.531  0.0000E+00  0.0000E+00
    -29.335  0.0000E+00  0.0000E+00
    -29.139  0.0000E+00  0.0000E+00
    -28.943  0.0000E+00  0.0000E+00
    -28.747  0.0000E+00  0.0000E+00
    -28.551  0.0000E+00  0.0000E+00
    -28.355  0.3015E-04  0.5910E-05
    -28.159  0.3214E+01  0.6301E+00
    -27.963  0.3614E+02  0.7715E+01
    -27.767  0.3589E+02  0.1475E+02
    -27.571  0.4062E+02  0.2271E+02
    -27.375  0.6256E+02  0.3497E+02
    -27.179  0.5232E+01  0.3600E+02
    -26.983  0.8729E-07  0.3600E+02
    -26.787  0.0000E+00  0.3600E+02
    -26.591  0.0000E+00  0.3600E+02
    -26.395  0.0000E+00  0.3600E+02
    -26.199  0.0000E+00  0.3600E+02
    -26.003  0.0000E+00  0.3600E+02
    -25.807  0.0000E+00  0.3600E+02
    -25.611  0.0000E+00  0.3600E+02
    -25.415  0.0000E+00  0.3600E+02
    -25.218  0.0000E+00  0.3600E+02
    -25.022  0.0000E+00  0.3600E+02
    -24.826  0.0000E+00  0.3600E+02
    -24.630  0.0000E+00  0.3600E+02
    -24.434  0.0000E+00  0.3600E+02
    -24.238  0.0000E+00  0.3600E+02
    -24.042  0.0000E+00  0.3600E+02
    -23.846  0.0000E+00  0.3600E+02
    -23.650  0.0000E+00  0.3600E+02
    -23.454  0.0000E+00  0.3600E+02
    -23.258  0.0000E+00  0.3600E+02
    -23.062  0.0000E+00  0.3600E+02
    -22.866  0.0000E+00  0.3600E+02
    -22.670  0.0000E+00  0.3600E+02
    -22.474  0.0000E+00  0.3600E+02
    -22.278  0.0000E+00  0.3600E+02
    -22.082  0.0000E+00  0.3600E+02
    -21.886  0.0000E+00  0.3600E+02
    -21.690  0.0000E+00  0.3600E+02
    -21.494  0.0000E+00  0.3600E+02
    -21.298  0.0000E+00  0.3600E+02
    -21.102  0.0000E+00  0.3600E+02
    -20.906  0.0000E+00  0.3600E+02
    -20.710  0.0000E+00  0.3600E+02
    -20.514  0.0000E+00  0.3600E+02
    -20.318  0.0000E+00  0.3600E+02
    -20.122  0.0000E+00  0.3600E+02
    -19.926  0.0000E+00  0.3600E+02
    -19.730  0.0000E+00  0.3600E+02
    -19.534  0.0000E+00  0.3600E+02
    -19.338  0.0000E+00  0.3600E+02
    -19.142  0.0000E+00  0.3600E+02
    -18.946  0.0000E+00  0.3600E+02
    -18.750  0.0000E+00  0.3600E+02
    -18.554  0.0000E+00  0.3600E+02
    -18.358  0.0000E+00  0.3600E+02
    -18.162  0.0000E+00  0.3600E+02
    -17.966  0.0000E+00  0.3600E+02
    -17.769  0.0000E+00  0.3600E+02
    -17.573  0.0000E+00  0.3600E+02
    -17.377  0.0000E+00  0.3600E+02
    -17.181  0.0000E+00  0.3600E+02
    -16.985  0.0000E+00  0.3600E+02
    -16.789  0.0000E+00  0.3600E+02
    -16.593  0.0000E+00  0.3600E+02
    -16.397  0.0000E+00  0.3600E+02
    -16.201  0.0000E+00  0.3600E+02
    -16.005  0.0000E+00  0.3600E+02
    -15.809  0.0000E+00  0.3600E+02
    -15.613  0.0000E+00  0.3600E+02
    -15.417  0.0000E+00  0.3600E+02
    -15.221  0.0000E+00  0.3600E+02
    -15.025  0.0000E+00  0.3600E+02
    -14.829  0.0000E+00  0.3600E+02
    -14.633  0.0000E+00  0.3600E+02
    -14.437  0.0000E+00  0.3600E+02
    -14.241  0.0000E+00  0.3600E+02
    -14.045  0.0000E+00  0.3600E+02
    -13.849  0.0000E+00  0.3600E+02
    -13.653  0.0000E+00  0.3600E+02
    -13.457  0.0000E+00  0.3600E+02
    -13.261  0.0000E+00  0.3600E+02
    -13.065  0.0000E+00  0.3600E+02
    -12.869  0.0000E+00  0.3600E+02
    -12.673  0.0000E+00  0.3600E+02
    -12.477  0.0000E+00  0.3600E+02
    -12.281  0.0000E+00  0.3600E+02
    -12.085  0.0000E+00  0.3600E+02
    -11.889  0.0000E+00  0.3600E+02
    -11.693  0.0000E+00  0.3600E+02
    -11.497  0.0000E+00  0.3600E+02
    -11.301  0.0000E+00  0.3600E+02
    -11.105  0.0000E+00  0.3600E+02
    -10.909  0.0000E+00  0.3600E+02
    -10.713  0.0000E+00  0.3600E+02
    -10.517  0.0000E+00  0.3600E+02
    -10.321  0.0000E+00  0.3600E+02
    -10.124  0.0000E+00  0.3600E+02
     -9.928  0.0000E+00  0.3600E+02
     -9.732  0.0000E+00  0.3600E+02
     -9.536  0.0000E+00  0.3600E+02
     -9.340  0.0000E+00  0.3600E+02
     -9.144  0.0000E+00  0.3600E+02
     -8.948  0.0000E+00  0.3600E+02
     -8.752  0.0000E+00  0.3600E+02
     -8.556  0.0000E+00  0.3600E+02
     -8.360  0.0000E+00  0.3600E+02
     -8.164  0.0000E+00  0.3600E+02
     -7.968  0.0000E+00  0.3600E+02
     -7.772  0.0000E+00  0.3600E+02
     -7.576  0.0000E+00  0.3600E+02
     -7.380  0.0000E+00  0.3600E+02
     -7.184  0.0000E+00  0.3600E+02
     -6.988  0.0000E+00  0.3600E+02
     -6.792  0.0000E+00  0.3600E+02
     -6.596  0.0000E+00  0.3600E+02
     -6.400  0.0000E+00  0.3600E+02
     -6.204  0.0000E+00  0.3600E+02
     -6.008  0.0000E+00  0.3600E+02
     -5.812  0.0000E+00  0.3600E+02
     -5.616  0.0000E+00  0.3600E+02
     -5.420  0.0000E+00  0.3600E+02
     -5.224  0.0000E+00  0.3600E+02
     -5.028  0.0000E+00  0.3600E+02
     -4.832  0.0000E+00  0.3600E+02
     -4.636  0.0000E+00  0.3600E+02
     -4.440  0.0000E+00  0.3600E+02
     -4.244  0.0000E+00  0.3600E+02
     -4.048  0.0000E+00  0.3600E+02
     -3.852  0.0000E+00  0.3600E+02
     -3.656  0.0000E+00  0.3600E+02
     -3.460  0.0000E+00  0.3600E+02
     -3.264  0.0000E+00  0.3600E+02
     -3.068  0.0000E+00  0.3600E+02
     -2.872  0.0000E+00  0.3600E+02
     -2.675  0.0000E+00  0.3600E+02
     -2.479  0.0000E+00  0.3600E+02
     -2.283  0.0000E+00  0.3600E+02
     -2.087  0.0000E+00  0.3600E+02
     -1.891  0.0000E+00  0.3600E+02
     -1.695  0.0000E+00  0.3600E+02
     -1.499  0.0000E+00  0.3600E+02
     -1.303  0.0000E+00  0.3600E+02
     -1.107  0.0000E+00  0.3600E+02
     -0.911  0.0000E+00  0.3600E+02
     -0.715  0.0000E+00  0.3600E+02
     -0.519  0.0000E+00  0.3600E+02
     -0.323  0.0000E+00  0.3600E+02
     -0.127  0.0000E+00  0.3600E+02
      0.069  0.0000E+00  0.3600E+02
      0.265  0.0000E+00  0.3600E+02
      0.461  0.0000E+00  0.3600E+02
      0.657  0.0000E+00  0.3600E+02
      0.853  0.0000E+00  0.3600E+02
      1.049  0.0000E+00  0.3600E+02
      1.245  0.0000E+00  0.3600E+02
      1.441  0.0000E+00  0.3600E+02
      1.637  0.0000E+00  0.3600E+02
      1.833  0.0000E+00  0.3600E+02
      2.029  0.0000E+00  0.3600E+02
      2.225  0.0000E+00  0.3600E+02
      2.421  0.0000E+00  0.3600E+02
      2.617  0.0000E+00  0.3600E+02
      2.813  0.0000E+00  0.3600E+02
      3.009  0.6158E-04  0.3600E+02
      3.205  0.6744E-01  0.3601E+02
      3.401  0.5420E-01  0.3602E+02
      3.597  0.4901E+00  0.3612E+02
      3.793  0.6308E+00  0.3624E+02
      3.989  0.1857E+00  0.3628E+02
      4.185  0.3720E+00  0.3635E+02
      4.381  0.3879E+00  0.3643E+02
      4.577  0.1801E+01  0.3678E+02
      4.773  0.8393E+00  0.3695E+02
      4.970  0.2581E-01  0.3695E+02
      5.166  0.1388E+01  0.3722E+02
      5.362  0.2756E+01  0.3776E+02
      5.558  0.2991E+01  0.3835E+02
      5.754  0.5889E+01  0.3950E+02
      5.950  0.7121E+01  0.4090E+02
      6.146  0.7843E+01  0.4244E+02
      6.342  0.7855E+01  0.4398E+02
      6.538  0.1161E+02  0.4625E+02
      6.734  0.1306E+02  0.4881E+02
      6.930  0.5076E+01  0.4981E+02
      7.126  0.9401E+01  0.5165E+02
      7.322  0.6012E+01  0.5283E+02
      7.518  0.1461E+02  0.5569E+02
      7.714  0.8035E+01  0.5727E+02
      7.910  0.7348E+01  0.5871E+02
      8.106  0.1140E+02  0.6094E+02
      8.302  0.1140E+02  0.6318E+02
      8.498  0.8650E+01  0.6487E+02
      8.694  0.7512E+01  0.6635E+02
      8.890  0.4440E+01  0.6722E+02
      9.086  0.9894E+01  0.6916E+02
      9.282  0.9993E+01  0.7112E+02
      9.478  0.1452E+02  0.7396E+02
      9.674  0.1199E+02  0.7631E+02
      9.870  0.1041E+02  0.7835E+02
     10.066  0.1172E+02  0.8065E+02
     10.262  0.1269E+02  0.8314E+02
     10.458  0.1478E+02  0.8603E+02
     10.654  0.9872E+01  0.8797E+02
     10.850  0.8667E+01  0.8967E+02
     11.046  0.1040E+02  0.9171E+02
     11.242  0.7192E+01  0.9312E+02
     11.438  0.1026E+02  0.9513E+02
     11.634  0.6779E+01  0.9646E+02
     11.830  0.4804E+01  0.9740E+02
     12.026  0.4344E+01  0.9825E+02
     12.222  0.6287E+01  0.9948E+02
     12.418  0.4048E+01  0.1003E+03
     12.615  0.4592E+01  0.1012E+03
     12.811  0.4696E+01  0.1021E+03
     13.007  0.5817E+01  0.1032E+03
     13.203  0.7244E+01  0.1047E+03
     13.399  0.8660E+01  0.1064E+03
     13.595  0.1024E+02  0.1084E+03
     13.791  0.1020E+02  0.1104E+03
     13.987  0.1044E+02  0.1124E+03
     14.183  0.6997E+01  0.1138E+03
     14.379  0.1268E+02  0.1163E+03
     14.575  0.1161E+02  0.1185E+03
     14.771  0.7670E+01  0.1200E+03
     14.967  0.5720E+01  0.1212E+03
     15.163  0.4586E+01  0.1221E+03
     15.359  0.2690E+01  0.1226E+03
     15.555  0.1340E+01  0.1229E+03
     15.751  0.1995E+01  0.1232E+03
     15.947  0.1419E+01  0.1235E+03
     16.143  0.2923E+01  0.1241E+03
     16.339  0.1706E+01  0.1244E+03
     16.535  0.2184E+01  0.1249E+03
     16.731  0.3395E+01  0.1255E+03
     16.927  0.2845E+01  0.1261E+03
     17.123  0.1411E+01  0.1264E+03
     17.319  0.1531E+01  0.1267E+03
     17.515  0.2244E+01  0.1271E+03
     17.711  0.1665E+01  0.1274E+03
     17.907  0.1524E+01  0.1277E+03
     18.103  0.1319E+01  0.1280E+03
     18.299  0.3107E+01  0.1286E+03
     18.495  0.1761E+01  0.1289E+03
     18.691  0.3526E+01  0.1296E+03
     18.887  0.1437E+01  0.1299E+03
     19.083  0.2212E+01  0.1303E+03
     19.279  0.1145E+01  0.1306E+03
     19.475  0.1600E+01  0.1309E+03
     19.671  0.1610E+01  0.1312E+03
     19.867  0.1545E+01  0.1315E+03
     20.064  0.4731E+00  0.1316E+03
     20.260  0.6513E+00  0.1317E+03
     20.456  0.1421E+01  0.1320E+03
     20.652  0.1838E+00  0.1320E+03
     20.848  0.1110E+01  0.1323E+03
     21.044  0.5722E+00  0.1324E+03
     21.240  0.9817E+00  0.1326E+03
     21.436  0.3772E+01  0.1333E+03
     21.632  0.1757E+01  0.1336E+03
     21.828  0.2951E+01  0.1342E+03
     22.024  0.5005E+01  0.1352E+03
     22.220  0.5553E+01  0.1363E+03
     22.416  0.3828E+01  0.1370E+03
     22.612  0.4576E+01  0.1379E+03
     22.808  0.5409E+01  0.1390E+03
     23.004  0.2553E+01  0.1395E+03
     23.200  0.3815E+01  0.1402E+03
     23.396  0.4818E+01  0.1412E+03
     23.592  0.2922E+01  0.1418E+03
     23.788  0.1231E+01  0.1420E+03
     23.984  0.2030E+01  0.1424E+03
     24.180  0.1822E+01  0.1428E+03
     24.376  0.2177E+01  0.1432E+03
     24.572  0.1370E+01  0.1435E+03
     24.768  0.1125E+01  0.1437E+03
     24.964  0.2149E-01  0.1437E+03
     25.160  0.1218E+00  0.1437E+03
     25.356  0.1510E+01  0.1440E+03
     25.552  0.1747E-03  0.1440E+03
     25.748  0.0000E+00  0.1440E+03
     25.944  0.0000E+00  0.1440E+03
     26.140  0.0000E+00  0.1440E+03
     26.336  0.0000E+00  0.1440E+03
     26.532  0.0000E+00  0.1440E+03
     26.728  0.0000E+00  0.1440E+03
     26.924  0.0000E+00  0.1440E+03
     27.120  0.0000E+00  0.1440E+03
     27.316  0.0000E+00  0.1440E+03
     27.512  0.0000E+00  0.1440E+03
     27.709  0.0000E+00  0.1440E+03
     27.905  0.0000E+00  0.1440E+03
