   4   4   0   0
  0.1917561E+02  0.4398079E-09  0.4398079E-09  0.4555504E-09  0.5000000E-15
  1.000000000000000E-004
  CAR 
 unknown system                          
     18.50458947    -11.37870039  301      5.26786466      1.00000000
    -11.379  0.0000E+00  0.0000E+00
    -11.279  0.0000E+00  0.0000E+00
    -11.179  0.0000E+00  0.0000E+00
    -11.080  0.0000E+00  0.0000E+00
    -10.980  0.0000E+00  0.0000E+00
    -10.881  0.0000E+00  0.0000E+00
    -10.781  0.0000E+00  0.0000E+00
    -10.681  0.0000E+00  0.0000E+00
    -10.582  0.0000E+00  0.0000E+00
    -10.482  0.0000E+00  0.0000E+00
    -10.383  0.0000E+00  0.0000E+00
    -10.283  0.3934E-13  0.3919E-14
    -10.183  0.2566E-05  0.2556E-06
    -10.084  0.1279E+00  0.1274E-01
     -9.984  0.1829E+02  0.1835E+01
     -9.885  0.7392E+02  0.9198E+01
     -9.785  0.6454E+02  0.1563E+02
     -9.685  0.5266E+02  0.2087E+02
     -9.586  0.6919E+02  0.2777E+02
     -9.486  0.7068E+02  0.3481E+02
     -9.386  0.4787E+02  0.3958E+02
     -9.287  0.4259E+01  0.4000E+02
     -9.187  0.4310E-02  0.4000E+02
     -9.088  0.6285E-08  0.4000E+02
     -8.988  0.0000E+00  0.4000E+02
     -8.888  0.0000E+00  0.4000E+02
     -8.789  0.0000E+00  0.4000E+02
     -8.689  0.0000E+00  0.4000E+02
     -8.590  0.0000E+00  0.4000E+02
     -8.490  0.0000E+00  0.4000E+02
     -8.390  0.0000E+00  0.4000E+02
     -8.291  0.0000E+00  0.4000E+02
     -8.191  0.0000E+00  0.4000E+02
     -8.092  0.0000E+00  0.4000E+02
     -7.992  0.0000E+00  0.4000E+02
     -7.892  0.0000E+00  0.4000E+02
     -7.793  0.0000E+00  0.4000E+02
     -7.693  0.0000E+00  0.4000E+02
     -7.593  0.0000E+00  0.4000E+02
     -7.494  0.0000E+00  0.4000E+02
     -7.394  0.0000E+00  0.4000E+02
     -7.295  0.0000E+00  0.4000E+02
     -7.195  0.0000E+00  0.4000E+02
     -7.095  0.0000E+00  0.4000E+02
     -6.996  0.0000E+00  0.4000E+02
     -6.896  0.0000E+00  0.4000E+02
     -6.797  0.0000E+00  0.4000E+02
     -6.697  0.0000E+00  0.4000E+02
     -6.597  0.0000E+00  0.4000E+02
     -6.498  0.0000E+00  0.4000E+02
     -6.398  0.0000E+00  0.4000E+02
     -6.299  0.0000E+00  0.4000E+02
     -6.199  0.6149E-11  0.4000E+02
     -6.099  0.1439E-04  0.4000E+02
     -6.000  0.1996E-01  0.4000E+02
     -5.900  0.7102E-01  0.4001E+02
     -5.800  0.3623E-01  0.4001E+02
     -5.701  0.3797E+00  0.4005E+02
     -5.601  0.3279E+00  0.4008E+02
     -5.502  0.4079E+00  0.4012E+02
     -5.402  0.7008E+00  0.4019E+02
     -5.302  0.8616E-02  0.4019E+02
     -5.203  0.6053E-01  0.4020E+02
     -5.103  0.5638E+00  0.4026E+02
     -5.004  0.1939E+00  0.4028E+02
     -4.904  0.1215E+01  0.4040E+02
     -4.804  0.1421E+01  0.4054E+02
     -4.705  0.4077E+00  0.4058E+02
     -4.605  0.6222E+00  0.4064E+02
     -4.506  0.1641E+00  0.4066E+02
     -4.406  0.3079E-01  0.4066E+02
     -4.306  0.7805E+00  0.4074E+02
     -4.207  0.7450E+00  0.4081E+02
     -4.107  0.6324E+00  0.4088E+02
     -4.007  0.1680E+01  0.4104E+02
     -3.908  0.9042E+00  0.4113E+02
     -3.808  0.1585E+01  0.4129E+02
     -3.709  0.7042E+00  0.4136E+02
     -3.609  0.9638E-01  0.4137E+02
     -3.509  0.6453E-01  0.4138E+02
     -3.410  0.1046E+01  0.4148E+02
     -3.310  0.1174E+01  0.4160E+02
     -3.211  0.1601E+01  0.4176E+02
     -3.111  0.1483E+01  0.4191E+02
     -3.011  0.7136E+00  0.4198E+02
     -2.912  0.2378E+00  0.4200E+02
     -2.812  0.3241E-02  0.4200E+02
     -2.713  0.1590E+00  0.4202E+02
     -2.613  0.6867E+00  0.4208E+02
     -2.513  0.1118E+01  0.4220E+02
     -2.414  0.1868E+01  0.4238E+02
     -2.314  0.1179E+01  0.4250E+02
     -2.214  0.1363E+01  0.4264E+02
     -2.115  0.5923E+00  0.4269E+02
     -2.015  0.1031E+01  0.4280E+02
     -1.916  0.1233E+01  0.4292E+02
     -1.816  0.5913E+00  0.4298E+02
     -1.716  0.1718E+01  0.4315E+02
     -1.617  0.1150E+01  0.4326E+02
     -1.517  0.6637E+00  0.4333E+02
     -1.418  0.1382E+01  0.4347E+02
     -1.318  0.1132E+01  0.4358E+02
     -1.218  0.3379E+00  0.4361E+02
     -1.119  0.4250E+00  0.4366E+02
     -1.019  0.5400E+00  0.4371E+02
     -0.920  0.5527E+00  0.4377E+02
     -0.820  0.1258E+01  0.4389E+02
     -0.720  0.1469E+01  0.4404E+02
     -0.621  0.1287E+01  0.4417E+02
     -0.521  0.1277E+01  0.4429E+02
     -0.421  0.1351E+01  0.4443E+02
     -0.322  0.1632E+01  0.4459E+02
     -0.222  0.6688E+00  0.4466E+02
     -0.123  0.1876E+01  0.4484E+02
     -0.023  0.1729E+01  0.4502E+02
      0.077  0.3954E+00  0.4506E+02
      0.176  0.1075E+01  0.4516E+02
      0.276  0.1794E+01  0.4534E+02
      0.375  0.9845E+00  0.4544E+02
      0.475  0.1710E+01  0.4561E+02
      0.575  0.1333E+01  0.4574E+02
      0.674  0.5827E+00  0.4580E+02
      0.774  0.5760E-01  0.4581E+02
      0.873  0.3667E+00  0.4584E+02
      0.973  0.9305E+00  0.4593E+02
      1.073  0.6170E+00  0.4600E+02
      1.172  0.3604E+00  0.4603E+02
      1.272  0.2459E+01  0.4628E+02
      1.372  0.1013E+01  0.4638E+02
      1.471  0.1719E+01  0.4655E+02
      1.571  0.1978E+01  0.4675E+02
      1.670  0.8595E+00  0.4683E+02
      1.770  0.1524E+01  0.4698E+02
      1.870  0.1396E+01  0.4712E+02
      1.969  0.1050E+01  0.4723E+02
      2.069  0.9755E+00  0.4732E+02
      2.168  0.1564E+01  0.4748E+02
      2.268  0.1819E+01  0.4766E+02
      2.368  0.3342E+00  0.4769E+02
      2.467  0.9553E+00  0.4779E+02
      2.567  0.1739E+01  0.4796E+02
      2.666  0.6774E+00  0.4803E+02
      2.766  0.6253E+00  0.4809E+02
      2.866  0.2824E+00  0.4812E+02
      2.965  0.1780E+01  0.4830E+02
      3.065  0.1724E+01  0.4847E+02
      3.165  0.1198E+01  0.4859E+02
      3.264  0.3188E+01  0.4891E+02
      3.364  0.2506E+01  0.4916E+02
      3.463  0.1392E+01  0.4930E+02
      3.563  0.2710E+01  0.4957E+02
      3.663  0.2033E+01  0.4977E+02
      3.762  0.1997E+01  0.4997E+02
      3.862  0.2034E+01  0.5017E+02
      3.961  0.1524E+01  0.5032E+02
      4.061  0.2831E+01  0.5060E+02
      4.161  0.2176E+00  0.5062E+02
      4.260  0.1032E+01  0.5073E+02
      4.360  0.1387E+01  0.5087E+02
      4.459  0.1576E+01  0.5102E+02
      4.559  0.2071E+01  0.5123E+02
      4.659  0.1196E+01  0.5135E+02
      4.758  0.9747E+00  0.5145E+02
      4.858  0.1903E+01  0.5163E+02
      4.957  0.1156E+01  0.5175E+02
      5.057  0.1339E+01  0.5188E+02
      5.157  0.4463E+00  0.5193E+02
      5.256  0.6167E+00  0.5199E+02
      5.356  0.6888E+00  0.5206E+02
      5.456  0.7646E+00  0.5213E+02
      5.555  0.4282E+00  0.5218E+02
      5.655  0.1305E+01  0.5231E+02
      5.754  0.7590E+00  0.5238E+02
      5.854  0.1776E+01  0.5256E+02
      5.954  0.4870E+00  0.5261E+02
      6.053  0.1999E+01  0.5281E+02
      6.153  0.2750E+01  0.5308E+02
      6.252  0.1253E+01  0.5321E+02
      6.352  0.1450E+01  0.5335E+02
      6.452  0.2156E+01  0.5356E+02
      6.551  0.2317E+01  0.5380E+02
      6.651  0.2129E+01  0.5401E+02
      6.750  0.3013E+01  0.5431E+02
      6.850  0.2715E+01  0.5458E+02
      6.950  0.1350E+01  0.5471E+02
      7.049  0.1320E+01  0.5484E+02
      7.149  0.9556E+00  0.5494E+02
      7.249  0.6803E+00  0.5501E+02
      7.348  0.2271E+01  0.5523E+02
      7.448  0.1593E+01  0.5539E+02
      7.547  0.6024E+00  0.5545E+02
      7.647  0.2205E+01  0.5567E+02
      7.747  0.1672E+01  0.5584E+02
      7.846  0.9869E+00  0.5594E+02
      7.946  0.9227E+00  0.5603E+02
      8.045  0.2816E+01  0.5631E+02
      8.145  0.2353E+01  0.5654E+02
      8.245  0.1841E+01  0.5673E+02
      8.344  0.2044E+01  0.5693E+02
      8.444  0.3526E+00  0.5697E+02
      8.543  0.1433E+01  0.5711E+02
      8.643  0.1465E+01  0.5725E+02
      8.743  0.3623E+01  0.5761E+02
      8.842  0.3060E+01  0.5792E+02
      8.942  0.1563E+01  0.5808E+02
      9.042  0.1683E+01  0.5824E+02
      9.141  0.8612E+00  0.5833E+02
      9.241  0.2768E+01  0.5860E+02
      9.340  0.2102E+01  0.5881E+02
      9.440  0.2266E+01  0.5904E+02
      9.540  0.1613E+01  0.5920E+02
      9.639  0.1456E+01  0.5935E+02
      9.739  0.2832E+01  0.5963E+02
      9.838  0.2374E+01  0.5986E+02
      9.938  0.2046E+01  0.6007E+02
     10.038  0.8865E+00  0.6016E+02
     10.137  0.1299E+01  0.6029E+02
     10.237  0.3543E+01  0.6064E+02
     10.336  0.2019E+01  0.6084E+02
     10.436  0.1825E+01  0.6102E+02
     10.536  0.1509E+01  0.6117E+02
     10.635  0.2504E+01  0.6142E+02
     10.735  0.1789E+01  0.6160E+02
     10.835  0.2448E+01  0.6184E+02
     10.934  0.3177E+01  0.6216E+02
     11.034  0.2313E+01  0.6239E+02
     11.133  0.1232E+01  0.6251E+02
     11.233  0.1096E+01  0.6262E+02
     11.333  0.1161E+01  0.6274E+02
     11.432  0.1799E+01  0.6292E+02
     11.532  0.1613E+01  0.6308E+02
     11.631  0.2953E+01  0.6337E+02
     11.731  0.2547E+01  0.6363E+02
     11.831  0.1495E+01  0.6377E+02
     11.930  0.9414E+00  0.6387E+02
     12.030  0.1860E+01  0.6405E+02
     12.129  0.1902E+01  0.6424E+02
     12.229  0.2069E+01  0.6445E+02
     12.329  0.6369E+00  0.6451E+02
     12.428  0.2189E+01  0.6473E+02
     12.528  0.1451E+01  0.6487E+02
     12.628  0.3159E+01  0.6519E+02
     12.727  0.2296E+01  0.6542E+02
     12.827  0.2588E+01  0.6568E+02
     12.926  0.2749E+01  0.6595E+02
     13.026  0.9663E+00  0.6605E+02
     13.126  0.3369E+01  0.6638E+02
     13.225  0.2672E+01  0.6665E+02
     13.325  0.1877E+01  0.6683E+02
     13.424  0.1674E+01  0.6700E+02
     13.524  0.1937E+01  0.6719E+02
     13.624  0.2270E+01  0.6742E+02
     13.723  0.2235E+01  0.6764E+02
     13.823  0.2635E+01  0.6791E+02
     13.922  0.2298E+01  0.6813E+02
     14.022  0.4466E+01  0.6858E+02
     14.122  0.3281E+01  0.6891E+02
     14.221  0.7879E+00  0.6898E+02
     14.321  0.5685E+00  0.6904E+02
     14.421  0.5028E+00  0.6909E+02
     14.520  0.5458E+00  0.6915E+02
     14.620  0.1887E+01  0.6933E+02
     14.719  0.1934E+01  0.6953E+02
     14.819  0.8585E+00  0.6961E+02
     14.919  0.2634E+01  0.6987E+02
     15.018  0.2158E+01  0.7009E+02
     15.118  0.2838E+01  0.7037E+02
     15.217  0.2262E+01  0.7060E+02
     15.317  0.1351E+01  0.7073E+02
     15.417  0.2895E+01  0.7102E+02
     15.516  0.1760E+01  0.7120E+02
     15.616  0.2009E+01  0.7140E+02
     15.715  0.7696E+00  0.7147E+02
     15.815  0.3474E+00  0.7151E+02
     15.915  0.7298E+00  0.7158E+02
     16.014  0.9819E+00  0.7168E+02
     16.114  0.9438E+00  0.7177E+02
     16.214  0.7395E+00  0.7184E+02
     16.313  0.3812E+00  0.7188E+02
     16.413  0.4289E+00  0.7193E+02
     16.512  0.3342E-02  0.7193E+02
     16.612  0.2096E-07  0.7193E+02
     16.712  0.1032E-16  0.7193E+02
     16.811  0.0000E+00  0.7193E+02
     16.911  0.3912E-09  0.7193E+02
     17.010  0.3030E-03  0.7193E+02
     17.110  0.1917E+00  0.7195E+02
     17.210  0.5359E+00  0.7200E+02
     17.309  0.1577E-01  0.7200E+02
     17.409  0.7272E-06  0.7200E+02
     17.508  0.1876E-13  0.7200E+02
     17.608  0.0000E+00  0.7200E+02
     17.708  0.0000E+00  0.7200E+02
     17.807  0.0000E+00  0.7200E+02
     17.907  0.0000E+00  0.7200E+02
     18.007  0.0000E+00  0.7200E+02
     18.106  0.0000E+00  0.7200E+02
     18.206  0.0000E+00  0.7200E+02
     18.305  0.0000E+00  0.7200E+02
     18.405  0.0000E+00  0.7200E+02
     18.505  0.0000E+00  0.7200E+02
