unknown system                          
           1
     2.843252   -2.950325    0.000000
     2.843252    2.950325    0.000000
     0.000000    0.000000    7.138863
   Ag   N 
     4     4
Direct configuration=     1
   0.33657800  0.66342200  0.34157900
   0.66342200  0.33657800  0.65842100
   0.16342200  0.83657800  0.84157900
   0.83657800  0.16342200  0.15842100
   0.83924800  0.66075200  0.25000000
   0.66075200  0.83924800  0.75000000
   0.16075200  0.33924800  0.75000000
   0.33924800  0.16075200  0.25000000
