       N       E                     dE             d eps       ncg     rms          rms(c)
DAV:   1     0.774590698559E+03    0.77459E+03   -0.38145E+04 11396   0.216E+03
DAV:   2     0.691164397419E+02   -0.70547E+03   -0.69228E+03 11000   0.572E+02
DAV:   3    -0.919815649817E+01   -0.78315E+02   -0.76964E+02 12088   0.207E+02
DAV:   4    -0.129112156934E+02   -0.37131E+01   -0.36968E+01 12916   0.474E+01
DAV:   5    -0.130624832954E+02   -0.15127E+00   -0.15124E+00 15548   0.898E+00    0.586E+00
DAV:   6    -0.127488734424E+02    0.31361E+00   -0.34661E-01 12204   0.445E+00    0.309E+00
DAV:   7    -0.126712727828E+02    0.77601E-01   -0.25280E-01 12592   0.345E+00    0.563E-01
DAV:   8    -0.126704343210E+02    0.83846E-03   -0.25067E-02 13424   0.123E+00    0.207E-01
DAV:   9    -0.126704819022E+02   -0.47581E-04   -0.15443E-03 16556   0.245E-01    0.242E-01
DAV:  10    -0.126704878749E+02   -0.59727E-05   -0.48089E-05 15488   0.429E-02    0.188E-01
DAV:  11    -0.126704880905E+02   -0.21558E-06   -0.30867E-05 13728   0.388E-02    0.114E-02
DAV:  12    -0.126704877918E+02    0.29874E-06   -0.33587E-06 10164   0.195E-02
   1 F= -.12670488E+02 E0= -.12667911E+02  d E =-.515424E-02
