       N       E                     dE             d eps       ncg     rms          rms(c)
DAV:   1     0.527352273428E+03    0.52735E+03   -0.37686E+04 17408   0.117E+03
DAV:   2    -0.247959162705E+02   -0.55215E+03   -0.50595E+03 18924   0.279E+02
DAV:   3    -0.493254101296E+02   -0.24529E+02   -0.24009E+02 19832   0.630E+01
DAV:   4    -0.495600886309E+02   -0.23468E+00   -0.23446E+00 19484   0.562E+00
DAV:   5    -0.495641142967E+02   -0.40257E-02   -0.40255E-02 19608   0.753E-01    0.187E+01
DAV:   6    -0.486492922006E+02    0.91482E+00   -0.25863E+00 19136   0.101E+01    0.103E+01
DAV:   7    -0.485510795476E+02    0.98213E-01   -0.44916E-01 18796   0.664E+00    0.555E+00
DAV:   8    -0.485018484772E+02    0.49231E-01   -0.30380E-01 18772   0.609E+00    0.235E+00
DAV:   9    -0.484548303948E+02    0.47018E-01   -0.72755E-02 18728   0.287E+00    0.323E-01
DAV:  10    -0.484544136477E+02    0.41675E-03   -0.39666E-03 18692   0.299E-01    0.146E-01
DAV:  11    -0.484544166447E+02   -0.29971E-05   -0.65212E-04 19452   0.115E-01    0.386E-02
DAV:  12    -0.484543931671E+02    0.23478E-04   -0.68916E-05 19172   0.522E-02    0.231E-02
DAV:  13    -0.484543883033E+02    0.48638E-05   -0.16467E-05 18956   0.308E-02    0.146E-02
DAV:  14    -0.484543888093E+02   -0.50605E-06   -0.21042E-06 12832   0.960E-03
   1 F= -.48454389E+02 E0= -.48450404E+02  d E =-.797048E-02
