unknown system                          
           1
     0.000000    0.000000   -3.671925
    -3.329838   -5.767423    0.000000
    -3.329922    5.767472    0.000000
   As   Pd
     3     6
Direct configuration=     1
   0.00000000  0.33333784  0.66672098
   0.00000000  0.66661686  0.33327902
   0.50000000  0.99998995  0.00000000
   0.00000000  0.26510320  0.00000000
   0.00000000  0.73489037  0.73490911
   0.00000000  0.99998026  0.26508989
   0.50000000  0.60707298  0.00000000
   0.50000000  0.39293958  0.39296663
   0.50000000  0.99997195  0.60703337
