  16  16   0   0
  0.2169069E+02  0.6313309E-09  0.6313309E-09  0.1005423E-08  0.5000000E-15
  1.000000000000000E-004
  CAR 
 unknown system                          
      7.54690494    -63.60737868  301      2.32008850      1.00000000
    -63.607  0.0000E+00  0.0000E+00
    -63.370  0.0000E+00  0.0000E+00
    -63.133  0.0000E+00  0.0000E+00
    -62.896  0.0000E+00  0.0000E+00
    -62.659  0.0000E+00  0.0000E+00
    -62.421  0.0000E+00  0.0000E+00
    -62.184  0.0000E+00  0.0000E+00
    -61.947  0.0000E+00  0.0000E+00
    -61.710  0.0000E+00  0.0000E+00
    -61.473  0.0000E+00  0.0000E+00
    -61.236  0.0000E+00  0.0000E+00
    -60.998  0.0000E+00  0.0000E+00
    -60.761  0.0000E+00  0.0000E+00
    -60.524  0.8252E-04  0.1957E-04
    -60.287  0.2111E+02  0.5007E+01
    -60.050  0.4188E+01  0.6000E+01
    -59.812  0.0000E+00  0.6000E+01
    -59.575  0.0000E+00  0.6000E+01
    -59.338  0.0000E+00  0.6000E+01
    -59.101  0.0000E+00  0.6000E+01
    -58.864  0.0000E+00  0.6000E+01
    -58.627  0.0000E+00  0.6000E+01
    -58.389  0.0000E+00  0.6000E+01
    -58.152  0.0000E+00  0.6000E+01
    -57.915  0.0000E+00  0.6000E+01
    -57.678  0.0000E+00  0.6000E+01
    -57.441  0.0000E+00  0.6000E+01
    -57.203  0.0000E+00  0.6000E+01
    -56.966  0.0000E+00  0.6000E+01
    -56.729  0.0000E+00  0.6000E+01
    -56.492  0.0000E+00  0.6000E+01
    -56.255  0.0000E+00  0.6000E+01
    -56.018  0.0000E+00  0.6000E+01
    -55.780  0.0000E+00  0.6000E+01
    -55.543  0.0000E+00  0.6000E+01
    -55.306  0.0000E+00  0.6000E+01
    -55.069  0.0000E+00  0.6000E+01
    -54.832  0.0000E+00  0.6000E+01
    -54.595  0.0000E+00  0.6000E+01
    -54.357  0.0000E+00  0.6000E+01
    -54.120  0.0000E+00  0.6000E+01
    -53.883  0.0000E+00  0.6000E+01
    -53.646  0.0000E+00  0.6000E+01
    -53.409  0.0000E+00  0.6000E+01
    -53.171  0.0000E+00  0.6000E+01
    -52.934  0.0000E+00  0.6000E+01
    -52.697  0.0000E+00  0.6000E+01
    -52.460  0.0000E+00  0.6000E+01
    -52.223  0.0000E+00  0.6000E+01
    -51.986  0.0000E+00  0.6000E+01
    -51.748  0.0000E+00  0.6000E+01
    -51.511  0.0000E+00  0.6000E+01
    -51.274  0.0000E+00  0.6000E+01
    -51.037  0.0000E+00  0.6000E+01
    -50.800  0.0000E+00  0.6000E+01
    -50.562  0.0000E+00  0.6000E+01
    -50.325  0.0000E+00  0.6000E+01
    -50.088  0.0000E+00  0.6000E+01
    -49.851  0.0000E+00  0.6000E+01
    -49.614  0.0000E+00  0.6000E+01
    -49.377  0.0000E+00  0.6000E+01
    -49.139  0.0000E+00  0.6000E+01
    -48.902  0.0000E+00  0.6000E+01
    -48.665  0.0000E+00  0.6000E+01
    -48.428  0.0000E+00  0.6000E+01
    -48.191  0.0000E+00  0.6000E+01
    -47.953  0.0000E+00  0.6000E+01
    -47.716  0.0000E+00  0.6000E+01
    -47.479  0.0000E+00  0.6000E+01
    -47.242  0.0000E+00  0.6000E+01
    -47.005  0.0000E+00  0.6000E+01
    -46.768  0.0000E+00  0.6000E+01
    -46.530  0.0000E+00  0.6000E+01
    -46.293  0.0000E+00  0.6000E+01
    -46.056  0.0000E+00  0.6000E+01
    -45.819  0.0000E+00  0.6000E+01
    -45.582  0.0000E+00  0.6000E+01
    -45.344  0.0000E+00  0.6000E+01
    -45.107  0.0000E+00  0.6000E+01
    -44.870  0.0000E+00  0.6000E+01
    -44.633  0.0000E+00  0.6000E+01
    -44.396  0.0000E+00  0.6000E+01
    -44.159  0.0000E+00  0.6000E+01
    -43.921  0.0000E+00  0.6000E+01
    -43.684  0.0000E+00  0.6000E+01
    -43.447  0.0000E+00  0.6000E+01
    -43.210  0.0000E+00  0.6000E+01
    -42.973  0.0000E+00  0.6000E+01
    -42.735  0.0000E+00  0.6000E+01
    -42.498  0.0000E+00  0.6000E+01
    -42.261  0.0000E+00  0.6000E+01
    -42.024  0.0000E+00  0.6000E+01
    -41.787  0.0000E+00  0.6000E+01
    -41.550  0.0000E+00  0.6000E+01
    -41.312  0.0000E+00  0.6000E+01
    -41.075  0.0000E+00  0.6000E+01
    -40.838  0.0000E+00  0.6000E+01
    -40.601  0.0000E+00  0.6000E+01
    -40.364  0.7157E-07  0.6000E+01
    -40.126  0.1418E+03  0.3962E+02
    -39.889  0.2377E+03  0.9600E+02
    -39.652  0.0000E+00  0.9600E+02
    -39.415  0.0000E+00  0.9600E+02
    -39.178  0.0000E+00  0.9600E+02
    -38.941  0.0000E+00  0.9600E+02
    -38.703  0.0000E+00  0.9600E+02
    -38.466  0.0000E+00  0.9600E+02
    -38.229  0.0000E+00  0.9600E+02
    -37.992  0.0000E+00  0.9600E+02
    -37.755  0.0000E+00  0.9600E+02
    -37.517  0.0000E+00  0.9600E+02
    -37.280  0.0000E+00  0.9600E+02
    -37.043  0.0000E+00  0.9600E+02
    -36.806  0.0000E+00  0.9600E+02
    -36.569  0.0000E+00  0.9600E+02
    -36.332  0.0000E+00  0.9600E+02
    -36.094  0.0000E+00  0.9600E+02
    -35.857  0.0000E+00  0.9600E+02
    -35.620  0.0000E+00  0.9600E+02
    -35.383  0.0000E+00  0.9600E+02
    -35.146  0.0000E+00  0.9600E+02
    -34.908  0.0000E+00  0.9600E+02
    -34.671  0.0000E+00  0.9600E+02
    -34.434  0.0000E+00  0.9600E+02
    -34.197  0.0000E+00  0.9600E+02
    -33.960  0.0000E+00  0.9600E+02
    -33.723  0.0000E+00  0.9600E+02
    -33.485  0.0000E+00  0.9600E+02
    -33.248  0.0000E+00  0.9600E+02
    -33.011  0.0000E+00  0.9600E+02
    -32.774  0.0000E+00  0.9600E+02
    -32.537  0.0000E+00  0.9600E+02
    -32.299  0.0000E+00  0.9600E+02
    -32.062  0.0000E+00  0.9600E+02
    -31.825  0.0000E+00  0.9600E+02
    -31.588  0.0000E+00  0.9600E+02
    -31.351  0.0000E+00  0.9600E+02
    -31.114  0.0000E+00  0.9600E+02
    -30.876  0.0000E+00  0.9600E+02
    -30.639  0.0000E+00  0.9600E+02
    -30.402  0.0000E+00  0.9600E+02
    -30.165  0.0000E+00  0.9600E+02
    -29.928  0.0000E+00  0.9600E+02
    -29.691  0.0000E+00  0.9600E+02
    -29.453  0.0000E+00  0.9600E+02
    -29.216  0.0000E+00  0.9600E+02
    -28.979  0.0000E+00  0.9600E+02
    -28.742  0.0000E+00  0.9600E+02
    -28.505  0.0000E+00  0.9600E+02
    -28.267  0.0000E+00  0.9600E+02
    -28.030  0.0000E+00  0.9600E+02
    -27.793  0.0000E+00  0.9600E+02
    -27.556  0.0000E+00  0.9600E+02
    -27.319  0.0000E+00  0.9600E+02
    -27.082  0.0000E+00  0.9600E+02
    -26.844  0.0000E+00  0.9600E+02
    -26.607  0.0000E+00  0.9600E+02
    -26.370  0.0000E+00  0.9600E+02
    -26.133  0.0000E+00  0.9600E+02
    -25.896  0.0000E+00  0.9600E+02
    -25.658  0.0000E+00  0.9600E+02
    -25.421  0.0000E+00  0.9600E+02
    -25.184  0.0000E+00  0.9600E+02
    -24.947  0.0000E+00  0.9600E+02
    -24.710  0.0000E+00  0.9600E+02
    -24.473  0.0000E+00  0.9600E+02
    -24.235  0.0000E+00  0.9600E+02
    -23.998  0.0000E+00  0.9600E+02
    -23.761  0.0000E+00  0.9600E+02
    -23.524  0.0000E+00  0.9600E+02
    -23.287  0.0000E+00  0.9600E+02
    -23.049  0.0000E+00  0.9600E+02
    -22.812  0.0000E+00  0.9600E+02
    -22.575  0.0000E+00  0.9600E+02
    -22.338  0.0000E+00  0.9600E+02
    -22.101  0.0000E+00  0.9600E+02
    -21.864  0.0000E+00  0.9600E+02
    -21.626  0.0000E+00  0.9600E+02
    -21.389  0.0000E+00  0.9600E+02
    -21.152  0.0000E+00  0.9600E+02
    -20.915  0.0000E+00  0.9600E+02
    -20.678  0.0000E+00  0.9600E+02
    -20.440  0.0000E+00  0.9600E+02
    -20.203  0.0000E+00  0.9600E+02
    -19.966  0.0000E+00  0.9600E+02
    -19.729  0.0000E+00  0.9600E+02
    -19.492  0.0000E+00  0.9600E+02
    -19.255  0.0000E+00  0.9600E+02
    -19.017  0.0000E+00  0.9600E+02
    -18.780  0.0000E+00  0.9600E+02
    -18.543  0.0000E+00  0.9600E+02
    -18.306  0.0000E+00  0.9600E+02
    -18.069  0.0000E+00  0.9600E+02
    -17.831  0.0000E+00  0.9600E+02
    -17.594  0.0000E+00  0.9600E+02
    -17.357  0.0000E+00  0.9600E+02
    -17.120  0.0000E+00  0.9600E+02
    -16.883  0.0000E+00  0.9600E+02
    -16.646  0.0000E+00  0.9600E+02
    -16.408  0.0000E+00  0.9600E+02
    -16.171  0.0000E+00  0.9600E+02
    -15.934  0.0000E+00  0.9600E+02
    -15.697  0.0000E+00  0.9600E+02
    -15.460  0.0000E+00  0.9600E+02
    -15.222  0.0000E+00  0.9600E+02
    -14.985  0.0000E+00  0.9600E+02
    -14.748  0.0000E+00  0.9600E+02
    -14.511  0.0000E+00  0.9600E+02
    -14.274  0.0000E+00  0.9600E+02
    -14.037  0.0000E+00  0.9600E+02
    -13.799  0.0000E+00  0.9600E+02
    -13.562  0.0000E+00  0.9600E+02
    -13.325  0.0000E+00  0.9600E+02
    -13.088  0.0000E+00  0.9600E+02
    -12.851  0.0000E+00  0.9600E+02
    -12.613  0.0000E+00  0.9600E+02
    -12.376  0.0000E+00  0.9600E+02
    -12.139  0.0000E+00  0.9600E+02
    -11.902  0.0000E+00  0.9600E+02
    -11.665  0.0000E+00  0.9600E+02
    -11.428  0.0000E+00  0.9600E+02
    -11.190  0.0000E+00  0.9600E+02
    -10.953  0.0000E+00  0.9600E+02
    -10.716  0.0000E+00  0.9600E+02
    -10.479  0.0000E+00  0.9600E+02
    -10.242  0.0000E+00  0.9600E+02
    -10.004  0.0000E+00  0.9600E+02
     -9.767  0.0000E+00  0.9600E+02
     -9.530  0.0000E+00  0.9600E+02
     -9.293  0.0000E+00  0.9600E+02
     -9.056  0.0000E+00  0.9600E+02
     -8.819  0.0000E+00  0.9600E+02
     -8.581  0.0000E+00  0.9600E+02
     -8.344  0.0000E+00  0.9600E+02
     -8.107  0.0000E+00  0.9600E+02
     -7.870  0.0000E+00  0.9600E+02
     -7.633  0.0000E+00  0.9600E+02
     -7.395  0.0000E+00  0.9600E+02
     -7.158  0.0000E+00  0.9600E+02
     -6.921  0.0000E+00  0.9600E+02
     -6.684  0.0000E+00  0.9600E+02
     -6.447  0.0000E+00  0.9600E+02
     -6.210  0.0000E+00  0.9600E+02
     -5.972  0.0000E+00  0.9600E+02
     -5.735  0.0000E+00  0.9600E+02
     -5.498  0.0000E+00  0.9600E+02
     -5.261  0.0000E+00  0.9600E+02
     -5.024  0.0000E+00  0.9600E+02
     -4.787  0.1268E-15  0.9600E+02
     -4.549  0.1793E-01  0.9600E+02
     -4.312  0.4258E+00  0.9611E+02
     -4.075  0.1272E+01  0.9641E+02
     -3.838  0.2153E+01  0.9692E+02
     -3.601  0.3298E+00  0.9700E+02
     -3.363  0.4706E+01  0.9811E+02
     -3.126  0.1821E+01  0.9854E+02
     -2.889  0.3466E+01  0.9937E+02
     -2.652  0.2824E+01  0.1000E+03
     -2.415  0.2158E+01  0.1005E+03
     -2.178  0.3478E+01  0.1014E+03
     -1.940  0.4950E+01  0.1025E+03
     -1.703  0.3966E+01  0.1035E+03
     -1.466  0.7909E+01  0.1054E+03
     -1.229  0.5020E-01  0.1054E+03
     -0.992  0.2968E+01  0.1061E+03
     -0.754  0.6722E+01  0.1077E+03
     -0.517  0.5090E+01  0.1089E+03
     -0.280  0.6468E+01  0.1104E+03
     -0.043  0.5454E+01  0.1117E+03
      0.194  0.7551E+01  0.1135E+03
      0.431  0.4376E+01  0.1145E+03
      0.669  0.5525E+01  0.1158E+03
      0.906  0.7415E+01  0.1176E+03
      1.143  0.1001E+02  0.1200E+03
      1.380  0.2116E+02  0.1250E+03
      1.617  0.1178E+02  0.1278E+03
      1.855  0.1048E+02  0.1303E+03
      2.092  0.1294E+02  0.1333E+03
      2.329  0.1149E+02  0.1361E+03
      2.566  0.2557E+01  0.1367E+03
      2.803  0.2412E+01  0.1373E+03
      3.040  0.6062E+01  0.1387E+03
      3.278  0.6036E+01  0.1401E+03
      3.515  0.4866E+01  0.1413E+03
      3.752  0.2695E+01  0.1419E+03
      3.989  0.3948E+01  0.1428E+03
      4.226  0.3787E+01  0.1437E+03
      4.464  0.1063E+01  0.1440E+03
      4.701  0.8814E-05  0.1440E+03
      4.938  0.0000E+00  0.1440E+03
      5.175  0.0000E+00  0.1440E+03
      5.412  0.0000E+00  0.1440E+03
      5.649  0.0000E+00  0.1440E+03
      5.887  0.0000E+00  0.1440E+03
      6.124  0.0000E+00  0.1440E+03
      6.361  0.0000E+00  0.1440E+03
      6.598  0.0000E+00  0.1440E+03
      6.835  0.0000E+00  0.1440E+03
      7.073  0.0000E+00  0.1440E+03
      7.310  0.0000E+00  0.1440E+03
      7.547  0.0000E+00  0.1440E+03
