       N       E                     dE             d eps       ncg     rms          rms(c)
DAV:   1     0.721796905387E+03    0.72180E+03   -0.26151E+04 15704   0.146E+03
DAV:   2     0.390811135150E+02   -0.68272E+03   -0.64239E+03 15984   0.510E+02
DAV:   3    -0.736446317968E+02   -0.11273E+03   -0.10763E+03 24448   0.183E+02
DAV:   4    -0.787444977389E+02   -0.50999E+01   -0.50793E+01 22176   0.425E+01
DAV:   5    -0.788412583356E+02   -0.96761E-01   -0.96724E-01 20320   0.605E+00    0.596E+01
DAV:   6    -0.637056630015E+02    0.15136E+02   -0.53506E+01 25728   0.636E+01    0.180E+01
DAV:   7    -0.630935056761E+02    0.61216E+00   -0.73927E+00 24280   0.222E+01    0.179E+01
DAV:   8    -0.627931823403E+02    0.30032E+00   -0.15313E+00 26152   0.140E+01    0.422E+00
DAV:   9    -0.626779680804E+02    0.11521E+00   -0.33090E-01 25088   0.440E+00    0.998E-01
DAV:  10    -0.626771810197E+02    0.78706E-03   -0.26023E-02 24216   0.115E+00    0.304E-01
DAV:  11    -0.626774330035E+02   -0.25198E-03   -0.37290E-03 21736   0.542E-01    0.243E-01
DAV:  12    -0.626777811830E+02   -0.34818E-03   -0.73703E-04 18544   0.170E-01    0.452E-02
DAV:  13    -0.626778152825E+02   -0.34099E-04   -0.18600E-04 23816   0.978E-02    0.472E-02
DAV:  14    -0.626778181560E+02   -0.28736E-05   -0.43902E-05 21848   0.611E-02    0.884E-03
DAV:  15    -0.626778196886E+02   -0.15326E-05   -0.63575E-06 16856   0.153E-02    0.399E-03
DAV:  16    -0.626778200627E+02   -0.37413E-06   -0.35489E-07 11728   0.612E-03
   1 F= -.62677820E+02 E0= -.62677820E+02  d E =-.175876E-24
