       N       E                     dE             d eps       ncg     rms          rms(c)
DAV:   1     0.248098682677E+02    0.24810E+02   -0.51272E+03 32016   0.638E+02
DAV:   2    -0.222854797973E+02   -0.47095E+02   -0.42982E+02 41912   0.155E+02
DAV:   3    -0.236915353254E+02   -0.14061E+01   -0.14002E+01 40560   0.218E+01
DAV:   4    -0.236955860325E+02   -0.40507E-02   -0.40505E-02 42600   0.146E+00
DAV:   5    -0.236956012107E+02   -0.15178E-04   -0.15180E-04 42000   0.789E-02    0.289E+01
DAV:   6    -0.210004525273E+02    0.26951E+01   -0.14407E+01 41952   0.155E+01    0.974E+00
DAV:   7    -0.207997499376E+02    0.20070E+00   -0.10136E+00 36488   0.471E+00    0.806E+00
DAV:   8    -0.207513175278E+02    0.48432E-01   -0.13780E-01 41064   0.215E+00    0.165E+00
DAV:   9    -0.207489832995E+02    0.23342E-02   -0.56547E-03 42008   0.442E-01    0.120E-01
DAV:  10    -0.207489568497E+02    0.26450E-04   -0.25598E-04 41832   0.832E-02    0.184E-01
DAV:  11    -0.207489311731E+02    0.25677E-04   -0.52537E-05 42944   0.404E-02    0.140E-02
DAV:  12    -0.207489296705E+02    0.15026E-05   -0.11607E-06 33336   0.780E-03    0.651E-03
DAV:  13    -0.207489292265E+02    0.44395E-06   -0.18029E-07 22808   0.282E-03
   1 F= -.20748929E+02 E0= -.20748659E+02  d E =-.539773E-03
