   6   6   0   0
  0.9252865E+01  0.2867078E-09  0.4400419E-09  0.4400419E-09  0.5000000E-15
  1.000000000000000E-004
  CAR 
 unknown system                          
     24.35135743    -48.77832982  301      5.49547900      1.00000000
    -48.778  0.0000E+00  0.0000E+00  0.0000E+00  0.0000E+00
    -48.535  0.0000E+00  0.0000E+00  0.0000E+00  0.0000E+00
    -48.291  0.0000E+00  0.0000E+00  0.0000E+00  0.0000E+00
    -48.047  0.0000E+00  0.0000E+00  0.0000E+00  0.0000E+00
    -47.803  0.0000E+00  0.0000E+00  0.0000E+00  0.0000E+00
    -47.560  0.0000E+00  0.0000E+00  0.0000E+00  0.0000E+00
    -47.316  0.0000E+00  0.0000E+00  0.0000E+00  0.0000E+00
    -47.072  0.0000E+00  0.0000E+00  0.0000E+00  0.0000E+00
    -46.828  0.0000E+00  0.0000E+00  0.0000E+00  0.0000E+00
    -46.584  0.0000E+00  0.0000E+00  0.0000E+00  0.0000E+00
    -46.341  0.0000E+00  0.0000E+00  0.0000E+00  0.0000E+00
    -46.097  0.0000E+00  0.0000E+00  0.0000E+00  0.0000E+00
    -45.853  0.0000E+00  0.0000E+00  0.0000E+00  0.0000E+00
    -45.609  0.9050E-05  0.0000E+00  0.2206E-05  0.0000E+00
    -45.366  0.6071E+01  0.0000E+00  0.1480E+01  0.0000E+00
    -45.122  0.1835E+02  0.0000E+00  0.5954E+01  0.0000E+00
    -44.878  0.1898E+00  0.0000E+00  0.6000E+01  0.0000E+00
    -44.634  0.0000E+00  0.0000E+00  0.6000E+01  0.0000E+00
    -44.391  0.0000E+00  0.0000E+00  0.6000E+01  0.0000E+00
    -44.147  0.0000E+00  0.0000E+00  0.6000E+01  0.0000E+00
    -43.903  0.0000E+00  0.0000E+00  0.6000E+01  0.0000E+00
    -43.659  0.0000E+00  0.0000E+00  0.6000E+01  0.0000E+00
    -43.415  0.0000E+00  0.0000E+00  0.6000E+01  0.0000E+00
    -43.172  0.0000E+00  0.0000E+00  0.6000E+01  0.0000E+00
    -42.928  0.0000E+00  0.0000E+00  0.6000E+01  0.0000E+00
    -42.684  0.0000E+00  0.2229E-06  0.6000E+01  0.5434E-07
    -42.440  0.0000E+00  0.4120E+01  0.6000E+01  0.1004E+01
    -42.197  0.0000E+00  0.1795E+02  0.6000E+01  0.5379E+01
    -41.953  0.0000E+00  0.2547E+01  0.6000E+01  0.6000E+01
    -41.709  0.0000E+00  0.0000E+00  0.6000E+01  0.6000E+01
    -41.465  0.0000E+00  0.0000E+00  0.6000E+01  0.6000E+01
    -41.222  0.0000E+00  0.0000E+00  0.6000E+01  0.6000E+01
    -40.978  0.0000E+00  0.0000E+00  0.6000E+01  0.6000E+01
    -40.734  0.0000E+00  0.0000E+00  0.6000E+01  0.6000E+01
    -40.490  0.0000E+00  0.0000E+00  0.6000E+01  0.6000E+01
    -40.247  0.0000E+00  0.0000E+00  0.6000E+01  0.6000E+01
    -40.003  0.0000E+00  0.0000E+00  0.6000E+01  0.6000E+01
    -39.759  0.0000E+00  0.0000E+00  0.6000E+01  0.6000E+01
    -39.515  0.0000E+00  0.0000E+00  0.6000E+01  0.6000E+01
    -39.271  0.0000E+00  0.0000E+00  0.6000E+01  0.6000E+01
    -39.028  0.0000E+00  0.0000E+00  0.6000E+01  0.6000E+01
    -38.784  0.0000E+00  0.0000E+00  0.6000E+01  0.6000E+01
    -38.540  0.0000E+00  0.0000E+00  0.6000E+01  0.6000E+01
    -38.296  0.0000E+00  0.0000E+00  0.6000E+01  0.6000E+01
    -38.053  0.0000E+00  0.0000E+00  0.6000E+01  0.6000E+01
    -37.809  0.0000E+00  0.0000E+00  0.6000E+01  0.6000E+01
    -37.565  0.0000E+00  0.0000E+00  0.6000E+01  0.6000E+01
    -37.321  0.0000E+00  0.0000E+00  0.6000E+01  0.6000E+01
    -37.078  0.0000E+00  0.0000E+00  0.6000E+01  0.6000E+01
    -36.834  0.0000E+00  0.0000E+00  0.6000E+01  0.6000E+01
    -36.590  0.0000E+00  0.0000E+00  0.6000E+01  0.6000E+01
    -36.346  0.0000E+00  0.0000E+00  0.6000E+01  0.6000E+01
    -36.103  0.0000E+00  0.0000E+00  0.6000E+01  0.6000E+01
    -35.859  0.0000E+00  0.0000E+00  0.6000E+01  0.6000E+01
    -35.615  0.0000E+00  0.0000E+00  0.6000E+01  0.6000E+01
    -35.371  0.0000E+00  0.0000E+00  0.6000E+01  0.6000E+01
    -35.127  0.0000E+00  0.0000E+00  0.6000E+01  0.6000E+01
    -34.884  0.0000E+00  0.0000E+00  0.6000E+01  0.6000E+01
    -34.640  0.0000E+00  0.0000E+00  0.6000E+01  0.6000E+01
    -34.396  0.0000E+00  0.0000E+00  0.6000E+01  0.6000E+01
    -34.152  0.0000E+00  0.0000E+00  0.6000E+01  0.6000E+01
    -33.909  0.0000E+00  0.0000E+00  0.6000E+01  0.6000E+01
    -33.665  0.0000E+00  0.0000E+00  0.6000E+01  0.6000E+01
    -33.421  0.0000E+00  0.0000E+00  0.6000E+01  0.6000E+01
    -33.177  0.0000E+00  0.0000E+00  0.6000E+01  0.6000E+01
    -32.934  0.0000E+00  0.0000E+00  0.6000E+01  0.6000E+01
    -32.690  0.0000E+00  0.0000E+00  0.6000E+01  0.6000E+01
    -32.446  0.0000E+00  0.0000E+00  0.6000E+01  0.6000E+01
    -32.202  0.0000E+00  0.0000E+00  0.6000E+01  0.6000E+01
    -31.959  0.0000E+00  0.0000E+00  0.6000E+01  0.6000E+01
    -31.715  0.0000E+00  0.0000E+00  0.6000E+01  0.6000E+01
    -31.471  0.0000E+00  0.0000E+00  0.6000E+01  0.6000E+01
    -31.227  0.0000E+00  0.0000E+00  0.6000E+01  0.6000E+01
    -30.983  0.0000E+00  0.0000E+00  0.6000E+01  0.6000E+01
    -30.740  0.0000E+00  0.0000E+00  0.6000E+01  0.6000E+01
    -30.496  0.0000E+00  0.0000E+00  0.6000E+01  0.6000E+01
    -30.252  0.0000E+00  0.0000E+00  0.6000E+01  0.6000E+01
    -30.008  0.0000E+00  0.0000E+00  0.6000E+01  0.6000E+01
    -29.765  0.0000E+00  0.0000E+00  0.6000E+01  0.6000E+01
    -29.521  0.0000E+00  0.0000E+00  0.6000E+01  0.6000E+01
    -29.277  0.0000E+00  0.0000E+00  0.6000E+01  0.6000E+01
    -29.033  0.0000E+00  0.0000E+00  0.6000E+01  0.6000E+01
    -28.790  0.0000E+00  0.0000E+00  0.6000E+01  0.6000E+01
    -28.546  0.0000E+00  0.0000E+00  0.6000E+01  0.6000E+01
    -28.302  0.0000E+00  0.0000E+00  0.6000E+01  0.6000E+01
    -28.058  0.0000E+00  0.0000E+00  0.6000E+01  0.6000E+01
    -27.814  0.0000E+00  0.0000E+00  0.6000E+01  0.6000E+01
    -27.571  0.0000E+00  0.0000E+00  0.6000E+01  0.6000E+01
    -27.327  0.0000E+00  0.0000E+00  0.6000E+01  0.6000E+01
    -27.083  0.0000E+00  0.0000E+00  0.6000E+01  0.6000E+01
    -26.839  0.0000E+00  0.0000E+00  0.6000E+01  0.6000E+01
    -26.596  0.0000E+00  0.0000E+00  0.6000E+01  0.6000E+01
    -26.352  0.0000E+00  0.0000E+00  0.6000E+01  0.6000E+01
    -26.108  0.0000E+00  0.0000E+00  0.6000E+01  0.6000E+01
    -25.864  0.0000E+00  0.0000E+00  0.6000E+01  0.6000E+01
    -25.621  0.0000E+00  0.0000E+00  0.6000E+01  0.6000E+01
    -25.377  0.0000E+00  0.0000E+00  0.6000E+01  0.6000E+01
    -25.133  0.0000E+00  0.0000E+00  0.6000E+01  0.6000E+01
    -24.889  0.0000E+00  0.0000E+00  0.6000E+01  0.6000E+01
    -24.646  0.0000E+00  0.0000E+00  0.6000E+01  0.6000E+01
    -24.402  0.0000E+00  0.0000E+00  0.6000E+01  0.6000E+01
    -24.158  0.0000E+00  0.0000E+00  0.6000E+01  0.6000E+01
    -23.914  0.0000E+00  0.0000E+00  0.6000E+01  0.6000E+01
    -23.670  0.0000E+00  0.0000E+00  0.6000E+01  0.6000E+01
    -23.427  0.0000E+00  0.0000E+00  0.6000E+01  0.6000E+01
    -23.183  0.0000E+00  0.0000E+00  0.6000E+01  0.6000E+01
    -22.939  0.0000E+00  0.0000E+00  0.6000E+01  0.6000E+01
    -22.695  0.0000E+00  0.0000E+00  0.6000E+01  0.6000E+01
    -22.452  0.0000E+00  0.0000E+00  0.6000E+01  0.6000E+01
    -22.208  0.0000E+00  0.0000E+00  0.6000E+01  0.6000E+01
    -21.964  0.0000E+00  0.0000E+00  0.6000E+01  0.6000E+01
    -21.720  0.0000E+00  0.0000E+00  0.6000E+01  0.6000E+01
    -21.477  0.0000E+00  0.0000E+00  0.6000E+01  0.6000E+01
    -21.233  0.0000E+00  0.0000E+00  0.6000E+01  0.6000E+01
    -20.989  0.0000E+00  0.0000E+00  0.6000E+01  0.6000E+01
    -20.745  0.0000E+00  0.0000E+00  0.6000E+01  0.6000E+01
    -20.502  0.0000E+00  0.0000E+00  0.6000E+01  0.6000E+01
    -20.258  0.0000E+00  0.0000E+00  0.6000E+01  0.6000E+01
    -20.014  0.0000E+00  0.0000E+00  0.6000E+01  0.6000E+01
    -19.770  0.0000E+00  0.0000E+00  0.6000E+01  0.6000E+01
    -19.526  0.0000E+00  0.0000E+00  0.6000E+01  0.6000E+01
    -19.283  0.0000E+00  0.0000E+00  0.6000E+01  0.6000E+01
    -19.039  0.0000E+00  0.0000E+00  0.6000E+01  0.6000E+01
    -18.795  0.0000E+00  0.0000E+00  0.6000E+01  0.6000E+01
    -18.551  0.0000E+00  0.0000E+00  0.6000E+01  0.6000E+01
    -18.308  0.0000E+00  0.0000E+00  0.6000E+01  0.6000E+01
    -18.064  0.0000E+00  0.0000E+00  0.6000E+01  0.6000E+01
    -17.820  0.0000E+00  0.0000E+00  0.6000E+01  0.6000E+01
    -17.576  0.0000E+00  0.0000E+00  0.6000E+01  0.6000E+01
    -17.333  0.0000E+00  0.0000E+00  0.6000E+01  0.6000E+01
    -17.089  0.0000E+00  0.0000E+00  0.6000E+01  0.6000E+01
    -16.845  0.0000E+00  0.0000E+00  0.6000E+01  0.6000E+01
    -16.601  0.0000E+00  0.0000E+00  0.6000E+01  0.6000E+01
    -16.358  0.0000E+00  0.0000E+00  0.6000E+01  0.6000E+01
    -16.114  0.0000E+00  0.0000E+00  0.6000E+01  0.6000E+01
    -15.870  0.0000E+00  0.0000E+00  0.6000E+01  0.6000E+01
    -15.626  0.0000E+00  0.0000E+00  0.6000E+01  0.6000E+01
    -15.382  0.0000E+00  0.0000E+00  0.6000E+01  0.6000E+01
    -15.139  0.0000E+00  0.0000E+00  0.6000E+01  0.6000E+01
    -14.895  0.0000E+00  0.0000E+00  0.6000E+01  0.6000E+01
    -14.651  0.4687E-03  0.0000E+00  0.6000E+01  0.6000E+01
    -14.407  0.1157E+00  0.1006E-02  0.6028E+01  0.6000E+01
    -14.164  0.4258E+00  0.1292E+00  0.6132E+01  0.6032E+01
    -13.920  0.4746E+00  0.4369E+00  0.6248E+01  0.6138E+01
    -13.676  0.8484E+00  0.4671E+00  0.6455E+01  0.6252E+01
    -13.432  0.1214E+01  0.8483E+00  0.6751E+01  0.6459E+01
    -13.189  0.1113E+01  0.1253E+01  0.7022E+01  0.6764E+01
    -12.945  0.1819E+01  0.1147E+01  0.7465E+01  0.7044E+01
    -12.701  0.2441E+01  0.1835E+01  0.8060E+01  0.7491E+01
    -12.457  0.6601E+01  0.2547E+01  0.9670E+01  0.8112E+01
    -12.213  0.1355E+01  0.6711E+01  0.1000E+02  0.9748E+01
    -11.970  0.0000E+00  0.1033E+01  0.1000E+02  0.1000E+02
    -11.726  0.0000E+00  0.0000E+00  0.1000E+02  0.1000E+02
    -11.482  0.0000E+00  0.0000E+00  0.1000E+02  0.1000E+02
    -11.238  0.0000E+00  0.0000E+00  0.1000E+02  0.1000E+02
    -10.995  0.0000E+00  0.0000E+00  0.1000E+02  0.1000E+02
    -10.751  0.0000E+00  0.0000E+00  0.1000E+02  0.1000E+02
    -10.507  0.0000E+00  0.0000E+00  0.1000E+02  0.1000E+02
    -10.263  0.0000E+00  0.0000E+00  0.1000E+02  0.1000E+02
    -10.020  0.0000E+00  0.0000E+00  0.1000E+02  0.1000E+02
     -9.776  0.0000E+00  0.0000E+00  0.1000E+02  0.1000E+02
     -9.532  0.0000E+00  0.0000E+00  0.1000E+02  0.1000E+02
     -9.288  0.0000E+00  0.0000E+00  0.1000E+02  0.1000E+02
     -9.045  0.0000E+00  0.0000E+00  0.1000E+02  0.1000E+02
     -8.801  0.0000E+00  0.0000E+00  0.1000E+02  0.1000E+02
     -8.557  0.0000E+00  0.0000E+00  0.1000E+02  0.1000E+02
     -8.313  0.0000E+00  0.0000E+00  0.1000E+02  0.1000E+02
     -8.069  0.0000E+00  0.0000E+00  0.1000E+02  0.1000E+02
     -7.826  0.0000E+00  0.0000E+00  0.1000E+02  0.1000E+02
     -7.582  0.0000E+00  0.0000E+00  0.1000E+02  0.1000E+02
     -7.338  0.0000E+00  0.0000E+00  0.1000E+02  0.1000E+02
     -7.094  0.0000E+00  0.0000E+00  0.1000E+02  0.1000E+02
     -6.851  0.0000E+00  0.0000E+00  0.1000E+02  0.1000E+02
     -6.607  0.0000E+00  0.0000E+00  0.1000E+02  0.1000E+02
     -6.363  0.0000E+00  0.0000E+00  0.1000E+02  0.1000E+02
     -6.119  0.0000E+00  0.0000E+00  0.1000E+02  0.1000E+02
     -5.876  0.0000E+00  0.0000E+00  0.1000E+02  0.1000E+02
     -5.632  0.0000E+00  0.0000E+00  0.1000E+02  0.1000E+02
     -5.388  0.0000E+00  0.0000E+00  0.1000E+02  0.1000E+02
     -5.144  0.0000E+00  0.0000E+00  0.1000E+02  0.1000E+02
     -4.901  0.0000E+00  0.0000E+00  0.1000E+02  0.1000E+02
     -4.657  0.0000E+00  0.0000E+00  0.1000E+02  0.1000E+02
     -4.413  0.0000E+00  0.0000E+00  0.1000E+02  0.1000E+02
     -4.169  0.0000E+00  0.0000E+00  0.1000E+02  0.1000E+02
     -3.925  0.0000E+00  0.0000E+00  0.1000E+02  0.1000E+02
     -3.682  0.0000E+00  0.0000E+00  0.1000E+02  0.1000E+02
     -3.438  0.0000E+00  0.0000E+00  0.1000E+02  0.1000E+02
     -3.194  0.0000E+00  0.0000E+00  0.1000E+02  0.1000E+02
     -2.950  0.0000E+00  0.0000E+00  0.1000E+02  0.1000E+02
     -2.707  0.5291E-09  0.0000E+00  0.1000E+02  0.1000E+02
     -2.463  0.8048E-01  0.0000E+00  0.1002E+02  0.1000E+02
     -2.219  0.3301E+00  0.4833E-15  0.1010E+02  0.1000E+02
     -1.975  0.7225E+00  0.1835E-01  0.1028E+02  0.1000E+02
     -1.732  0.9842E+00  0.9641E-01  0.1052E+02  0.1003E+02
     -1.488  0.2242E+01  0.4738E+00  0.1106E+02  0.1014E+02
     -1.244  0.2225E+01  0.9497E+00  0.1160E+02  0.1037E+02
     -1.000  0.2953E+01  0.1673E+01  0.1232E+02  0.1078E+02
     -0.757  0.3219E+01  0.2307E+01  0.1311E+02  0.1135E+02
     -0.513  0.2946E+01  0.2192E+01  0.1383E+02  0.1188E+02
     -0.269  0.1670E+01  0.3079E+01  0.1423E+02  0.1263E+02
     -0.025  0.1699E+01  0.2882E+01  0.1465E+02  0.1333E+02
      0.219  0.2158E+01  0.2453E+01  0.1517E+02  0.1393E+02
      0.462  0.1002E+01  0.1996E+01  0.1542E+02  0.1442E+02
      0.706  0.2201E+01  0.1669E+01  0.1596E+02  0.1482E+02
      0.950  0.2647E+01  0.1490E+01  0.1660E+02  0.1519E+02
      1.194  0.2603E+01  0.1922E+01  0.1724E+02  0.1566E+02
      1.437  0.2863E+01  0.2935E+01  0.1793E+02  0.1637E+02
      1.681  0.3064E+01  0.2373E+01  0.1868E+02  0.1695E+02
      1.925  0.2954E+01  0.1939E+01  0.1940E+02  0.1742E+02
      2.169  0.2380E+01  0.2368E+01  0.1998E+02  0.1800E+02
      2.412  0.1966E+01  0.1686E+01  0.2046E+02  0.1841E+02
      2.656  0.1995E+01  0.1288E+01  0.2095E+02  0.1872E+02
      2.900  0.2696E+01  0.2349E+01  0.2160E+02  0.1930E+02
      3.144  0.1661E+01  0.2414E+01  0.2201E+02  0.1989E+02
      3.388  0.3030E+01  0.9025E+00  0.2275E+02  0.2011E+02
      3.631  0.2570E+01  0.2523E+01  0.2337E+02  0.2072E+02
      3.875  0.3093E+01  0.1361E+01  0.2413E+02  0.2105E+02
      4.119  0.3929E+01  0.1991E+01  0.2508E+02  0.2154E+02
      4.363  0.2695E+01  0.8500E+00  0.2574E+02  0.2174E+02
      4.606  0.1227E+01  0.5583E+00  0.2604E+02  0.2188E+02
      4.850  0.1711E+01  0.3129E+00  0.2646E+02  0.2196E+02
      5.094  0.3337E+01  0.1764E+00  0.2727E+02  0.2200E+02
      5.338  0.2564E+01  0.1229E-02  0.2790E+02  0.2200E+02
      5.581  0.4399E+00  0.1354E-01  0.2800E+02  0.2200E+02
      5.825  0.4640E+00  0.5602E+00  0.2812E+02  0.2214E+02
      6.069  0.9543E+00  0.2418E+01  0.2835E+02  0.2273E+02
      6.313  0.6920E+00  0.3951E+01  0.2852E+02  0.2369E+02
      6.556  0.1378E+01  0.4250E+01  0.2885E+02  0.2473E+02
      6.800  0.9563E+00  0.4618E+01  0.2909E+02  0.2585E+02
      7.044  0.1051E+01  0.1497E+01  0.2934E+02  0.2622E+02
      7.288  0.1834E+01  0.1926E+01  0.2979E+02  0.2669E+02
      7.532  0.8627E+00  0.3236E+01  0.3000E+02  0.2748E+02
      7.775  0.9868E+00  0.2883E+01  0.3024E+02  0.2818E+02
      8.019  0.2413E+01  0.1930E+01  0.3083E+02  0.2865E+02
      8.263  0.1777E+01  0.1691E+01  0.3126E+02  0.2906E+02
      8.507  0.1626E+01  0.9808E+00  0.3166E+02  0.2930E+02
      8.750  0.1298E+01  0.2047E+01  0.3198E+02  0.2980E+02
      8.994  0.1012E+00  0.1309E+01  0.3200E+02  0.3012E+02
      9.238  0.5423E-06  0.2523E+01  0.3200E+02  0.3074E+02
      9.482  0.0000E+00  0.1884E+01  0.3200E+02  0.3119E+02
      9.725  0.0000E+00  0.1623E+01  0.3200E+02  0.3159E+02
      9.969  0.0000E+00  0.1231E+01  0.3200E+02  0.3189E+02
     10.213  0.0000E+00  0.3598E+00  0.3200E+02  0.3198E+02
     10.457  0.0000E+00  0.9098E-01  0.3200E+02  0.3200E+02
     10.700  0.0000E+00  0.2060E-03  0.3200E+02  0.3200E+02
     10.944  0.0000E+00  0.0000E+00  0.3200E+02  0.3200E+02
     11.188  0.0000E+00  0.0000E+00  0.3200E+02  0.3200E+02
     11.432  0.0000E+00  0.0000E+00  0.3200E+02  0.3200E+02
     11.676  0.0000E+00  0.0000E+00  0.3200E+02  0.3200E+02
     11.919  0.0000E+00  0.0000E+00  0.3200E+02  0.3200E+02
     12.163  0.0000E+00  0.0000E+00  0.3200E+02  0.3200E+02
     12.407  0.0000E+00  0.0000E+00  0.3200E+02  0.3200E+02
     12.651  0.0000E+00  0.0000E+00  0.3200E+02  0.3200E+02
     12.894  0.0000E+00  0.0000E+00  0.3200E+02  0.3200E+02
     13.138  0.7761E-13  0.0000E+00  0.3200E+02  0.3200E+02
     13.382  0.3971E-01  0.0000E+00  0.3201E+02  0.3200E+02
     13.626  0.5145E-01  0.1107E-08  0.3202E+02  0.3200E+02
     13.869  0.3730E-05  0.8259E-01  0.3202E+02  0.3202E+02
     14.113  0.2469E+00  0.8571E-02  0.3208E+02  0.3202E+02
     14.357  0.2657E-01  0.7536E-02  0.3209E+02  0.3202E+02
     14.601  0.4988E-01  0.2654E+00  0.3210E+02  0.3209E+02
     14.844  0.2236E+00  0.5580E-03  0.3216E+02  0.3209E+02
     15.088  0.1557E+00  0.2011E+00  0.3219E+02  0.3214E+02
     15.332  0.2090E+00  0.8276E-01  0.3224E+02  0.3216E+02
     15.576  0.3156E+00  0.3113E+00  0.3232E+02  0.3223E+02
     15.820  0.2435E+00  0.9170E-01  0.3238E+02  0.3226E+02
     16.063  0.3798E+00  0.4713E+00  0.3247E+02  0.3237E+02
     16.307  0.3069E+00  0.1181E+00  0.3255E+02  0.3240E+02
     16.551  0.8388E+00  0.4368E+00  0.3275E+02  0.3251E+02
     16.795  0.5824E+00  0.4421E+00  0.3289E+02  0.3261E+02
     17.038  0.1058E+01  0.8444E+00  0.3315E+02  0.3282E+02
     17.282  0.9348E+00  0.4859E+00  0.3338E+02  0.3294E+02
     17.526  0.1254E+01  0.1321E+01  0.3369E+02  0.3326E+02
     17.770  0.1078E+01  0.1103E+01  0.3395E+02  0.3353E+02
     18.013  0.3861E+00  0.7152E+00  0.3404E+02  0.3370E+02
     18.257  0.8672E+00  0.1260E+01  0.3425E+02  0.3401E+02
     18.501  0.9166E+00  0.2760E+00  0.3448E+02  0.3408E+02
     18.745  0.9751E+00  0.6717E+00  0.3472E+02  0.3424E+02
     18.989  0.1171E+01  0.7251E+00  0.3500E+02  0.3442E+02
     19.232  0.5451E+00  0.1153E+01  0.3513E+02  0.3470E+02
     19.476  0.9910E+00  0.3865E+00  0.3538E+02  0.3479E+02
     19.720  0.9922E+00  0.1125E+01  0.3562E+02  0.3507E+02
     19.964  0.8233E+00  0.9241E+00  0.3582E+02  0.3529E+02
     20.207  0.3696E+00  0.1274E+01  0.3591E+02  0.3560E+02
     20.451  0.2909E+00  0.5270E+00  0.3598E+02  0.3573E+02
     20.695  0.8645E-01  0.7340E+00  0.3600E+02  0.3591E+02
     20.939  0.0000E+00  0.2753E+00  0.3600E+02  0.3598E+02
     21.182  0.0000E+00  0.8839E-01  0.3600E+02  0.3600E+02
     21.426  0.0000E+00  0.6531E-07  0.3600E+02  0.3600E+02
     21.670  0.0000E+00  0.0000E+00  0.3600E+02  0.3600E+02
     21.914  0.0000E+00  0.0000E+00  0.3600E+02  0.3600E+02
     22.157  0.0000E+00  0.0000E+00  0.3600E+02  0.3600E+02
     22.401  0.0000E+00  0.0000E+00  0.3600E+02  0.3600E+02
     22.645  0.0000E+00  0.0000E+00  0.3600E+02  0.3600E+02
     22.889  0.0000E+00  0.0000E+00  0.3600E+02  0.3600E+02
     23.133  0.0000E+00  0.0000E+00  0.3600E+02  0.3600E+02
     23.376  0.0000E+00  0.0000E+00  0.3600E+02  0.3600E+02
     23.620  0.0000E+00  0.0000E+00  0.3600E+02  0.3600E+02
     23.864  0.0000E+00  0.0000E+00  0.3600E+02  0.3600E+02
     24.108  0.0000E+00  0.0000E+00  0.3600E+02  0.3600E+02
     24.351  0.0000E+00  0.0000E+00  0.3600E+02  0.3600E+02
