       N       E                     dE             d eps       ncg     rms          rms(c)
DAV:   1     0.524366374073E+03    0.52437E+03   -0.24719E+04 23320   0.253E+03
DAV:   2     0.544525326358E+02   -0.46991E+03   -0.43950E+03 19688   0.624E+02
DAV:   3    -0.157627040384E+02   -0.70215E+02   -0.68571E+02 22344   0.169E+02
DAV:   4    -0.196592459551E+02   -0.38965E+01   -0.38538E+01 30320   0.371E+01
DAV:   5    -0.197778046199E+02   -0.11856E+00   -0.11845E+00 25120   0.552E+00    0.135E+01
DAV:   6    -0.192140206477E+02    0.56378E+00   -0.91440E-01 24144   0.761E+00    0.540E+00
DAV:   7    -0.191570774420E+02    0.56943E-01   -0.26144E-01 29408   0.400E+00    0.151E+00
DAV:   8    -0.191507807814E+02    0.62967E-02   -0.27902E-02 23016   0.140E+00    0.284E-01
DAV:   9    -0.191502954653E+02    0.48532E-03   -0.28903E-03 26624   0.914E-01    0.102E-01
DAV:  10    -0.191503385715E+02   -0.43106E-04   -0.49231E-04 28632   0.516E-01    0.309E-02
DAV:  11    -0.191503421580E+02   -0.35865E-05   -0.11084E-04 28728   0.148E-01    0.768E-03
DAV:  12    -0.191503438317E+02   -0.16738E-05   -0.25115E-05 23648   0.337E-02    0.295E-03
DAV:  13    -0.191503442816E+02   -0.44985E-06   -0.23107E-06 17032   0.262E-02
   1 F= -.19150344E+02 E0= -.19149832E+02  d E =-.102440E-02
