Zr1 Ga3
1.0
   3.5904980100000001    0.0000000100000000   -1.4867739200000001
  -0.6156511700000000    3.5373223000000000   -1.4867739200000001
   0.0971825500000000    0.1155566400000000    5.3135288100000002
Zr Ga
1 3
direct
   0.0000000000000000   -0.0000000000000000   -0.0000000000000000 Zr
   0.7500000000000000    0.2500000000000000    0.5000000000000000 Ga
   0.5000000000000000    0.5000000000000000   -0.0000000000000000 Ga
   0.2500000000000000    0.7500000000000000    0.5000000000000000 Ga
