Ti2 Ni2                                 
   1.00000000000000     
     2.8305029300000002    0.0000000000000000   -0.5916965100000000
     0.0000000000000000    3.9669603499999999    0.0000000000000000
    -0.2880688900000000    0.0000000000000000    4.8170209000000002
   Ti   Ni
     2     2
Direct
     0.6304520099999991    0.7500000000000000    0.7829261999999986
     0.3695479900000009    0.2500000000000000    0.2170738000000014
     0.9233778500000014    0.7500000000000000    0.3288977599999967
     0.0766221499999986    0.2500000000000000    0.6711022400000033
 
  0.00000000E+00  0.00000000E+00  0.00000000E+00
  0.00000000E+00  0.00000000E+00  0.00000000E+00
  0.00000000E+00  0.00000000E+00  0.00000000E+00
  0.00000000E+00  0.00000000E+00  0.00000000E+00
