       N       E                     dE             d eps       ncg     rms          rms(c)
DAV:   1     0.676628789835E+03    0.67663E+03   -0.33379E+04 32232   0.206E+03
DAV:   2     0.849397986594E+01   -0.66813E+03   -0.65043E+03 30256   0.619E+02
DAV:   3    -0.316230157981E+02   -0.40117E+02   -0.37420E+02 32360   0.172E+02
DAV:   4    -0.328950831360E+02   -0.12721E+01   -0.12613E+01 33120   0.319E+01
DAV:   5    -0.329255267159E+02   -0.30444E-01   -0.30441E-01 35640   0.469E+00    0.248E+01
DAV:   6    -0.307124261836E+02    0.22131E+01   -0.35288E+01 31128   0.652E+01    0.201E+01
DAV:   7    -0.302833749522E+02    0.42905E+00   -0.19655E+01 35520   0.557E+01    0.196E+01
DAV:   8    -0.283321480040E+02    0.19512E+01   -0.79954E+00 39220   0.338E+01    0.432E+00
DAV:   9    -0.281654160040E+02    0.16673E+00   -0.48070E-01 33088   0.773E+00    0.130E+00
DAV:  10    -0.281574444702E+02    0.79715E-02   -0.92840E-02 40724   0.246E+00    0.108E+00
DAV:  11    -0.281514719403E+02    0.59725E-02   -0.24334E-02 31336   0.221E+00    0.405E-01
DAV:  12    -0.281507704790E+02    0.70146E-03   -0.36715E-03 35592   0.117E+00    0.174E-01
DAV:  13    -0.281508300126E+02   -0.59534E-04   -0.86757E-04 30896   0.329E-01    0.138E-01
DAV:  14    -0.281507619167E+02    0.68096E-04   -0.48513E-04 37768   0.264E-01    0.468E-02
DAV:  15    -0.281507577656E+02    0.41511E-05   -0.15471E-04 36128   0.127E-01    0.465E-02
DAV:  16    -0.281507427012E+02    0.15064E-04   -0.17969E-05 35744   0.542E-02    0.182E-02
DAV:  17    -0.281507398895E+02    0.28117E-05   -0.42028E-06 29424   0.179E-02    0.432E-03
DAV:  18    -0.281507393376E+02    0.55189E-06   -0.75446E-07 15948   0.697E-03
   1 F= -.28150739E+02 E0= -.28149131E+02  d E =-.321600E-02
