Be4 Nb6                                 
   1.00000000000000     
     3.3738619299999999    0.0000000000000000    0.0000000000000000
     0.0000000000000000    6.5315636000000001   -0.0000010300000000
     0.0000000000000000   -0.0000010300000000    6.5315636000000001
   Be   Nb
     4     6
Direct
     0.0000000000000000    0.3868784699999992    0.8868784699999992
     0.0000000000000000    0.1131215300000008    0.3868784699999992
     0.0000000000000000    0.8868784699999992    0.6131215300000008
     0.0000000000000000    0.6131215300000008    0.1131215300000008
     0.0000000000000000    0.0000000000000000    0.0000000000000000
     0.0000000000000000    0.5000000000000000    0.5000000000000000
     0.5000000000000000    0.1796143099999981    0.6796143099999981
     0.5000000000000000    0.3203866899999994    0.1796133100000006
     0.5000000000000000    0.6796133100000006    0.8203866899999994
     0.5000000000000000    0.8203856900000019    0.3203856900000019
 
  0.00000000E+00  0.00000000E+00  0.00000000E+00
  0.00000000E+00  0.00000000E+00  0.00000000E+00
  0.00000000E+00  0.00000000E+00  0.00000000E+00
  0.00000000E+00  0.00000000E+00  0.00000000E+00
  0.00000000E+00  0.00000000E+00  0.00000000E+00
  0.00000000E+00  0.00000000E+00  0.00000000E+00
  0.00000000E+00  0.00000000E+00  0.00000000E+00
  0.00000000E+00  0.00000000E+00  0.00000000E+00
  0.00000000E+00  0.00000000E+00  0.00000000E+00
  0.00000000E+00  0.00000000E+00  0.00000000E+00
