  10  10   0   0
  0.1439334E+02  0.3373862E-09  0.6531564E-09  0.6531564E-09  0.5000000E-15
  1.000000000000000E-004
  CAR 
 unknown system                          
     23.57839925    -99.48000346  301      4.18354055      1.00000000
    -99.480  0.0000E+00  0.0000E+00
    -99.070  0.0000E+00  0.0000E+00
    -98.660  0.0000E+00  0.0000E+00
    -98.249  0.0000E+00  0.0000E+00
    -97.839  0.0000E+00  0.0000E+00
    -97.429  0.0000E+00  0.0000E+00
    -97.019  0.0000E+00  0.0000E+00
    -96.609  0.0000E+00  0.0000E+00
    -96.198  0.0000E+00  0.0000E+00
    -95.788  0.0000E+00  0.0000E+00
    -95.378  0.0000E+00  0.0000E+00
    -94.968  0.0000E+00  0.0000E+00
    -94.558  0.0000E+00  0.0000E+00
    -94.147  0.8571E-12  0.3516E-12
    -93.737  0.1950E+02  0.8000E+01
    -93.327  0.0000E+00  0.8000E+01
    -92.917  0.0000E+00  0.8000E+01
    -92.507  0.0000E+00  0.8000E+01
    -92.096  0.0000E+00  0.8000E+01
    -91.686  0.0000E+00  0.8000E+01
    -91.276  0.0000E+00  0.8000E+01
    -90.866  0.0000E+00  0.8000E+01
    -90.456  0.0000E+00  0.8000E+01
    -90.046  0.0000E+00  0.8000E+01
    -89.635  0.0000E+00  0.8000E+01
    -89.225  0.0000E+00  0.8000E+01
    -88.815  0.0000E+00  0.8000E+01
    -88.405  0.0000E+00  0.8000E+01
    -87.995  0.0000E+00  0.8000E+01
    -87.584  0.0000E+00  0.8000E+01
    -87.174  0.0000E+00  0.8000E+01
    -86.764  0.0000E+00  0.8000E+01
    -86.354  0.0000E+00  0.8000E+01
    -85.944  0.0000E+00  0.8000E+01
    -85.533  0.0000E+00  0.8000E+01
    -85.123  0.0000E+00  0.8000E+01
    -84.713  0.0000E+00  0.8000E+01
    -84.303  0.0000E+00  0.8000E+01
    -83.893  0.0000E+00  0.8000E+01
    -83.482  0.0000E+00  0.8000E+01
    -83.072  0.0000E+00  0.8000E+01
    -82.662  0.0000E+00  0.8000E+01
    -82.252  0.0000E+00  0.8000E+01
    -81.842  0.0000E+00  0.8000E+01
    -81.431  0.0000E+00  0.8000E+01
    -81.021  0.0000E+00  0.8000E+01
    -80.611  0.0000E+00  0.8000E+01
    -80.201  0.0000E+00  0.8000E+01
    -79.791  0.0000E+00  0.8000E+01
    -79.380  0.0000E+00  0.8000E+01
    -78.970  0.0000E+00  0.8000E+01
    -78.560  0.0000E+00  0.8000E+01
    -78.150  0.0000E+00  0.8000E+01
    -77.740  0.0000E+00  0.8000E+01
    -77.329  0.0000E+00  0.8000E+01
    -76.919  0.0000E+00  0.8000E+01
    -76.509  0.0000E+00  0.8000E+01
    -76.099  0.0000E+00  0.8000E+01
    -75.689  0.0000E+00  0.8000E+01
    -75.279  0.0000E+00  0.8000E+01
    -74.868  0.0000E+00  0.8000E+01
    -74.458  0.0000E+00  0.8000E+01
    -74.048  0.0000E+00  0.8000E+01
    -73.638  0.0000E+00  0.8000E+01
    -73.228  0.0000E+00  0.8000E+01
    -72.817  0.0000E+00  0.8000E+01
    -72.407  0.0000E+00  0.8000E+01
    -71.997  0.0000E+00  0.8000E+01
    -71.587  0.0000E+00  0.8000E+01
    -71.177  0.0000E+00  0.8000E+01
    -70.766  0.0000E+00  0.8000E+01
    -70.356  0.0000E+00  0.8000E+01
    -69.946  0.0000E+00  0.8000E+01
    -69.536  0.0000E+00  0.8000E+01
    -69.126  0.0000E+00  0.8000E+01
    -68.715  0.0000E+00  0.8000E+01
    -68.305  0.0000E+00  0.8000E+01
    -67.895  0.0000E+00  0.8000E+01
    -67.485  0.0000E+00  0.8000E+01
    -67.075  0.0000E+00  0.8000E+01
    -66.664  0.0000E+00  0.8000E+01
    -66.254  0.0000E+00  0.8000E+01
    -65.844  0.0000E+00  0.8000E+01
    -65.434  0.0000E+00  0.8000E+01
    -65.024  0.0000E+00  0.8000E+01
    -64.613  0.0000E+00  0.8000E+01
    -64.203  0.0000E+00  0.8000E+01
    -63.793  0.0000E+00  0.8000E+01
    -63.383  0.0000E+00  0.8000E+01
    -62.973  0.0000E+00  0.8000E+01
    -62.562  0.0000E+00  0.8000E+01
    -62.152  0.0000E+00  0.8000E+01
    -61.742  0.0000E+00  0.8000E+01
    -61.332  0.0000E+00  0.8000E+01
    -60.922  0.0000E+00  0.8000E+01
    -60.512  0.0000E+00  0.8000E+01
    -60.101  0.0000E+00  0.8000E+01
    -59.691  0.0000E+00  0.8000E+01
    -59.281  0.0000E+00  0.8000E+01
    -58.871  0.0000E+00  0.8000E+01
    -58.461  0.0000E+00  0.8000E+01
    -58.050  0.0000E+00  0.8000E+01
    -57.640  0.0000E+00  0.8000E+01
    -57.230  0.0000E+00  0.8000E+01
    -56.820  0.0000E+00  0.8000E+01
    -56.410  0.0000E+00  0.8000E+01
    -55.999  0.0000E+00  0.8000E+01
    -55.589  0.0000E+00  0.8000E+01
    -55.179  0.0000E+00  0.8000E+01
    -54.769  0.0000E+00  0.8000E+01
    -54.359  0.0000E+00  0.8000E+01
    -53.948  0.0000E+00  0.8000E+01
    -53.538  0.0000E+00  0.8000E+01
    -53.128  0.0000E+00  0.8000E+01
    -52.718  0.0000E+00  0.8000E+01
    -52.308  0.0000E+00  0.8000E+01
    -51.897  0.0000E+00  0.8000E+01
    -51.487  0.0000E+00  0.8000E+01
    -51.077  0.0000E+00  0.8000E+01
    -50.667  0.0000E+00  0.8000E+01
    -50.257  0.0000E+00  0.8000E+01
    -49.846  0.0000E+00  0.8000E+01
    -49.436  0.0000E+00  0.8000E+01
    -49.026  0.0000E+00  0.8000E+01
    -48.616  0.0000E+00  0.8000E+01
    -48.206  0.0000E+00  0.8000E+01
    -47.795  0.0000E+00  0.8000E+01
    -47.385  0.0000E+00  0.8000E+01
    -46.975  0.0000E+00  0.8000E+01
    -46.565  0.0000E+00  0.8000E+01
    -46.155  0.0000E+00  0.8000E+01
    -45.745  0.0000E+00  0.8000E+01
    -45.334  0.0000E+00  0.8000E+01
    -44.924  0.0000E+00  0.8000E+01
    -44.514  0.0000E+00  0.8000E+01
    -44.104  0.0000E+00  0.8000E+01
    -43.694  0.0000E+00  0.8000E+01
    -43.283  0.0000E+00  0.8000E+01
    -42.873  0.0000E+00  0.8000E+01
    -42.463  0.0000E+00  0.8000E+01
    -42.053  0.0000E+00  0.8000E+01
    -41.643  0.0000E+00  0.8000E+01
    -41.232  0.0000E+00  0.8000E+01
    -40.822  0.0000E+00  0.8000E+01
    -40.412  0.0000E+00  0.8000E+01
    -40.002  0.0000E+00  0.8000E+01
    -39.592  0.0000E+00  0.8000E+01
    -39.181  0.0000E+00  0.8000E+01
    -38.771  0.0000E+00  0.8000E+01
    -38.361  0.0000E+00  0.8000E+01
    -37.951  0.0000E+00  0.8000E+01
    -37.541  0.0000E+00  0.8000E+01
    -37.130  0.0000E+00  0.8000E+01
    -36.720  0.0000E+00  0.8000E+01
    -36.310  0.0000E+00  0.8000E+01
    -35.900  0.0000E+00  0.8000E+01
    -35.490  0.0000E+00  0.8000E+01
    -35.079  0.0000E+00  0.8000E+01
    -34.669  0.0000E+00  0.8000E+01
    -34.259  0.0000E+00  0.8000E+01
    -33.849  0.0000E+00  0.8000E+01
    -33.439  0.0000E+00  0.8000E+01
    -33.028  0.0000E+00  0.8000E+01
    -32.618  0.0000E+00  0.8000E+01
    -32.208  0.0000E+00  0.8000E+01
    -31.798  0.0000E+00  0.8000E+01
    -31.388  0.0000E+00  0.8000E+01
    -30.977  0.0000E+00  0.8000E+01
    -30.567  0.0000E+00  0.8000E+01
    -30.157  0.0000E+00  0.8000E+01
    -29.747  0.0000E+00  0.8000E+01
    -29.337  0.0000E+00  0.8000E+01
    -28.927  0.0000E+00  0.8000E+01
    -28.516  0.0000E+00  0.8000E+01
    -28.106  0.0000E+00  0.8000E+01
    -27.696  0.0000E+00  0.8000E+01
    -27.286  0.0000E+00  0.8000E+01
    -26.876  0.0000E+00  0.8000E+01
    -26.465  0.2783E+01  0.9141E+01
    -26.055  0.3194E+02  0.2258E+02
    -25.645  0.4465E+02  0.4165E+02
    -25.235  0.3645E+01  0.4400E+02
    -24.825  0.0000E+00  0.4400E+02
    -24.414  0.0000E+00  0.4400E+02
    -24.004  0.0000E+00  0.4400E+02
    -23.594  0.0000E+00  0.4400E+02
    -23.184  0.0000E+00  0.4400E+02
    -22.774  0.0000E+00  0.4400E+02
    -22.363  0.0000E+00  0.4400E+02
    -21.953  0.0000E+00  0.4400E+02
    -21.543  0.0000E+00  0.4400E+02
    -21.133  0.0000E+00  0.4400E+02
    -20.723  0.0000E+00  0.4400E+02
    -20.312  0.0000E+00  0.4400E+02
    -19.902  0.0000E+00  0.4400E+02
    -19.492  0.0000E+00  0.4400E+02
    -19.082  0.0000E+00  0.4400E+02
    -18.672  0.0000E+00  0.4400E+02
    -18.261  0.0000E+00  0.4400E+02
    -17.851  0.0000E+00  0.4400E+02
    -17.441  0.0000E+00  0.4400E+02
    -17.031  0.0000E+00  0.4400E+02
    -16.621  0.0000E+00  0.4400E+02
    -16.210  0.0000E+00  0.4400E+02
    -15.800  0.0000E+00  0.4400E+02
    -15.390  0.0000E+00  0.4400E+02
    -14.980  0.0000E+00  0.4400E+02
    -14.570  0.0000E+00  0.4400E+02
    -14.160  0.0000E+00  0.4400E+02
    -13.749  0.0000E+00  0.4400E+02
    -13.339  0.0000E+00  0.4400E+02
    -12.929  0.0000E+00  0.4400E+02
    -12.519  0.0000E+00  0.4400E+02
    -12.109  0.0000E+00  0.4400E+02
    -11.698  0.0000E+00  0.4400E+02
    -11.288  0.0000E+00  0.4400E+02
    -10.878  0.0000E+00  0.4400E+02
    -10.468  0.0000E+00  0.4400E+02
    -10.058  0.0000E+00  0.4400E+02
     -9.647  0.0000E+00  0.4400E+02
     -9.237  0.0000E+00  0.4400E+02
     -8.827  0.0000E+00  0.4400E+02
     -8.417  0.0000E+00  0.4400E+02
     -8.007  0.0000E+00  0.4400E+02
     -7.596  0.0000E+00  0.4400E+02
     -7.186  0.0000E+00  0.4400E+02
     -6.776  0.0000E+00  0.4400E+02
     -6.366  0.0000E+00  0.4400E+02
     -5.956  0.0000E+00  0.4400E+02
     -5.545  0.0000E+00  0.4400E+02
     -5.135  0.0000E+00  0.4400E+02
     -4.725  0.0000E+00  0.4400E+02
     -4.315  0.0000E+00  0.4400E+02
     -3.905  0.0000E+00  0.4400E+02
     -3.494  0.0000E+00  0.4400E+02
     -3.084  0.0000E+00  0.4400E+02
     -2.674  0.3958E-10  0.4400E+02
     -2.264  0.3047E+00  0.4412E+02
     -1.854  0.9136E+00  0.4450E+02
     -1.443  0.9082E+00  0.4487E+02
     -1.033  0.1228E+01  0.4538E+02
     -0.623  0.1748E+01  0.4610E+02
     -0.213  0.2643E+01  0.4721E+02
      0.197  0.2533E+01  0.4831E+02
      0.607  0.3873E+01  0.4990E+02
      1.018  0.5340E+01  0.5236E+02
      1.428  0.5834E+01  0.5492E+02
      1.838  0.4530E+01  0.5680E+02
      2.248  0.5648E+01  0.5920E+02
      2.658  0.6068E+01  0.6176E+02
      3.069  0.1108E+02  0.6635E+02
      3.479  0.1405E+02  0.7267E+02
      3.889  0.1329E+02  0.7831E+02
      4.299  0.1076E+02  0.8311E+02
      4.709  0.3585E+01  0.8469E+02
      5.120  0.3926E+01  0.8630E+02
      5.530  0.3565E+01  0.8777E+02
      5.940  0.4843E+01  0.8976E+02
      6.350  0.3875E+01  0.9155E+02
      6.760  0.7734E+01  0.9486E+02
      7.171  0.6997E+01  0.9782E+02
      7.581  0.6992E+01  0.1008E+03
      7.991  0.1203E+02  0.1057E+03
      8.401  0.7707E+01  0.1094E+03
      8.811  0.8490E+01  0.1131E+03
      9.222  0.3531E+01  0.1147E+03
      9.632  0.4964E+01  0.1168E+03
     10.042  0.3622E+01  0.1184E+03
     10.452  0.1789E+01  0.1193E+03
     10.862  0.2934E+01  0.1205E+03
     11.273  0.2695E+01  0.1216E+03
     11.683  0.2367E+01  0.1226E+03
     12.093  0.2881E+01  0.1238E+03
     12.503  0.4220E+01  0.1256E+03
     12.913  0.3753E+01  0.1273E+03
     13.324  0.3873E+01  0.1290E+03
     13.734  0.3444E+01  0.1304E+03
     14.144  0.5848E+01  0.1328E+03
     14.554  0.5849E+01  0.1353E+03
     14.964  0.7207E+01  0.1384E+03
     15.375  0.4760E+01  0.1405E+03
     15.785  0.4043E+01  0.1423E+03
     16.195  0.4750E+01  0.1442E+03
     16.605  0.4773E+01  0.1463E+03
     17.015  0.4240E+01  0.1481E+03
     17.425  0.6087E+01  0.1506E+03
     17.836  0.2558E+01  0.1517E+03
     18.246  0.6412E+00  0.1520E+03
     18.656  0.0000E+00  0.1520E+03
     19.066  0.0000E+00  0.1520E+03
     19.476  0.0000E+00  0.1520E+03
     19.887  0.0000E+00  0.1520E+03
     20.297  0.0000E+00  0.1520E+03
     20.707  0.0000E+00  0.1520E+03
     21.117  0.0000E+00  0.1520E+03
     21.527  0.0000E+00  0.1520E+03
     21.938  0.0000E+00  0.1520E+03
     22.348  0.0000E+00  0.1520E+03
     22.758  0.0000E+00  0.1520E+03
     23.168  0.0000E+00  0.1520E+03
     23.578  0.0000E+00  0.1520E+03
