       N       E                     dE             d eps       ncg     rms          rms(c)
DAV:   1     0.119329114099E+04    0.11933E+04   -0.38053E+04 23796   0.312E+03
DAV:   2     0.260708785364E+02   -0.11672E+04   -0.11018E+04 19456   0.771E+02
DAV:   3    -0.758001762598E+02   -0.10187E+03   -0.91507E+02 26668   0.171E+02
DAV:   4    -0.851999843406E+02   -0.93998E+01   -0.90886E+01 31800   0.486E+01
DAV:   5    -0.860721208051E+02   -0.87214E+00   -0.87155E+00 33720   0.128E+01    0.455E+01
DAV:   6    -0.773744262930E+02    0.86977E+01   -0.12721E+01 31552   0.245E+01    0.130E+01
DAV:   7    -0.774604628816E+02   -0.86037E-01   -0.38429E+00 30728   0.141E+01    0.763E+00
DAV:   8    -0.769851586301E+02    0.47530E+00   -0.71236E-01 32688   0.720E+00    0.368E+00
DAV:   9    -0.769626766752E+02    0.22482E-01   -0.12540E-01 26960   0.188E+00    0.837E-01
DAV:  10    -0.769591919892E+02    0.34847E-02   -0.14579E-02 30200   0.926E-01    0.323E-01
DAV:  11    -0.769588458574E+02    0.34613E-03   -0.24963E-03 28264   0.391E-01    0.804E-02
DAV:  12    -0.769588909604E+02   -0.45103E-04   -0.58158E-04 36608   0.183E-01    0.502E-02
DAV:  13    -0.769588622957E+02    0.28665E-04   -0.67551E-05 30496   0.913E-02    0.347E-02
DAV:  14    -0.769588530102E+02    0.92855E-05   -0.11734E-05 30872   0.226E-02    0.220E-02
DAV:  15    -0.769588457687E+02    0.72415E-05   -0.16035E-06 14160   0.133E-02    0.969E-03
DAV:  16    -0.769588442808E+02    0.14879E-05   -0.12714E-06 12720   0.144E-02    0.653E-03
DAV:  17    -0.769588433790E+02    0.90182E-06   -0.44613E-07 11720   0.579E-03
   1 F= -.76958843E+02 E0= -.76949291E+02  d E =-.191048E-01
