Be4Nb6
1.0
      3.3738619       0.0000000       0.0000000
      0.0000000       6.5315636      -0.0000010
      0.0000000      -0.0000010       6.5315636
  Be    Nb  
  4     6   
Direct
      0.0000000       0.3868785       0.8868785
      0.0000000       0.1131215       0.3868785
      0.0000000       0.8868785       0.6131215
      0.0000000       0.6131215       0.1131215
      0.0000000       0.0000000       0.0000000
      0.0000000       0.5000000       0.5000000
      0.5000000       0.1796143       0.6796143
      0.5000000       0.3203867       0.1796133
      0.5000000       0.6796133       0.8203867
      0.5000000       0.8203857       0.3203857
