Be4 Nb6
1.0
   3.3738619299999999    0.0000000000000000    0.0000000000000000
   0.0000000000000000    6.5315636000000001   -0.0000010300000000
   0.0000000000000000   -0.0000010300000000    6.5315636000000001
Be Nb
4 6
direct
  -0.0000000000000000    0.3868784700000000    0.8868784700000000 Be
   0.0000000000000000    0.1131215300000000    0.3868784700000000 Be
   0.0000000000000000    0.8868784700000000    0.6131215300000000 Be
  -0.0000000000000000    0.6131215300000000    0.1131215300000000 Be
   0.0000000000000000   -0.0000000000000000   -0.0000000000000000 Nb
   0.0000000000000000    0.5000000000000000    0.5000000000000000 Nb
   0.5000000000000000    0.1796143100000000    0.6796143100000001 Nb
   0.5000000000000000    0.3203866900000000    0.1796133100000000 Nb
   0.5000000000000000    0.6796133100000000    0.8203866900000000 Nb
   0.5000000000000000    0.8203856899999999    0.3203856900000000 Nb
