Ca2 Cl4                                 
   1.00000000000000     
     4.1787938000000002    0.0000000000000000    0.0000000000000000
     0.0000000000000000    6.3113607900000002    0.0000000000000000
     0.0000000000000000    0.0000000000000000    6.4656737199999998
   Ca   Cl
     2     4
Direct
     0.5000000000000000    0.5000000000000000    0.5000000000000000
     0.0000000000000000    0.0000000000000000    0.0000000000000000
     0.5000000000000000    0.7818935900000028    0.1753407300000021
     0.5000000000000000    0.2181064099999972    0.8246592699999979
     0.0000000000000000    0.7181064099999972    0.6753407300000021
     0.0000000000000000    0.2818935900000028    0.3246592699999979
 
  0.00000000E+00  0.00000000E+00  0.00000000E+00
  0.00000000E+00  0.00000000E+00  0.00000000E+00
  0.00000000E+00  0.00000000E+00  0.00000000E+00
  0.00000000E+00  0.00000000E+00  0.00000000E+00
  0.00000000E+00  0.00000000E+00  0.00000000E+00
  0.00000000E+00  0.00000000E+00  0.00000000E+00
