       N       E                     dE             d eps       ncg     rms          rms(c)
DAV:   1     0.481744922518E+03    0.48174E+03   -0.24186E+04  5376   0.173E+03
DAV:   2     0.148276447958E+02   -0.46692E+03   -0.45756E+03  7264   0.396E+02
DAV:   3    -0.244785627083E+02   -0.39306E+02   -0.39198E+02  7740   0.109E+02
DAV:   4    -0.259759257061E+02   -0.14974E+01   -0.14956E+01  8664   0.216E+01
DAV:   5    -0.260439491277E+02   -0.68023E-01   -0.68009E-01  8656   0.319E+00    0.667E+00
DAV:   6    -0.255757915417E+02    0.46816E+00   -0.13876E+00  6288   0.477E+00    0.459E+00
DAV:   7    -0.255878350971E+02   -0.12044E-01   -0.45098E-01  7464   0.316E+00    0.202E+00
DAV:   8    -0.256130573622E+02   -0.25222E-01   -0.59545E-02  6448   0.154E+00    0.213E-01
DAV:   9    -0.256154982596E+02   -0.24409E-02   -0.49105E-03  8968   0.396E-01    0.119E-01
DAV:  10    -0.256169657134E+02   -0.14675E-02   -0.12628E-03  6384   0.217E-01    0.280E-02
DAV:  11    -0.256171478575E+02   -0.18214E-03   -0.23324E-04  6892   0.877E-02    0.113E-02
DAV:  12    -0.256171548608E+02   -0.70032E-05   -0.17469E-05  7144   0.271E-02    0.466E-03
DAV:  13    -0.256171572615E+02   -0.24008E-05   -0.25649E-06  5140   0.105E-02    0.171E-03
DAV:  14    -0.256171573645E+02   -0.10301E-06   -0.40046E-07  3840   0.472E-03
   1 F= -.25617157E+02 E0= -.25617157E+02  d E =-.318249E-15
