       N       E                     dE             d eps       ncg     rms          rms(c)
DAV:   1     0.456802512968E+03    0.45680E+03   -0.27815E+04 13084   0.247E+03
DAV:   2     0.521711653572E+02   -0.40463E+03   -0.39349E+03 12960   0.546E+02
DAV:   3    -0.739446649751E+01   -0.59566E+02   -0.58864E+02 13812   0.180E+02
DAV:   4    -0.987048659394E+01   -0.24760E+01   -0.24697E+01 14768   0.380E+01
DAV:   5    -0.992819952158E+01   -0.57713E-01   -0.57707E-01 16348   0.580E+00    0.431E+00
DAV:   6    -0.965421783114E+01    0.27398E+00   -0.14398E+00 16344   0.177E+01    0.333E+00
DAV:   7    -0.964137181206E+01    0.12846E-01   -0.12982E-01 14424   0.419E+00    0.170E+00
DAV:   8    -0.963713665498E+01    0.42352E-02   -0.19995E-02 15820   0.124E+00    0.149E-01
DAV:   9    -0.963703620234E+01    0.10045E-03   -0.17738E-03 18404   0.552E-01    0.544E-02
DAV:  10    -0.963709724650E+01   -0.61044E-04   -0.56539E-04 15452   0.194E-01    0.173E-02
DAV:  11    -0.963709059173E+01    0.66548E-05   -0.57525E-05 16244   0.108E-01    0.114E-02
DAV:  12    -0.963709147450E+01   -0.88276E-06   -0.93172E-06 12720   0.315E-02
   1 F= -.96370915E+01 E0= -.96351413E+01  d E =-.390042E-02
