   2   2   0   0
  0.1084022E+03  0.5226655E-09  0.5226655E-09  0.8389940E-09  0.5000000E-15
  1.000000000000000E-004
  CAR 
 unknown system                          
      3.87602755    -30.37589233  301      0.15950067      1.00000000
    -30.376  0.0000E+00  0.0000E+00
    -30.262  0.0000E+00  0.0000E+00
    -30.148  0.0000E+00  0.0000E+00
    -30.033  0.0000E+00  0.0000E+00
    -29.919  0.0000E+00  0.0000E+00
    -29.805  0.0000E+00  0.0000E+00
    -29.691  0.0000E+00  0.0000E+00
    -29.577  0.0000E+00  0.0000E+00
    -29.463  0.0000E+00  0.0000E+00
    -29.348  0.0000E+00  0.0000E+00
    -29.234  0.0000E+00  0.0000E+00
    -29.120  0.0000E+00  0.0000E+00
    -29.006  0.9831E-06  0.1122E-06
    -28.892  0.3314E+00  0.3784E-01
    -28.777  0.1500E+02  0.1751E+01
    -28.663  0.2182E+01  0.2000E+01
    -28.549  0.1031E-03  0.2000E+01
    -28.435  0.2387E-12  0.2000E+01
    -28.321  0.0000E+00  0.2000E+01
    -28.207  0.0000E+00  0.2000E+01
    -28.092  0.0000E+00  0.2000E+01
    -27.978  0.0000E+00  0.2000E+01
    -27.864  0.0000E+00  0.2000E+01
    -27.750  0.0000E+00  0.2000E+01
    -27.636  0.0000E+00  0.2000E+01
    -27.522  0.0000E+00  0.2000E+01
    -27.407  0.0000E+00  0.2000E+01
    -27.293  0.0000E+00  0.2000E+01
    -27.179  0.0000E+00  0.2000E+01
    -27.065  0.0000E+00  0.2000E+01
    -26.951  0.0000E+00  0.2000E+01
    -26.837  0.0000E+00  0.2000E+01
    -26.722  0.0000E+00  0.2000E+01
    -26.608  0.0000E+00  0.2000E+01
    -26.494  0.0000E+00  0.2000E+01
    -26.380  0.0000E+00  0.2000E+01
    -26.266  0.0000E+00  0.2000E+01
    -26.151  0.0000E+00  0.2000E+01
    -26.037  0.0000E+00  0.2000E+01
    -25.923  0.0000E+00  0.2000E+01
    -25.809  0.0000E+00  0.2000E+01
    -25.695  0.0000E+00  0.2000E+01
    -25.581  0.0000E+00  0.2000E+01
    -25.466  0.0000E+00  0.2000E+01
    -25.352  0.0000E+00  0.2000E+01
    -25.238  0.0000E+00  0.2000E+01
    -25.124  0.0000E+00  0.2000E+01
    -25.010  0.0000E+00  0.2000E+01
    -24.896  0.0000E+00  0.2000E+01
    -24.781  0.0000E+00  0.2000E+01
    -24.667  0.0000E+00  0.2000E+01
    -24.553  0.0000E+00  0.2000E+01
    -24.439  0.0000E+00  0.2000E+01
    -24.325  0.0000E+00  0.2000E+01
    -24.211  0.0000E+00  0.2000E+01
    -24.096  0.0000E+00  0.2000E+01
    -23.982  0.4190E-10  0.2000E+01
    -23.868  0.1987E-02  0.2000E+01
    -23.754  0.5638E+01  0.2644E+01
    -23.640  0.1183E+02  0.3994E+01
    -23.526  0.5019E-01  0.4000E+01
    -23.411  0.1862E-07  0.4000E+01
    -23.297  0.0000E+00  0.4000E+01
    -23.183  0.0000E+00  0.4000E+01
    -23.069  0.0000E+00  0.4000E+01
    -22.955  0.0000E+00  0.4000E+01
    -22.840  0.0000E+00  0.4000E+01
    -22.726  0.0000E+00  0.4000E+01
    -22.612  0.0000E+00  0.4000E+01
    -22.498  0.0000E+00  0.4000E+01
    -22.384  0.0000E+00  0.4000E+01
    -22.270  0.0000E+00  0.4000E+01
    -22.155  0.0000E+00  0.4000E+01
    -22.041  0.0000E+00  0.4000E+01
    -21.927  0.0000E+00  0.4000E+01
    -21.813  0.0000E+00  0.4000E+01
    -21.699  0.0000E+00  0.4000E+01
    -21.585  0.0000E+00  0.4000E+01
    -21.470  0.0000E+00  0.4000E+01
    -21.356  0.0000E+00  0.4000E+01
    -21.242  0.0000E+00  0.4000E+01
    -21.128  0.0000E+00  0.4000E+01
    -21.014  0.0000E+00  0.4000E+01
    -20.900  0.0000E+00  0.4000E+01
    -20.785  0.0000E+00  0.4000E+01
    -20.671  0.0000E+00  0.4000E+01
    -20.557  0.0000E+00  0.4000E+01
    -20.443  0.0000E+00  0.4000E+01
    -20.329  0.0000E+00  0.4000E+01
    -20.214  0.0000E+00  0.4000E+01
    -20.100  0.0000E+00  0.4000E+01
    -19.986  0.0000E+00  0.4000E+01
    -19.872  0.0000E+00  0.4000E+01
    -19.758  0.0000E+00  0.4000E+01
    -19.644  0.0000E+00  0.4000E+01
    -19.529  0.0000E+00  0.4000E+01
    -19.415  0.0000E+00  0.4000E+01
    -19.301  0.0000E+00  0.4000E+01
    -19.187  0.0000E+00  0.4000E+01
    -19.073  0.0000E+00  0.4000E+01
    -18.959  0.0000E+00  0.4000E+01
    -18.844  0.0000E+00  0.4000E+01
    -18.730  0.0000E+00  0.4000E+01
    -18.616  0.0000E+00  0.4000E+01
    -18.502  0.0000E+00  0.4000E+01
    -18.388  0.0000E+00  0.4000E+01
    -18.274  0.0000E+00  0.4000E+01
    -18.159  0.0000E+00  0.4000E+01
    -18.045  0.0000E+00  0.4000E+01
    -17.931  0.0000E+00  0.4000E+01
    -17.817  0.0000E+00  0.4000E+01
    -17.703  0.0000E+00  0.4000E+01
    -17.589  0.0000E+00  0.4000E+01
    -17.474  0.0000E+00  0.4000E+01
    -17.360  0.0000E+00  0.4000E+01
    -17.246  0.0000E+00  0.4000E+01
    -17.132  0.0000E+00  0.4000E+01
    -17.018  0.0000E+00  0.4000E+01
    -16.903  0.0000E+00  0.4000E+01
    -16.789  0.0000E+00  0.4000E+01
    -16.675  0.0000E+00  0.4000E+01
    -16.561  0.0000E+00  0.4000E+01
    -16.447  0.0000E+00  0.4000E+01
    -16.333  0.0000E+00  0.4000E+01
    -16.218  0.0000E+00  0.4000E+01
    -16.104  0.0000E+00  0.4000E+01
    -15.990  0.0000E+00  0.4000E+01
    -15.876  0.0000E+00  0.4000E+01
    -15.762  0.0000E+00  0.4000E+01
    -15.648  0.0000E+00  0.4000E+01
    -15.533  0.0000E+00  0.4000E+01
    -15.419  0.0000E+00  0.4000E+01
    -15.305  0.0000E+00  0.4000E+01
    -15.191  0.0000E+00  0.4000E+01
    -15.077  0.0000E+00  0.4000E+01
    -14.963  0.0000E+00  0.4000E+01
    -14.848  0.0000E+00  0.4000E+01
    -14.734  0.0000E+00  0.4000E+01
    -14.620  0.0000E+00  0.4000E+01
    -14.506  0.0000E+00  0.4000E+01
    -14.392  0.0000E+00  0.4000E+01
    -14.277  0.0000E+00  0.4000E+01
    -14.163  0.0000E+00  0.4000E+01
    -14.049  0.0000E+00  0.4000E+01
    -13.935  0.0000E+00  0.4000E+01
    -13.821  0.0000E+00  0.4000E+01
    -13.707  0.0000E+00  0.4000E+01
    -13.592  0.0000E+00  0.4000E+01
    -13.478  0.0000E+00  0.4000E+01
    -13.364  0.0000E+00  0.4000E+01
    -13.250  0.0000E+00  0.4000E+01
    -13.136  0.2174E-08  0.4000E+01
    -13.022  0.2357E-01  0.4003E+01
    -12.907  0.2184E+02  0.6496E+01
    -12.793  0.3056E+02  0.9986E+01
    -12.679  0.1261E+00  0.1000E+02
    -12.565  0.1040E-06  0.1000E+02
    -12.451  0.0000E+00  0.1000E+02
    -12.337  0.0000E+00  0.1000E+02
    -12.222  0.0000E+00  0.1000E+02
    -12.108  0.0000E+00  0.1000E+02
    -11.994  0.0000E+00  0.1000E+02
    -11.880  0.0000E+00  0.1000E+02
    -11.766  0.0000E+00  0.1000E+02
    -11.652  0.0000E+00  0.1000E+02
    -11.537  0.0000E+00  0.1000E+02
    -11.423  0.0000E+00  0.1000E+02
    -11.309  0.0000E+00  0.1000E+02
    -11.195  0.0000E+00  0.1000E+02
    -11.081  0.0000E+00  0.1000E+02
    -10.966  0.0000E+00  0.1000E+02
    -10.852  0.9641E-11  0.1000E+02
    -10.738  0.6193E-03  0.1000E+02
    -10.624  0.3068E+01  0.1035E+02
    -10.510  0.3664E+02  0.1453E+02
    -10.396  0.1283E+02  0.1600E+02
    -10.281  0.1773E-01  0.1600E+02
    -10.167  0.5339E-08  0.1600E+02
    -10.053  0.0000E+00  0.1600E+02
     -9.939  0.0000E+00  0.1600E+02
     -9.825  0.0000E+00  0.1600E+02
     -9.711  0.0000E+00  0.1600E+02
     -9.596  0.0000E+00  0.1600E+02
     -9.482  0.0000E+00  0.1600E+02
     -9.368  0.0000E+00  0.1600E+02
     -9.254  0.0000E+00  0.1600E+02
     -9.140  0.0000E+00  0.1600E+02
     -9.026  0.0000E+00  0.1600E+02
     -8.911  0.0000E+00  0.1600E+02
     -8.797  0.0000E+00  0.1600E+02
     -8.683  0.0000E+00  0.1600E+02
     -8.569  0.0000E+00  0.1600E+02
     -8.455  0.0000E+00  0.1600E+02
     -8.340  0.0000E+00  0.1600E+02
     -8.226  0.0000E+00  0.1600E+02
     -8.112  0.0000E+00  0.1600E+02
     -7.998  0.0000E+00  0.1600E+02
     -7.884  0.0000E+00  0.1600E+02
     -7.770  0.0000E+00  0.1600E+02
     -7.655  0.0000E+00  0.1600E+02
     -7.541  0.0000E+00  0.1600E+02
     -7.427  0.0000E+00  0.1600E+02
     -7.313  0.0000E+00  0.1600E+02
     -7.199  0.0000E+00  0.1600E+02
     -7.085  0.0000E+00  0.1600E+02
     -6.970  0.0000E+00  0.1600E+02
     -6.856  0.0000E+00  0.1600E+02
     -6.742  0.0000E+00  0.1600E+02
     -6.628  0.0000E+00  0.1600E+02
     -6.514  0.0000E+00  0.1600E+02
     -6.400  0.0000E+00  0.1600E+02
     -6.285  0.0000E+00  0.1600E+02
     -6.171  0.0000E+00  0.1600E+02
     -6.057  0.0000E+00  0.1600E+02
     -5.943  0.0000E+00  0.1600E+02
     -5.829  0.0000E+00  0.1600E+02
     -5.715  0.0000E+00  0.1600E+02
     -5.600  0.0000E+00  0.1600E+02
     -5.486  0.0000E+00  0.1600E+02
     -5.372  0.0000E+00  0.1600E+02
     -5.258  0.0000E+00  0.1600E+02
     -5.144  0.0000E+00  0.1600E+02
     -5.029  0.0000E+00  0.1600E+02
     -4.915  0.0000E+00  0.1600E+02
     -4.801  0.0000E+00  0.1600E+02
     -4.687  0.0000E+00  0.1600E+02
     -4.573  0.0000E+00  0.1600E+02
     -4.459  0.0000E+00  0.1600E+02
     -4.344  0.0000E+00  0.1600E+02
     -4.230  0.0000E+00  0.1600E+02
     -4.116  0.0000E+00  0.1600E+02
     -4.002  0.0000E+00  0.1600E+02
     -3.888  0.0000E+00  0.1600E+02
     -3.774  0.0000E+00  0.1600E+02
     -3.659  0.0000E+00  0.1600E+02
     -3.545  0.0000E+00  0.1600E+02
     -3.431  0.0000E+00  0.1600E+02
     -3.317  0.0000E+00  0.1600E+02
     -3.203  0.0000E+00  0.1600E+02
     -3.089  0.0000E+00  0.1600E+02
     -2.974  0.0000E+00  0.1600E+02
     -2.860  0.0000E+00  0.1600E+02
     -2.746  0.0000E+00  0.1600E+02
     -2.632  0.0000E+00  0.1600E+02
     -2.518  0.0000E+00  0.1600E+02
     -2.403  0.0000E+00  0.1600E+02
     -2.289  0.0000E+00  0.1600E+02
     -2.175  0.0000E+00  0.1600E+02
     -2.061  0.0000E+00  0.1600E+02
     -1.947  0.0000E+00  0.1600E+02
     -1.833  0.8645E-10  0.1600E+02
     -1.718  0.3985E-03  0.1600E+02
     -1.604  0.1440E+00  0.1602E+02
     -1.490  0.8907E-01  0.1603E+02
     -1.376  0.2940E-01  0.1603E+02
     -1.262  0.1213E+01  0.1617E+02
     -1.148  0.5822E+00  0.1624E+02
     -1.033  0.5562E+00  0.1630E+02
     -0.919  0.1689E+01  0.1649E+02
     -0.805  0.8582E+00  0.1659E+02
     -0.691  0.2099E+00  0.1661E+02
     -0.577  0.3187E+00  0.1665E+02
     -0.463  0.2220E+01  0.1690E+02
     -0.348  0.8004E+00  0.1699E+02
     -0.234  0.3488E+01  0.1739E+02
     -0.120  0.3000E+01  0.1774E+02
     -0.006  0.4506E+00  0.1779E+02
      0.108  0.9014E+00  0.1789E+02
      0.222  0.1806E+01  0.1810E+02
      0.337  0.2826E+01  0.1842E+02
      0.451  0.3252E+01  0.1879E+02
      0.565  0.1205E+01  0.1893E+02
      0.679  0.4050E+01  0.1939E+02
      0.793  0.2068E+01  0.1963E+02
      0.908  0.1151E+01  0.1976E+02
      1.022  0.5380E+01  0.2037E+02
      1.136  0.5387E+01  0.2099E+02
      1.250  0.4384E+01  0.2149E+02
      1.364  0.5496E+01  0.2211E+02
      1.478  0.3625E+01  0.2253E+02
      1.593  0.2055E+01  0.2276E+02
      1.707  0.5798E+01  0.2343E+02
      1.821  0.1348E+01  0.2358E+02
      1.935  0.1577E+01  0.2376E+02
      2.049  0.3319E+00  0.2380E+02
      2.163  0.3830E+00  0.2384E+02
      2.278  0.5229E+00  0.2390E+02
      2.392  0.8542E+00  0.2400E+02
      2.506  0.1780E-01  0.2400E+02
      2.620  0.5326E-07  0.2400E+02
      2.734  0.0000E+00  0.2400E+02
      2.848  0.0000E+00  0.2400E+02
      2.963  0.0000E+00  0.2400E+02
      3.077  0.0000E+00  0.2400E+02
      3.191  0.0000E+00  0.2400E+02
      3.305  0.0000E+00  0.2400E+02
      3.419  0.0000E+00  0.2400E+02
      3.534  0.0000E+00  0.2400E+02
      3.648  0.0000E+00  0.2400E+02
      3.762  0.0000E+00  0.2400E+02
      3.876  0.0000E+00  0.2400E+02
