  10  10   0   0
  0.1967708E+02  0.5103066E-09  0.5169771E-09  0.7546100E-09  0.5000000E-15
  1.000000000000000E-004
  CAR 
 unknown system                          
     12.96747936    -39.56449571  301      5.28467800      1.00000000
    -39.564  0.0000E+00  0.0000E+00
    -39.389  0.0000E+00  0.0000E+00
    -39.214  0.0000E+00  0.0000E+00
    -39.039  0.0000E+00  0.0000E+00
    -38.864  0.0000E+00  0.0000E+00
    -38.689  0.0000E+00  0.0000E+00
    -38.514  0.0000E+00  0.0000E+00
    -38.339  0.0000E+00  0.0000E+00
    -38.164  0.0000E+00  0.0000E+00
    -37.989  0.0000E+00  0.0000E+00
    -37.813  0.0000E+00  0.0000E+00
    -37.638  0.0000E+00  0.0000E+00
    -37.463  0.6340E-14  0.1110E-14
    -37.288  0.1858E-01  0.3253E-02
    -37.113  0.5277E+02  0.9243E+01
    -36.938  0.1574E+02  0.1200E+02
    -36.763  0.1665E-05  0.1200E+02
    -36.588  0.0000E+00  0.1200E+02
    -36.413  0.0000E+00  0.1200E+02
    -36.237  0.0000E+00  0.1200E+02
    -36.062  0.0000E+00  0.1200E+02
    -35.887  0.0000E+00  0.1200E+02
    -35.712  0.0000E+00  0.1200E+02
    -35.537  0.0000E+00  0.1200E+02
    -35.362  0.0000E+00  0.1200E+02
    -35.187  0.0000E+00  0.1200E+02
    -35.012  0.0000E+00  0.1200E+02
    -34.837  0.0000E+00  0.1200E+02
    -34.662  0.0000E+00  0.1200E+02
    -34.486  0.0000E+00  0.1200E+02
    -34.311  0.0000E+00  0.1200E+02
    -34.136  0.0000E+00  0.1200E+02
    -33.961  0.0000E+00  0.1200E+02
    -33.786  0.0000E+00  0.1200E+02
    -33.611  0.0000E+00  0.1200E+02
    -33.436  0.0000E+00  0.1200E+02
    -33.261  0.0000E+00  0.1200E+02
    -33.086  0.0000E+00  0.1200E+02
    -32.910  0.0000E+00  0.1200E+02
    -32.735  0.0000E+00  0.1200E+02
    -32.560  0.0000E+00  0.1200E+02
    -32.385  0.0000E+00  0.1200E+02
    -32.210  0.0000E+00  0.1200E+02
    -32.035  0.0000E+00  0.1200E+02
    -31.860  0.0000E+00  0.1200E+02
    -31.685  0.0000E+00  0.1200E+02
    -31.510  0.0000E+00  0.1200E+02
    -31.334  0.0000E+00  0.1200E+02
    -31.159  0.0000E+00  0.1200E+02
    -30.984  0.0000E+00  0.1200E+02
    -30.809  0.0000E+00  0.1200E+02
    -30.634  0.0000E+00  0.1200E+02
    -30.459  0.0000E+00  0.1200E+02
    -30.284  0.0000E+00  0.1200E+02
    -30.109  0.0000E+00  0.1200E+02
    -29.934  0.0000E+00  0.1200E+02
    -29.759  0.0000E+00  0.1200E+02
    -29.583  0.0000E+00  0.1200E+02
    -29.408  0.0000E+00  0.1200E+02
    -29.233  0.0000E+00  0.1200E+02
    -29.058  0.0000E+00  0.1200E+02
    -28.883  0.0000E+00  0.1200E+02
    -28.708  0.0000E+00  0.1200E+02
    -28.533  0.0000E+00  0.1200E+02
    -28.358  0.0000E+00  0.1200E+02
    -28.183  0.0000E+00  0.1200E+02
    -28.007  0.0000E+00  0.1200E+02
    -27.832  0.0000E+00  0.1200E+02
    -27.657  0.0000E+00  0.1200E+02
    -27.482  0.0000E+00  0.1200E+02
    -27.307  0.0000E+00  0.1200E+02
    -27.132  0.0000E+00  0.1200E+02
    -26.957  0.0000E+00  0.1200E+02
    -26.782  0.0000E+00  0.1200E+02
    -26.607  0.0000E+00  0.1200E+02
    -26.432  0.0000E+00  0.1200E+02
    -26.256  0.0000E+00  0.1200E+02
    -26.081  0.0000E+00  0.1200E+02
    -25.906  0.0000E+00  0.1200E+02
    -25.731  0.0000E+00  0.1200E+02
    -25.556  0.0000E+00  0.1200E+02
    -25.381  0.0000E+00  0.1200E+02
    -25.206  0.0000E+00  0.1200E+02
    -25.031  0.0000E+00  0.1200E+02
    -24.856  0.0000E+00  0.1200E+02
    -24.680  0.0000E+00  0.1200E+02
    -24.505  0.0000E+00  0.1200E+02
    -24.330  0.0000E+00  0.1200E+02
    -24.155  0.0000E+00  0.1200E+02
    -23.980  0.0000E+00  0.1200E+02
    -23.805  0.0000E+00  0.1200E+02
    -23.630  0.0000E+00  0.1200E+02
    -23.455  0.0000E+00  0.1200E+02
    -23.280  0.0000E+00  0.1200E+02
    -23.104  0.0000E+00  0.1200E+02
    -22.929  0.0000E+00  0.1200E+02
    -22.754  0.0000E+00  0.1200E+02
    -22.579  0.0000E+00  0.1200E+02
    -22.404  0.0000E+00  0.1200E+02
    -22.229  0.0000E+00  0.1200E+02
    -22.054  0.0000E+00  0.1200E+02
    -21.879  0.0000E+00  0.1200E+02
    -21.704  0.0000E+00  0.1200E+02
    -21.529  0.0000E+00  0.1200E+02
    -21.353  0.0000E+00  0.1200E+02
    -21.178  0.0000E+00  0.1200E+02
    -21.003  0.0000E+00  0.1200E+02
    -20.828  0.0000E+00  0.1200E+02
    -20.653  0.0000E+00  0.1200E+02
    -20.478  0.0000E+00  0.1200E+02
    -20.303  0.0000E+00  0.1200E+02
    -20.128  0.0000E+00  0.1200E+02
    -19.953  0.0000E+00  0.1200E+02
    -19.777  0.0000E+00  0.1200E+02
    -19.602  0.0000E+00  0.1200E+02
    -19.427  0.0000E+00  0.1200E+02
    -19.252  0.0000E+00  0.1200E+02
    -19.077  0.0000E+00  0.1200E+02
    -18.902  0.0000E+00  0.1200E+02
    -18.727  0.0000E+00  0.1200E+02
    -18.552  0.0000E+00  0.1200E+02
    -18.377  0.0000E+00  0.1200E+02
    -18.201  0.0000E+00  0.1200E+02
    -18.026  0.0000E+00  0.1200E+02
    -17.851  0.0000E+00  0.1200E+02
    -17.676  0.0000E+00  0.1200E+02
    -17.501  0.0000E+00  0.1200E+02
    -17.326  0.0000E+00  0.1200E+02
    -17.151  0.0000E+00  0.1200E+02
    -16.976  0.0000E+00  0.1200E+02
    -16.801  0.0000E+00  0.1200E+02
    -16.626  0.0000E+00  0.1200E+02
    -16.450  0.0000E+00  0.1200E+02
    -16.275  0.0000E+00  0.1200E+02
    -16.100  0.0000E+00  0.1200E+02
    -15.925  0.0000E+00  0.1200E+02
    -15.750  0.0000E+00  0.1200E+02
    -15.575  0.0000E+00  0.1200E+02
    -15.400  0.0000E+00  0.1200E+02
    -15.225  0.0000E+00  0.1200E+02
    -15.050  0.0000E+00  0.1200E+02
    -14.874  0.0000E+00  0.1200E+02
    -14.699  0.0000E+00  0.1200E+02
    -14.524  0.0000E+00  0.1200E+02
    -14.349  0.0000E+00  0.1200E+02
    -14.174  0.0000E+00  0.1200E+02
    -13.999  0.0000E+00  0.1200E+02
    -13.824  0.0000E+00  0.1200E+02
    -13.649  0.0000E+00  0.1200E+02
    -13.474  0.0000E+00  0.1200E+02
    -13.299  0.0000E+00  0.1200E+02
    -13.123  0.0000E+00  0.1200E+02
    -12.948  0.0000E+00  0.1200E+02
    -12.773  0.0000E+00  0.1200E+02
    -12.598  0.0000E+00  0.1200E+02
    -12.423  0.0000E+00  0.1200E+02
    -12.248  0.0000E+00  0.1200E+02
    -12.073  0.0000E+00  0.1200E+02
    -11.898  0.0000E+00  0.1200E+02
    -11.723  0.0000E+00  0.1200E+02
    -11.547  0.0000E+00  0.1200E+02
    -11.372  0.0000E+00  0.1200E+02
    -11.197  0.0000E+00  0.1200E+02
    -11.022  0.0000E+00  0.1200E+02
    -10.847  0.0000E+00  0.1200E+02
    -10.672  0.0000E+00  0.1200E+02
    -10.497  0.0000E+00  0.1200E+02
    -10.322  0.0000E+00  0.1200E+02
    -10.147  0.0000E+00  0.1200E+02
     -9.971  0.0000E+00  0.1200E+02
     -9.796  0.1490E-13  0.1200E+02
     -9.621  0.1255E-02  0.1200E+02
     -9.446  0.3991E+00  0.1207E+02
     -9.271  0.1805E+01  0.1239E+02
     -9.096  0.3176E+01  0.1294E+02
     -8.921  0.2050E+01  0.1330E+02
     -8.746  0.2733E+01  0.1378E+02
     -8.571  0.3559E+01  0.1440E+02
     -8.396  0.4938E+01  0.1527E+02
     -8.220  0.1831E+01  0.1559E+02
     -8.045  0.6799E-01  0.1560E+02
     -7.870  0.4134E+00  0.1567E+02
     -7.695  0.2385E+01  0.1609E+02
     -7.520  0.1019E+01  0.1627E+02
     -7.345  0.1251E+01  0.1649E+02
     -7.170  0.3973E+01  0.1718E+02
     -6.995  0.2771E+00  0.1723E+02
     -6.820  0.5786E+01  0.1824E+02
     -6.644  0.1543E+01  0.1852E+02
     -6.469  0.4479E+00  0.1859E+02
     -6.294  0.1740E+01  0.1890E+02
     -6.119  0.3049E+01  0.1943E+02
     -5.944  0.1105E+01  0.1963E+02
     -5.769  0.2044E+01  0.1998E+02
     -5.594  0.1435E+01  0.2024E+02
     -5.419  0.2543E+01  0.2068E+02
     -5.244  0.2000E+01  0.2103E+02
     -5.068  0.3038E+01  0.2156E+02
     -4.893  0.5849E+00  0.2166E+02
     -4.718  0.1332E+01  0.2190E+02
     -4.543  0.3025E+01  0.2243E+02
     -4.368  0.2459E+01  0.2286E+02
     -4.193  0.7650E+00  0.2299E+02
     -4.018  0.2737E+01  0.2347E+02
     -3.843  0.2277E+01  0.2387E+02
     -3.668  0.7407E+00  0.2400E+02
     -3.493  0.4017E+00  0.2407E+02
     -3.317  0.9956E+00  0.2424E+02
     -3.142  0.2852E+01  0.2474E+02
     -2.967  0.1683E+01  0.2504E+02
     -2.792  0.2346E+01  0.2545E+02
     -2.617  0.1966E+01  0.2579E+02
     -2.442  0.2583E+01  0.2625E+02
     -2.267  0.1493E+01  0.2651E+02
     -2.092  0.1375E+01  0.2675E+02
     -1.917  0.1121E+01  0.2694E+02
     -1.741  0.1672E+01  0.2724E+02
     -1.566  0.1141E+01  0.2744E+02
     -1.391  0.2013E+01  0.2779E+02
     -1.216  0.8122E+00  0.2793E+02
     -1.041  0.1037E+01  0.2811E+02
     -0.866  0.1379E+01  0.2835E+02
     -0.691  0.4251E+01  0.2910E+02
     -0.516  0.3356E+01  0.2969E+02
     -0.341  0.5109E+01  0.3058E+02
     -0.166  0.3730E+01  0.3123E+02
      0.010  0.4198E+01  0.3197E+02
      0.185  0.4960E+01  0.3284E+02
      0.360  0.4006E+01  0.3354E+02
      0.535  0.5340E+01  0.3447E+02
      0.710  0.4648E+01  0.3529E+02
      0.885  0.4835E+01  0.3614E+02
      1.060  0.8495E+01  0.3762E+02
      1.235  0.4044E+01  0.3833E+02
      1.410  0.6395E+01  0.3945E+02
      1.586  0.4072E+01  0.4016E+02
      1.761  0.3718E+01  0.4081E+02
      1.936  0.3991E+01  0.4151E+02
      2.111  0.5296E+01  0.4244E+02
      2.286  0.5518E+01  0.4341E+02
      2.461  0.4253E+01  0.4415E+02
      2.636  0.4713E+01  0.4498E+02
      2.811  0.5118E+01  0.4587E+02
      2.986  0.5454E+01  0.4683E+02
      3.162  0.5589E+01  0.4781E+02
      3.337  0.7135E+01  0.4906E+02
      3.512  0.4413E+01  0.4983E+02
      3.687  0.8243E+01  0.5127E+02
      3.862  0.5261E+01  0.5219E+02
      4.037  0.5372E+01  0.5313E+02
      4.212  0.5529E+01  0.5410E+02
      4.387  0.3819E+01  0.5477E+02
      4.562  0.2931E+01  0.5529E+02
      4.737  0.2373E+01  0.5570E+02
      4.913  0.1556E+01  0.5597E+02
      5.088  0.1430E+00  0.5600E+02
      5.263  0.1043E-01  0.5600E+02
      5.438  0.0000E+00  0.5600E+02
      5.613  0.9362E-04  0.5600E+02
      5.788  0.4275E+00  0.5607E+02
      5.963  0.4660E+00  0.5616E+02
      6.138  0.1034E+01  0.5634E+02
      6.313  0.1013E+01  0.5651E+02
      6.489  0.1918E+01  0.5685E+02
      6.664  0.1991E+01  0.5720E+02
      6.839  0.3543E+01  0.5782E+02
      7.014  0.6229E+01  0.5891E+02
      7.189  0.8468E+01  0.6039E+02
      7.364  0.6037E+01  0.6145E+02
      7.539  0.5862E+01  0.6248E+02
      7.714  0.5381E+01  0.6342E+02
      7.889  0.6384E+01  0.6454E+02
      8.064  0.8588E+01  0.6604E+02
      8.240  0.4958E+01  0.6691E+02
      8.415  0.7116E+01  0.6815E+02
      8.590  0.6708E+01  0.6933E+02
      8.765  0.6510E+01  0.7047E+02
      8.940  0.4792E+01  0.7131E+02
      9.115  0.6118E+01  0.7238E+02
      9.290  0.6280E+01  0.7348E+02
      9.465  0.6863E+01  0.7468E+02
      9.640  0.5644E+01  0.7567E+02
      9.816  0.4667E+01  0.7649E+02
      9.991  0.6381E+01  0.7760E+02
     10.166  0.6074E+01  0.7867E+02
     10.341  0.5479E+01  0.7963E+02
     10.516  0.1516E+01  0.7989E+02
     10.691  0.6120E+00  0.8000E+02
     10.866  0.2244E-03  0.8000E+02
     11.041  0.0000E+00  0.8000E+02
     11.216  0.0000E+00  0.8000E+02
     11.392  0.0000E+00  0.8000E+02
     11.567  0.0000E+00  0.8000E+02
     11.742  0.0000E+00  0.8000E+02
     11.917  0.0000E+00  0.8000E+02
     12.092  0.0000E+00  0.8000E+02
     12.267  0.0000E+00  0.8000E+02
     12.442  0.0000E+00  0.8000E+02
     12.617  0.0000E+00  0.8000E+02
     12.792  0.0000E+00  0.8000E+02
     12.967  0.0000E+00  0.8000E+02
