       N       E                     dE             d eps       ncg     rms          rms(c)
DAV:   1     0.321120240074E+03    0.32112E+03   -0.30448E+04  6952   0.139E+03
DAV:   2    -0.260149175246E+02   -0.34714E+03   -0.33320E+03  7208   0.270E+02
DAV:   3    -0.496467579904E+02   -0.23632E+02   -0.23339E+02  7688   0.687E+01
DAV:   4    -0.501874711570E+02   -0.54071E+00   -0.53882E+00  7536   0.107E+01
DAV:   5    -0.502015271908E+02   -0.14056E-01   -0.14053E-01  7768   0.173E+00    0.142E+01
DAV:   6    -0.495062844873E+02    0.69524E+00   -0.91477E-01  7168   0.340E+00    0.846E+00
DAV:   7    -0.493616998385E+02    0.14458E+00   -0.85961E-01  7376   0.315E+00    0.137E+00
DAV:   8    -0.493506207919E+02    0.11079E-01   -0.96353E-02  6936   0.135E+00    0.587E-01
DAV:   9    -0.493516557730E+02   -0.10350E-02   -0.80438E-03  7512   0.369E-01    0.175E-01
DAV:  10    -0.493518227866E+02   -0.16701E-03   -0.51639E-04  7720   0.871E-02    0.999E-02
DAV:  11    -0.493519333681E+02   -0.11058E-03   -0.83998E-05  7296   0.401E-02    0.329E-02
DAV:  12    -0.493519452337E+02   -0.11866E-04   -0.26920E-05  7328   0.227E-02    0.150E-02
DAV:  13    -0.493519463497E+02   -0.11160E-05   -0.13101E-06  5688   0.500E-03    0.412E-03
DAV:  14    -0.493519462989E+02    0.50793E-07   -0.30738E-07  4560   0.258E-03
   1 F= -.49351946E+02 E0= -.49351946E+02  d E =-.569609E-14
