Mg2P8
1.0
      5.1030659       0.0000000       0.0000000
      0.0000000       5.1090553      -0.7899875
      0.0000000       0.0074650       7.5460962
  Mg    P   
  2     8   
Direct
      0.0000000       0.0000000       0.0000000
      0.5000000       0.0000000       0.5000000
      0.2937822       0.7454462       0.7462438
      0.7937822       0.2545538       0.7537562
      0.7062178       0.2545538       0.2537562
      0.2062178       0.7454462       0.2462438
      0.8922088       0.6022276       0.4002462
      0.3922088       0.3977724       0.0997538
      0.1077912       0.3977724       0.5997538
      0.6077912       0.6022276       0.9002462
