Cl4 F12                                 
   1.00000000000000     
     4.3967619600000001    0.0000000000000000    0.0000000000000000
     0.0000000000000000    6.0524263100000004    0.0000000000000000
     0.0000000000000000    0.0000000000000000    8.5734601500000007
   Cl   F 
     4    12
Direct
     0.6147066199999998    0.7500000000000000    0.8397300800000025
     0.3852933800000002    0.2500000000000000    0.1602699199999975
     0.8852933800000002    0.7500000000000000    0.3397300800000025
     0.1147066199999998    0.2500000000000000    0.6602699199999975
     0.9033155400000012    0.7500000000000000    0.9559676000000010
     0.3685549100000003    0.9639469099999971    0.1529990299999966
     0.1314450899999997    0.9639469099999971    0.6529990299999966
     0.5966844599999988    0.7500000000000000    0.4559676000000010
     0.1314450899999997    0.5360530900000029    0.6529990299999966
     0.0966844599999988    0.2500000000000000    0.0440323999999990
     0.3685549100000003    0.5360530900000029    0.1529990299999966
     0.6314450899999997    0.4639469099999971    0.8470009700000034
     0.8685549100000003    0.4639469099999971    0.3470009700000034
     0.6314450899999997    0.0360530900000029    0.8470009700000034
     0.8685549100000003    0.0360530900000029    0.3470009700000034
     0.4033155400000012    0.2500000000000000    0.5440323999999990
 
  0.00000000E+00  0.00000000E+00  0.00000000E+00
  0.00000000E+00  0.00000000E+00  0.00000000E+00
  0.00000000E+00  0.00000000E+00  0.00000000E+00
  0.00000000E+00  0.00000000E+00  0.00000000E+00
  0.00000000E+00  0.00000000E+00  0.00000000E+00
  0.00000000E+00  0.00000000E+00  0.00000000E+00
  0.00000000E+00  0.00000000E+00  0.00000000E+00
  0.00000000E+00  0.00000000E+00  0.00000000E+00
  0.00000000E+00  0.00000000E+00  0.00000000E+00
  0.00000000E+00  0.00000000E+00  0.00000000E+00
  0.00000000E+00  0.00000000E+00  0.00000000E+00
  0.00000000E+00  0.00000000E+00  0.00000000E+00
  0.00000000E+00  0.00000000E+00  0.00000000E+00
  0.00000000E+00  0.00000000E+00  0.00000000E+00
  0.00000000E+00  0.00000000E+00  0.00000000E+00
  0.00000000E+00  0.00000000E+00  0.00000000E+00
