  16  16   0   0
  0.1425931E+02  0.4396762E-09  0.6052426E-09  0.8573460E-09  0.5000000E-15
  1.000000000000000E-004
  CAR 
 unknown system                          
      6.09849742    -27.58308852  301     -0.62378578      1.00000000
    -27.583  0.0000E+00  0.0000E+00
    -27.471  0.0000E+00  0.0000E+00
    -27.359  0.0000E+00  0.0000E+00
    -27.246  0.0000E+00  0.0000E+00
    -27.134  0.0000E+00  0.0000E+00
    -27.022  0.0000E+00  0.0000E+00
    -26.909  0.0000E+00  0.0000E+00
    -26.797  0.0000E+00  0.0000E+00
    -26.685  0.0000E+00  0.0000E+00
    -26.573  0.0000E+00  0.0000E+00
    -26.460  0.0000E+00  0.0000E+00
    -26.348  0.1373E-16  0.1542E-17
    -26.236  0.3775E-07  0.4238E-08
    -26.124  0.2027E-01  0.2276E-02
    -26.011  0.7759E+01  0.8734E+00
    -25.899  0.5555E+02  0.7110E+01
    -25.787  0.7929E+01  0.8000E+01
    -25.674  0.2300E-02  0.8000E+01
    -25.562  0.1848E-09  0.8000E+01
    -25.450  0.0000E+00  0.8000E+01
    -25.338  0.0000E+00  0.8000E+01
    -25.225  0.0000E+00  0.8000E+01
    -25.113  0.0000E+00  0.8000E+01
    -25.001  0.0000E+00  0.8000E+01
    -24.889  0.0000E+00  0.8000E+01
    -24.776  0.0000E+00  0.8000E+01
    -24.664  0.0000E+00  0.8000E+01
    -24.552  0.0000E+00  0.8000E+01
    -24.439  0.0000E+00  0.8000E+01
    -24.327  0.0000E+00  0.8000E+01
    -24.215  0.0000E+00  0.8000E+01
    -24.103  0.0000E+00  0.8000E+01
    -23.990  0.0000E+00  0.8000E+01
    -23.878  0.0000E+00  0.8000E+01
    -23.766  0.0000E+00  0.8000E+01
    -23.654  0.0000E+00  0.8000E+01
    -23.541  0.0000E+00  0.8000E+01
    -23.429  0.0000E+00  0.8000E+01
    -23.317  0.4228E-07  0.8000E+01
    -23.204  0.6602E-01  0.8007E+01
    -23.092  0.2305E+02  0.1059E+02
    -22.980  0.4690E+02  0.1586E+02
    -22.868  0.4467E+02  0.2088E+02
    -22.755  0.2694E+02  0.2390E+02
    -22.643  0.8825E+00  0.2400E+02
    -22.531  0.1053E-03  0.2400E+02
    -22.419  0.2832E-11  0.2400E+02
    -22.306  0.0000E+00  0.2400E+02
    -22.194  0.0000E+00  0.2400E+02
    -22.082  0.0000E+00  0.2400E+02
    -21.969  0.0000E+00  0.2400E+02
    -21.857  0.0000E+00  0.2400E+02
    -21.745  0.0000E+00  0.2400E+02
    -21.633  0.0000E+00  0.2400E+02
    -21.520  0.0000E+00  0.2400E+02
    -21.408  0.0000E+00  0.2400E+02
    -21.296  0.0000E+00  0.2400E+02
    -21.184  0.0000E+00  0.2400E+02
    -21.071  0.0000E+00  0.2400E+02
    -20.959  0.0000E+00  0.2400E+02
    -20.847  0.0000E+00  0.2400E+02
    -20.734  0.0000E+00  0.2400E+02
    -20.622  0.0000E+00  0.2400E+02
    -20.510  0.0000E+00  0.2400E+02
    -20.398  0.0000E+00  0.2400E+02
    -20.285  0.0000E+00  0.2400E+02
    -20.173  0.0000E+00  0.2400E+02
    -20.061  0.0000E+00  0.2400E+02
    -19.949  0.0000E+00  0.2400E+02
    -19.836  0.0000E+00  0.2400E+02
    -19.724  0.0000E+00  0.2400E+02
    -19.612  0.0000E+00  0.2400E+02
    -19.500  0.0000E+00  0.2400E+02
    -19.387  0.0000E+00  0.2400E+02
    -19.275  0.0000E+00  0.2400E+02
    -19.163  0.0000E+00  0.2400E+02
    -19.050  0.0000E+00  0.2400E+02
    -18.938  0.0000E+00  0.2400E+02
    -18.826  0.0000E+00  0.2400E+02
    -18.714  0.0000E+00  0.2400E+02
    -18.601  0.0000E+00  0.2400E+02
    -18.489  0.0000E+00  0.2400E+02
    -18.377  0.0000E+00  0.2400E+02
    -18.265  0.0000E+00  0.2400E+02
    -18.152  0.0000E+00  0.2400E+02
    -18.040  0.0000E+00  0.2400E+02
    -17.928  0.0000E+00  0.2400E+02
    -17.815  0.0000E+00  0.2400E+02
    -17.703  0.0000E+00  0.2400E+02
    -17.591  0.0000E+00  0.2400E+02
    -17.479  0.0000E+00  0.2400E+02
    -17.366  0.0000E+00  0.2400E+02
    -17.254  0.0000E+00  0.2400E+02
    -17.142  0.0000E+00  0.2400E+02
    -17.030  0.0000E+00  0.2400E+02
    -16.917  0.0000E+00  0.2400E+02
    -16.805  0.0000E+00  0.2400E+02
    -16.693  0.0000E+00  0.2400E+02
    -16.580  0.0000E+00  0.2400E+02
    -16.468  0.0000E+00  0.2400E+02
    -16.356  0.0000E+00  0.2400E+02
    -16.244  0.0000E+00  0.2400E+02
    -16.131  0.0000E+00  0.2400E+02
    -16.019  0.0000E+00  0.2400E+02
    -15.907  0.9729E-07  0.2400E+02
    -15.795  0.3142E-01  0.2400E+02
    -15.682  0.3998E+01  0.2445E+02
    -15.570  0.1647E+02  0.2630E+02
    -15.458  0.2173E+02  0.2874E+02
    -15.345  0.2612E+02  0.3167E+02
    -15.233  0.2910E+01  0.3200E+02
    -15.121  0.1783E-02  0.3200E+02
    -15.009  0.2119E-09  0.3200E+02
    -14.896  0.0000E+00  0.3200E+02
    -14.784  0.0000E+00  0.3200E+02
    -14.672  0.0000E+00  0.3200E+02
    -14.560  0.0000E+00  0.3200E+02
    -14.447  0.0000E+00  0.3200E+02
    -14.335  0.0000E+00  0.3200E+02
    -14.223  0.0000E+00  0.3200E+02
    -14.110  0.0000E+00  0.3200E+02
    -13.998  0.0000E+00  0.3200E+02
    -13.886  0.0000E+00  0.3200E+02
    -13.774  0.0000E+00  0.3200E+02
    -13.661  0.0000E+00  0.3200E+02
    -13.549  0.0000E+00  0.3200E+02
    -13.437  0.0000E+00  0.3200E+02
    -13.325  0.0000E+00  0.3200E+02
    -13.212  0.0000E+00  0.3200E+02
    -13.100  0.0000E+00  0.3200E+02
    -12.988  0.0000E+00  0.3200E+02
    -12.875  0.0000E+00  0.3200E+02
    -12.763  0.0000E+00  0.3200E+02
    -12.651  0.0000E+00  0.3200E+02
    -12.539  0.0000E+00  0.3200E+02
    -12.426  0.0000E+00  0.3200E+02
    -12.314  0.0000E+00  0.3200E+02
    -12.202  0.0000E+00  0.3200E+02
    -12.090  0.0000E+00  0.3200E+02
    -11.977  0.0000E+00  0.3200E+02
    -11.865  0.0000E+00  0.3200E+02
    -11.753  0.0000E+00  0.3200E+02
    -11.640  0.0000E+00  0.3200E+02
    -11.528  0.0000E+00  0.3200E+02
    -11.416  0.0000E+00  0.3200E+02
    -11.304  0.0000E+00  0.3200E+02
    -11.191  0.0000E+00  0.3200E+02
    -11.079  0.0000E+00  0.3200E+02
    -10.967  0.0000E+00  0.3200E+02
    -10.855  0.0000E+00  0.3200E+02
    -10.742  0.0000E+00  0.3200E+02
    -10.630  0.0000E+00  0.3200E+02
    -10.518  0.0000E+00  0.3200E+02
    -10.405  0.0000E+00  0.3200E+02
    -10.293  0.0000E+00  0.3200E+02
    -10.181  0.0000E+00  0.3200E+02
    -10.069  0.0000E+00  0.3200E+02
     -9.956  0.0000E+00  0.3200E+02
     -9.844  0.0000E+00  0.3200E+02
     -9.732  0.0000E+00  0.3200E+02
     -9.620  0.0000E+00  0.3200E+02
     -9.507  0.0000E+00  0.3200E+02
     -9.395  0.0000E+00  0.3200E+02
     -9.283  0.0000E+00  0.3200E+02
     -9.170  0.0000E+00  0.3200E+02
     -9.058  0.0000E+00  0.3200E+02
     -8.946  0.0000E+00  0.3200E+02
     -8.834  0.7253E-08  0.3200E+02
     -8.721  0.7772E-02  0.3200E+02
     -8.609  0.2691E+01  0.3230E+02
     -8.497  0.1372E+02  0.3384E+02
     -8.385  0.2152E+02  0.3626E+02
     -8.272  0.1863E+02  0.3835E+02
     -8.160  0.3646E+02  0.4244E+02
     -8.048  0.2713E+02  0.4549E+02
     -7.935  0.1297E+02  0.4695E+02
     -7.823  0.6087E+01  0.4763E+02
     -7.711  0.3260E+01  0.4800E+02
     -7.599  0.3185E-01  0.4800E+02
     -7.486  0.1543E-06  0.4800E+02
     -7.374  0.5494E-16  0.4800E+02
     -7.262  0.0000E+00  0.4800E+02
     -7.150  0.5255E-13  0.4800E+02
     -7.037  0.7969E-05  0.4800E+02
     -6.925  0.1223E+00  0.4801E+02
     -6.813  0.3135E+01  0.4837E+02
     -6.701  0.9096E+01  0.4939E+02
     -6.588  0.1186E+02  0.5072E+02
     -6.476  0.1298E+02  0.5218E+02
     -6.364  0.1720E+02  0.5411E+02
     -6.251  0.1142E+02  0.5539E+02
     -6.139  0.4434E+01  0.5589E+02
     -6.027  0.9734E+00  0.5600E+02
     -5.915  0.3169E-01  0.5600E+02
     -5.802  0.1873E-05  0.5600E+02
     -5.690  0.7746E-14  0.5600E+02
     -5.578  0.9962E-12  0.5600E+02
     -5.466  0.4324E-04  0.5600E+02
     -5.353  0.2935E+00  0.5603E+02
     -5.241  0.9643E+01  0.5712E+02
     -5.129  0.1169E+02  0.5843E+02
     -5.016  0.1695E+02  0.6033E+02
     -4.904  0.7110E+01  0.6113E+02
     -4.792  0.1551E+02  0.6287E+02
     -4.680  0.7634E+01  0.6373E+02
     -4.567  0.2349E+01  0.6399E+02
     -4.455  0.7389E-01  0.6400E+02
     -4.343  0.1591E+00  0.6402E+02
     -4.231  0.4265E+01  0.6450E+02
     -4.118  0.9233E+01  0.6553E+02
     -4.006  0.1725E+02  0.6747E+02
     -3.894  0.2415E+02  0.7018E+02
     -3.781  0.2246E+02  0.7270E+02
     -3.669  0.2837E+02  0.7589E+02
     -3.557  0.2781E+02  0.7901E+02
     -3.445  0.1624E+02  0.8083E+02
     -3.332  0.8539E+01  0.8179E+02
     -3.220  0.2588E+02  0.8470E+02
     -3.108  0.1617E+02  0.8651E+02
     -2.996  0.1373E+02  0.8806E+02
     -2.883  0.9600E+01  0.8913E+02
     -2.771  0.2210E+02  0.9161E+02
     -2.659  0.4263E+02  0.9640E+02
     -2.546  0.3054E+02  0.9983E+02
     -2.434  0.2475E+02  0.1026E+03
     -2.322  0.1231E+02  0.1040E+03
     -2.210  0.8384E-01  0.1040E+03
     -2.097  0.2116E-06  0.1040E+03
     -1.985  0.0000E+00  0.1040E+03
     -1.873  0.0000E+00  0.1040E+03
     -1.761  0.2747E-16  0.1040E+03
     -1.648  0.9875E-07  0.1040E+03
     -1.536  0.2168E-01  0.1040E+03
     -1.424  0.1954E+01  0.1042E+03
     -1.311  0.6947E+01  0.1050E+03
     -1.199  0.1375E+02  0.1065E+03
     -1.087  0.1978E+02  0.1088E+03
     -0.975  0.1821E+02  0.1108E+03
     -0.862  0.1025E+02  0.1120E+03
     -0.750  0.3389E+00  0.1120E+03
     -0.638  0.1402E-04  0.1120E+03
     -0.526  0.4911E-13  0.1120E+03
     -0.413  0.0000E+00  0.1120E+03
     -0.301  0.0000E+00  0.1120E+03
     -0.189  0.0000E+00  0.1120E+03
     -0.076  0.0000E+00  0.1120E+03
      0.036  0.0000E+00  0.1120E+03
      0.148  0.0000E+00  0.1120E+03
      0.260  0.0000E+00  0.1120E+03
      0.373  0.0000E+00  0.1120E+03
      0.485  0.0000E+00  0.1120E+03
      0.597  0.0000E+00  0.1120E+03
      0.709  0.0000E+00  0.1120E+03
      0.822  0.0000E+00  0.1120E+03
      0.934  0.0000E+00  0.1120E+03
      1.046  0.0000E+00  0.1120E+03
      1.159  0.0000E+00  0.1120E+03
      1.271  0.0000E+00  0.1120E+03
      1.383  0.0000E+00  0.1120E+03
      1.495  0.0000E+00  0.1120E+03
      1.608  0.5494E-16  0.1120E+03
      1.720  0.2113E-06  0.1120E+03
      1.832  0.5273E-01  0.1120E+03
      1.944  0.6198E+01  0.1127E+03
      2.057  0.2259E+02  0.1152E+03
      2.169  0.1937E+02  0.1174E+03
      2.281  0.1985E+02  0.1196E+03
      2.394  0.3177E+01  0.1200E+03
      2.506  0.2060E-01  0.1200E+03
      2.618  0.9906E-07  0.1200E+03
      2.730  0.0000E+00  0.1200E+03
      2.843  0.0000E+00  0.1200E+03
      2.955  0.0000E+00  0.1200E+03
      3.067  0.0000E+00  0.1200E+03
      3.179  0.0000E+00  0.1200E+03
      3.292  0.0000E+00  0.1200E+03
      3.404  0.7974E-11  0.1200E+03
      3.516  0.1378E-03  0.1200E+03
      3.629  0.4479E+00  0.1201E+03
      3.741  0.1091E+02  0.1213E+03
      3.853  0.6942E+01  0.1221E+03
      3.965  0.7335E+01  0.1229E+03
      4.078  0.1216E+02  0.1242E+03
      4.190  0.1497E+02  0.1259E+03
      4.302  0.7683E+01  0.1268E+03
      4.414  0.3171E+01  0.1271E+03
      4.527  0.5573E+01  0.1278E+03
      4.639  0.2058E+01  0.1280E+03
      4.751  0.1229E-01  0.1280E+03
      4.864  0.3124E-07  0.1280E+03
      4.976  0.0000E+00  0.1280E+03
      5.088  0.0000E+00  0.1280E+03
      5.200  0.0000E+00  0.1280E+03
      5.313  0.0000E+00  0.1280E+03
      5.425  0.0000E+00  0.1280E+03
      5.537  0.0000E+00  0.1280E+03
      5.649  0.0000E+00  0.1280E+03
      5.762  0.0000E+00  0.1280E+03
      5.874  0.0000E+00  0.1280E+03
      5.986  0.0000E+00  0.1280E+03
      6.098  0.0000E+00  0.1280E+03
