       N       E                     dE             d eps       ncg     rms          rms(c)
DAV:   1     0.990972949240E+03    0.99097E+03   -0.69100E+04  9280   0.186E+03
DAV:   2     0.179937716594E+02   -0.97298E+03   -0.94991E+03 11280   0.408E+02
DAV:   3    -0.487353775115E+02   -0.66729E+02   -0.65792E+02 10352   0.115E+02
DAV:   4    -0.498885990514E+02   -0.11532E+01   -0.11439E+01 10272   0.160E+01
DAV:   5    -0.499115788432E+02   -0.22980E-01   -0.22967E-01  9944   0.205E+00    0.559E+01
DAV:   6    -0.390743338650E+02    0.10837E+02   -0.33654E+01  9368   0.338E+01    0.302E+01
DAV:   7    -0.387545606237E+02    0.31977E+00   -0.61188E+00  9872   0.119E+01    0.253E+01
DAV:   8    -0.387644181626E+02   -0.98575E-02   -0.42460E-01  9952   0.355E+00    0.754E+00
DAV:   9    -0.387179344140E+02    0.46484E-01   -0.27037E-01  9216   0.264E+00    0.291E+00
DAV:  10    -0.387127759493E+02    0.51585E-02   -0.15660E-02 10384   0.769E-01    0.228E+00
DAV:  11    -0.387125982762E+02    0.17767E-03   -0.34629E-03  9640   0.276E-01    0.105E+00
DAV:  12    -0.387123934531E+02    0.20482E-03   -0.69022E-04  9512   0.135E-01    0.243E-01
DAV:  13    -0.387123735946E+02    0.19858E-04   -0.19135E-04  9760   0.817E-02    0.111E-01
DAV:  14    -0.387123731014E+02    0.49320E-06   -0.14068E-05  9400   0.209E-02    0.879E-02
DAV:  15    -0.387123725584E+02    0.54303E-06   -0.45528E-06  8088   0.915E-03
   1 F= -.38712373E+02 E0= -.38712373E+02  d E =-.694284E-16
