Cl4 F12
1.0
   4.3967619600000001    0.0000000000000000    0.0000000000000000
   0.0000000000000000    6.0524263100000004    0.0000000000000000
   0.0000000000000000    0.0000000000000000    8.5734601500000007
Cl F
4 12
direct
   0.6147066200000000    0.7500000000000000    0.8397300800000000 Cl
   0.3852933800000000    0.2500000000000000    0.1602699200000000 Cl
   0.8852933800000000    0.7500000000000000    0.3397300800000000 Cl
   0.1147066200000000    0.2500000000000000    0.6602699200000000 Cl
   0.9033155400000000    0.7500000000000000    0.9559676000000000 F
   0.3685549100000000    0.9639469100000000    0.1529990300000000 F
   0.1314450900000000    0.9639469100000000    0.6529990300000000 F
   0.5966844600000000    0.7500000000000000    0.4559676000000000 F
   0.1314450900000000    0.5360530900000000    0.6529990300000000 F
   0.0966844600000000    0.2500000000000000    0.0440324000000000 F
   0.3685549100000000    0.5360530900000000    0.1529990300000000 F
   0.6314450900000000    0.4639469100000000    0.8470009700000000 F
   0.8685549100000000    0.4639469100000000    0.3470009700000000 F
   0.6314450900000000    0.0360530900000000    0.8470009700000000 F
   0.8685549100000000    0.0360530900000000    0.3470009700000000 F
   0.4033155400000000    0.2500000000000000    0.5440324000000000 F
