unknown system                          
           1
     4.396762    0.000000    0.000000
     0.000000    6.052426    0.000000
     0.000000    0.000000    8.573460
   Cl   F 
     4    12
Direct configuration=     1
   0.61470662  0.75000000  0.83973008
   0.38529338  0.25000000  0.16026992
   0.88529338  0.75000000  0.33973008
   0.11470662  0.25000000  0.66026992
   0.90331554  0.75000000  0.95596760
   0.36855491  0.96394691  0.15299903
   0.13144509  0.96394691  0.65299903
   0.59668446  0.75000000  0.45596760
   0.13144509  0.53605309  0.65299903
   0.09668446  0.25000000  0.04403240
   0.36855491  0.53605309  0.15299903
   0.63144509  0.46394691  0.84700097
   0.86855491  0.46394691  0.34700097
   0.63144509  0.03605309  0.84700097
   0.86855491  0.03605309  0.34700097
   0.40331554  0.25000000  0.54403240
