   3   3   0   0
  0.2304046E+02  0.4365527E-09  0.4365526E-09  0.4762723E-09  0.5000000E-15
  1.000000000000000E-004
  CAR 
 unknown system                          
     11.84000596    -24.42313088  301      1.18650228      1.00000000
    -24.423  0.0000E+00  0.0000E+00  0.0000E+00  0.0000E+00
    -24.302  0.0000E+00  0.0000E+00  0.0000E+00  0.0000E+00
    -24.181  0.0000E+00  0.0000E+00  0.0000E+00  0.0000E+00
    -24.060  0.0000E+00  0.0000E+00  0.0000E+00  0.0000E+00
    -23.940  0.0000E+00  0.0000E+00  0.0000E+00  0.0000E+00
    -23.819  0.0000E+00  0.0000E+00  0.0000E+00  0.0000E+00
    -23.698  0.0000E+00  0.0000E+00  0.0000E+00  0.0000E+00
    -23.577  0.0000E+00  0.0000E+00  0.0000E+00  0.0000E+00
    -23.456  0.0000E+00  0.0000E+00  0.0000E+00  0.0000E+00
    -23.335  0.0000E+00  0.0000E+00  0.0000E+00  0.0000E+00
    -23.214  0.0000E+00  0.0000E+00  0.0000E+00  0.0000E+00
    -23.093  0.0000E+00  0.0000E+00  0.0000E+00  0.0000E+00
    -22.973  0.7453E-09  0.0000E+00  0.9009E-10  0.0000E+00
    -22.852  0.3595E-02  0.0000E+00  0.4346E-03  0.0000E+00
    -22.731  0.3024E+01  0.0000E+00  0.3660E+00  0.0000E+00
    -22.610  0.5230E+01  0.0000E+00  0.9982E+00  0.0000E+00
    -22.489  0.1523E-01  0.0000E+00  0.1000E+01  0.0000E+00
    -22.368  0.1636E-08  0.1480E-08  0.1000E+01  0.1789E-09
    -22.247  0.0000E+00  0.3699E-02  0.1000E+01  0.4472E-03
    -22.126  0.0000E+00  0.2295E+01  0.1000E+01  0.2778E+00
    -22.006  0.0000E+00  0.5931E+01  0.1000E+01  0.9947E+00
    -21.885  0.0000E+00  0.4404E-01  0.1000E+01  0.1000E+01
    -21.764  0.0000E+00  0.1685E-07  0.1000E+01  0.1000E+01
    -21.643  0.0000E+00  0.0000E+00  0.1000E+01  0.1000E+01
    -21.522  0.0000E+00  0.0000E+00  0.1000E+01  0.1000E+01
    -21.401  0.0000E+00  0.0000E+00  0.1000E+01  0.1000E+01
    -21.280  0.0000E+00  0.0000E+00  0.1000E+01  0.1000E+01
    -21.159  0.0000E+00  0.0000E+00  0.1000E+01  0.1000E+01
    -21.039  0.0000E+00  0.0000E+00  0.1000E+01  0.1000E+01
    -20.918  0.0000E+00  0.0000E+00  0.1000E+01  0.1000E+01
    -20.797  0.0000E+00  0.0000E+00  0.1000E+01  0.1000E+01
    -20.676  0.0000E+00  0.0000E+00  0.1000E+01  0.1000E+01
    -20.555  0.0000E+00  0.0000E+00  0.1000E+01  0.1000E+01
    -20.434  0.0000E+00  0.0000E+00  0.1000E+01  0.1000E+01
    -20.313  0.0000E+00  0.0000E+00  0.1000E+01  0.1000E+01
    -20.192  0.0000E+00  0.0000E+00  0.1000E+01  0.1000E+01
    -20.072  0.0000E+00  0.0000E+00  0.1000E+01  0.1000E+01
    -19.951  0.6102E-07  0.7061E-07  0.1000E+01  0.1000E+01
    -19.830  0.7815E-01  0.7776E-01  0.1009E+01  0.1009E+01
    -19.709  0.6758E+01  0.6672E+01  0.1826E+01  0.1816E+01
    -19.588  0.1436E+01  0.1523E+01  0.2000E+01  0.2000E+01
    -19.467  0.1062E-03  0.1471E-03  0.2000E+01  0.2000E+01
    -19.346  0.2684E-12  0.6158E-12  0.2000E+01  0.2000E+01
    -19.225  0.0000E+00  0.0000E+00  0.2000E+01  0.2000E+01
    -19.105  0.0000E+00  0.0000E+00  0.2000E+01  0.2000E+01
    -18.984  0.0000E+00  0.0000E+00  0.2000E+01  0.2000E+01
    -18.863  0.0000E+00  0.0000E+00  0.2000E+01  0.2000E+01
    -18.742  0.0000E+00  0.0000E+00  0.2000E+01  0.2000E+01
    -18.621  0.0000E+00  0.0000E+00  0.2000E+01  0.2000E+01
    -18.500  0.0000E+00  0.0000E+00  0.2000E+01  0.2000E+01
    -18.379  0.0000E+00  0.0000E+00  0.2000E+01  0.2000E+01
    -18.258  0.0000E+00  0.0000E+00  0.2000E+01  0.2000E+01
    -18.138  0.0000E+00  0.0000E+00  0.2000E+01  0.2000E+01
    -18.017  0.0000E+00  0.0000E+00  0.2000E+01  0.2000E+01
    -17.896  0.0000E+00  0.0000E+00  0.2000E+01  0.2000E+01
    -17.775  0.0000E+00  0.0000E+00  0.2000E+01  0.2000E+01
    -17.654  0.0000E+00  0.0000E+00  0.2000E+01  0.2000E+01
    -17.533  0.0000E+00  0.0000E+00  0.2000E+01  0.2000E+01
    -17.412  0.0000E+00  0.0000E+00  0.2000E+01  0.2000E+01
    -17.291  0.0000E+00  0.0000E+00  0.2000E+01  0.2000E+01
    -17.171  0.0000E+00  0.0000E+00  0.2000E+01  0.2000E+01
    -17.050  0.0000E+00  0.0000E+00  0.2000E+01  0.2000E+01
    -16.929  0.0000E+00  0.0000E+00  0.2000E+01  0.2000E+01
    -16.808  0.0000E+00  0.0000E+00  0.2000E+01  0.2000E+01
    -16.687  0.0000E+00  0.0000E+00  0.2000E+01  0.2000E+01
    -16.566  0.0000E+00  0.0000E+00  0.2000E+01  0.2000E+01
    -16.445  0.0000E+00  0.0000E+00  0.2000E+01  0.2000E+01
    -16.324  0.0000E+00  0.0000E+00  0.2000E+01  0.2000E+01
    -16.203  0.0000E+00  0.0000E+00  0.2000E+01  0.2000E+01
    -16.083  0.0000E+00  0.0000E+00  0.2000E+01  0.2000E+01
    -15.962  0.0000E+00  0.0000E+00  0.2000E+01  0.2000E+01
    -15.841  0.0000E+00  0.0000E+00  0.2000E+01  0.2000E+01
    -15.720  0.0000E+00  0.0000E+00  0.2000E+01  0.2000E+01
    -15.599  0.0000E+00  0.0000E+00  0.2000E+01  0.2000E+01
    -15.478  0.0000E+00  0.0000E+00  0.2000E+01  0.2000E+01
    -15.357  0.0000E+00  0.0000E+00  0.2000E+01  0.2000E+01
    -15.236  0.0000E+00  0.0000E+00  0.2000E+01  0.2000E+01
    -15.116  0.0000E+00  0.0000E+00  0.2000E+01  0.2000E+01
    -14.995  0.0000E+00  0.0000E+00  0.2000E+01  0.2000E+01
    -14.874  0.0000E+00  0.0000E+00  0.2000E+01  0.2000E+01
    -14.753  0.0000E+00  0.0000E+00  0.2000E+01  0.2000E+01
    -14.632  0.0000E+00  0.0000E+00  0.2000E+01  0.2000E+01
    -14.511  0.0000E+00  0.0000E+00  0.2000E+01  0.2000E+01
    -14.390  0.0000E+00  0.0000E+00  0.2000E+01  0.2000E+01
    -14.269  0.0000E+00  0.0000E+00  0.2000E+01  0.2000E+01
    -14.149  0.0000E+00  0.0000E+00  0.2000E+01  0.2000E+01
    -14.028  0.7656E-09  0.0000E+00  0.2000E+01  0.2000E+01
    -13.907  0.1146E-02  0.0000E+00  0.2000E+01  0.2000E+01
    -13.786  0.4526E+00  0.0000E+00  0.2055E+01  0.2000E+01
    -13.665  0.4593E+01  0.0000E+00  0.2610E+01  0.2000E+01
    -13.544  0.3219E+01  0.0000E+00  0.2999E+01  0.2000E+01
    -13.423  0.7528E-02  0.0000E+00  0.3000E+01  0.2000E+01
    -13.302  0.1419E-08  0.1296E-15  0.3000E+01  0.2000E+01
    -13.182  0.0000E+00  0.2219E-06  0.3000E+01  0.2000E+01
    -13.061  0.0000E+00  0.1267E-01  0.3000E+01  0.2002E+01
    -12.940  0.0000E+00  0.7708E+00  0.3000E+01  0.2095E+01
    -12.819  0.0000E+00  0.4650E+01  0.3000E+01  0.2657E+01
    -12.698  0.0000E+00  0.2833E+01  0.3000E+01  0.2999E+01
    -12.577  0.0000E+00  0.6457E-02  0.3000E+01  0.3000E+01
    -12.456  0.0000E+00  0.1367E-08  0.3000E+01  0.3000E+01
    -12.335  0.0000E+00  0.0000E+00  0.3000E+01  0.3000E+01
    -12.215  0.0000E+00  0.0000E+00  0.3000E+01  0.3000E+01
    -12.094  0.0000E+00  0.0000E+00  0.3000E+01  0.3000E+01
    -11.973  0.0000E+00  0.0000E+00  0.3000E+01  0.3000E+01
    -11.852  0.0000E+00  0.0000E+00  0.3000E+01  0.3000E+01
    -11.731  0.0000E+00  0.0000E+00  0.3000E+01  0.3000E+01
    -11.610  0.0000E+00  0.0000E+00  0.3000E+01  0.3000E+01
    -11.489  0.0000E+00  0.0000E+00  0.3000E+01  0.3000E+01
    -11.368  0.0000E+00  0.0000E+00  0.3000E+01  0.3000E+01
    -11.248  0.0000E+00  0.0000E+00  0.3000E+01  0.3000E+01
    -11.127  0.0000E+00  0.0000E+00  0.3000E+01  0.3000E+01
    -11.006  0.0000E+00  0.0000E+00  0.3000E+01  0.3000E+01
    -10.885  0.0000E+00  0.0000E+00  0.3000E+01  0.3000E+01
    -10.764  0.0000E+00  0.0000E+00  0.3000E+01  0.3000E+01
    -10.643  0.0000E+00  0.0000E+00  0.3000E+01  0.3000E+01
    -10.522  0.0000E+00  0.0000E+00  0.3000E+01  0.3000E+01
    -10.401  0.0000E+00  0.0000E+00  0.3000E+01  0.3000E+01
    -10.281  0.0000E+00  0.0000E+00  0.3000E+01  0.3000E+01
    -10.160  0.0000E+00  0.0000E+00  0.3000E+01  0.3000E+01
    -10.039  0.0000E+00  0.0000E+00  0.3000E+01  0.3000E+01
     -9.918  0.0000E+00  0.0000E+00  0.3000E+01  0.3000E+01
     -9.797  0.0000E+00  0.0000E+00  0.3000E+01  0.3000E+01
     -9.676  0.0000E+00  0.0000E+00  0.3000E+01  0.3000E+01
     -9.555  0.0000E+00  0.0000E+00  0.3000E+01  0.3000E+01
     -9.434  0.0000E+00  0.0000E+00  0.3000E+01  0.3000E+01
     -9.313  0.0000E+00  0.0000E+00  0.3000E+01  0.3000E+01
     -9.193  0.0000E+00  0.0000E+00  0.3000E+01  0.3000E+01
     -9.072  0.0000E+00  0.0000E+00  0.3000E+01  0.3000E+01
     -8.951  0.0000E+00  0.0000E+00  0.3000E+01  0.3000E+01
     -8.830  0.0000E+00  0.0000E+00  0.3000E+01  0.3000E+01
     -8.709  0.0000E+00  0.0000E+00  0.3000E+01  0.3000E+01
     -8.588  0.0000E+00  0.0000E+00  0.3000E+01  0.3000E+01
     -8.467  0.0000E+00  0.0000E+00  0.3000E+01  0.3000E+01
     -8.346  0.0000E+00  0.0000E+00  0.3000E+01  0.3000E+01
     -8.226  0.0000E+00  0.0000E+00  0.3000E+01  0.3000E+01
     -8.105  0.0000E+00  0.0000E+00  0.3000E+01  0.3000E+01
     -7.984  0.0000E+00  0.0000E+00  0.3000E+01  0.3000E+01
     -7.863  0.3374E-15  0.0000E+00  0.3000E+01  0.3000E+01
     -7.742  0.5041E-06  0.2187E-16  0.3000E+01  0.3000E+01
     -7.621  0.1548E-01  0.1042E-06  0.3002E+01  0.3000E+01
     -7.500  0.3085E+00  0.9688E-02  0.3039E+01  0.3001E+01
     -7.379  0.8855E+00  0.3018E+00  0.3146E+01  0.3038E+01
     -7.259  0.2531E+01  0.1247E+01  0.3452E+01  0.3188E+01
     -7.138  0.2790E+01  0.2736E+01  0.3789E+01  0.3519E+01
     -7.017  0.2657E+01  0.3003E+01  0.4110E+01  0.3882E+01
     -6.896  0.2930E+01  0.2812E+01  0.4465E+01  0.4222E+01
     -6.775  0.2590E+01  0.2908E+01  0.4778E+01  0.4573E+01
     -6.654  0.3210E+01  0.3341E+01  0.5166E+01  0.4977E+01
     -6.533  0.3577E+01  0.4206E+01  0.5598E+01  0.5486E+01
     -6.412  0.2775E+01  0.3537E+01  0.5934E+01  0.5913E+01
     -6.292  0.5436E+00  0.7124E+00  0.5999E+01  0.5999E+01
     -6.171  0.6324E-02  0.4725E-02  0.6000E+01  0.6000E+01
     -6.050  0.2551E-07  0.4321E-08  0.6000E+01  0.6000E+01
     -5.929  0.2039E-02  0.0000E+00  0.6000E+01  0.6000E+01
     -5.808  0.5080E-01  0.0000E+00  0.6006E+01  0.6000E+01
     -5.687  0.3784E+00  0.5044E-08  0.6052E+01  0.6000E+01
     -5.566  0.9012E+00  0.1337E-02  0.6161E+01  0.6000E+01
     -5.445  0.1073E+01  0.5229E-01  0.6291E+01  0.6006E+01
     -5.325  0.7775E+00  0.3286E+00  0.6385E+01  0.6046E+01
     -5.204  0.6993E+00  0.1001E+01  0.6469E+01  0.6167E+01
     -5.083  0.9866E+00  0.1205E+01  0.6589E+01  0.6313E+01
     -4.962  0.1239E+01  0.7850E+00  0.6738E+01  0.6408E+01
     -4.841  0.4184E+01  0.8432E+00  0.7244E+01  0.6510E+01
     -4.720  0.2741E+01  0.1047E+01  0.7575E+01  0.6636E+01
     -4.599  0.1685E+01  0.1250E+01  0.7779E+01  0.6787E+01
     -4.478  0.1739E+01  0.1702E+01  0.7989E+01  0.6993E+01
     -4.358  0.1953E+01  0.5694E-01  0.8225E+01  0.7000E+01
     -4.237  0.2163E+01  0.2163E-04  0.8487E+01  0.7000E+01
     -4.116  0.2363E+01  0.2798E+00  0.8773E+01  0.7034E+01
     -3.995  0.1500E+01  0.3238E+01  0.8954E+01  0.7425E+01
     -3.874  0.3702E+00  0.2059E+01  0.8999E+01  0.7674E+01
     -3.753  0.1152E-01  0.2011E+01  0.9000E+01  0.7917E+01
     -3.632  0.8760E-07  0.1976E+01  0.9000E+01  0.8156E+01
     -3.511  0.0000E+00  0.2191E+01  0.9000E+01  0.8421E+01
     -3.391  0.0000E+00  0.2620E+01  0.9000E+01  0.8738E+01
     -3.270  0.0000E+00  0.1732E+01  0.9000E+01  0.8947E+01
     -3.149  0.0000E+00  0.4271E+00  0.9000E+01  0.8999E+01
     -3.028  0.0000E+00  0.1145E-01  0.9000E+01  0.9000E+01
     -2.907  0.0000E+00  0.8754E-07  0.9000E+01  0.9000E+01
     -2.786  0.0000E+00  0.0000E+00  0.9000E+01  0.9000E+01
     -2.665  0.0000E+00  0.0000E+00  0.9000E+01  0.9000E+01
     -2.544  0.0000E+00  0.0000E+00  0.9000E+01  0.9000E+01
     -2.423  0.0000E+00  0.0000E+00  0.9000E+01  0.9000E+01
     -2.303  0.0000E+00  0.0000E+00  0.9000E+01  0.9000E+01
     -2.182  0.0000E+00  0.0000E+00  0.9000E+01  0.9000E+01
     -2.061  0.0000E+00  0.0000E+00  0.9000E+01  0.9000E+01
     -1.940  0.0000E+00  0.0000E+00  0.9000E+01  0.9000E+01
     -1.819  0.0000E+00  0.0000E+00  0.9000E+01  0.9000E+01
     -1.698  0.0000E+00  0.0000E+00  0.9000E+01  0.9000E+01
     -1.577  0.0000E+00  0.0000E+00  0.9000E+01  0.9000E+01
     -1.456  0.0000E+00  0.0000E+00  0.9000E+01  0.9000E+01
     -1.336  0.0000E+00  0.0000E+00  0.9000E+01  0.9000E+01
     -1.215  0.0000E+00  0.0000E+00  0.9000E+01  0.9000E+01
     -1.094  0.0000E+00  0.0000E+00  0.9000E+01  0.9000E+01
     -0.973  0.0000E+00  0.0000E+00  0.9000E+01  0.9000E+01
     -0.852  0.0000E+00  0.0000E+00  0.9000E+01  0.9000E+01
     -0.731  0.2187E-16  0.0000E+00  0.9000E+01  0.9000E+01
     -0.610  0.9636E-07  0.0000E+00  0.9000E+01  0.9000E+01
     -0.489  0.6291E-02  0.0000E+00  0.9001E+01  0.9000E+01
     -0.369  0.1676E+00  0.0000E+00  0.9021E+01  0.9000E+01
     -0.248  0.6131E+00  0.0000E+00  0.9095E+01  0.9000E+01
     -0.127  0.1101E+01  0.0000E+00  0.9228E+01  0.9000E+01
     -0.006  0.1779E+01  0.0000E+00  0.9443E+01  0.9000E+01
      0.115  0.2748E+01  0.0000E+00  0.9775E+01  0.9000E+01
      0.236  0.5279E+01  0.4839E-08  0.1041E+02  0.9000E+01
      0.357  0.4486E+01  0.2069E-02  0.1096E+02  0.9000E+01
      0.478  0.3657E+00  0.1341E+00  0.1100E+02  0.9016E+01
      0.598  0.1084E-03  0.4050E+00  0.1100E+02  0.9065E+01
      0.719  0.3508E-11  0.5803E+00  0.1100E+02  0.9136E+01
      0.840  0.0000E+00  0.1113E+01  0.1100E+02  0.9270E+01
      0.961  0.0000E+00  0.1355E+01  0.1100E+02  0.9434E+01
      1.082  0.0000E+00  0.2199E+01  0.1100E+02  0.9700E+01
      1.203  0.0000E+00  0.3091E+01  0.1100E+02  0.1007E+02
      1.324  0.0000E+00  0.4784E+01  0.1100E+02  0.1065E+02
      1.445  0.0000E+00  0.2772E+01  0.1100E+02  0.1099E+02
      1.565  0.0000E+00  0.1116E+00  0.1100E+02  0.1100E+02
      1.686  0.0000E+00  0.8419E-05  0.1100E+02  0.1100E+02
      1.807  0.0000E+00  0.3124E-13  0.1100E+02  0.1100E+02
      1.928  0.0000E+00  0.0000E+00  0.1100E+02  0.1100E+02
      2.049  0.0000E+00  0.0000E+00  0.1100E+02  0.1100E+02
      2.170  0.0000E+00  0.0000E+00  0.1100E+02  0.1100E+02
      2.291  0.0000E+00  0.0000E+00  0.1100E+02  0.1100E+02
      2.412  0.0000E+00  0.0000E+00  0.1100E+02  0.1100E+02
      2.532  0.0000E+00  0.0000E+00  0.1100E+02  0.1100E+02
      2.653  0.0000E+00  0.0000E+00  0.1100E+02  0.1100E+02
      2.774  0.0000E+00  0.0000E+00  0.1100E+02  0.1100E+02
      2.895  0.0000E+00  0.0000E+00  0.1100E+02  0.1100E+02
      3.016  0.0000E+00  0.0000E+00  0.1100E+02  0.1100E+02
      3.137  0.0000E+00  0.0000E+00  0.1100E+02  0.1100E+02
      3.258  0.0000E+00  0.0000E+00  0.1100E+02  0.1100E+02
      3.379  0.0000E+00  0.0000E+00  0.1100E+02  0.1100E+02
      3.499  0.0000E+00  0.0000E+00  0.1100E+02  0.1100E+02
      3.620  0.0000E+00  0.0000E+00  0.1100E+02  0.1100E+02
      3.741  0.0000E+00  0.0000E+00  0.1100E+02  0.1100E+02
      3.862  0.0000E+00  0.0000E+00  0.1100E+02  0.1100E+02
      3.983  0.0000E+00  0.0000E+00  0.1100E+02  0.1100E+02
      4.104  0.0000E+00  0.0000E+00  0.1100E+02  0.1100E+02
      4.225  0.0000E+00  0.0000E+00  0.1100E+02  0.1100E+02
      4.346  0.0000E+00  0.0000E+00  0.1100E+02  0.1100E+02
      4.467  0.0000E+00  0.0000E+00  0.1100E+02  0.1100E+02
      4.587  0.5235E-08  0.1376E-09  0.1100E+02  0.1100E+02
      4.708  0.1353E-02  0.2895E-03  0.1100E+02  0.1100E+02
      4.829  0.2623E-01  0.2405E-01  0.1100E+02  0.1100E+02
      4.950  0.3081E-01  0.6811E-02  0.1101E+02  0.1100E+02
      5.071  0.1275E+00  0.8377E-01  0.1102E+02  0.1101E+02
      5.192  0.3630E+00  0.2380E+00  0.1107E+02  0.1104E+02
      5.313  0.4852E+00  0.8984E-01  0.1112E+02  0.1105E+02
      5.434  0.1136E+01  0.5799E+00  0.1126E+02  0.1112E+02
      5.554  0.7626E+00  0.5157E+00  0.1135E+02  0.1119E+02
      5.675  0.9493E+00  0.1420E+01  0.1147E+02  0.1136E+02
      5.796  0.9167E+00  0.6456E+00  0.1158E+02  0.1144E+02
      5.917  0.8602E+00  0.5334E+00  0.1168E+02  0.1150E+02
      6.038  0.6782E+00  0.1054E+01  0.1177E+02  0.1163E+02
      6.159  0.1004E+01  0.1079E+01  0.1189E+02  0.1176E+02
      6.280  0.9258E+00  0.8489E+00  0.1200E+02  0.1186E+02
      6.401  0.1425E+01  0.5977E+00  0.1217E+02  0.1193E+02
      6.521  0.1267E+01  0.9404E+00  0.1232E+02  0.1205E+02
      6.642  0.9396E+00  0.1541E+01  0.1244E+02  0.1223E+02
      6.763  0.8983E+00  0.1140E+01  0.1255E+02  0.1237E+02
      6.884  0.1707E+01  0.1063E+01  0.1275E+02  0.1250E+02
      7.005  0.1672E+01  0.1286E+01  0.1296E+02  0.1265E+02
      7.126  0.1143E+01  0.1464E+01  0.1309E+02  0.1283E+02
      7.247  0.9819E+00  0.1440E+01  0.1321E+02  0.1301E+02
      7.368  0.1582E+01  0.1340E+01  0.1340E+02  0.1317E+02
      7.488  0.1039E+01  0.1339E+01  0.1353E+02  0.1333E+02
      7.609  0.2090E+01  0.1280E+01  0.1378E+02  0.1348E+02
      7.730  0.1549E+01  0.1399E+01  0.1397E+02  0.1365E+02
      7.851  0.1001E+01  0.1186E+01  0.1409E+02  0.1380E+02
      7.972  0.1186E+01  0.1288E+01  0.1423E+02  0.1395E+02
      8.093  0.1420E+01  0.1991E+01  0.1440E+02  0.1419E+02
      8.214  0.1502E+01  0.1834E+01  0.1459E+02  0.1441E+02
      8.335  0.2327E+01  0.1476E+01  0.1487E+02  0.1459E+02
      8.455  0.1944E+01  0.2351E+01  0.1510E+02  0.1488E+02
      8.576  0.1234E+01  0.1928E+01  0.1525E+02  0.1511E+02
      8.697  0.1588E+01  0.1479E+01  0.1544E+02  0.1529E+02
      8.818  0.8765E+00  0.1330E+01  0.1555E+02  0.1545E+02
      8.939  0.1014E+01  0.1352E+01  0.1567E+02  0.1561E+02
      9.060  0.5736E+00  0.8076E+00  0.1574E+02  0.1571E+02
      9.181  0.4166E+00  0.5343E+00  0.1579E+02  0.1578E+02
      9.302  0.3436E+00  0.3236E+00  0.1583E+02  0.1581E+02
      9.422  0.5142E+00  0.5397E+00  0.1590E+02  0.1588E+02
      9.543  0.2572E+00  0.2375E+00  0.1593E+02  0.1591E+02
      9.664  0.4290E-01  0.1928E+00  0.1593E+02  0.1593E+02
      9.785  0.7428E-01  0.4886E-01  0.1594E+02  0.1594E+02
      9.906  0.9509E-01  0.1166E+00  0.1595E+02  0.1595E+02
     10.027  0.1257E+00  0.9505E-01  0.1597E+02  0.1596E+02
     10.148  0.1671E+00  0.1791E+00  0.1599E+02  0.1598E+02
     10.269  0.9923E-01  0.1250E+00  0.1600E+02  0.1600E+02
     10.389  0.5102E-03  0.1667E-02  0.1600E+02  0.1600E+02
     10.510  0.9304E-10  0.1244E-08  0.1600E+02  0.1600E+02
     10.631  0.0000E+00  0.0000E+00  0.1600E+02  0.1600E+02
     10.752  0.0000E+00  0.0000E+00  0.1600E+02  0.1600E+02
     10.873  0.0000E+00  0.0000E+00  0.1600E+02  0.1600E+02
     10.994  0.0000E+00  0.0000E+00  0.1600E+02  0.1600E+02
     11.115  0.0000E+00  0.0000E+00  0.1600E+02  0.1600E+02
     11.236  0.0000E+00  0.0000E+00  0.1600E+02  0.1600E+02
     11.356  0.0000E+00  0.0000E+00  0.1600E+02  0.1600E+02
     11.477  0.0000E+00  0.0000E+00  0.1600E+02  0.1600E+02
     11.598  0.0000E+00  0.0000E+00  0.1600E+02  0.1600E+02
     11.719  0.0000E+00  0.0000E+00  0.1600E+02  0.1600E+02
     11.840  0.0000E+00  0.0000E+00  0.1600E+02  0.1600E+02
