       N       E                     dE             d eps       ncg     rms          rms(c)
DAV:   1     0.137511085670E+03    0.13751E+03   -0.11050E+04 18816   0.128E+03
DAV:   2    -0.548750905643E+01   -0.14300E+03   -0.13905E+03 25288   0.244E+02
DAV:   3    -0.140939840815E+02   -0.86065E+01   -0.85632E+01 24880   0.674E+01
DAV:   4    -0.141466741208E+02   -0.52690E-01   -0.52628E-01 22496   0.583E+00
DAV:   5    -0.141470609215E+02   -0.38680E-03   -0.38678E-03 24760   0.477E-01    0.792E+00
DAV:   6    -0.134237384068E+02    0.72332E+00   -0.25488E+00 24064   0.130E+01    0.311E+00
DAV:   7    -0.133717150178E+02    0.52023E-01   -0.51652E-01 24640   0.584E+00    0.168E+00
DAV:   8    -0.133797256845E+02   -0.80107E-02   -0.68244E-02 23328   0.255E+00    0.792E-01
DAV:   9    -0.133868110100E+02   -0.70853E-02   -0.16155E-02 22480   0.133E+00    0.225E-01
DAV:  10    -0.133884294481E+02   -0.16184E-02   -0.28701E-03 26032   0.485E-01    0.116E-01
DAV:  11    -0.133891912066E+02   -0.76176E-03   -0.79562E-04 20880   0.221E-01    0.925E-02
DAV:  12    -0.133893158292E+02   -0.12462E-03   -0.12371E-04 26128   0.759E-02    0.102E-01
DAV:  13    -0.133892699253E+02    0.45904E-04   -0.41395E-05 20880   0.528E-02    0.991E-02
DAV:  14    -0.133892522479E+02    0.17677E-04   -0.26024E-05 25872   0.349E-02    0.110E-01
DAV:  15    -0.133892681710E+02   -0.15923E-04   -0.28501E-03 21176   0.373E-01    0.369E-02
DAV:  16    -0.133894082839E+02   -0.14011E-03   -0.17888E-04 20408   0.113E-01    0.222E-02
DAV:  17    -0.133894145628E+02   -0.62789E-05   -0.44211E-05 24808   0.526E-02    0.516E-03
DAV:  18    -0.133894158577E+02   -0.12949E-05   -0.33383E-06 20736   0.154E-02    0.135E-03
DAV:  19    -0.133894161117E+02   -0.25397E-06   -0.82152E-07 16528   0.659E-03
   1 F= -.13389416E+02 E0= -.13386751E+02  d E =-.532990E-02  mag=     1.0000
