       N       E                     dE             d eps       ncg     rms          rms(c)
DAV:   1     0.446311260758E+03    0.44631E+03   -0.27148E+04  4224   0.136E+03
DAV:   2     0.138012953283E+02   -0.43251E+03   -0.41830E+03  5556   0.211E+02
DAV:   3    -0.363921772807E+02   -0.50193E+02   -0.49912E+02  5184   0.772E+01
DAV:   4    -0.373966932048E+02   -0.10045E+01   -0.10024E+01  5096   0.127E+01
DAV:   5    -0.374092439182E+02   -0.12551E-01   -0.12546E-01  5084   0.141E+00    0.584E+00
DAV:   6    -0.363109150649E+02    0.10983E+01   -0.12712E+00  4972   0.315E+00    0.326E+00
DAV:   7    -0.359803560761E+02    0.33056E+00   -0.17818E+00  5288   0.363E+00    0.869E-01
DAV:   8    -0.360103218963E+02   -0.29966E-01   -0.20349E-01  4968   0.156E+00    0.334E-01
DAV:   9    -0.360129430994E+02   -0.26212E-02   -0.30509E-02  4864   0.620E-01    0.211E-01
DAV:  10    -0.360144327768E+02   -0.14897E-02   -0.32640E-03  5076   0.226E-01    0.662E-02
DAV:  11    -0.360153362918E+02   -0.90352E-03   -0.25239E-03  4584   0.184E-01    0.310E-02
DAV:  12    -0.360153759726E+02   -0.39681E-04   -0.41790E-04  5424   0.610E-02    0.139E-02
DAV:  13    -0.360154066301E+02   -0.30658E-04   -0.89471E-05  4628   0.351E-02    0.115E-02
DAV:  14    -0.360154065691E+02    0.60968E-07   -0.32391E-06  4536   0.611E-03
   1 F= -.36015407E+02 E0= -.36015407E+02  d E =-.235379E-12
