   2   2   0   0
  0.1147499E+02  0.3189817E-09  0.3189817E-09  0.3189817E-09  0.5000000E-15
  1.000000000000000E-004
  CAR 
 unknown system                          
     32.50668912    -27.80058055  301      8.13203510      1.00000000
    -27.801  0.0000E+00  0.0000E+00
    -27.600  0.0000E+00  0.0000E+00
    -27.399  0.0000E+00  0.0000E+00
    -27.198  0.0000E+00  0.0000E+00
    -26.996  0.0000E+00  0.0000E+00
    -26.795  0.0000E+00  0.0000E+00
    -26.594  0.0000E+00  0.0000E+00
    -26.393  0.0000E+00  0.0000E+00
    -26.192  0.0000E+00  0.0000E+00
    -25.991  0.0000E+00  0.0000E+00
    -25.790  0.0000E+00  0.0000E+00
    -25.589  0.0000E+00  0.0000E+00
    -25.388  0.0000E+00  0.0000E+00
    -25.187  0.6068E-05  0.1220E-05
    -24.986  0.4711E+00  0.9470E-01
    -24.785  0.5045E+01  0.1109E+01
    -24.584  0.4564E+01  0.2026E+01
    -24.383  0.7907E+01  0.3616E+01
    -24.182  0.1140E+02  0.5908E+01
    -23.981  0.4596E+00  0.6000E+01
    -23.780  0.0000E+00  0.6000E+01
    -23.579  0.0000E+00  0.6000E+01
    -23.378  0.0000E+00  0.6000E+01
    -23.177  0.0000E+00  0.6000E+01
    -22.976  0.0000E+00  0.6000E+01
    -22.775  0.0000E+00  0.6000E+01
    -22.574  0.0000E+00  0.6000E+01
    -22.373  0.0000E+00  0.6000E+01
    -22.172  0.0000E+00  0.6000E+01
    -21.971  0.0000E+00  0.6000E+01
    -21.770  0.0000E+00  0.6000E+01
    -21.569  0.0000E+00  0.6000E+01
    -21.368  0.0000E+00  0.6000E+01
    -21.167  0.0000E+00  0.6000E+01
    -20.966  0.0000E+00  0.6000E+01
    -20.765  0.0000E+00  0.6000E+01
    -20.564  0.0000E+00  0.6000E+01
    -20.363  0.0000E+00  0.6000E+01
    -20.162  0.0000E+00  0.6000E+01
    -19.961  0.0000E+00  0.6000E+01
    -19.760  0.0000E+00  0.6000E+01
    -19.559  0.0000E+00  0.6000E+01
    -19.358  0.0000E+00  0.6000E+01
    -19.157  0.0000E+00  0.6000E+01
    -18.956  0.0000E+00  0.6000E+01
    -18.754  0.0000E+00  0.6000E+01
    -18.553  0.0000E+00  0.6000E+01
    -18.352  0.0000E+00  0.6000E+01
    -18.151  0.0000E+00  0.6000E+01
    -17.950  0.0000E+00  0.6000E+01
    -17.749  0.0000E+00  0.6000E+01
    -17.548  0.0000E+00  0.6000E+01
    -17.347  0.0000E+00  0.6000E+01
    -17.146  0.0000E+00  0.6000E+01
    -16.945  0.0000E+00  0.6000E+01
    -16.744  0.0000E+00  0.6000E+01
    -16.543  0.0000E+00  0.6000E+01
    -16.342  0.0000E+00  0.6000E+01
    -16.141  0.0000E+00  0.6000E+01
    -15.940  0.0000E+00  0.6000E+01
    -15.739  0.0000E+00  0.6000E+01
    -15.538  0.0000E+00  0.6000E+01
    -15.337  0.0000E+00  0.6000E+01
    -15.136  0.0000E+00  0.6000E+01
    -14.935  0.0000E+00  0.6000E+01
    -14.734  0.0000E+00  0.6000E+01
    -14.533  0.0000E+00  0.6000E+01
    -14.332  0.0000E+00  0.6000E+01
    -14.131  0.4853E-07  0.6000E+01
    -13.930  0.9503E-02  0.6002E+01
    -13.729  0.1412E+00  0.6030E+01
    -13.528  0.5997E+00  0.6151E+01
    -13.327  0.1817E+01  0.6516E+01
    -13.126  0.3033E+01  0.7126E+01
    -12.925  0.2893E+01  0.7707E+01
    -12.724  0.1265E+01  0.7962E+01
    -12.523  0.1904E+00  0.8000E+01
    -12.322  0.3357E-04  0.8000E+01
    -12.121  0.0000E+00  0.8000E+01
    -11.920  0.0000E+00  0.8000E+01
    -11.719  0.0000E+00  0.8000E+01
    -11.518  0.0000E+00  0.8000E+01
    -11.317  0.0000E+00  0.8000E+01
    -11.116  0.0000E+00  0.8000E+01
    -10.915  0.0000E+00  0.8000E+01
    -10.714  0.0000E+00  0.8000E+01
    -10.512  0.0000E+00  0.8000E+01
    -10.311  0.0000E+00  0.8000E+01
    -10.110  0.0000E+00  0.8000E+01
     -9.909  0.0000E+00  0.8000E+01
     -9.708  0.0000E+00  0.8000E+01
     -9.507  0.0000E+00  0.8000E+01
     -9.306  0.0000E+00  0.8000E+01
     -9.105  0.0000E+00  0.8000E+01
     -8.904  0.0000E+00  0.8000E+01
     -8.703  0.0000E+00  0.8000E+01
     -8.502  0.0000E+00  0.8000E+01
     -8.301  0.0000E+00  0.8000E+01
     -8.100  0.0000E+00  0.8000E+01
     -7.899  0.0000E+00  0.8000E+01
     -7.698  0.0000E+00  0.8000E+01
     -7.497  0.0000E+00  0.8000E+01
     -7.296  0.0000E+00  0.8000E+01
     -7.095  0.0000E+00  0.8000E+01
     -6.894  0.0000E+00  0.8000E+01
     -6.693  0.0000E+00  0.8000E+01
     -6.492  0.0000E+00  0.8000E+01
     -6.291  0.0000E+00  0.8000E+01
     -6.090  0.0000E+00  0.8000E+01
     -5.889  0.0000E+00  0.8000E+01
     -5.688  0.0000E+00  0.8000E+01
     -5.487  0.0000E+00  0.8000E+01
     -5.286  0.0000E+00  0.8000E+01
     -5.085  0.0000E+00  0.8000E+01
     -4.884  0.0000E+00  0.8000E+01
     -4.683  0.0000E+00  0.8000E+01
     -4.482  0.0000E+00  0.8000E+01
     -4.281  0.0000E+00  0.8000E+01
     -4.080  0.0000E+00  0.8000E+01
     -3.879  0.0000E+00  0.8000E+01
     -3.678  0.0000E+00  0.8000E+01
     -3.477  0.0000E+00  0.8000E+01
     -3.276  0.0000E+00  0.8000E+01
     -3.075  0.0000E+00  0.8000E+01
     -2.874  0.0000E+00  0.8000E+01
     -2.673  0.0000E+00  0.8000E+01
     -2.472  0.0000E+00  0.8000E+01
     -2.271  0.0000E+00  0.8000E+01
     -2.069  0.0000E+00  0.8000E+01
     -1.868  0.3557E-06  0.8000E+01
     -1.667  0.3656E-01  0.8007E+01
     -1.466  0.2046E+00  0.8048E+01
     -1.265  0.3559E+00  0.8120E+01
     -1.064  0.6082E+00  0.8242E+01
     -0.863  0.1123E+01  0.8468E+01
     -0.662  0.1681E+01  0.8806E+01
     -0.461  0.1356E+01  0.9079E+01
     -0.260  0.1135E+01  0.9307E+01
     -0.059  0.1663E+01  0.9641E+01
      0.142  0.2748E+01  0.1019E+02
      0.343  0.3009E+01  0.1080E+02
      0.544  0.4709E+01  0.1174E+02
      0.745  0.3121E+01  0.1237E+02
      0.946  0.1930E+01  0.1276E+02
      1.147  0.2037E+01  0.1317E+02
      1.348  0.1748E+01  0.1352E+02
      1.549  0.1193E+01  0.1376E+02
      1.750  0.7137E+00  0.1390E+02
      1.951  0.3344E+00  0.1397E+02
      2.152  0.1168E+00  0.1400E+02
      2.353  0.2293E-01  0.1400E+02
      2.554  0.1093E-07  0.1400E+02
      2.755  0.0000E+00  0.1400E+02
      2.956  0.0000E+00  0.1400E+02
      3.157  0.8249E-07  0.1400E+02
      3.358  0.2607E-01  0.1401E+02
      3.559  0.5586E-01  0.1402E+02
      3.760  0.8032E-02  0.1402E+02
      3.961  0.2377E+00  0.1407E+02
      4.162  0.8205E-01  0.1408E+02
      4.363  0.3639E+00  0.1416E+02
      4.564  0.2114E+00  0.1420E+02
      4.765  0.1451E-02  0.1420E+02
      4.966  0.6880E+00  0.1434E+02
      5.167  0.2430E+00  0.1439E+02
      5.368  0.4454E+00  0.1447E+02
      5.569  0.7433E+00  0.1462E+02
      5.770  0.4960E+00  0.1472E+02
      5.971  0.6103E-01  0.1474E+02
      6.173  0.1189E+01  0.1498E+02
      6.374  0.5687E+00  0.1509E+02
      6.575  0.1497E+01  0.1539E+02
      6.776  0.1614E+00  0.1542E+02
      6.977  0.1000E+01  0.1562E+02
      7.178  0.1137E+01  0.1585E+02
      7.379  0.1046E+01  0.1606E+02
      7.580  0.5118E+00  0.1617E+02
      7.781  0.9698E+00  0.1636E+02
      7.982  0.2238E+01  0.1681E+02
      8.183  0.1520E+01  0.1712E+02
      8.384  0.1590E+01  0.1744E+02
      8.585  0.1476E+01  0.1773E+02
      8.786  0.3041E+01  0.1834E+02
      8.987  0.3091E+01  0.1897E+02
      9.188  0.1272E+01  0.1922E+02
      9.389  0.2926E+01  0.1981E+02
      9.590  0.2375E+01  0.2029E+02
      9.791  0.3941E+01  0.2108E+02
      9.992  0.1657E+01  0.2141E+02
     10.193  0.2803E+01  0.2198E+02
     10.394  0.1642E+01  0.2231E+02
     10.595  0.1105E+01  0.2253E+02
     10.796  0.7258E+00  0.2267E+02
     10.997  0.1554E+01  0.2299E+02
     11.198  0.8156E+00  0.2315E+02
     11.399  0.6189E+00  0.2327E+02
     11.600  0.1119E+01  0.2350E+02
     11.801  0.1292E+01  0.2376E+02
     12.002  0.1289E+01  0.2402E+02
     12.203  0.1019E+01  0.2422E+02
     12.404  0.7660E+00  0.2438E+02
     12.605  0.2467E+00  0.2443E+02
     12.806  0.7699E+00  0.2458E+02
     13.007  0.2224E+00  0.2463E+02
     13.208  0.2393E+00  0.2467E+02
     13.409  0.3557E+00  0.2475E+02
     13.610  0.1854E+00  0.2478E+02
     13.811  0.8051E+00  0.2495E+02
     14.012  0.1897E+00  0.2498E+02
     14.213  0.2651E+00  0.2504E+02
     14.415  0.9372E+00  0.2523E+02
     14.616  0.2428E+00  0.2527E+02
     14.817  0.4949E+00  0.2537E+02
     15.018  0.2517E+00  0.2542E+02
     15.219  0.6627E-17  0.2542E+02
     15.420  0.6077E-03  0.2542E+02
     15.621  0.3770E+00  0.2550E+02
     15.822  0.1037E+01  0.2571E+02
     16.023  0.5066E+00  0.2581E+02
     16.224  0.1083E+00  0.2583E+02
     16.425  0.2380E+00  0.2588E+02
     16.626  0.1668E+00  0.2591E+02
     16.827  0.1026E+00  0.2593E+02
     17.028  0.2940E+00  0.2599E+02
     17.229  0.1133E+01  0.2622E+02
     17.430  0.9915E+00  0.2642E+02
     17.631  0.9043E+00  0.2660E+02
     17.832  0.7850E+00  0.2676E+02
     18.033  0.8519E+00  0.2693E+02
     18.234  0.9113E+00  0.2711E+02
     18.435  0.4363E+00  0.2720E+02
     18.636  0.8121E+00  0.2737E+02
     18.837  0.3912E+00  0.2744E+02
     19.038  0.4856E+00  0.2754E+02
     19.239  0.1085E+01  0.2776E+02
     19.440  0.5605E+00  0.2787E+02
     19.641  0.3308E+00  0.2794E+02
     19.842  0.1549E+01  0.2825E+02
     20.043  0.7060E+00  0.2839E+02
     20.244  0.8783E+00  0.2857E+02
     20.445  0.5626E+00  0.2868E+02
     20.646  0.1350E+01  0.2895E+02
     20.847  0.7705E+00  0.2911E+02
     21.048  0.2452E+00  0.2916E+02
     21.249  0.1176E+01  0.2939E+02
     21.450  0.3356E+00  0.2946E+02
     21.651  0.9385E+00  0.2965E+02
     21.852  0.4895E+00  0.2975E+02
     22.053  0.6154E+00  0.2987E+02
     22.254  0.1513E+01  0.3018E+02
     22.455  0.1178E+01  0.3041E+02
     22.657  0.1704E+01  0.3076E+02
     22.858  0.1322E+01  0.3102E+02
     23.059  0.2557E+00  0.3107E+02
     23.260  0.2369E+00  0.3112E+02
     23.461  0.1643E+00  0.3115E+02
     23.662  0.1218E+00  0.3118E+02
     23.863  0.1238E+01  0.3143E+02
     24.064  0.4375E+00  0.3151E+02
     24.265  0.4747E-01  0.3152E+02
     24.466  0.4583E+00  0.3162E+02
     24.667  0.1924E-01  0.3162E+02
     24.868  0.0000E+00  0.3162E+02
     25.069  0.4759E-04  0.3162E+02
     25.270  0.1182E+00  0.3164E+02
     25.471  0.3746E-02  0.3164E+02
     25.672  0.2376E+00  0.3169E+02
     25.873  0.3439E+00  0.3176E+02
     26.074  0.3562E+00  0.3183E+02
     26.275  0.9444E-01  0.3185E+02
     26.476  0.7519E-01  0.3187E+02
     26.677  0.2415E+00  0.3192E+02
     26.878  0.1638E-02  0.3192E+02
     27.079  0.0000E+00  0.3192E+02
     27.280  0.2332E-13  0.3192E+02
     27.481  0.6909E-02  0.3192E+02
     27.682  0.1125E+00  0.3194E+02
     27.883  0.1089E+00  0.3196E+02
     28.084  0.7465E-01  0.3198E+02
     28.285  0.1545E-01  0.3198E+02
     28.486  0.0000E+00  0.3198E+02
     28.687  0.3769E-05  0.3198E+02
     28.888  0.7661E-01  0.3200E+02
     29.089  0.2974E-02  0.3200E+02
     29.290  0.0000E+00  0.3200E+02
     29.491  0.8947E-16  0.3200E+02
     29.692  0.3849E-03  0.3200E+02
     29.893  0.1951E-01  0.3200E+02
     30.094  0.2951E-05  0.3200E+02
     30.295  0.0000E+00  0.3200E+02
     30.496  0.0000E+00  0.3200E+02
     30.697  0.0000E+00  0.3200E+02
     30.898  0.0000E+00  0.3200E+02
     31.100  0.0000E+00  0.3200E+02
     31.301  0.0000E+00  0.3200E+02
     31.502  0.0000E+00  0.3200E+02
     31.703  0.0000E+00  0.3200E+02
     31.904  0.0000E+00  0.3200E+02
     32.105  0.0000E+00  0.3200E+02
     32.306  0.0000E+00  0.3200E+02
     32.507  0.0000E+00  0.3200E+02
