       N       E                     dE             d eps       ncg     rms          rms(c)
DAV:   1     0.151083925871E+03    0.15108E+03   -0.88294E+03 32624   0.124E+03
DAV:   2    -0.112728898027E+02   -0.16236E+03   -0.14960E+03 35360   0.390E+02
DAV:   3    -0.195180898203E+02   -0.82452E+01   -0.79394E+01 39256   0.876E+01
DAV:   4    -0.196594847360E+02   -0.14139E+00   -0.14100E+00 36624   0.103E+01
DAV:   5    -0.196625079454E+02   -0.30232E-02   -0.30231E-02 43280   0.172E+00    0.219E+01
DAV:   6    -0.175894634599E+02    0.20730E+01   -0.62170E+00 50816   0.333E+01    0.987E+00
DAV:   7    -0.173780066606E+02    0.21146E+00   -0.57066E-01 48072   0.869E+00    0.672E+00
DAV:   8    -0.173585932191E+02    0.19413E-01   -0.10639E-01 48368   0.433E+00    0.425E-01
DAV:   9    -0.173559456133E+02    0.26476E-02   -0.68170E-03 48312   0.127E+00    0.402E-01
DAV:  10    -0.173559675127E+02   -0.21899E-04   -0.65343E-04 36968   0.266E-01    0.551E-02
DAV:  11    -0.173559527189E+02    0.14794E-04   -0.31935E-05 42280   0.747E-02    0.212E-02
DAV:  12    -0.173559533963E+02   -0.67739E-06   -0.12153E-06 32648   0.117E-02
   1 F= -.17355953E+02 E0= -.17354805E+02  d E =-.229775E-02
