   4   4   0   0
  0.1699822E+02  0.4081513E-09  0.4081513E-09  0.4081513E-09  0.5000000E-15
  1.000000000000000E-004
  CAR 
 unknown system                          
     23.55146482     -3.60144145  301      8.15728833      1.00000000
     -3.601  0.0000E+00  0.0000E+00
     -3.511  0.0000E+00  0.0000E+00
     -3.420  0.0000E+00  0.0000E+00
     -3.330  0.0000E+00  0.0000E+00
     -3.239  0.0000E+00  0.0000E+00
     -3.149  0.0000E+00  0.0000E+00
     -3.058  0.0000E+00  0.0000E+00
     -2.968  0.0000E+00  0.0000E+00
     -2.877  0.0000E+00  0.0000E+00
     -2.787  0.0000E+00  0.0000E+00
     -2.696  0.0000E+00  0.0000E+00
     -2.606  0.4792E-12  0.4337E-13
     -2.515  0.9022E-06  0.8165E-07
     -2.425  0.3326E-02  0.3011E-03
     -2.334  0.4976E-01  0.4805E-02
     -2.244  0.2635E-01  0.7190E-02
     -2.153  0.2892E+00  0.3337E-01
     -2.063  0.1069E+00  0.4305E-01
     -1.972  0.5634E+00  0.9404E-01
     -1.882  0.1998E+00  0.1121E+00
     -1.791  0.3712E+00  0.1457E+00
     -1.701  0.1388E+00  0.1583E+00
     -1.610  0.2713E+00  0.1828E+00
     -1.520  0.1522E+00  0.1966E+00
     -1.429  0.1117E+01  0.2977E+00
     -1.339  0.4460E+00  0.3381E+00
     -1.248  0.1167E+01  0.4437E+00
     -1.158  0.3157E+00  0.4723E+00
     -1.067  0.5980E-03  0.4723E+00
     -0.977  0.7830E-01  0.4794E+00
     -0.886  0.6185E+00  0.5354E+00
     -0.796  0.4006E+00  0.5716E+00
     -0.705  0.1498E+01  0.7072E+00
     -0.615  0.4938E+00  0.7519E+00
     -0.524  0.1124E+01  0.8536E+00
     -0.434  0.7973E+00  0.9258E+00
     -0.343  0.7979E+00  0.9980E+00
     -0.253  0.3914E+00  0.1033E+01
     -0.162  0.4957E+00  0.1078E+01
     -0.072  0.1154E+01  0.1183E+01
      0.019  0.1915E+01  0.1356E+01
      0.109  0.1181E+01  0.1463E+01
      0.200  0.6665E-02  0.1464E+01
      0.290  0.4479E-03  0.1464E+01
      0.381  0.3428E+00  0.1495E+01
      0.471  0.2026E+01  0.1678E+01
      0.562  0.1191E+01  0.1786E+01
      0.653  0.1988E+01  0.1966E+01
      0.743  0.6314E+00  0.2023E+01
      0.834  0.1143E+01  0.2126E+01
      0.924  0.1045E+01  0.2221E+01
      1.015  0.8753E+00  0.2300E+01
      1.105  0.1206E+01  0.2409E+01
      1.196  0.2156E+01  0.2604E+01
      1.286  0.1064E+01  0.2701E+01
      1.377  0.3652E+00  0.2734E+01
      1.467  0.4878E+00  0.2778E+01
      1.558  0.2060E+01  0.2964E+01
      1.648  0.3237E+01  0.3257E+01
      1.739  0.4521E+01  0.3666E+01
      1.829  0.2451E+01  0.3888E+01
      1.920  0.3584E+01  0.4213E+01
      2.010  0.2359E+01  0.4426E+01
      2.101  0.6428E+01  0.5008E+01
      2.191  0.5265E+01  0.5484E+01
      2.282  0.6005E+01  0.6028E+01
      2.372  0.4885E+01  0.6470E+01
      2.463  0.1090E+02  0.7456E+01
      2.553  0.1462E+02  0.8780E+01
      2.644  0.1319E+02  0.9974E+01
      2.734  0.1025E+02  0.1090E+02
      2.825  0.5818E+01  0.1143E+02
      2.915  0.2450E+01  0.1165E+02
      3.006  0.1945E+01  0.1183E+02
      3.096  0.1478E+01  0.1196E+02
      3.187  0.2274E+01  0.1217E+02
      3.277  0.6113E+01  0.1272E+02
      3.368  0.1960E+01  0.1290E+02
      3.458  0.6608E+00  0.1296E+02
      3.549  0.1837E+01  0.1312E+02
      3.639  0.1303E+01  0.1324E+02
      3.730  0.1635E+01  0.1339E+02
      3.820  0.2369E+01  0.1360E+02
      3.911  0.2671E+00  0.1363E+02
      4.001  0.1582E+01  0.1377E+02
      4.092  0.3567E+01  0.1409E+02
      4.182  0.7400E+00  0.1416E+02
      4.273  0.1025E+01  0.1425E+02
      4.363  0.1104E+01  0.1435E+02
      4.454  0.1838E+00  0.1437E+02
      4.544  0.1458E+01  0.1450E+02
      4.635  0.2164E+01  0.1470E+02
      4.725  0.1566E+01  0.1484E+02
      4.816  0.2181E+01  0.1504E+02
      4.906  0.4435E+01  0.1544E+02
      4.997  0.2639E+01  0.1568E+02
      5.087  0.4760E+00  0.1572E+02
      5.178  0.7164E+00  0.1578E+02
      5.269  0.3208E+00  0.1581E+02
      5.359  0.1828E-01  0.1581E+02
      5.450  0.1103E+01  0.1591E+02
      5.540  0.1958E+01  0.1609E+02
      5.631  0.1363E+01  0.1622E+02
      5.721  0.2765E+00  0.1624E+02
      5.812  0.1223E+01  0.1635E+02
      5.902  0.1412E+01  0.1648E+02
      5.993  0.2135E+01  0.1667E+02
      6.083  0.1521E+01  0.1681E+02
      6.174  0.7946E+00  0.1688E+02
      6.264  0.2311E+01  0.1709E+02
      6.355  0.1915E+01  0.1726E+02
      6.445  0.3945E+01  0.1762E+02
      6.536  0.3193E+00  0.1765E+02
      6.626  0.8625E-01  0.1766E+02
      6.717  0.2566E+01  0.1789E+02
      6.807  0.1971E+01  0.1807E+02
      6.898  0.5894E+00  0.1812E+02
      6.988  0.2000E+00  0.1814E+02
      7.079  0.9225E+00  0.1822E+02
      7.169  0.3500E+01  0.1854E+02
      7.260  0.2154E+00  0.1856E+02
      7.350  0.3105E+00  0.1859E+02
      7.441  0.2023E+01  0.1877E+02
      7.531  0.7683E+00  0.1884E+02
      7.622  0.2977E+01  0.1911E+02
      7.712  0.1784E+01  0.1927E+02
      7.803  0.2260E+01  0.1948E+02
      7.893  0.2587E+01  0.1971E+02
      7.984  0.1425E+01  0.1984E+02
      8.074  0.2764E+00  0.1986E+02
      8.165  0.1635E+01  0.2001E+02
      8.255  0.7611E+00  0.2008E+02
      8.346  0.3713E+00  0.2011E+02
      8.436  0.2374E+01  0.2033E+02
      8.527  0.9613E+00  0.2042E+02
      8.617  0.2088E+01  0.2061E+02
      8.708  0.9428E+00  0.2069E+02
      8.798  0.6978E+00  0.2075E+02
      8.889  0.2465E+01  0.2098E+02
      8.979  0.1528E+01  0.2112E+02
      9.070  0.1273E+01  0.2123E+02
      9.160  0.3478E+01  0.2155E+02
      9.251  0.3047E+01  0.2182E+02
      9.341  0.3826E+01  0.2217E+02
      9.432  0.2136E+01  0.2236E+02
      9.522  0.4564E+00  0.2240E+02
      9.613  0.2891E-02  0.2240E+02
      9.703  0.4737E+00  0.2245E+02
      9.794  0.2105E+01  0.2264E+02
      9.885  0.8264E+00  0.2271E+02
      9.975  0.2218E+01  0.2291E+02
     10.066  0.1392E+01  0.2304E+02
     10.156  0.1452E+01  0.2317E+02
     10.247  0.6766E+00  0.2323E+02
     10.337  0.3527E+00  0.2326E+02
     10.428  0.2566E+00  0.2329E+02
     10.518  0.3488E+01  0.2360E+02
     10.609  0.4231E+01  0.2398E+02
     10.699  0.9027E+00  0.2407E+02
     10.790  0.1914E+01  0.2424E+02
     10.880  0.1576E+01  0.2438E+02
     10.971  0.2012E+01  0.2456E+02
     11.061  0.4231E+01  0.2495E+02
     11.152  0.3093E+01  0.2523E+02
     11.242  0.2337E+01  0.2544E+02
     11.333  0.2650E+01  0.2568E+02
     11.423  0.2048E+01  0.2586E+02
     11.514  0.7764E+00  0.2593E+02
     11.604  0.1330E+01  0.2605E+02
     11.695  0.3700E+01  0.2639E+02
     11.785  0.7217E+00  0.2645E+02
     11.876  0.1048E+00  0.2646E+02
     11.966  0.4041E+00  0.2650E+02
     12.057  0.1531E+00  0.2651E+02
     12.147  0.1657E+01  0.2666E+02
     12.238  0.2260E+01  0.2687E+02
     12.328  0.1188E+01  0.2698E+02
     12.419  0.1003E+01  0.2707E+02
     12.509  0.2374E+01  0.2728E+02
     12.600  0.5142E+01  0.2775E+02
     12.690  0.6070E+00  0.2780E+02
     12.781  0.5384E+00  0.2785E+02
     12.871  0.2139E+01  0.2804E+02
     12.962  0.2305E+01  0.2825E+02
     13.052  0.3967E+01  0.2861E+02
     13.143  0.5573E+00  0.2866E+02
     13.233  0.3249E+01  0.2896E+02
     13.324  0.3095E+01  0.2924E+02
     13.414  0.1341E+01  0.2936E+02
     13.505  0.2462E+01  0.2958E+02
     13.595  0.2963E+01  0.2985E+02
     13.686  0.2255E+01  0.3005E+02
     13.776  0.1421E+01  0.3018E+02
     13.867  0.2064E+01  0.3037E+02
     13.957  0.4288E+01  0.3076E+02
     14.048  0.4613E+01  0.3117E+02
     14.138  0.2629E+01  0.3141E+02
     14.229  0.5051E+00  0.3146E+02
     14.319  0.8615E+00  0.3154E+02
     14.410  0.4291E+01  0.3192E+02
     14.500  0.6513E+00  0.3198E+02
     14.591  0.1124E+01  0.3208E+02
     14.682  0.1767E+01  0.3224E+02
     14.772  0.1243E+01  0.3236E+02
     14.863  0.2409E+00  0.3238E+02
     14.953  0.6381E+00  0.3244E+02
     15.044  0.3712E+01  0.3277E+02
     15.134  0.2486E+01  0.3300E+02
     15.225  0.4502E+01  0.3341E+02
     15.315  0.1655E+01  0.3356E+02
     15.406  0.7579E+00  0.3362E+02
     15.496  0.6991E+00  0.3369E+02
     15.587  0.1663E+01  0.3384E+02
     15.677  0.2220E+01  0.3404E+02
     15.768  0.2074E+01  0.3423E+02
     15.858  0.2451E+01  0.3445E+02
     15.949  0.3503E+01  0.3477E+02
     16.039  0.2378E+01  0.3498E+02
     16.130  0.1153E+01  0.3508E+02
     16.220  0.2181E+01  0.3528E+02
     16.311  0.1580E+01  0.3543E+02
     16.401  0.3009E+01  0.3570E+02
     16.492  0.3273E+01  0.3599E+02
     16.582  0.3131E+01  0.3628E+02
     16.673  0.2583E+01  0.3651E+02
     16.763  0.9135E+00  0.3659E+02
     16.854  0.4231E+01  0.3698E+02
     16.944  0.2308E+01  0.3719E+02
     17.035  0.9325E+00  0.3727E+02
     17.125  0.2057E+01  0.3746E+02
     17.216  0.2453E+01  0.3768E+02
     17.306  0.2269E+01  0.3788E+02
     17.397  0.4886E+00  0.3793E+02
     17.487  0.1340E+01  0.3805E+02
     17.578  0.2254E+01  0.3825E+02
     17.668  0.4344E+01  0.3865E+02
     17.759  0.1231E+01  0.3876E+02
     17.849  0.5187E+00  0.3880E+02
     17.940  0.8139E+00  0.3888E+02
     18.030  0.2307E+01  0.3909E+02
     18.121  0.3267E+01  0.3938E+02
     18.211  0.2070E+01  0.3957E+02
     18.302  0.3285E+01  0.3987E+02
     18.392  0.2497E+01  0.4009E+02
     18.483  0.1611E+01  0.4024E+02
     18.573  0.8668E+00  0.4032E+02
     18.664  0.1212E+01  0.4043E+02
     18.754  0.2238E+01  0.4063E+02
     18.845  0.1822E+01  0.4079E+02
     18.935  0.1876E+01  0.4096E+02
     19.026  0.8785E+00  0.4104E+02
     19.116  0.4152E+00  0.4108E+02
     19.207  0.2495E+01  0.4131E+02
     19.298  0.1758E+01  0.4147E+02
     19.388  0.2353E+01  0.4168E+02
     19.479  0.3938E+01  0.4204E+02
     19.569  0.4882E+01  0.4248E+02
     19.660  0.3299E+01  0.4278E+02
     19.750  0.2418E+01  0.4300E+02
     19.841  0.1910E+01  0.4317E+02
     19.931  0.3713E+01  0.4350E+02
     20.022  0.4087E+01  0.4387E+02
     20.112  0.2344E+01  0.4409E+02
     20.203  0.2483E+01  0.4431E+02
     20.293  0.2022E+01  0.4449E+02
     20.384  0.4413E+01  0.4489E+02
     20.474  0.3839E+01  0.4524E+02
     20.565  0.1011E+01  0.4533E+02
     20.655  0.1725E+01  0.4549E+02
     20.746  0.1088E+01  0.4559E+02
     20.836  0.2717E+01  0.4583E+02
     20.927  0.1026E+01  0.4593E+02
     21.017  0.1142E+01  0.4603E+02
     21.108  0.1162E+01  0.4613E+02
     21.198  0.2323E+01  0.4634E+02
     21.289  0.1308E+01  0.4646E+02
     21.379  0.2667E+01  0.4670E+02
     21.470  0.1055E+01  0.4680E+02
     21.560  0.9432E+00  0.4689E+02
     21.651  0.3177E+01  0.4717E+02
     21.741  0.2114E+01  0.4736E+02
     21.832  0.6893E+00  0.4743E+02
     21.922  0.1496E+00  0.4744E+02
     22.013  0.2397E-03  0.4744E+02
     22.103  0.2520E-01  0.4744E+02
     22.194  0.1765E+01  0.4760E+02
     22.284  0.2741E+01  0.4785E+02
     22.375  0.1573E+01  0.4799E+02
     22.465  0.8066E-01  0.4800E+02
     22.556  0.2166E-04  0.4800E+02
     22.646  0.1150E-10  0.4800E+02
     22.737  0.0000E+00  0.4800E+02
     22.827  0.0000E+00  0.4800E+02
     22.918  0.0000E+00  0.4800E+02
     23.008  0.0000E+00  0.4800E+02
     23.099  0.0000E+00  0.4800E+02
     23.189  0.0000E+00  0.4800E+02
     23.280  0.0000E+00  0.4800E+02
     23.370  0.0000E+00  0.4800E+02
     23.461  0.0000E+00  0.4800E+02
     23.551  0.0000E+00  0.4800E+02
