       N       E                     dE             d eps       ncg     rms          rms(c)
DAV:   1     0.695388074830E+02    0.69539E+02   -0.87068E+03 16536   0.798E+02
DAV:   2    -0.123041595554E+02   -0.81843E+02   -0.74105E+02 19584   0.155E+02
DAV:   3    -0.148845540023E+02   -0.25804E+01   -0.25660E+01 20904   0.261E+01
DAV:   4    -0.149026689714E+02   -0.18115E-01   -0.18113E-01 18776   0.250E+00
DAV:   5    -0.149029404209E+02   -0.27145E-03   -0.27145E-03 21352   0.313E-01    0.768E+00
DAV:   6    -0.139735967466E+02    0.92934E+00   -0.42983E+00 19096   0.219E+01    0.719E+00
DAV:   7    -0.138422518241E+02    0.13134E+00   -0.37009E-01 18488   0.633E+00    0.298E+00
DAV:   8    -0.138186278148E+02    0.23624E-01   -0.39232E-02 20448   0.150E+00    0.509E-01
DAV:   9    -0.138145840227E+02    0.40438E-02   -0.78124E-03 19256   0.952E-01    0.904E-02
DAV:  10    -0.138145904094E+02   -0.63867E-05   -0.30352E-04 21184   0.931E-02    0.485E-02
DAV:  11    -0.138145910736E+02   -0.66417E-06   -0.66527E-06 20376   0.163E-02
   1 F= -.13814591E+02 E0= -.13813545E+02  d E =-.209134E-02
