Nb2 S4                                  
   1.00000000000000     
     1.6971259400000001   -2.9463333199999999   -0.0008728600000000
    -0.0070464300000000   -5.8967509600000003   -0.0003691800000000
     0.0053648300000000   -0.0011057700000000  -13.9847925800000006
   Nb   S 
     2     4
Direct
     0.9999257200000002    0.0000644400000027    0.0000015600000012
     0.0000807300000005    0.9999464699999976    0.5000000300000025
     0.9977470400000001    0.3338698499999992    0.1092850699999985
     0.0022234099999991    0.6662046900000007    0.8907260100000016
     0.0009445999999969    0.6667284199999983    0.6092745400000013
     0.9991784999999993    0.3331851200000031    0.3907137799999987
 
  0.00000000E+00  0.00000000E+00  0.00000000E+00
  0.00000000E+00  0.00000000E+00  0.00000000E+00
  0.00000000E+00  0.00000000E+00  0.00000000E+00
  0.00000000E+00  0.00000000E+00  0.00000000E+00
  0.00000000E+00  0.00000000E+00  0.00000000E+00
  0.00000000E+00  0.00000000E+00  0.00000000E+00
