  40  40   0   0
  0.1589509E+02  0.6912512E-09  0.7271536E-09  0.1264914E-08  0.5000000E-15
  1.000000000000000E-004
  CAR 
 unknown system                          
     11.95819445    -28.82176125  301     -2.02593203      1.00000000
    -28.822  0.0000E+00  0.0000E+00
    -28.686  0.0000E+00  0.0000E+00
    -28.550  0.0000E+00  0.0000E+00
    -28.414  0.0000E+00  0.0000E+00
    -28.278  0.0000E+00  0.0000E+00
    -28.142  0.0000E+00  0.0000E+00
    -28.006  0.0000E+00  0.0000E+00
    -27.870  0.0000E+00  0.0000E+00
    -27.734  0.0000E+00  0.0000E+00
    -27.598  0.0000E+00  0.0000E+00
    -27.462  0.0000E+00  0.0000E+00
    -27.326  0.0000E+00  0.0000E+00
    -27.191  0.1702E-08  0.2314E-09
    -27.055  0.1312E+00  0.1783E-01
    -26.919  0.4498E+02  0.6132E+01
    -26.783  0.1374E+02  0.8000E+01
    -26.647  0.2468E+02  0.1136E+02
    -26.511  0.3416E+02  0.1600E+02
    -26.375  0.8137E-02  0.1600E+02
    -26.239  0.3202E-08  0.1600E+02
    -26.103  0.2652E+00  0.1604E+02
    -25.967  0.5216E+02  0.2313E+02
    -25.831  0.6425E+01  0.2400E+02
    -25.695  0.1149E-04  0.2400E+02
    -25.559  0.0000E+00  0.2400E+02
    -25.423  0.0000E+00  0.2400E+02
    -25.287  0.0000E+00  0.2400E+02
    -25.152  0.0000E+00  0.2400E+02
    -25.016  0.0000E+00  0.2400E+02
    -24.880  0.0000E+00  0.2400E+02
    -24.744  0.0000E+00  0.2400E+02
    -24.608  0.0000E+00  0.2400E+02
    -24.472  0.0000E+00  0.2400E+02
    -24.336  0.0000E+00  0.2400E+02
    -24.200  0.0000E+00  0.2400E+02
    -24.064  0.0000E+00  0.2400E+02
    -23.928  0.0000E+00  0.2400E+02
    -23.792  0.0000E+00  0.2400E+02
    -23.656  0.0000E+00  0.2400E+02
    -23.520  0.0000E+00  0.2400E+02
    -23.384  0.0000E+00  0.2400E+02
    -23.249  0.0000E+00  0.2400E+02
    -23.113  0.0000E+00  0.2400E+02
    -22.977  0.0000E+00  0.2400E+02
    -22.841  0.0000E+00  0.2400E+02
    -22.705  0.4866E-09  0.2400E+02
    -22.569  0.1027E+00  0.2401E+02
    -22.433  0.4777E+02  0.3051E+02
    -22.297  0.5374E+02  0.3781E+02
    -22.161  0.1609E+02  0.4000E+02
    -22.025  0.2721E-03  0.4000E+02
    -21.889  0.0000E+00  0.4000E+02
    -21.753  0.0000E+00  0.4000E+02
    -21.617  0.0000E+00  0.4000E+02
    -21.481  0.0000E+00  0.4000E+02
    -21.345  0.0000E+00  0.4000E+02
    -21.210  0.0000E+00  0.4000E+02
    -21.074  0.0000E+00  0.4000E+02
    -20.938  0.0000E+00  0.4000E+02
    -20.802  0.0000E+00  0.4000E+02
    -20.666  0.0000E+00  0.4000E+02
    -20.530  0.0000E+00  0.4000E+02
    -20.394  0.0000E+00  0.4000E+02
    -20.258  0.0000E+00  0.4000E+02
    -20.122  0.0000E+00  0.4000E+02
    -19.986  0.0000E+00  0.4000E+02
    -19.850  0.0000E+00  0.4000E+02
    -19.714  0.0000E+00  0.4000E+02
    -19.578  0.0000E+00  0.4000E+02
    -19.442  0.0000E+00  0.4000E+02
    -19.306  0.0000E+00  0.4000E+02
    -19.171  0.0000E+00  0.4000E+02
    -19.035  0.0000E+00  0.4000E+02
    -18.899  0.0000E+00  0.4000E+02
    -18.763  0.0000E+00  0.4000E+02
    -18.627  0.0000E+00  0.4000E+02
    -18.491  0.0000E+00  0.4000E+02
    -18.355  0.0000E+00  0.4000E+02
    -18.219  0.0000E+00  0.4000E+02
    -18.083  0.0000E+00  0.4000E+02
    -17.947  0.4805E-08  0.4000E+02
    -17.811  0.2232E+00  0.4003E+02
    -17.675  0.4904E+02  0.4670E+02
    -17.539  0.9585E+01  0.4800E+02
    -17.403  0.8920E-04  0.4800E+02
    -17.267  0.0000E+00  0.4800E+02
    -17.132  0.0000E+00  0.4800E+02
    -16.996  0.0000E+00  0.4800E+02
    -16.860  0.0000E+00  0.4800E+02
    -16.724  0.0000E+00  0.4800E+02
    -16.588  0.0000E+00  0.4800E+02
    -16.452  0.0000E+00  0.4800E+02
    -16.316  0.0000E+00  0.4800E+02
    -16.180  0.0000E+00  0.4800E+02
    -16.044  0.0000E+00  0.4800E+02
    -15.908  0.0000E+00  0.4800E+02
    -15.772  0.0000E+00  0.4800E+02
    -15.636  0.0000E+00  0.4800E+02
    -15.500  0.0000E+00  0.4800E+02
    -15.364  0.0000E+00  0.4800E+02
    -15.228  0.0000E+00  0.4800E+02
    -15.093  0.0000E+00  0.4800E+02
    -14.957  0.0000E+00  0.4800E+02
    -14.821  0.0000E+00  0.4800E+02
    -14.685  0.0000E+00  0.4800E+02
    -14.549  0.0000E+00  0.4800E+02
    -14.413  0.0000E+00  0.4800E+02
    -14.277  0.0000E+00  0.4800E+02
    -14.141  0.1698E-06  0.4800E+02
    -14.005  0.1246E+01  0.4817E+02
    -13.869  0.5520E+02  0.5567E+02
    -13.733  0.2410E+01  0.5600E+02
    -13.597  0.4284E-05  0.5600E+02
    -13.461  0.2231E+01  0.5630E+02
    -13.325  0.5349E+02  0.6357E+02
    -13.189  0.3131E+01  0.6400E+02
    -13.054  0.4224E-05  0.6400E+02
    -12.918  0.0000E+00  0.6400E+02
    -12.782  0.2850E-10  0.6400E+02
    -12.646  0.2363E-01  0.6400E+02
    -12.510  0.3835E+02  0.6922E+02
    -12.374  0.2047E+02  0.7200E+02
    -12.238  0.1195E-02  0.7200E+02
    -12.102  0.0000E+00  0.7200E+02
    -11.966  0.0000E+00  0.7200E+02
    -11.830  0.0000E+00  0.7200E+02
    -11.694  0.0000E+00  0.7200E+02
    -11.558  0.0000E+00  0.7200E+02
    -11.422  0.0000E+00  0.7200E+02
    -11.286  0.0000E+00  0.7200E+02
    -11.150  0.0000E+00  0.7200E+02
    -11.015  0.0000E+00  0.7200E+02
    -10.879  0.0000E+00  0.7200E+02
    -10.743  0.0000E+00  0.7200E+02
    -10.607  0.1671E-09  0.7200E+02
    -10.471  0.1871E-01  0.7200E+02
    -10.335  0.1127E+02  0.7353E+02
    -10.199  0.4311E+02  0.7939E+02
    -10.063  0.4461E+01  0.8000E+02
     -9.927  0.1823E+00  0.8002E+02
     -9.791  0.1778E+02  0.8244E+02
     -9.655  0.4410E+02  0.8844E+02
     -9.519  0.4289E+02  0.9427E+02
     -9.383  0.1482E+02  0.9628E+02
     -9.247  0.4572E+02  0.1025E+03
     -9.111  0.1106E+02  0.1040E+03
     -8.976  0.9884E-02  0.1040E+03
     -8.840  0.4843E+01  0.1047E+03
     -8.704  0.5039E+02  0.1115E+03
     -8.568  0.3608E+02  0.1164E+03
     -8.432  0.2631E+02  0.1200E+03
     -8.296  0.1256E+02  0.1217E+03
     -8.160  0.7631E+02  0.1321E+03
     -8.024  0.2890E+02  0.1360E+03
     -7.888  0.2079E-01  0.1360E+03
     -7.752  0.4172E-10  0.1360E+03
     -7.616  0.0000E+00  0.1360E+03
     -7.480  0.0000E+00  0.1360E+03
     -7.344  0.0000E+00  0.1360E+03
     -7.208  0.0000E+00  0.1360E+03
     -7.072  0.0000E+00  0.1360E+03
     -6.937  0.0000E+00  0.1360E+03
     -6.801  0.0000E+00  0.1360E+03
     -6.665  0.0000E+00  0.1360E+03
     -6.529  0.2573E-11  0.1360E+03
     -6.393  0.4467E-02  0.1360E+03
     -6.257  0.2201E+02  0.1390E+03
     -6.121  0.3674E+02  0.1440E+03
     -5.985  0.1004E+00  0.1440E+03
     -5.849  0.2929E-08  0.1440E+03
     -5.713  0.0000E+00  0.1440E+03
     -5.577  0.0000E+00  0.1440E+03
     -5.441  0.0000E+00  0.1440E+03
     -5.305  0.0000E+00  0.1440E+03
     -5.169  0.0000E+00  0.1440E+03
     -5.033  0.0000E+00  0.1440E+03
     -4.898  0.0000E+00  0.1440E+03
     -4.762  0.0000E+00  0.1440E+03
     -4.626  0.0000E+00  0.1440E+03
     -4.490  0.6045E-11  0.1440E+03
     -4.354  0.6161E-02  0.1440E+03
     -4.218  0.1910E+02  0.1466E+03
     -4.082  0.3957E+02  0.1520E+03
     -3.946  0.1979E+00  0.1520E+03
     -3.810  0.1952E+02  0.1547E+03
     -3.674  0.6237E+02  0.1631E+03
     -3.538  0.4061E+02  0.1687E+03
     -3.402  0.7601E+02  0.1790E+03
     -3.266  0.3649E+02  0.1839E+03
     -3.130  0.3840E+00  0.1840E+03
     -2.994  0.2481E+01  0.1843E+03
     -2.859  0.5948E+02  0.1924E+03
     -2.723  0.5134E+02  0.1994E+03
     -2.587  0.4397E+01  0.2000E+03
     -2.451  0.2179E+00  0.2000E+03
     -2.315  0.3695E+02  0.2051E+03
     -2.179  0.2168E+02  0.2080E+03
     -2.043  0.6034E-02  0.2080E+03
     -1.907  0.2360E-11  0.2080E+03
     -1.771  0.0000E+00  0.2080E+03
     -1.635  0.0000E+00  0.2080E+03
     -1.499  0.0000E+00  0.2080E+03
     -1.363  0.0000E+00  0.2080E+03
     -1.227  0.0000E+00  0.2080E+03
     -1.091  0.0000E+00  0.2080E+03
     -0.955  0.0000E+00  0.2080E+03
     -0.820  0.0000E+00  0.2080E+03
     -0.684  0.7492E-10  0.2080E+03
     -0.548  0.1562E-01  0.2080E+03
     -0.412  0.1161E+02  0.2096E+03
     -0.276  0.3902E+02  0.2149E+03
     -0.140  0.8202E+01  0.2160E+03
     -0.004  0.2557E-02  0.2160E+03
      0.132  0.1687E-11  0.2160E+03
      0.268  0.0000E+00  0.2160E+03
      0.404  0.8075E-06  0.2160E+03
      0.540  0.4816E+00  0.2161E+03
      0.676  0.2357E+02  0.2193E+03
      0.812  0.3790E+02  0.2244E+03
      0.948  0.5300E+02  0.2316E+03
      1.084  0.2753E+01  0.2320E+03
      1.219  0.2066E-04  0.2320E+03
      1.355  0.0000E+00  0.2320E+03
      1.491  0.0000E+00  0.2320E+03
      1.627  0.0000E+00  0.2320E+03
      1.763  0.0000E+00  0.2320E+03
      1.899  0.0000E+00  0.2320E+03
      2.035  0.0000E+00  0.2320E+03
      2.171  0.0000E+00  0.2320E+03
      2.307  0.0000E+00  0.2320E+03
      2.443  0.0000E+00  0.2320E+03
      2.579  0.0000E+00  0.2320E+03
      2.715  0.0000E+00  0.2320E+03
      2.851  0.0000E+00  0.2320E+03
      2.987  0.0000E+00  0.2320E+03
      3.123  0.0000E+00  0.2320E+03
      3.258  0.8780E-14  0.2320E+03
      3.394  0.1315E-03  0.2320E+03
      3.530  0.2833E+01  0.2324E+03
      3.666  0.3350E+02  0.2369E+03
      3.802  0.2245E+02  0.2400E+03
      3.938  0.7552E-01  0.2400E+03
      4.074  0.4040E-08  0.2400E+03
      4.210  0.4515E-07  0.2400E+03
      4.346  0.2288E+00  0.2400E+03
      4.482  0.2425E+02  0.2433E+03
      4.618  0.3471E+02  0.2480E+03
      4.754  0.3344E+01  0.2485E+03
      4.890  0.2756E+01  0.2489E+03
      5.026  0.1081E+01  0.2490E+03
      5.162  0.7277E+01  0.2500E+03
      5.297  0.3696E+01  0.2505E+03
      5.433  0.5432E+01  0.2513E+03
      5.569  0.9548E+01  0.2525E+03
      5.705  0.1571E+02  0.2547E+03
      5.841  0.1966E+02  0.2574E+03
      5.977  0.2697E+02  0.2610E+03
      6.113  0.9787E+01  0.2624E+03
      6.249  0.1177E+02  0.2640E+03
      6.385  0.1180E+02  0.2656E+03
      6.521  0.9135E+01  0.2668E+03
      6.657  0.6676E+01  0.2677E+03
      6.793  0.1590E+02  0.2699E+03
      6.929  0.7810E+01  0.2709E+03
      7.065  0.1835E+02  0.2734E+03
      7.201  0.8529E+01  0.2746E+03
      7.336  0.1247E+02  0.2763E+03
      7.472  0.1113E+02  0.2778E+03
      7.608  0.1115E+02  0.2793E+03
      7.744  0.1289E+02  0.2811E+03
      7.880  0.9888E+01  0.2824E+03
      8.016  0.1116E+02  0.2839E+03
      8.152  0.1782E+02  0.2863E+03
      8.288  0.1514E+02  0.2884E+03
      8.424  0.1775E+02  0.2908E+03
      8.560  0.1752E+02  0.2932E+03
      8.696  0.1647E+02  0.2954E+03
      8.832  0.1251E+02  0.2971E+03
      8.968  0.2569E+02  0.3006E+03
      9.104  0.1952E+02  0.3033E+03
      9.240  0.1880E+02  0.3058E+03
      9.375  0.1872E+02  0.3084E+03
      9.511  0.1639E+02  0.3106E+03
      9.647  0.1625E+02  0.3128E+03
      9.783  0.1943E+02  0.3155E+03
      9.919  0.1663E+02  0.3177E+03
     10.055  0.1419E+02  0.3196E+03
     10.191  0.2581E+01  0.3200E+03
     10.327  0.3523E-02  0.3200E+03
     10.463  0.7238E-10  0.3200E+03
     10.599  0.0000E+00  0.3200E+03
     10.735  0.0000E+00  0.3200E+03
     10.871  0.0000E+00  0.3200E+03
     11.007  0.0000E+00  0.3200E+03
     11.143  0.0000E+00  0.3200E+03
     11.279  0.0000E+00  0.3200E+03
     11.414  0.0000E+00  0.3200E+03
     11.550  0.0000E+00  0.3200E+03
     11.686  0.0000E+00  0.3200E+03
     11.822  0.0000E+00  0.3200E+03
     11.958  0.0000E+00  0.3200E+03
