       N       E                     dE             d eps       ncg     rms          rms(c)
DAV:   1     0.149697671302E+04    0.14970E+04   -0.11135E+05 10240   0.131E+03
DAV:   2    -0.149701825263E+03   -0.16467E+04   -0.15678E+04 12752   0.318E+02
DAV:   3    -0.288358505436E+03   -0.13866E+03   -0.13641E+03 12312   0.926E+01
DAV:   4    -0.290634880676E+03   -0.22764E+01   -0.22666E+01 12616   0.127E+01
DAV:   5    -0.290698196804E+03   -0.63316E-01   -0.63238E-01 12752   0.192E+00    0.333E+01
DAV:   6    -0.274613862765E+03    0.16084E+02   -0.45887E+01 12008   0.208E+01    0.168E+01
DAV:   7    -0.273130339991E+03    0.14835E+01   -0.69169E+00 12488   0.825E+00    0.915E+00
DAV:   8    -0.272674497844E+03    0.45584E+00   -0.23422E+00 12336   0.392E+00    0.223E+00
DAV:   9    -0.272623166785E+03    0.51331E-01   -0.16914E-01 12792   0.157E+00    0.842E-01
DAV:  10    -0.272625354608E+03   -0.21878E-02   -0.59843E-02 12096   0.668E-01    0.238E-01
DAV:  11    -0.272625363266E+03   -0.86583E-05   -0.16449E-03 12944   0.166E-01    0.128E-01
DAV:  12    -0.272625504069E+03   -0.14080E-03   -0.80512E-04 11264   0.889E-02    0.423E-02
DAV:  13    -0.272625546136E+03   -0.42067E-04   -0.18466E-04 12088   0.408E-02    0.202E-02
DAV:  14    -0.272625544828E+03    0.13086E-05   -0.17028E-05 12800   0.147E-02    0.104E-02
DAV:  15    -0.272625544775E+03    0.52183E-07   -0.63852E-06 11328   0.824E-03
   1 F= -.27262554E+03 E0= -.27262554E+03  d E =-.241511E-14
