C8N16O16
1.0
      6.9125120       0.0000000       0.0000000
      0.0000000       7.2715360       0.0000000
      0.0000000       0.0000000      12.6491360
  C     N     O   
  8     16    16  
Direct
      0.3097670       0.2101190       0.1103400
      0.1902330       0.7898810       0.6103400
      0.6902330       0.7101190       0.3896600
      0.8097670       0.2898810       0.8896600
      0.2681070       0.2968830       0.1999330
      0.2318930       0.7031170       0.6999330
      0.7318930       0.7968830       0.3000670
      0.7681070       0.2031170       0.8000670
      0.3306470       0.0085000       0.1102690
      0.1693530       0.9915000       0.6102690
      0.6693530       0.5085000       0.3897310
      0.8306470       0.4915000       0.8897310
      0.3453520       0.3162840       0.0133250
      0.1546480       0.6837160       0.5133250
      0.6546480       0.8162840       0.4866750
      0.8453520       0.1837160       0.9866750
      0.2224740       0.2998970       0.3072440
      0.2775260       0.7001030       0.8072440
      0.7775260       0.7998970       0.1927560
      0.7224740       0.2001030       0.6927560
      0.2409120       0.4550490       0.2599730
      0.2590880       0.5449510       0.7599730
      0.7590880       0.9550490       0.2400270
      0.7409120       0.0449510       0.7400270
      0.4375290       0.9379220       0.0436230
      0.0624710       0.0620780       0.5436230
      0.5624710       0.4379220       0.4563770
      0.9375290       0.5620780       0.9563770
      0.2463760       0.9266210       0.1830050
      0.2536240       0.0733790       0.6830050
      0.7536240       0.4266210       0.3169950
      0.7463760       0.5733790       0.8169950
      0.3900120       0.4795150       0.0255210
      0.1099880       0.5204850       0.5255210
      0.6099880       0.9795150       0.4744790
      0.8900120       0.0204850       0.9744790
      0.3232250       0.2369870       0.9274390
      0.1767750       0.7630130       0.4274390
      0.6767750       0.7369870       0.5725610
      0.8232250       0.2630130       0.0725610
