unknown system                          
           1
     6.912512    0.000000    0.000000
     0.000000    7.271536    0.000000
     0.000000    0.000000   12.649136
   C    N    O 
     8    16    16
Direct configuration=     1
   0.30976700  0.21011900  0.11034000
   0.19023300  0.78988100  0.61034000
   0.69023300  0.71011900  0.38966000
   0.80976700  0.28988100  0.88966000
   0.26810700  0.29688300  0.19993300
   0.23189300  0.70311700  0.69993300
   0.73189300  0.79688300  0.30006700
   0.76810700  0.20311700  0.80006700
   0.33064700  0.00850000  0.11026900
   0.16935300  0.99150000  0.61026900
   0.66935300  0.50850000  0.38973100
   0.83064700  0.49150000  0.88973100
   0.34535200  0.31628400  0.01332500
   0.15464800  0.68371600  0.51332500
   0.65464800  0.81628400  0.48667500
   0.84535200  0.18371600  0.98667500
   0.22247400  0.29989700  0.30724400
   0.27752600  0.70010300  0.80724400
   0.77752600  0.79989700  0.19275600
   0.72247400  0.20010300  0.69275600
   0.24091200  0.45504900  0.25997300
   0.25908800  0.54495100  0.75997300
   0.75908800  0.95504900  0.24002700
   0.74091200  0.04495100  0.74002700
   0.43752900  0.93792200  0.04362300
   0.06247100  0.06207800  0.54362300
   0.56247100  0.43792200  0.45637700
   0.93752900  0.56207800  0.95637700
   0.24637600  0.92662100  0.18300500
   0.25362400  0.07337900  0.68300500
   0.75362400  0.42662100  0.31699500
   0.74637600  0.57337900  0.81699500
   0.39001200  0.47951500  0.02552100
   0.10998800  0.52048500  0.52552100
   0.60998800  0.97951500  0.47447900
   0.89001200  0.02048500  0.97447900
   0.32322500  0.23698700  0.92743900
   0.17677500  0.76301300  0.42743900
   0.67677500  0.73698700  0.57256100
   0.82322500  0.26301300  0.07256100
