   2   2   0   0
  0.2110740E+02  0.4017887E-09  0.4017887E-09  0.4017887E-09  0.5000000E-15
  1.000000000000000E-004
  CAR 
 unknown system                          
     22.60254097    -21.38167777  301      5.29700630      1.00000000
    -21.382  0.0000E+00  0.0000E+00
    -21.235  0.0000E+00  0.0000E+00
    -21.088  0.0000E+00  0.0000E+00
    -20.942  0.0000E+00  0.0000E+00
    -20.795  0.0000E+00  0.0000E+00
    -20.649  0.0000E+00  0.0000E+00
    -20.502  0.0000E+00  0.0000E+00
    -20.355  0.0000E+00  0.0000E+00
    -20.209  0.0000E+00  0.0000E+00
    -20.062  0.0000E+00  0.0000E+00
    -19.916  0.0000E+00  0.0000E+00
    -19.769  0.0000E+00  0.0000E+00
    -19.622  0.2128E-10  0.3120E-11
    -19.476  0.4974E-01  0.7292E-02
    -19.329  0.5382E+02  0.7898E+01
    -19.182  0.1433E+02  0.1000E+02
    -19.036  0.4204E-04  0.1000E+02
    -18.889  0.0000E+00  0.1000E+02
    -18.743  0.0000E+00  0.1000E+02
    -18.596  0.0000E+00  0.1000E+02
    -18.449  0.0000E+00  0.1000E+02
    -18.303  0.0000E+00  0.1000E+02
    -18.156  0.0000E+00  0.1000E+02
    -18.010  0.0000E+00  0.1000E+02
    -17.863  0.0000E+00  0.1000E+02
    -17.716  0.0000E+00  0.1000E+02
    -17.570  0.0000E+00  0.1000E+02
    -17.423  0.0000E+00  0.1000E+02
    -17.276  0.0000E+00  0.1000E+02
    -17.130  0.0000E+00  0.1000E+02
    -16.983  0.0000E+00  0.1000E+02
    -16.837  0.0000E+00  0.1000E+02
    -16.690  0.0000E+00  0.1000E+02
    -16.543  0.0000E+00  0.1000E+02
    -16.397  0.0000E+00  0.1000E+02
    -16.250  0.0000E+00  0.1000E+02
    -16.104  0.0000E+00  0.1000E+02
    -15.957  0.0000E+00  0.1000E+02
    -15.810  0.0000E+00  0.1000E+02
    -15.664  0.0000E+00  0.1000E+02
    -15.517  0.0000E+00  0.1000E+02
    -15.371  0.0000E+00  0.1000E+02
    -15.224  0.0000E+00  0.1000E+02
    -15.077  0.0000E+00  0.1000E+02
    -14.931  0.0000E+00  0.1000E+02
    -14.784  0.0000E+00  0.1000E+02
    -14.637  0.0000E+00  0.1000E+02
    -14.491  0.0000E+00  0.1000E+02
    -14.344  0.0000E+00  0.1000E+02
    -14.198  0.0000E+00  0.1000E+02
    -14.051  0.0000E+00  0.1000E+02
    -13.904  0.0000E+00  0.1000E+02
    -13.758  0.0000E+00  0.1000E+02
    -13.611  0.0000E+00  0.1000E+02
    -13.465  0.0000E+00  0.1000E+02
    -13.318  0.0000E+00  0.1000E+02
    -13.171  0.0000E+00  0.1000E+02
    -13.025  0.0000E+00  0.1000E+02
    -12.878  0.0000E+00  0.1000E+02
    -12.731  0.0000E+00  0.1000E+02
    -12.585  0.0000E+00  0.1000E+02
    -12.438  0.0000E+00  0.1000E+02
    -12.292  0.0000E+00  0.1000E+02
    -12.145  0.0000E+00  0.1000E+02
    -11.998  0.0000E+00  0.1000E+02
    -11.852  0.0000E+00  0.1000E+02
    -11.705  0.0000E+00  0.1000E+02
    -11.559  0.0000E+00  0.1000E+02
    -11.412  0.0000E+00  0.1000E+02
    -11.265  0.0000E+00  0.1000E+02
    -11.119  0.0000E+00  0.1000E+02
    -10.972  0.0000E+00  0.1000E+02
    -10.825  0.0000E+00  0.1000E+02
    -10.679  0.0000E+00  0.1000E+02
    -10.532  0.0000E+00  0.1000E+02
    -10.386  0.0000E+00  0.1000E+02
    -10.239  0.0000E+00  0.1000E+02
    -10.092  0.0000E+00  0.1000E+02
     -9.946  0.0000E+00  0.1000E+02
     -9.799  0.0000E+00  0.1000E+02
     -9.653  0.0000E+00  0.1000E+02
     -9.506  0.0000E+00  0.1000E+02
     -9.359  0.0000E+00  0.1000E+02
     -9.213  0.0000E+00  0.1000E+02
     -9.066  0.0000E+00  0.1000E+02
     -8.919  0.0000E+00  0.1000E+02
     -8.773  0.0000E+00  0.1000E+02
     -8.626  0.0000E+00  0.1000E+02
     -8.480  0.2742E-06  0.1000E+02
     -8.333  0.2126E-01  0.1000E+02
     -8.186  0.1260E+00  0.1002E+02
     -8.040  0.1554E+00  0.1004E+02
     -7.893  0.3201E+00  0.1009E+02
     -7.747  0.1071E+00  0.1011E+02
     -7.600  0.4732E+00  0.1018E+02
     -7.453  0.2999E+00  0.1022E+02
     -7.307  0.5953E+00  0.1031E+02
     -7.160  0.2040E+00  0.1034E+02
     -7.013  0.2017E+00  0.1037E+02
     -6.867  0.9754E+00  0.1051E+02
     -6.720  0.5151E+00  0.1059E+02
     -6.574  0.5864E+00  0.1067E+02
     -6.427  0.6511E+00  0.1077E+02
     -6.280  0.5225E+00  0.1084E+02
     -6.134  0.4417E+00  0.1091E+02
     -5.987  0.1861E+01  0.1118E+02
     -5.841  0.1288E+01  0.1137E+02
     -5.694  0.7028E+00  0.1147E+02
     -5.547  0.1054E+01  0.1163E+02
     -5.401  0.9590E+00  0.1177E+02
     -5.254  0.1001E+01  0.1191E+02
     -5.108  0.5060E+00  0.1199E+02
     -4.961  0.7410E-01  0.1200E+02
     -4.814  0.2187E-05  0.1200E+02
     -4.668  0.0000E+00  0.1200E+02
     -4.521  0.0000E+00  0.1200E+02
     -4.374  0.0000E+00  0.1200E+02
     -4.228  0.0000E+00  0.1200E+02
     -4.081  0.0000E+00  0.1200E+02
     -3.935  0.7667E-12  0.1200E+02
     -3.788  0.7260E-03  0.1200E+02
     -3.641  0.3183E+00  0.1205E+02
     -3.495  0.5593E+00  0.1213E+02
     -3.348  0.3885E+00  0.1219E+02
     -3.202  0.8617E+00  0.1231E+02
     -3.055  0.1418E+01  0.1252E+02
     -2.908  0.7670E+00  0.1263E+02
     -2.762  0.2520E+00  0.1267E+02
     -2.615  0.1581E+01  0.1290E+02
     -2.468  0.1035E+01  0.1305E+02
     -2.322  0.3962E+00  0.1311E+02
     -2.175  0.7723E+00  0.1322E+02
     -2.029  0.1646E+00  0.1325E+02
     -1.882  0.1337E+01  0.1344E+02
     -1.735  0.4373E+00  0.1351E+02
     -1.589  0.3622E+00  0.1356E+02
     -1.442  0.6119E+00  0.1365E+02
     -1.296  0.1938E+00  0.1368E+02
     -1.149  0.2437E-03  0.1368E+02
     -1.002  0.2382E-01  0.1368E+02
     -0.856  0.4462E+00  0.1375E+02
     -0.709  0.2664E+00  0.1379E+02
     -0.562  0.1956E+00  0.1382E+02
     -0.416  0.3225E+00  0.1386E+02
     -0.269  0.4148E+00  0.1392E+02
     -0.123  0.2620E+00  0.1396E+02
      0.024  0.2502E+00  0.1400E+02
      0.171  0.2467E+00  0.1404E+02
      0.317  0.5410E+00  0.1411E+02
      0.464  0.5788E+00  0.1420E+02
      0.610  0.3958E+00  0.1426E+02
      0.757  0.1414E+01  0.1447E+02
      0.904  0.5305E+00  0.1454E+02
      1.050  0.1372E+01  0.1474E+02
      1.197  0.4408E+00  0.1481E+02
      1.344  0.1057E+01  0.1496E+02
      1.490  0.3660E+00  0.1502E+02
      1.637  0.1195E+01  0.1519E+02
      1.783  0.8028E+00  0.1531E+02
      1.930  0.6318E+00  0.1540E+02
      2.077  0.1694E+01  0.1565E+02
      2.223  0.1085E+01  0.1581E+02
      2.370  0.1120E+01  0.1597E+02
      2.516  0.7831E+00  0.1609E+02
      2.663  0.1780E+01  0.1635E+02
      2.810  0.8365E+00  0.1647E+02
      2.956  0.8016E+00  0.1659E+02
      3.103  0.1392E+01  0.1679E+02
      3.249  0.1367E+01  0.1699E+02
      3.396  0.1265E+01  0.1718E+02
      3.543  0.1331E+01  0.1738E+02
      3.689  0.1198E+01  0.1755E+02
      3.836  0.7709E+00  0.1766E+02
      3.983  0.1722E+01  0.1792E+02
      4.129  0.1457E+01  0.1813E+02
      4.276  0.8387E+00  0.1825E+02
      4.422  0.9808E+00  0.1840E+02
      4.569  0.8535E+00  0.1852E+02
      4.716  0.4821E+00  0.1859E+02
      4.862  0.4407E+00  0.1866E+02
      5.009  0.7335E+00  0.1877E+02
      5.155  0.6308E+00  0.1886E+02
      5.302  0.1002E+01  0.1900E+02
      5.449  0.8443E+00  0.1913E+02
      5.595  0.8117E+00  0.1925E+02
      5.742  0.2693E+00  0.1929E+02
      5.889  0.1669E+00  0.1931E+02
      6.035  0.9003E+00  0.1944E+02
      6.182  0.5912E+00  0.1953E+02
      6.328  0.7811E+00  0.1964E+02
      6.475  0.1006E+01  0.1979E+02
      6.622  0.7446E+00  0.1990E+02
      6.768  0.5155E+00  0.1998E+02
      6.915  0.5221E+00  0.2005E+02
      7.061  0.7095E+00  0.2016E+02
      7.208  0.2053E+00  0.2019E+02
      7.355  0.5001E+00  0.2026E+02
      7.501  0.1232E+01  0.2044E+02
      7.648  0.1748E+01  0.2070E+02
      7.795  0.9477E+00  0.2084E+02
      7.941  0.5340E+00  0.2091E+02
      8.088  0.8316E+00  0.2104E+02
      8.234  0.1726E+01  0.2129E+02
      8.381  0.1884E+01  0.2157E+02
      8.528  0.1565E+01  0.2180E+02
      8.674  0.1408E+01  0.2200E+02
      8.821  0.1562E+01  0.2223E+02
      8.967  0.1376E+01  0.2243E+02
      9.114  0.4688E+00  0.2250E+02
      9.261  0.1328E+01  0.2270E+02
      9.407  0.1076E+01  0.2285E+02
      9.554  0.1677E+01  0.2310E+02
      9.701  0.3655E+00  0.2315E+02
      9.847  0.1279E+01  0.2334E+02
      9.994  0.1356E+01  0.2354E+02
     10.140  0.1110E+01  0.2370E+02
     10.287  0.1256E+01  0.2389E+02
     10.434  0.1465E+01  0.2410E+02
     10.580  0.1387E+01  0.2430E+02
     10.727  0.1252E+01  0.2449E+02
     10.873  0.5975E+00  0.2458E+02
     11.020  0.5687E+00  0.2466E+02
     11.167  0.1139E+01  0.2483E+02
     11.313  0.1194E+01  0.2500E+02
     11.460  0.8022E+00  0.2512E+02
     11.606  0.9574E+00  0.2526E+02
     11.753  0.1276E+01  0.2545E+02
     11.900  0.1120E+01  0.2561E+02
     12.046  0.1069E+01  0.2577E+02
     12.193  0.6197E+00  0.2586E+02
     12.340  0.9143E+00  0.2599E+02
     12.486  0.8903E+00  0.2612E+02
     12.633  0.9028E+00  0.2626E+02
     12.779  0.1318E+01  0.2645E+02
     12.926  0.2258E+01  0.2678E+02
     13.073  0.1743E+01  0.2703E+02
     13.219  0.1116E+01  0.2720E+02
     13.366  0.5760E+00  0.2728E+02
     13.512  0.4637E+00  0.2735E+02
     13.659  0.7569E+00  0.2746E+02
     13.806  0.1415E+01  0.2767E+02
     13.952  0.9903E+00  0.2781E+02
     14.099  0.1453E+01  0.2803E+02
     14.246  0.1501E+01  0.2825E+02
     14.392  0.7834E+00  0.2836E+02
     14.539  0.1290E+01  0.2855E+02
     14.685  0.1202E+01  0.2873E+02
     14.832  0.1451E+01  0.2894E+02
     14.979  0.4755E+00  0.2901E+02
     15.125  0.5765E+00  0.2909E+02
     15.272  0.9888E+00  0.2924E+02
     15.418  0.1129E+01  0.2941E+02
     15.565  0.1700E+01  0.2965E+02
     15.712  0.8236E+00  0.2978E+02
     15.858  0.8343E+00  0.2990E+02
     16.005  0.1196E+01  0.3007E+02
     16.152  0.7255E+00  0.3018E+02
     16.298  0.1527E+01  0.3040E+02
     16.445  0.9846E+00  0.3055E+02
     16.591  0.1282E+01  0.3074E+02
     16.738  0.1022E+01  0.3089E+02
     16.885  0.1175E+01  0.3106E+02
     17.031  0.4475E+00  0.3112E+02
     17.178  0.1121E+01  0.3129E+02
     17.324  0.3445E+00  0.3134E+02
     17.471  0.1787E+00  0.3136E+02
     17.618  0.4370E+00  0.3143E+02
     17.764  0.7083E+00  0.3153E+02
     17.911  0.8926E+00  0.3166E+02
     18.058  0.4308E+00  0.3173E+02
     18.204  0.2841E+00  0.3177E+02
     18.351  0.2311E+00  0.3180E+02
     18.497  0.7385E-01  0.3181E+02
     18.644  0.5152E-01  0.3182E+02
     18.791  0.4177E+00  0.3188E+02
     18.937  0.4857E+00  0.3195E+02
     19.084  0.4214E-02  0.3195E+02
     19.230  0.1981E-10  0.3195E+02
     19.377  0.0000E+00  0.3195E+02
     19.524  0.2369E-12  0.3195E+02
     19.670  0.2938E-03  0.3195E+02
     19.817  0.9721E-01  0.3197E+02
     19.963  0.9070E-02  0.3197E+02
     20.110  0.1823E-08  0.3197E+02
     20.257  0.0000E+00  0.3197E+02
     20.403  0.8011E-07  0.3197E+02
     20.550  0.4194E-01  0.3197E+02
     20.697  0.1710E+00  0.3200E+02
     20.843  0.1889E-03  0.3200E+02
     20.990  0.1538E-12  0.3200E+02
     21.136  0.0000E+00  0.3200E+02
     21.283  0.0000E+00  0.3200E+02
     21.430  0.0000E+00  0.3200E+02
     21.576  0.0000E+00  0.3200E+02
     21.723  0.0000E+00  0.3200E+02
     21.869  0.0000E+00  0.3200E+02
     22.016  0.0000E+00  0.3200E+02
     22.163  0.0000E+00  0.3200E+02
     22.309  0.0000E+00  0.3200E+02
     22.456  0.0000E+00  0.3200E+02
     22.603  0.0000E+00  0.3200E+02
