   6   6   0   0
  0.1626577E+02  0.5758616E-09  0.5758616E-09  0.5592986E-09  0.5000000E-15
  1.000000000000000E-004
  CAR 
 unknown system                          
     11.66903956    -30.41148964  301      1.84769930      1.00000000
    -30.411  0.0000E+00  0.0000E+00
    -30.271  0.0000E+00  0.0000E+00
    -30.131  0.0000E+00  0.0000E+00
    -29.991  0.0000E+00  0.0000E+00
    -29.850  0.0000E+00  0.0000E+00
    -29.710  0.0000E+00  0.0000E+00
    -29.570  0.0000E+00  0.0000E+00
    -29.430  0.0000E+00  0.0000E+00
    -29.289  0.0000E+00  0.0000E+00
    -29.149  0.0000E+00  0.0000E+00
    -29.009  0.0000E+00  0.0000E+00
    -28.869  0.0000E+00  0.0000E+00
    -28.728  0.3065E-10  0.4299E-11
    -28.588  0.9685E-02  0.1358E-02
    -28.448  0.8825E+01  0.1239E+01
    -28.307  0.1831E+02  0.3807E+01
    -28.167  0.1374E+01  0.4000E+01
    -28.027  0.6175E-05  0.4000E+01
    -27.887  0.0000E+00  0.4000E+01
    -27.746  0.0000E+00  0.4000E+01
    -27.606  0.0000E+00  0.4000E+01
    -27.466  0.0000E+00  0.4000E+01
    -27.326  0.0000E+00  0.4000E+01
    -27.185  0.0000E+00  0.4000E+01
    -27.045  0.0000E+00  0.4000E+01
    -26.905  0.0000E+00  0.4000E+01
    -26.765  0.0000E+00  0.4000E+01
    -26.624  0.0000E+00  0.4000E+01
    -26.484  0.0000E+00  0.4000E+01
    -26.344  0.0000E+00  0.4000E+01
    -26.203  0.0000E+00  0.4000E+01
    -26.063  0.0000E+00  0.4000E+01
    -25.923  0.0000E+00  0.4000E+01
    -25.783  0.0000E+00  0.4000E+01
    -25.642  0.0000E+00  0.4000E+01
    -25.502  0.0000E+00  0.4000E+01
    -25.362  0.0000E+00  0.4000E+01
    -25.222  0.0000E+00  0.4000E+01
    -25.081  0.0000E+00  0.4000E+01
    -24.941  0.0000E+00  0.4000E+01
    -24.801  0.0000E+00  0.4000E+01
    -24.660  0.0000E+00  0.4000E+01
    -24.520  0.0000E+00  0.4000E+01
    -24.380  0.0000E+00  0.4000E+01
    -24.240  0.0000E+00  0.4000E+01
    -24.099  0.0000E+00  0.4000E+01
    -23.959  0.0000E+00  0.4000E+01
    -23.819  0.0000E+00  0.4000E+01
    -23.679  0.0000E+00  0.4000E+01
    -23.538  0.0000E+00  0.4000E+01
    -23.398  0.0000E+00  0.4000E+01
    -23.258  0.0000E+00  0.4000E+01
    -23.118  0.0000E+00  0.4000E+01
    -22.977  0.0000E+00  0.4000E+01
    -22.837  0.0000E+00  0.4000E+01
    -22.697  0.0000E+00  0.4000E+01
    -22.556  0.0000E+00  0.4000E+01
    -22.416  0.0000E+00  0.4000E+01
    -22.276  0.0000E+00  0.4000E+01
    -22.136  0.0000E+00  0.4000E+01
    -21.995  0.0000E+00  0.4000E+01
    -21.855  0.0000E+00  0.4000E+01
    -21.715  0.0000E+00  0.4000E+01
    -21.575  0.0000E+00  0.4000E+01
    -21.434  0.0000E+00  0.4000E+01
    -21.294  0.0000E+00  0.4000E+01
    -21.154  0.0000E+00  0.4000E+01
    -21.014  0.0000E+00  0.4000E+01
    -20.873  0.0000E+00  0.4000E+01
    -20.733  0.0000E+00  0.4000E+01
    -20.593  0.0000E+00  0.4000E+01
    -20.452  0.0000E+00  0.4000E+01
    -20.312  0.0000E+00  0.4000E+01
    -20.172  0.0000E+00  0.4000E+01
    -20.032  0.0000E+00  0.4000E+01
    -19.891  0.0000E+00  0.4000E+01
    -19.751  0.0000E+00  0.4000E+01
    -19.611  0.0000E+00  0.4000E+01
    -19.471  0.0000E+00  0.4000E+01
    -19.330  0.0000E+00  0.4000E+01
    -19.190  0.0000E+00  0.4000E+01
    -19.050  0.0000E+00  0.4000E+01
    -18.909  0.0000E+00  0.4000E+01
    -18.769  0.0000E+00  0.4000E+01
    -18.629  0.0000E+00  0.4000E+01
    -18.489  0.0000E+00  0.4000E+01
    -18.348  0.0000E+00  0.4000E+01
    -18.208  0.0000E+00  0.4000E+01
    -18.068  0.0000E+00  0.4000E+01
    -17.928  0.0000E+00  0.4000E+01
    -17.787  0.0000E+00  0.4000E+01
    -17.647  0.0000E+00  0.4000E+01
    -17.507  0.0000E+00  0.4000E+01
    -17.367  0.0000E+00  0.4000E+01
    -17.226  0.0000E+00  0.4000E+01
    -17.086  0.0000E+00  0.4000E+01
    -16.946  0.2265E-13  0.4000E+01
    -16.805  0.1401E-03  0.4000E+01
    -16.665  0.1153E+01  0.4162E+01
    -16.525  0.3507E+01  0.4654E+01
    -16.385  0.1160E+01  0.4817E+01
    -16.244  0.7936E+01  0.5930E+01
    -16.104  0.5009E+00  0.6000E+01
    -15.964  0.1904E-04  0.6000E+01
    -15.824  0.0000E+00  0.6000E+01
    -15.683  0.8945E-09  0.6000E+01
    -15.543  0.3083E-01  0.6004E+01
    -15.403  0.6412E+01  0.6904E+01
    -15.262  0.3050E+01  0.7332E+01
    -15.122  0.1307E-01  0.7333E+01
    -14.982  0.6006E-09  0.7333E+01
    -14.842  0.0000E+00  0.7333E+01
    -14.701  0.0000E+00  0.7333E+01
    -14.561  0.0000E+00  0.7333E+01
    -14.421  0.0000E+00  0.7333E+01
    -14.281  0.4365E-10  0.7333E+01
    -14.140  0.7973E-02  0.7334E+01
    -14.000  0.2927E+01  0.7745E+01
    -13.860  0.4883E+01  0.8430E+01
    -13.720  0.1687E+01  0.8667E+01
    -13.579  0.1035E-02  0.8667E+01
    -13.439  0.1747E-11  0.8667E+01
    -13.299  0.0000E+00  0.8667E+01
    -13.158  0.0000E+00  0.8667E+01
    -13.018  0.0000E+00  0.8667E+01
    -12.878  0.1534E-12  0.8667E+01
    -12.738  0.5832E-03  0.8667E+01
    -12.597  0.2105E+01  0.8962E+01
    -12.457  0.5967E+01  0.9799E+01
    -12.317  0.5983E+01  0.1064E+02
    -12.177  0.1346E+01  0.1083E+02
    -12.036  0.6021E+01  0.1167E+02
    -11.896  0.1500E+02  0.1378E+02
    -11.756  0.3152E+02  0.1820E+02
    -11.616  0.1174E+02  0.1984E+02
    -11.475  0.9132E+01  0.2113E+02
    -11.335  0.5521E+01  0.2190E+02
    -11.195  0.7137E+00  0.2200E+02
    -11.054  0.2343E-04  0.2200E+02
    -10.914  0.0000E+00  0.2200E+02
    -10.774  0.0000E+00  0.2200E+02
    -10.634  0.0000E+00  0.2200E+02
    -10.493  0.0000E+00  0.2200E+02
    -10.353  0.0000E+00  0.2200E+02
    -10.213  0.0000E+00  0.2200E+02
    -10.073  0.0000E+00  0.2200E+02
     -9.932  0.0000E+00  0.2200E+02
     -9.792  0.0000E+00  0.2200E+02
     -9.652  0.0000E+00  0.2200E+02
     -9.511  0.0000E+00  0.2200E+02
     -9.371  0.1482E-05  0.2200E+02
     -9.231  0.1139E+01  0.2216E+02
     -9.091  0.8340E+01  0.2333E+02
     -8.950  0.2691E-01  0.2333E+02
     -8.810  0.9038E-10  0.2333E+02
     -8.670  0.0000E+00  0.2333E+02
     -8.530  0.0000E+00  0.2333E+02
     -8.389  0.0000E+00  0.2333E+02
     -8.249  0.0000E+00  0.2333E+02
     -8.109  0.0000E+00  0.2333E+02
     -7.969  0.0000E+00  0.2333E+02
     -7.828  0.0000E+00  0.2333E+02
     -7.688  0.0000E+00  0.2333E+02
     -7.548  0.0000E+00  0.2333E+02
     -7.407  0.0000E+00  0.2333E+02
     -7.267  0.1070E-07  0.2333E+02
     -7.127  0.1280E+00  0.2335E+02
     -6.987  0.4518E+01  0.2399E+02
     -6.846  0.1067E+00  0.2400E+02
     -6.706  0.6861E-08  0.2400E+02
     -6.566  0.0000E+00  0.2400E+02
     -6.426  0.0000E+00  0.2400E+02
     -6.285  0.0000E+00  0.2400E+02
     -6.145  0.0000E+00  0.2400E+02
     -6.005  0.0000E+00  0.2400E+02
     -5.865  0.0000E+00  0.2400E+02
     -5.724  0.0000E+00  0.2400E+02
     -5.584  0.0000E+00  0.2400E+02
     -5.444  0.0000E+00  0.2400E+02
     -5.303  0.0000E+00  0.2400E+02
     -5.163  0.0000E+00  0.2400E+02
     -5.023  0.0000E+00  0.2400E+02
     -4.883  0.4205E-13  0.2400E+02
     -4.742  0.1559E-03  0.2400E+02
     -4.602  0.1005E+01  0.2414E+02
     -4.462  0.3723E+01  0.2466E+02
     -4.322  0.2481E-01  0.2467E+02
     -4.181  0.6230E-09  0.2467E+02
     -4.041  0.0000E+00  0.2467E+02
     -3.901  0.4457E-12  0.2467E+02
     -3.760  0.4353E-03  0.2467E+02
     -3.620  0.4063E+00  0.2472E+02
     -3.480  0.8013E+00  0.2484E+02
     -3.340  0.1579E+01  0.2506E+02
     -3.199  0.2893E+01  0.2546E+02
     -3.059  0.4324E+01  0.2607E+02
     -2.919  0.5288E+01  0.2681E+02
     -2.779  0.4952E+01  0.2751E+02
     -2.638  0.5537E+01  0.2828E+02
     -2.498  0.2359E+01  0.2861E+02
     -2.358  0.3920E+00  0.2867E+02
     -2.218  0.1298E+01  0.2885E+02
     -2.077  0.3234E+01  0.2930E+02
     -1.937  0.4923E+01  0.3000E+02
     -1.797  0.1200E+02  0.3168E+02
     -1.656  0.4913E+01  0.3237E+02
     -1.516  0.2086E+01  0.3266E+02
     -1.376  0.4577E-01  0.3267E+02
     -1.236  0.2317E-07  0.3267E+02
     -1.095  0.0000E+00  0.3267E+02
     -0.955  0.1574E-10  0.3267E+02
     -0.815  0.4930E-02  0.3267E+02
     -0.675  0.2688E+01  0.3304E+02
     -0.534  0.2664E+01  0.3342E+02
     -0.394  0.4412E+01  0.3404E+02
     -0.254  0.3279E+01  0.3450E+02
     -0.114  0.3628E+01  0.3501E+02
      0.027  0.2325E+01  0.3533E+02
      0.167  0.1001E-01  0.3533E+02
      0.307  0.1455E-09  0.3533E+02
      0.448  0.0000E+00  0.3533E+02
      0.588  0.0000E+00  0.3533E+02
      0.728  0.0000E+00  0.3533E+02
      0.868  0.0000E+00  0.3533E+02
      1.009  0.3313E-14  0.3533E+02
      1.149  0.7535E-04  0.3533E+02
      1.289  0.1420E+01  0.3553E+02
      1.429  0.6053E+01  0.3638E+02
      1.570  0.3965E+01  0.3694E+02
      1.710  0.5215E+01  0.3767E+02
      1.850  0.2359E+01  0.3800E+02
      1.991  0.4869E+01  0.3868E+02
      2.131  0.4634E+01  0.3933E+02
      2.271  0.5969E-03  0.3933E+02
      2.411  0.0000E+00  0.3933E+02
      2.552  0.0000E+00  0.3933E+02
      2.692  0.0000E+00  0.3933E+02
      2.832  0.5540E-14  0.3933E+02
      2.972  0.7152E-04  0.3933E+02
      3.113  0.7530E+00  0.3944E+02
      3.253  0.5485E+01  0.4021E+02
      3.393  0.5001E+01  0.4091E+02
      3.533  0.6278E+01  0.4179E+02
      3.674  0.1494E+01  0.4200E+02
      3.814  0.3623E+00  0.4205E+02
      3.954  0.1432E+01  0.4225E+02
      4.095  0.1627E+01  0.4248E+02
      4.235  0.1865E+01  0.4274E+02
      4.375  0.3788E+01  0.4327E+02
      4.515  0.4318E+00  0.4333E+02
      4.656  0.1409E-04  0.4333E+02
      4.796  0.1454E-01  0.4334E+02
      4.936  0.2472E+00  0.4337E+02
      5.076  0.1866E-01  0.4337E+02
      5.217  0.6771E+00  0.4347E+02
      5.357  0.2829E+00  0.4351E+02
      5.497  0.4489E+00  0.4357E+02
      5.637  0.6742E+00  0.4366E+02
      5.778  0.4104E+00  0.4372E+02
      5.918  0.3216E+01  0.4417E+02
      6.058  0.4624E+01  0.4482E+02
      6.199  0.3708E+01  0.4534E+02
      6.339  0.1772E+01  0.4559E+02
      6.479  0.2752E+01  0.4598E+02
      6.619  0.1539E+01  0.4619E+02
      6.760  0.1440E+01  0.4639E+02
      6.900  0.1975E+01  0.4667E+02
      7.040  0.2715E+01  0.4705E+02
      7.180  0.3452E+01  0.4754E+02
      7.321  0.5338E+01  0.4829E+02
      7.461  0.2673E+01  0.4866E+02
      7.601  0.3282E+01  0.4912E+02
      7.742  0.2734E+01  0.4950E+02
      7.882  0.2369E+01  0.4984E+02
      8.022  0.5197E+01  0.5057E+02
      8.162  0.5087E+01  0.5128E+02
      8.303  0.3562E+01  0.5178E+02
      8.443  0.4289E+01  0.5238E+02
      8.583  0.4456E+01  0.5301E+02
      8.723  0.5914E+01  0.5384E+02
      8.864  0.4764E+01  0.5450E+02
      9.004  0.2370E+01  0.5484E+02
      9.144  0.2995E+01  0.5526E+02
      9.284  0.2442E+01  0.5560E+02
      9.425  0.2323E+01  0.5592E+02
      9.565  0.2753E+00  0.5596E+02
      9.705  0.3373E-01  0.5597E+02
      9.846  0.2304E+00  0.5600E+02
      9.986  0.7657E-03  0.5600E+02
     10.126  0.3519E-11  0.5600E+02
     10.266  0.0000E+00  0.5600E+02
     10.407  0.0000E+00  0.5600E+02
     10.547  0.0000E+00  0.5600E+02
     10.687  0.0000E+00  0.5600E+02
     10.827  0.0000E+00  0.5600E+02
     10.968  0.0000E+00  0.5600E+02
     11.108  0.0000E+00  0.5600E+02
     11.248  0.0000E+00  0.5600E+02
     11.389  0.0000E+00  0.5600E+02
     11.529  0.0000E+00  0.5600E+02
     11.669  0.0000E+00  0.5600E+02
