       N       E                     dE             d eps       ncg     rms          rms(c)
DAV:   1     0.298657971045E+03    0.29866E+03   -0.20407E+04 12096   0.142E+03
DAV:   2    -0.683558462822E+01   -0.30549E+03   -0.29495E+03 15336   0.374E+02
DAV:   3    -0.287486284322E+02   -0.21913E+02   -0.21730E+02 19080   0.880E+01
DAV:   4    -0.292532652597E+02   -0.50464E+00   -0.50299E+00 17508   0.127E+01
DAV:   5    -0.292700027990E+02   -0.16738E-01   -0.16733E-01 17216   0.171E+00    0.717E+00
DAV:   6    -0.284989259550E+02    0.77108E+00   -0.12395E+00 15412   0.610E+00    0.481E+00
DAV:   7    -0.283643114152E+02    0.13461E+00   -0.51176E-01 16500   0.380E+00    0.250E+00
DAV:   8    -0.283631730952E+02    0.11383E-02   -0.96298E-02 17768   0.191E+00    0.548E-01
DAV:   9    -0.283625412500E+02    0.63185E-03   -0.11183E-02 14956   0.712E-01    0.176E-01
DAV:  10    -0.283629928622E+02   -0.45161E-03   -0.20569E-03 16448   0.242E-01    0.865E-02
DAV:  11    -0.283632195242E+02   -0.22666E-03   -0.39542E-04 15072   0.131E-01    0.261E-02
DAV:  12    -0.283632362399E+02   -0.16716E-04   -0.63232E-05 16020   0.573E-02    0.134E-02
DAV:  13    -0.283632369515E+02   -0.71162E-06   -0.54569E-06 15664   0.155E-02
   1 F= -.28363237E+02 E0= -.28363184E+02  d E =-.105255E-03
