Rb1 N3                                  
   1.00000000000000     
     0.0000000000000000    3.9949610000000000    0.0000000000000000
     0.1150170000000000    0.0000000000000000    4.4666079999999999
     4.4666079999999999    0.0000000000000000    0.1150170000000000
   Rb   N 
     1     3
Direct
     0.5000000000000000    0.5026679999999999    0.4973320000000001
     0.0000000000000000    0.0199489999999969    0.9800510000000031
     0.0000000000000000    0.9986570000000015    0.2712730000000008
     0.0000000000000000    0.7287269999999992    0.0013429999999985
 
  0.00000000E+00  0.00000000E+00  0.00000000E+00
  0.00000000E+00  0.00000000E+00  0.00000000E+00
  0.00000000E+00  0.00000000E+00  0.00000000E+00
  0.00000000E+00  0.00000000E+00  0.00000000E+00
