   1   1   0   0
  0.1224768E+03  0.5418661E-09  0.5418661E-09  0.5418660E-09  0.5000000E-15
  1.000000000000000E-004
  CAR 
 unknown system                          
      4.81479159    -24.94742159  301      0.36786627      1.00000000
    -24.947  0.0000E+00  0.0000E+00
    -24.848  0.0000E+00  0.0000E+00
    -24.749  0.0000E+00  0.0000E+00
    -24.650  0.0000E+00  0.0000E+00
    -24.551  0.0000E+00  0.0000E+00
    -24.451  0.0000E+00  0.0000E+00
    -24.352  0.0000E+00  0.0000E+00
    -24.253  0.0000E+00  0.0000E+00
    -24.154  0.0000E+00  0.0000E+00
    -24.055  0.0000E+00  0.0000E+00
    -23.955  0.0000E+00  0.0000E+00
    -23.856  0.5306E-12  0.5264E-13
    -23.757  0.2352E-04  0.2333E-05
    -23.658  0.5542E+00  0.5498E-01
    -23.559  0.1581E+02  0.1623E+01
    -23.459  0.3794E+01  0.2000E+01
    -23.360  0.2282E-02  0.2000E+01
    -23.261  0.8598E-09  0.2000E+01
    -23.162  0.0000E+00  0.2000E+01
    -23.062  0.0000E+00  0.2000E+01
    -22.963  0.0000E+00  0.2000E+01
    -22.864  0.0000E+00  0.2000E+01
    -22.765  0.0000E+00  0.2000E+01
    -22.666  0.0000E+00  0.2000E+01
    -22.566  0.0000E+00  0.2000E+01
    -22.467  0.0000E+00  0.2000E+01
    -22.368  0.0000E+00  0.2000E+01
    -22.269  0.0000E+00  0.2000E+01
    -22.170  0.0000E+00  0.2000E+01
    -22.070  0.0000E+00  0.2000E+01
    -21.971  0.0000E+00  0.2000E+01
    -21.872  0.0000E+00  0.2000E+01
    -21.773  0.0000E+00  0.2000E+01
    -21.674  0.0000E+00  0.2000E+01
    -21.574  0.0000E+00  0.2000E+01
    -21.475  0.0000E+00  0.2000E+01
    -21.376  0.0000E+00  0.2000E+01
    -21.277  0.0000E+00  0.2000E+01
    -21.178  0.0000E+00  0.2000E+01
    -21.078  0.0000E+00  0.2000E+01
    -20.979  0.0000E+00  0.2000E+01
    -20.880  0.0000E+00  0.2000E+01
    -20.781  0.0000E+00  0.2000E+01
    -20.682  0.0000E+00  0.2000E+01
    -20.582  0.0000E+00  0.2000E+01
    -20.483  0.0000E+00  0.2000E+01
    -20.384  0.0000E+00  0.2000E+01
    -20.285  0.0000E+00  0.2000E+01
    -20.185  0.0000E+00  0.2000E+01
    -20.086  0.0000E+00  0.2000E+01
    -19.987  0.0000E+00  0.2000E+01
    -19.888  0.0000E+00  0.2000E+01
    -19.789  0.0000E+00  0.2000E+01
    -19.689  0.0000E+00  0.2000E+01
    -19.590  0.0000E+00  0.2000E+01
    -19.491  0.0000E+00  0.2000E+01
    -19.392  0.0000E+00  0.2000E+01
    -19.293  0.0000E+00  0.2000E+01
    -19.193  0.0000E+00  0.2000E+01
    -19.094  0.0000E+00  0.2000E+01
    -18.995  0.0000E+00  0.2000E+01
    -18.896  0.0000E+00  0.2000E+01
    -18.797  0.0000E+00  0.2000E+01
    -18.697  0.0000E+00  0.2000E+01
    -18.598  0.0000E+00  0.2000E+01
    -18.499  0.0000E+00  0.2000E+01
    -18.400  0.0000E+00  0.2000E+01
    -18.301  0.0000E+00  0.2000E+01
    -18.201  0.0000E+00  0.2000E+01
    -18.102  0.0000E+00  0.2000E+01
    -18.003  0.0000E+00  0.2000E+01
    -17.904  0.0000E+00  0.2000E+01
    -17.804  0.0000E+00  0.2000E+01
    -17.705  0.0000E+00  0.2000E+01
    -17.606  0.0000E+00  0.2000E+01
    -17.507  0.0000E+00  0.2000E+01
    -17.408  0.0000E+00  0.2000E+01
    -17.308  0.0000E+00  0.2000E+01
    -17.209  0.0000E+00  0.2000E+01
    -17.110  0.0000E+00  0.2000E+01
    -17.011  0.0000E+00  0.2000E+01
    -16.912  0.0000E+00  0.2000E+01
    -16.812  0.0000E+00  0.2000E+01
    -16.713  0.0000E+00  0.2000E+01
    -16.614  0.0000E+00  0.2000E+01
    -16.515  0.0000E+00  0.2000E+01
    -16.416  0.0000E+00  0.2000E+01
    -16.316  0.0000E+00  0.2000E+01
    -16.217  0.0000E+00  0.2000E+01
    -16.118  0.0000E+00  0.2000E+01
    -16.019  0.0000E+00  0.2000E+01
    -15.920  0.0000E+00  0.2000E+01
    -15.820  0.0000E+00  0.2000E+01
    -15.721  0.0000E+00  0.2000E+01
    -15.622  0.0000E+00  0.2000E+01
    -15.523  0.0000E+00  0.2000E+01
    -15.424  0.0000E+00  0.2000E+01
    -15.324  0.0000E+00  0.2000E+01
    -15.225  0.0000E+00  0.2000E+01
    -15.126  0.0000E+00  0.2000E+01
    -15.027  0.0000E+00  0.2000E+01
    -14.927  0.0000E+00  0.2000E+01
    -14.828  0.0000E+00  0.2000E+01
    -14.729  0.0000E+00  0.2000E+01
    -14.630  0.0000E+00  0.2000E+01
    -14.531  0.0000E+00  0.2000E+01
    -14.431  0.0000E+00  0.2000E+01
    -14.332  0.0000E+00  0.2000E+01
    -14.233  0.0000E+00  0.2000E+01
    -14.134  0.0000E+00  0.2000E+01
    -14.035  0.0000E+00  0.2000E+01
    -13.935  0.0000E+00  0.2000E+01
    -13.836  0.0000E+00  0.2000E+01
    -13.737  0.0000E+00  0.2000E+01
    -13.638  0.0000E+00  0.2000E+01
    -13.539  0.0000E+00  0.2000E+01
    -13.439  0.0000E+00  0.2000E+01
    -13.340  0.0000E+00  0.2000E+01
    -13.241  0.0000E+00  0.2000E+01
    -13.142  0.0000E+00  0.2000E+01
    -13.043  0.0000E+00  0.2000E+01
    -12.943  0.0000E+00  0.2000E+01
    -12.844  0.0000E+00  0.2000E+01
    -12.745  0.0000E+00  0.2000E+01
    -12.646  0.0000E+00  0.2000E+01
    -12.546  0.0000E+00  0.2000E+01
    -12.447  0.0000E+00  0.2000E+01
    -12.348  0.0000E+00  0.2000E+01
    -12.249  0.0000E+00  0.2000E+01
    -12.150  0.0000E+00  0.2000E+01
    -12.050  0.0000E+00  0.2000E+01
    -11.951  0.0000E+00  0.2000E+01
    -11.852  0.0000E+00  0.2000E+01
    -11.753  0.0000E+00  0.2000E+01
    -11.654  0.0000E+00  0.2000E+01
    -11.554  0.0000E+00  0.2000E+01
    -11.455  0.0000E+00  0.2000E+01
    -11.356  0.0000E+00  0.2000E+01
    -11.257  0.0000E+00  0.2000E+01
    -11.158  0.0000E+00  0.2000E+01
    -11.058  0.0000E+00  0.2000E+01
    -10.959  0.0000E+00  0.2000E+01
    -10.860  0.0000E+00  0.2000E+01
    -10.761  0.0000E+00  0.2000E+01
    -10.662  0.2529E-08  0.2000E+01
    -10.562  0.3501E-02  0.2000E+01
    -10.463  0.4386E+01  0.2436E+01
    -10.364  0.3896E+02  0.6301E+01
    -10.265  0.1702E+02  0.7989E+01
    -10.166  0.1099E+00  0.8000E+01
    -10.066  0.1131E-05  0.8000E+01
     -9.967  0.7091E-14  0.8000E+01
     -9.868  0.0000E+00  0.8000E+01
     -9.769  0.0000E+00  0.8000E+01
     -9.669  0.0000E+00  0.8000E+01
     -9.570  0.0000E+00  0.8000E+01
     -9.471  0.0000E+00  0.8000E+01
     -9.372  0.0000E+00  0.8000E+01
     -9.273  0.0000E+00  0.8000E+01
     -9.173  0.0000E+00  0.8000E+01
     -9.074  0.0000E+00  0.8000E+01
     -8.975  0.0000E+00  0.8000E+01
     -8.876  0.0000E+00  0.8000E+01
     -8.777  0.0000E+00  0.8000E+01
     -8.677  0.0000E+00  0.8000E+01
     -8.578  0.0000E+00  0.8000E+01
     -8.479  0.0000E+00  0.8000E+01
     -8.380  0.0000E+00  0.8000E+01
     -8.281  0.0000E+00  0.8000E+01
     -8.181  0.0000E+00  0.8000E+01
     -8.082  0.0000E+00  0.8000E+01
     -7.983  0.0000E+00  0.8000E+01
     -7.884  0.0000E+00  0.8000E+01
     -7.785  0.0000E+00  0.8000E+01
     -7.685  0.0000E+00  0.8000E+01
     -7.586  0.0000E+00  0.8000E+01
     -7.487  0.0000E+00  0.8000E+01
     -7.388  0.0000E+00  0.8000E+01
     -7.289  0.0000E+00  0.8000E+01
     -7.189  0.0000E+00  0.8000E+01
     -7.090  0.0000E+00  0.8000E+01
     -6.991  0.0000E+00  0.8000E+01
     -6.892  0.0000E+00  0.8000E+01
     -6.792  0.0000E+00  0.8000E+01
     -6.693  0.0000E+00  0.8000E+01
     -6.594  0.0000E+00  0.8000E+01
     -6.495  0.0000E+00  0.8000E+01
     -6.396  0.0000E+00  0.8000E+01
     -6.296  0.0000E+00  0.8000E+01
     -6.197  0.0000E+00  0.8000E+01
     -6.098  0.0000E+00  0.8000E+01
     -5.999  0.0000E+00  0.8000E+01
     -5.900  0.0000E+00  0.8000E+01
     -5.800  0.0000E+00  0.8000E+01
     -5.701  0.0000E+00  0.8000E+01
     -5.602  0.0000E+00  0.8000E+01
     -5.503  0.0000E+00  0.8000E+01
     -5.404  0.0000E+00  0.8000E+01
     -5.304  0.0000E+00  0.8000E+01
     -5.205  0.0000E+00  0.8000E+01
     -5.106  0.0000E+00  0.8000E+01
     -5.007  0.0000E+00  0.8000E+01
     -4.908  0.0000E+00  0.8000E+01
     -4.808  0.0000E+00  0.8000E+01
     -4.709  0.0000E+00  0.8000E+01
     -4.610  0.0000E+00  0.8000E+01
     -4.511  0.0000E+00  0.8000E+01
     -4.411  0.0000E+00  0.8000E+01
     -4.312  0.0000E+00  0.8000E+01
     -4.213  0.0000E+00  0.8000E+01
     -4.114  0.0000E+00  0.8000E+01
     -4.015  0.0000E+00  0.8000E+01
     -3.915  0.0000E+00  0.8000E+01
     -3.816  0.0000E+00  0.8000E+01
     -3.717  0.0000E+00  0.8000E+01
     -3.618  0.0000E+00  0.8000E+01
     -3.519  0.0000E+00  0.8000E+01
     -3.419  0.0000E+00  0.8000E+01
     -3.320  0.0000E+00  0.8000E+01
     -3.221  0.0000E+00  0.8000E+01
     -3.122  0.0000E+00  0.8000E+01
     -3.023  0.0000E+00  0.8000E+01
     -2.923  0.0000E+00  0.8000E+01
     -2.824  0.0000E+00  0.8000E+01
     -2.725  0.0000E+00  0.8000E+01
     -2.626  0.0000E+00  0.8000E+01
     -2.527  0.0000E+00  0.8000E+01
     -2.427  0.0000E+00  0.8000E+01
     -2.328  0.0000E+00  0.8000E+01
     -2.229  0.0000E+00  0.8000E+01
     -2.130  0.0000E+00  0.8000E+01
     -2.031  0.0000E+00  0.8000E+01
     -1.931  0.0000E+00  0.8000E+01
     -1.832  0.0000E+00  0.8000E+01
     -1.733  0.0000E+00  0.8000E+01
     -1.634  0.0000E+00  0.8000E+01
     -1.534  0.2915E-10  0.8000E+01
     -1.435  0.4295E-04  0.8000E+01
     -1.336  0.4114E-01  0.8004E+01
     -1.237  0.1175E+00  0.8016E+01
     -1.138  0.2556E-02  0.8016E+01
     -1.038  0.3051E-03  0.8016E+01
     -0.939  0.4117E+00  0.8057E+01
     -0.840  0.1480E+01  0.8204E+01
     -0.741  0.4304E-01  0.8208E+01
     -0.642  0.1028E-02  0.8208E+01
     -0.542  0.3811E+00  0.8246E+01
     -0.443  0.5802E+00  0.8303E+01
     -0.344  0.5445E-02  0.8304E+01
     -0.245  0.3604E+00  0.8340E+01
     -0.146  0.3244E+01  0.8662E+01
     -0.046  0.2725E+00  0.8689E+01
      0.053  0.1015E+01  0.8789E+01
      0.152  0.9110E+00  0.8880E+01
      0.251  0.4212E-02  0.8880E+01
      0.350  0.6317E+00  0.8943E+01
      0.450  0.3107E+01  0.9251E+01
      0.549  0.1319E+00  0.9264E+01
      0.648  0.7111E+00  0.9335E+01
      0.747  0.4191E+01  0.9750E+01
      0.846  0.3348E+00  0.9784E+01
      0.946  0.8123E+00  0.9864E+01
      1.045  0.2572E+00  0.9890E+01
      1.144  0.5575E+01  0.1044E+02
      1.243  0.1667E+01  0.1061E+02
      1.343  0.1956E+01  0.1080E+02
      1.442  0.5505E+01  0.1135E+02
      1.541  0.9384E+00  0.1144E+02
      1.640  0.1546E+01  0.1159E+02
      1.739  0.6867E+01  0.1228E+02
      1.839  0.6052E+00  0.1234E+02
      1.938  0.1047E+01  0.1244E+02
      2.037  0.4331E+01  0.1287E+02
      2.136  0.4445E+00  0.1291E+02
      2.235  0.1257E+01  0.1304E+02
      2.335  0.4605E+01  0.1350E+02
      2.434  0.2611E+01  0.1375E+02
      2.533  0.4020E+01  0.1415E+02
      2.632  0.1997E+01  0.1435E+02
      2.731  0.2955E+00  0.1438E+02
      2.831  0.1195E+01  0.1450E+02
      2.930  0.8497E+00  0.1458E+02
      3.029  0.3142E+00  0.1461E+02
      3.128  0.1343E+01  0.1475E+02
      3.227  0.2742E+01  0.1502E+02
      3.327  0.6181E+01  0.1563E+02
      3.426  0.2056E+01  0.1584E+02
      3.525  0.1571E+01  0.1599E+02
      3.624  0.7172E-01  0.1600E+02
      3.724  0.4250E-05  0.1600E+02
      3.823  0.1339E-12  0.1600E+02
      3.922  0.0000E+00  0.1600E+02
      4.021  0.0000E+00  0.1600E+02
      4.120  0.0000E+00  0.1600E+02
      4.220  0.0000E+00  0.1600E+02
      4.319  0.0000E+00  0.1600E+02
      4.418  0.0000E+00  0.1600E+02
      4.517  0.0000E+00  0.1600E+02
      4.616  0.0000E+00  0.1600E+02
      4.716  0.0000E+00  0.1600E+02
      4.815  0.0000E+00  0.1600E+02
