       N       E                     dE             d eps       ncg     rms          rms(c)
DAV:   1     0.576133711062E+02    0.57613E+02   -0.30770E+03  2000   0.860E+02
DAV:   2     0.437350159233E+01   -0.53240E+02   -0.52516E+02  2808   0.125E+02
DAV:   3    -0.778925924410E+00   -0.51524E+01   -0.51513E+01  2024   0.486E+01
DAV:   4    -0.851388860733E+00   -0.72463E-01   -0.72457E-01  3536   0.700E+00
DAV:   5    -0.851501442301E+00   -0.11258E-03   -0.11257E-03  2712   0.175E-01    0.130E-01
DAV:   6    -0.852296179688E+00   -0.79474E-03   -0.13537E-03  3440   0.215E-01    0.911E-02
DAV:   7    -0.853487815388E+00   -0.11916E-02   -0.38689E-03  2400   0.381E-01    0.351E-02
DAV:   8    -0.853573677110E+00   -0.85862E-04   -0.13250E-04  3072   0.905E-02    0.435E-03
DAV:   9    -0.853575398711E+00   -0.17216E-05   -0.32611E-06  3368   0.110E-02    0.279E-03
DAV:  10    -0.853574947507E+00    0.45120E-06   -0.82644E-07  3040   0.518E-03
   1 F= -.85357495E+00 E0= -.85117175E+00  d E =-.480639E-02
