Zn1 Pb3                                 
   1.00000000000000     
     0.0000000000000000    3.8630480000000000    3.8630480000000000
     3.8630480000000000    0.0000000000000000    3.8630480000000000
     3.8630480000000000    3.8630480000000000    0.0000000000000000
   Zn   Pb
     1     3
Direct
     0.0000000000000000    0.0000000000000000    0.0000000000000000
     0.2500000000000000    0.2500000000000000    0.2500000000000000
     0.7500000000000000    0.7500000000000000    0.7500000000000000
     0.5000000000000000    0.5000000000000000    0.5000000000000000
 
  0.00000000E+00  0.00000000E+00  0.00000000E+00
  0.00000000E+00  0.00000000E+00  0.00000000E+00
  0.00000000E+00  0.00000000E+00  0.00000000E+00
  0.00000000E+00  0.00000000E+00  0.00000000E+00
