   4   4   0   0
  0.2882440E+02  0.5463175E-09  0.5463175E-09  0.5463175E-09  0.5000000E-15
  1.000000000000000E-004
  CAR 
 unknown system                          
     16.08395530    -12.60298347  301      6.10792750      1.00000000
    -12.603  0.0000E+00  0.0000E+00
    -12.507  0.0000E+00  0.0000E+00
    -12.412  0.0000E+00  0.0000E+00
    -12.316  0.0000E+00  0.0000E+00
    -12.220  0.0000E+00  0.0000E+00
    -12.125  0.0000E+00  0.0000E+00
    -12.029  0.0000E+00  0.0000E+00
    -11.934  0.0000E+00  0.0000E+00
    -11.838  0.0000E+00  0.0000E+00
    -11.742  0.0000E+00  0.0000E+00
    -11.647  0.0000E+00  0.0000E+00
    -11.551  0.3563E-11  0.3408E-12
    -11.456  0.5245E-04  0.5015E-05
    -11.360  0.8584E+00  0.8209E-01
    -11.264  0.3957E+02  0.3866E+01
    -11.169  0.7394E+02  0.1094E+02
    -11.073  0.8116E+02  0.1870E+02
    -10.977  0.6694E+02  0.2510E+02
    -10.882  0.4765E+02  0.2965E+02
    -10.786  0.3612E+01  0.3000E+02
    -10.691  0.1712E-02  0.3000E+02
    -10.595  0.1205E-08  0.3000E+02
    -10.499  0.0000E+00  0.3000E+02
    -10.404  0.0000E+00  0.3000E+02
    -10.308  0.0000E+00  0.3000E+02
    -10.212  0.0000E+00  0.3000E+02
    -10.117  0.0000E+00  0.3000E+02
    -10.021  0.0000E+00  0.3000E+02
     -9.926  0.0000E+00  0.3000E+02
     -9.830  0.0000E+00  0.3000E+02
     -9.734  0.0000E+00  0.3000E+02
     -9.639  0.0000E+00  0.3000E+02
     -9.543  0.0000E+00  0.3000E+02
     -9.447  0.0000E+00  0.3000E+02
     -9.352  0.0000E+00  0.3000E+02
     -9.256  0.0000E+00  0.3000E+02
     -9.161  0.0000E+00  0.3000E+02
     -9.065  0.0000E+00  0.3000E+02
     -8.969  0.0000E+00  0.3000E+02
     -8.874  0.0000E+00  0.3000E+02
     -8.778  0.0000E+00  0.3000E+02
     -8.682  0.0000E+00  0.3000E+02
     -8.587  0.0000E+00  0.3000E+02
     -8.491  0.0000E+00  0.3000E+02
     -8.396  0.0000E+00  0.3000E+02
     -8.300  0.0000E+00  0.3000E+02
     -8.204  0.0000E+00  0.3000E+02
     -8.109  0.0000E+00  0.3000E+02
     -8.013  0.0000E+00  0.3000E+02
     -7.917  0.0000E+00  0.3000E+02
     -7.822  0.0000E+00  0.3000E+02
     -7.726  0.0000E+00  0.3000E+02
     -7.631  0.0000E+00  0.3000E+02
     -7.535  0.0000E+00  0.3000E+02
     -7.439  0.0000E+00  0.3000E+02
     -7.344  0.0000E+00  0.3000E+02
     -7.248  0.0000E+00  0.3000E+02
     -7.152  0.0000E+00  0.3000E+02
     -7.057  0.0000E+00  0.3000E+02
     -6.961  0.0000E+00  0.3000E+02
     -6.866  0.0000E+00  0.3000E+02
     -6.770  0.0000E+00  0.3000E+02
     -6.674  0.0000E+00  0.3000E+02
     -6.579  0.0000E+00  0.3000E+02
     -6.483  0.0000E+00  0.3000E+02
     -6.387  0.0000E+00  0.3000E+02
     -6.292  0.0000E+00  0.3000E+02
     -6.196  0.0000E+00  0.3000E+02
     -6.101  0.0000E+00  0.3000E+02
     -6.005  0.0000E+00  0.3000E+02
     -5.909  0.0000E+00  0.3000E+02
     -5.814  0.0000E+00  0.3000E+02
     -5.718  0.0000E+00  0.3000E+02
     -5.622  0.1088E-08  0.3000E+02
     -5.527  0.2401E-03  0.3000E+02
     -5.431  0.6518E-01  0.3001E+02
     -5.336  0.1006E+00  0.3002E+02
     -5.240  0.2209E-02  0.3002E+02
     -5.144  0.4175E+00  0.3006E+02
     -5.049  0.1187E+01  0.3017E+02
     -4.953  0.7207E+00  0.3024E+02
     -4.858  0.1656E-01  0.3024E+02
     -4.762  0.1249E-02  0.3024E+02
     -4.666  0.6013E+00  0.3030E+02
     -4.571  0.1376E+01  0.3043E+02
     -4.475  0.3416E-01  0.3043E+02
     -4.379  0.1505E+01  0.3058E+02
     -4.284  0.3433E+01  0.3090E+02
     -4.188  0.4101E+00  0.3094E+02
     -4.093  0.6811E-03  0.3094E+02
     -3.997  0.2951E-02  0.3094E+02
     -3.901  0.4794E+00  0.3099E+02
     -3.806  0.1099E+01  0.3110E+02
     -3.710  0.3239E+01  0.3140E+02
     -3.614  0.1113E+01  0.3151E+02
     -3.519  0.3001E+01  0.3180E+02
     -3.423  0.1009E+00  0.3181E+02
     -3.328  0.6277E-05  0.3181E+02
     -3.232  0.1965E-03  0.3181E+02
     -3.136  0.3089E+00  0.3184E+02
     -3.041  0.1789E+01  0.3201E+02
     -2.945  0.4103E+01  0.3240E+02
     -2.849  0.1828E+01  0.3258E+02
     -2.754  0.6348E+00  0.3264E+02
     -2.658  0.7022E+00  0.3270E+02
     -2.563  0.9437E+00  0.3279E+02
     -2.467  0.2980E+01  0.3308E+02
     -2.371  0.1956E+00  0.3310E+02
     -2.276  0.3539E+01  0.3344E+02
     -2.180  0.7019E+01  0.3411E+02
     -2.084  0.1138E+01  0.3422E+02
     -1.989  0.2113E+01  0.3442E+02
     -1.893  0.1469E+00  0.3443E+02
     -1.798  0.3787E-04  0.3443E+02
     -1.702  0.9849E-01  0.3444E+02
     -1.606  0.4131E+01  0.3484E+02
     -1.511  0.2176E+01  0.3504E+02
     -1.415  0.2723E+01  0.3530E+02
     -1.319  0.1604E+01  0.3546E+02
     -1.224  0.1578E+01  0.3561E+02
     -1.128  0.4256E+01  0.3602E+02
     -1.033  0.5308E+02  0.4109E+02
     -0.937  0.3176E+02  0.4413E+02
     -0.841  0.1417E+02  0.4548E+02
     -0.746  0.2857E+01  0.4576E+02
     -0.650  0.4402E-01  0.4576E+02
     -0.554  0.5608E+00  0.4581E+02
     -0.459  0.4505E+00  0.4586E+02
     -0.363  0.8749E+00  0.4594E+02
     -0.268  0.4496E+00  0.4598E+02
     -0.172  0.1186E-02  0.4598E+02
     -0.076  0.9519E-07  0.4598E+02
      0.019  0.2514E-02  0.4598E+02
      0.115  0.1152E+00  0.4600E+02
      0.211  0.4947E-01  0.4600E+02
      0.306  0.1000E-03  0.4600E+02
      0.402  0.2320E-09  0.4600E+02
      0.497  0.0000E+00  0.4600E+02
      0.593  0.0000E+00  0.4600E+02
      0.689  0.0000E+00  0.4600E+02
      0.784  0.0000E+00  0.4600E+02
      0.880  0.2229E-15  0.4600E+02
      0.976  0.3175E-07  0.4600E+02
      1.071  0.6424E-02  0.4600E+02
      1.167  0.1616E+01  0.4616E+02
      1.262  0.2367E+01  0.4638E+02
      1.358  0.5812E+00  0.4644E+02
      1.454  0.1419E+01  0.4657E+02
      1.549  0.3498E-01  0.4658E+02
      1.645  0.1488E-05  0.4658E+02
      1.740  0.3108E-02  0.4658E+02
      1.836  0.1292E+01  0.4670E+02
      1.932  0.2671E+01  0.4696E+02
      2.027  0.1150E+00  0.4697E+02
      2.123  0.2365E+01  0.4719E+02
      2.219  0.2559E+01  0.4744E+02
      2.314  0.3177E-01  0.4744E+02
      2.410  0.3401E+00  0.4747E+02
      2.505  0.2722E+01  0.4773E+02
      2.601  0.2802E+01  0.4800E+02
      2.697  0.9220E+00  0.4809E+02
      2.792  0.5739E+00  0.4814E+02
      2.888  0.2671E-02  0.4814E+02
      2.984  0.7511E-01  0.4815E+02
      3.079  0.2870E+01  0.4843E+02
      3.175  0.1069E+01  0.4853E+02
      3.270  0.6798E-01  0.4853E+02
      3.366  0.2964E+01  0.4882E+02
      3.462  0.3273E+01  0.4913E+02
      3.557  0.1522E+01  0.4928E+02
      3.653  0.5396E+00  0.4933E+02
      3.749  0.3686E-02  0.4933E+02
      3.844  0.1025E+01  0.4943E+02
      3.940  0.3016E+01  0.4971E+02
      4.035  0.1742E+01  0.4988E+02
      4.131  0.3005E+01  0.5017E+02
      4.227  0.3286E+01  0.5048E+02
      4.322  0.1949E+01  0.5067E+02
      4.418  0.4974E+01  0.5114E+02
      4.514  0.8030E+01  0.5191E+02
      4.609  0.4891E+00  0.5196E+02
      4.705  0.3359E+01  0.5228E+02
      4.800  0.3972E+01  0.5266E+02
      4.896  0.1225E+00  0.5267E+02
      4.992  0.3696E-02  0.5267E+02
      5.087  0.9018E+00  0.5276E+02
      5.183  0.4187E+01  0.5316E+02
      5.279  0.2131E+01  0.5336E+02
      5.374  0.4279E+00  0.5340E+02
      5.470  0.4551E-01  0.5341E+02
      5.565  0.8858E-02  0.5341E+02
      5.661  0.1318E+01  0.5353E+02
      5.757  0.1341E+01  0.5366E+02
      5.852  0.2520E-01  0.5367E+02
      5.948  0.1653E+01  0.5382E+02
      6.044  0.1357E+01  0.5395E+02
      6.139  0.9408E+00  0.5404E+02
      6.235  0.5988E+00  0.5410E+02
      6.330  0.6486E+01  0.5472E+02
      6.426  0.4109E+01  0.5511E+02
      6.522  0.2329E+00  0.5514E+02
      6.617  0.1050E+00  0.5515E+02
      6.713  0.5757E+01  0.5570E+02
      6.809  0.6138E+01  0.5628E+02
      6.904  0.6447E+01  0.5690E+02
      7.000  0.2128E+01  0.5710E+02
      7.095  0.1697E+00  0.5712E+02
      7.191  0.5253E+01  0.5762E+02
      7.287  0.5191E+01  0.5812E+02
      7.382  0.1100E+01  0.5822E+02
      7.478  0.5705E-02  0.5822E+02
      7.573  0.1907E-01  0.5823E+02
      7.669  0.9132E+00  0.5831E+02
      7.765  0.4297E+00  0.5835E+02
      7.860  0.7471E+00  0.5843E+02
      7.956  0.2331E+00  0.5845E+02
      8.052  0.2568E-02  0.5845E+02
      8.147  0.8797E+00  0.5853E+02
      8.243  0.3543E+01  0.5887E+02
      8.338  0.5239E+01  0.5937E+02
      8.434  0.2578E+01  0.5962E+02
      8.530  0.3487E+01  0.5995E+02
      8.625  0.4641E+01  0.6040E+02
      8.721  0.3699E+01  0.6075E+02
      8.817  0.9732E+00  0.6084E+02
      8.912  0.1695E+01  0.6100E+02
      9.008  0.5138E+01  0.6150E+02
      9.103  0.4314E+01  0.6191E+02
      9.199  0.4413E+00  0.6195E+02
      9.295  0.3170E+01  0.6225E+02
      9.390  0.1591E+01  0.6241E+02
      9.486  0.5707E+01  0.6295E+02
      9.582  0.2405E+01  0.6318E+02
      9.677  0.2759E-01  0.6318E+02
      9.773  0.1144E+01  0.6329E+02
      9.868  0.3399E+01  0.6362E+02
      9.964  0.4113E+01  0.6401E+02
     10.060  0.1378E+01  0.6414E+02
     10.155  0.3504E-02  0.6414E+02
     10.251  0.1642E-04  0.6414E+02
     10.347  0.1699E+00  0.6416E+02
     10.442  0.4260E+01  0.6457E+02
     10.538  0.4328E+01  0.6498E+02
     10.633  0.2456E+01  0.6522E+02
     10.729  0.3694E+01  0.6557E+02
     10.825  0.1502E+01  0.6571E+02
     10.920  0.1817E+01  0.6589E+02
     11.016  0.4185E+01  0.6629E+02
     11.112  0.3440E+00  0.6632E+02
     11.207  0.2386E+00  0.6634E+02
     11.303  0.6104E+01  0.6693E+02
     11.398  0.3696E+01  0.6728E+02
     11.494  0.3966E+01  0.6766E+02
     11.590  0.1697E+01  0.6782E+02
     11.685  0.6930E+00  0.6789E+02
     11.781  0.2196E+01  0.6810E+02
     11.877  0.4627E+01  0.6854E+02
     11.972  0.5896E+01  0.6910E+02
     12.068  0.6504E+01  0.6973E+02
     12.163  0.3982E+01  0.7011E+02
     12.259  0.2476E+01  0.7034E+02
     12.355  0.3244E+01  0.7065E+02
     12.450  0.4254E+01  0.7106E+02
     12.546  0.6239E+00  0.7112E+02
     12.642  0.1031E+00  0.7113E+02
     12.737  0.3347E+01  0.7145E+02
     12.833  0.2492E+01  0.7169E+02
     12.928  0.8219E-01  0.7170E+02
     13.024  0.1437E+00  0.7171E+02
     13.120  0.1649E+01  0.7187E+02
     13.215  0.2187E+00  0.7189E+02
     13.311  0.4842E+00  0.7193E+02
     13.407  0.5129E+00  0.7198E+02
     13.502  0.3845E-02  0.7198E+02
     13.598  0.3945E-07  0.7198E+02
     13.693  0.3344E-15  0.7198E+02
     13.789  0.0000E+00  0.7198E+02
     13.885  0.0000E+00  0.7198E+02
     13.980  0.0000E+00  0.7198E+02
     14.076  0.0000E+00  0.7198E+02
     14.171  0.0000E+00  0.7198E+02
     14.267  0.0000E+00  0.7198E+02
     14.363  0.0000E+00  0.7198E+02
     14.458  0.0000E+00  0.7198E+02
     14.554  0.1363E-10  0.7198E+02
     14.650  0.1890E-04  0.7198E+02
     14.745  0.2720E-01  0.7199E+02
     14.841  0.1330E+00  0.7200E+02
     14.936  0.7129E-02  0.7200E+02
     15.032  0.8040E-06  0.7200E+02
     15.128  0.8374E-13  0.7200E+02
     15.223  0.0000E+00  0.7200E+02
     15.319  0.0000E+00  0.7200E+02
     15.415  0.0000E+00  0.7200E+02
     15.510  0.0000E+00  0.7200E+02
     15.606  0.0000E+00  0.7200E+02
     15.701  0.0000E+00  0.7200E+02
     15.797  0.0000E+00  0.7200E+02
     15.893  0.0000E+00  0.7200E+02
     15.988  0.0000E+00  0.7200E+02
     16.084  0.0000E+00  0.7200E+02
