  32  32   0   0
  0.9804667E+01  0.4172801E-09  0.7535332E-09  0.1065476E-08  0.5000000E-15
  1.000000000000000E-004
  CAR 
 unknown system                          
     12.46798480    -24.38294823  301     -0.29165076      1.00000000
    -24.383  0.0000E+00  0.0000E+00
    -24.260  0.0000E+00  0.0000E+00
    -24.137  0.0000E+00  0.0000E+00
    -24.014  0.0000E+00  0.0000E+00
    -23.892  0.0000E+00  0.0000E+00
    -23.769  0.0000E+00  0.0000E+00
    -23.646  0.0000E+00  0.0000E+00
    -23.523  0.0000E+00  0.0000E+00
    -23.400  0.0000E+00  0.0000E+00
    -23.277  0.0000E+00  0.0000E+00
    -23.155  0.0000E+00  0.0000E+00
    -23.032  0.0000E+00  0.0000E+00
    -22.909  0.1175E-07  0.1444E-08
    -22.786  0.5224E-01  0.6417E-02
    -22.663  0.1143E+02  0.1411E+01
    -22.540  0.3757E+02  0.6026E+01
    -22.418  0.1605E+02  0.7997E+01
    -22.295  0.2471E-01  0.8000E+01
    -22.172  0.2043E-08  0.8000E+01
    -22.049  0.0000E+00  0.8000E+01
    -21.926  0.0000E+00  0.8000E+01
    -21.803  0.0000E+00  0.8000E+01
    -21.681  0.0000E+00  0.8000E+01
    -21.558  0.0000E+00  0.8000E+01
    -21.435  0.0000E+00  0.8000E+01
    -21.312  0.0000E+00  0.8000E+01
    -21.189  0.0000E+00  0.8000E+01
    -21.066  0.0000E+00  0.8000E+01
    -20.944  0.0000E+00  0.8000E+01
    -20.821  0.0000E+00  0.8000E+01
    -20.698  0.0000E+00  0.8000E+01
    -20.575  0.0000E+00  0.8000E+01
    -20.452  0.0000E+00  0.8000E+01
    -20.329  0.0000E+00  0.8000E+01
    -20.207  0.0000E+00  0.8000E+01
    -20.084  0.0000E+00  0.8000E+01
    -19.961  0.0000E+00  0.8000E+01
    -19.838  0.0000E+00  0.8000E+01
    -19.715  0.0000E+00  0.8000E+01
    -19.592  0.6221E-13  0.8000E+01
    -19.469  0.5019E-04  0.8000E+01
    -19.347  0.1298E+01  0.8159E+01
    -19.224  0.1692E+02  0.1024E+02
    -19.101  0.3886E+02  0.1501E+02
    -18.978  0.8047E+01  0.1600E+02
    -18.855  0.2458E-02  0.1600E+02
    -18.732  0.2400E-10  0.1600E+02
    -18.610  0.0000E+00  0.1600E+02
    -18.487  0.0000E+00  0.1600E+02
    -18.364  0.0000E+00  0.1600E+02
    -18.241  0.0000E+00  0.1600E+02
    -18.118  0.0000E+00  0.1600E+02
    -17.995  0.0000E+00  0.1600E+02
    -17.873  0.0000E+00  0.1600E+02
    -17.750  0.0000E+00  0.1600E+02
    -17.627  0.0000E+00  0.1600E+02
    -17.504  0.0000E+00  0.1600E+02
    -17.381  0.0000E+00  0.1600E+02
    -17.258  0.0000E+00  0.1600E+02
    -17.136  0.0000E+00  0.1600E+02
    -17.013  0.0000E+00  0.1600E+02
    -16.890  0.0000E+00  0.1600E+02
    -16.767  0.0000E+00  0.1600E+02
    -16.644  0.0000E+00  0.1600E+02
    -16.521  0.0000E+00  0.1600E+02
    -16.399  0.0000E+00  0.1600E+02
    -16.276  0.1786E-11  0.1600E+02
    -16.153  0.3201E-03  0.1600E+02
    -16.030  0.2806E+01  0.1634E+02
    -15.907  0.1890E+02  0.1867E+02
    -15.784  0.2613E+02  0.2188E+02
    -15.662  0.1697E+02  0.2396E+02
    -15.539  0.3088E+00  0.2400E+02
    -15.416  0.3088E-05  0.2400E+02
    -15.293  0.0000E+00  0.2400E+02
    -15.170  0.0000E+00  0.2400E+02
    -15.047  0.0000E+00  0.2400E+02
    -14.925  0.0000E+00  0.2400E+02
    -14.802  0.0000E+00  0.2400E+02
    -14.679  0.0000E+00  0.2400E+02
    -14.556  0.0000E+00  0.2400E+02
    -14.433  0.0000E+00  0.2400E+02
    -14.310  0.0000E+00  0.2400E+02
    -14.188  0.0000E+00  0.2400E+02
    -14.065  0.0000E+00  0.2400E+02
    -13.942  0.0000E+00  0.2400E+02
    -13.819  0.0000E+00  0.2400E+02
    -13.696  0.0000E+00  0.2400E+02
    -13.573  0.0000E+00  0.2400E+02
    -13.451  0.0000E+00  0.2400E+02
    -13.328  0.0000E+00  0.2400E+02
    -13.205  0.0000E+00  0.2400E+02
    -13.082  0.0000E+00  0.2400E+02
    -12.959  0.0000E+00  0.2400E+02
    -12.836  0.0000E+00  0.2400E+02
    -12.713  0.0000E+00  0.2400E+02
    -12.591  0.0000E+00  0.2400E+02
    -12.468  0.0000E+00  0.2400E+02
    -12.345  0.0000E+00  0.2400E+02
    -12.222  0.0000E+00  0.2400E+02
    -12.099  0.0000E+00  0.2400E+02
    -11.976  0.0000E+00  0.2400E+02
    -11.854  0.0000E+00  0.2400E+02
    -11.731  0.9812E-11  0.2400E+02
    -11.608  0.6414E-03  0.2400E+02
    -11.485  0.1273E+01  0.2416E+02
    -11.362  0.5598E+01  0.2484E+02
    -11.239  0.1528E+02  0.2672E+02
    -11.117  0.1862E+02  0.2901E+02
    -10.994  0.1527E+02  0.3088E+02
    -10.871  0.8928E+01  0.3198E+02
    -10.748  0.1548E+00  0.3200E+02
    -10.625  0.1481E-05  0.3200E+02
    -10.502  0.0000E+00  0.3200E+02
    -10.380  0.0000E+00  0.3200E+02
    -10.257  0.0000E+00  0.3200E+02
    -10.134  0.0000E+00  0.3200E+02
    -10.011  0.0000E+00  0.3200E+02
     -9.888  0.0000E+00  0.3200E+02
     -9.765  0.0000E+00  0.3200E+02
     -9.643  0.3005E-09  0.3200E+02
     -9.520  0.4947E-02  0.3200E+02
     -9.397  0.3174E+01  0.3239E+02
     -9.274  0.1385E+02  0.3409E+02
     -9.151  0.2262E+02  0.3687E+02
     -9.028  0.2026E+02  0.3936E+02
     -8.906  0.1692E+02  0.4144E+02
     -8.783  0.1063E+02  0.4275E+02
     -8.660  0.1562E+02  0.4466E+02
     -8.537  0.1327E+02  0.4629E+02
     -8.414  0.1123E+02  0.4767E+02
     -8.291  0.2571E+01  0.4799E+02
     -8.169  0.8959E-01  0.4800E+02
     -8.046  0.3420E-05  0.4800E+02
     -7.923  0.1549E-14  0.4800E+02
     -7.800  0.0000E+00  0.4800E+02
     -7.677  0.0000E+00  0.4800E+02
     -7.554  0.1829E-14  0.4800E+02
     -7.432  0.7982E-05  0.4800E+02
     -7.309  0.4542E+00  0.4806E+02
     -7.186  0.1055E+02  0.4935E+02
     -7.063  0.2546E+02  0.5248E+02
     -6.940  0.1920E+02  0.5484E+02
     -6.817  0.9369E+01  0.5599E+02
     -6.695  0.1594E+01  0.5618E+02
     -6.572  0.1145E+02  0.5759E+02
     -6.449  0.1626E+02  0.5959E+02
     -6.326  0.1126E+02  0.6097E+02
     -6.203  0.1734E+02  0.6310E+02
     -6.080  0.7254E+01  0.6399E+02
     -5.957  0.6387E-01  0.6400E+02
     -5.835  0.9382E-07  0.6400E+02
     -5.712  0.1312E-04  0.6400E+02
     -5.589  0.2965E+00  0.6404E+02
     -5.466  0.3251E+01  0.6444E+02
     -5.343  0.8724E+01  0.6551E+02
     -5.220  0.1075E+02  0.6683E+02
     -5.098  0.4929E+01  0.6743E+02
     -4.975  0.4413E+01  0.6798E+02
     -4.852  0.1058E+02  0.6928E+02
     -4.729  0.7627E+01  0.7021E+02
     -4.606  0.9562E+01  0.7139E+02
     -4.483  0.4986E+01  0.7200E+02
     -4.361  0.7397E-02  0.7200E+02
     -4.238  0.4462E-09  0.7200E+02
     -4.115  0.0000E+00  0.7200E+02
     -3.992  0.0000E+00  0.7200E+02
     -3.869  0.3012E-10  0.7200E+02
     -3.746  0.1769E-02  0.7200E+02
     -3.624  0.3239E+01  0.7240E+02
     -3.501  0.1539E+02  0.7429E+02
     -3.378  0.2702E+02  0.7761E+02
     -3.255  0.1860E+02  0.7989E+02
     -3.132  0.8797E+00  0.8000E+02
     -3.009  0.2508E-04  0.8000E+02
     -2.887  0.1171E-13  0.8000E+02
     -2.764  0.4314E-07  0.8000E+02
     -2.641  0.1715E-01  0.8000E+02
     -2.518  0.7786E+00  0.8010E+02
     -2.395  0.2323E+01  0.8038E+02
     -2.272  0.5545E+01  0.8106E+02
     -2.150  0.8234E+01  0.8208E+02
     -2.027  0.7912E+01  0.8305E+02
     -1.904  0.3096E+01  0.8343E+02
     -1.781  0.5979E+00  0.8350E+02
     -1.658  0.6585E+01  0.8431E+02
     -1.535  0.8345E+01  0.8534E+02
     -1.413  0.3082E+01  0.8571E+02
     -1.290  0.1279E+01  0.8587E+02
     -1.167  0.9332E+01  0.8702E+02
     -1.044  0.7964E+01  0.8800E+02
     -0.921  0.9935E+01  0.8922E+02
     -0.798  0.2113E+02  0.9181E+02
     -0.676  0.1072E+02  0.9313E+02
     -0.553  0.2222E+02  0.9586E+02
     -0.430  0.1150E+01  0.9600E+02
     -0.307  0.6493E-04  0.9600E+02
     -0.184  0.1651E-12  0.9600E+02
     -0.061  0.0000E+00  0.9600E+02
      0.062  0.0000E+00  0.9600E+02
      0.184  0.0000E+00  0.9600E+02
      0.307  0.0000E+00  0.9600E+02
      0.430  0.0000E+00  0.9600E+02
      0.553  0.0000E+00  0.9600E+02
      0.676  0.0000E+00  0.9600E+02
      0.799  0.0000E+00  0.9600E+02
      0.921  0.0000E+00  0.9600E+02
      1.044  0.0000E+00  0.9600E+02
      1.167  0.0000E+00  0.9600E+02
      1.290  0.0000E+00  0.9600E+02
      1.413  0.0000E+00  0.9600E+02
      1.536  0.0000E+00  0.9600E+02
      1.658  0.0000E+00  0.9600E+02
      1.781  0.0000E+00  0.9600E+02
      1.904  0.0000E+00  0.9600E+02
      2.027  0.2625E-14  0.9600E+02
      2.150  0.1048E-04  0.9600E+02
      2.273  0.4564E+00  0.9606E+02
      2.395  0.4278E+01  0.9658E+02
      2.518  0.5225E+01  0.9722E+02
      2.641  0.6615E+01  0.9804E+02
      2.764  0.8351E+01  0.9906E+02
      2.887  0.1770E+02  0.1012E+03
      3.010  0.1313E+02  0.1028E+03
      3.132  0.7631E+01  0.1038E+03
      3.255  0.1736E+01  0.1040E+03
      3.378  0.2929E-02  0.1040E+03
      3.501  0.5161E-09  0.1040E+03
      3.624  0.0000E+00  0.1040E+03
      3.747  0.0000E+00  0.1040E+03
      3.869  0.0000E+00  0.1040E+03
      3.992  0.0000E+00  0.1040E+03
      4.115  0.0000E+00  0.1040E+03
      4.238  0.3894E-08  0.1040E+03
      4.361  0.6320E-02  0.1040E+03
      4.484  0.3735E+00  0.1040E+03
      4.606  0.9756E+00  0.1042E+03
      4.729  0.4109E+01  0.1047E+03
      4.852  0.5392E+01  0.1053E+03
      4.975  0.3900E+01  0.1058E+03
      5.098  0.5762E+01  0.1065E+03
      5.221  0.5224E+01  0.1072E+03
      5.343  0.4377E+01  0.1077E+03
      5.466  0.4215E+01  0.1082E+03
      5.589  0.4487E+01  0.1088E+03
      5.712  0.5893E+01  0.1095E+03
      5.835  0.7139E+01  0.1104E+03
      5.958  0.5341E+01  0.1110E+03
      6.080  0.6508E+01  0.1118E+03
      6.203  0.6884E+01  0.1127E+03
      6.326  0.7325E+01  0.1136E+03
      6.449  0.7773E+01  0.1145E+03
      6.572  0.7435E+01  0.1154E+03
      6.695  0.9568E+01  0.1166E+03
      6.818  0.8577E+01  0.1177E+03
      6.940  0.9228E+01  0.1188E+03
      7.063  0.1070E+02  0.1201E+03
      7.186  0.9084E+01  0.1212E+03
      7.309  0.9871E+01  0.1224E+03
      7.432  0.1106E+02  0.1238E+03
      7.555  0.1476E+02  0.1256E+03
      7.677  0.1173E+02  0.1271E+03
      7.800  0.1010E+02  0.1283E+03
      7.923  0.9583E+01  0.1295E+03
      8.046  0.1191E+02  0.1309E+03
      8.169  0.9977E+01  0.1322E+03
      8.292  0.1029E+02  0.1334E+03
      8.414  0.8256E+01  0.1344E+03
      8.537  0.7336E+01  0.1353E+03
      8.660  0.1603E+02  0.1373E+03
      8.783  0.1089E+02  0.1386E+03
      8.906  0.1180E+02  0.1401E+03
      9.029  0.1220E+02  0.1416E+03
      9.151  0.1791E+02  0.1438E+03
      9.274  0.1031E+02  0.1451E+03
      9.397  0.1265E+02  0.1466E+03
      9.520  0.9517E+01  0.1478E+03
      9.643  0.9899E+01  0.1490E+03
      9.766  0.9823E+01  0.1502E+03
      9.888  0.1061E+02  0.1515E+03
     10.011  0.1322E+02  0.1531E+03
     10.134  0.1153E+02  0.1545E+03
     10.257  0.9810E+01  0.1558E+03
     10.380  0.1130E+02  0.1571E+03
     10.503  0.9634E+01  0.1583E+03
     10.625  0.8932E+01  0.1594E+03
     10.748  0.3195E+01  0.1598E+03
     10.871  0.1487E+01  0.1600E+03
     10.994  0.9436E-02  0.1600E+03
     11.117  0.3408E-08  0.1600E+03
     11.240  0.0000E+00  0.1600E+03
     11.362  0.0000E+00  0.1600E+03
     11.485  0.0000E+00  0.1600E+03
     11.608  0.0000E+00  0.1600E+03
     11.731  0.0000E+00  0.1600E+03
     11.854  0.0000E+00  0.1600E+03
     11.977  0.0000E+00  0.1600E+03
     12.099  0.0000E+00  0.1600E+03
     12.222  0.0000E+00  0.1600E+03
     12.345  0.0000E+00  0.1600E+03
     12.468  0.0000E+00  0.1600E+03
