H16N16
1.0
     -0.0292240      -0.0256460      -4.1726200
      2.1749100      -7.0675310       1.4494810
    -10.6541250       0.0906880      -0.0723730
  H     N   
  16    16  
Direct
      0.6376500       0.1452130       0.0890510
      0.3623500       0.8547870       0.9109490
      0.1073170       0.0242100       0.3874150
      0.8926830       0.9757900       0.6125850
      0.4225200       0.0549520       0.2857480
      0.5774800       0.9450480       0.7142520
      0.9674090       0.2748620       0.1948860
      0.0325910       0.7251380       0.8051140
      0.1759190       0.6233970       0.3145490
      0.8240810       0.3766030       0.6854510
      0.9468520       0.6441550       0.1005990
      0.0531480       0.3558450       0.8994010
      0.4278220       0.5356640       0.3952280
      0.5721780       0.4643360       0.6047720
      0.6906030       0.7800410       0.1920980
      0.3093970       0.2199590       0.8079020
      0.4636350       0.5624300       0.0492870
      0.5363650       0.4375700       0.9507130
      0.7205780       0.6477300       0.1393310
      0.2794220       0.3522700       0.8606690
      0.1931560       0.5238170       0.3601320
      0.8068440       0.4761830       0.6398680
      0.0673430       0.0572420       0.0532020
      0.9326570       0.9427580       0.9467980
      0.8509290       0.1445750       0.1360520
      0.1490710       0.8554250       0.8639480
      0.5589170       0.0068750       0.4465090
      0.4410820       0.9931250       0.5534910
      0.3240760       0.9878820       0.3515870
      0.6759240       0.0121180       0.6484130
      0.9597480       0.5270840       0.4530700
      0.0402520       0.4729160       0.5469300
