H16 N16
1.0
  -0.0292240000000000   -0.0256460000000000   -4.1726200000000002
   2.1749100000000001   -7.0675309999999998    1.4494810000000000
 -10.6541250000000005    0.0906880000000000   -0.0723730000000000
H N
16 16
direct
   0.6376500000000001    0.1452130000000000    0.0890510000000000 H
   0.3623500000000000    0.8547870000000000    0.9109490000000000 H
   0.1073170000000000    0.0242100000000000    0.3874150000000000 H
   0.8926830000000000    0.9757900000000000    0.6125850000000000 H
   0.4225200000000000    0.0549520000000000    0.2857480000000000 H
   0.5774800000000000    0.9450480000000000    0.7142520000000000 H
   0.9674090000000000    0.2748620000000000    0.1948860000000000 H
   0.0325910000000000    0.7251379999999999    0.8051140000000000 H
   0.1759190000000000    0.6233970000000000    0.3145490000000000 H
   0.8240810000000000    0.3766030000000000    0.6854510000000000 H
   0.9468520000000000    0.6441550000000000    0.1005990000000000 H
   0.0531480000000000    0.3558450000000000    0.8994010000000000 H
   0.4278220000000000    0.5356640000000000    0.3952280000000000 H
   0.5721780000000000    0.4643360000000000    0.6047720000000000 H
   0.6906030000000000    0.7800410000000000    0.1920980000000000 H
   0.3093970000000000    0.2199590000000000    0.8079020000000000 H
   0.4636350000000000    0.5624300000000000    0.0492870000000000 N
   0.5363650000000000    0.4375700000000000    0.9507130000000000 N
   0.7205780000000001    0.6477300000000000    0.1393310000000000 N
   0.2794220000000000    0.3522700000000000    0.8606690000000000 N
   0.1931560000000000    0.5238170000000000    0.3601320000000000 N
   0.8068440000000000    0.4761830000000000    0.6398680000000000 N
   0.0673430000000000    0.0572420000000000    0.0532020000000000 N
   0.9326570000000000    0.9427580000000000    0.9467980000000000 N
   0.8509290000000000    0.1445750000000000    0.1360520000000000 N
   0.1490710000000000    0.8554250000000000    0.8639480000000000 N
   0.5589170000000000    0.0068750000000000    0.4465090000000000 N
   0.4410820000000000    0.9931250000000000    0.5534910000000000 N
   0.3240760000000000    0.9878820000000000    0.3515870000000000 N
   0.6759240000000000    0.0121180000000000    0.6484130000000000 N
   0.9597480000000000    0.5270840000000000    0.4530700000000000 N
   0.0402520000000000    0.4729160000000000    0.5469300000000000 N
