unknown system                          
           1
    -0.029224   -0.025646   -4.172620
     2.174910   -7.067531    1.449481
   -10.654125    0.090688   -0.072373
   H    N 
    16    16
Direct configuration=     1
   0.63765000  0.14521300  0.08905100
   0.36235000  0.85478700  0.91094900
   0.10731700  0.02421000  0.38741500
   0.89268300  0.97579000  0.61258500
   0.42252000  0.05495200  0.28574800
   0.57748000  0.94504800  0.71425200
   0.96740900  0.27486200  0.19488600
   0.03259100  0.72513800  0.80511400
   0.17591900  0.62339700  0.31454900
   0.82408100  0.37660300  0.68545100
   0.94685200  0.64415500  0.10059900
   0.05314800  0.35584500  0.89940100
   0.42782200  0.53566400  0.39522800
   0.57217800  0.46433600  0.60477200
   0.69060300  0.78004100  0.19209800
   0.30939700  0.21995900  0.80790200
   0.46363500  0.56243000  0.04928700
   0.53636500  0.43757000  0.95071300
   0.72057800  0.64773000  0.13933100
   0.27942200  0.35227000  0.86066900
   0.19315600  0.52381700  0.36013200
   0.80684400  0.47618300  0.63986800
   0.06734300  0.05724200  0.05320200
   0.93265700  0.94275800  0.94679800
   0.85092900  0.14457500  0.13605200
   0.14907100  0.85542500  0.86394800
   0.55891700  0.00687500  0.44650900
   0.44108200  0.99312500  0.55349100
   0.32407600  0.98788200  0.35158700
   0.67592400  0.01211800  0.64841300
   0.95974800  0.52708400  0.45307000
   0.04025200  0.47291600  0.54693000
