  40  40   0   0
  0.1868515E+02  0.9902074E-09  0.9902074E-09  0.9902073E-09  0.5000000E-15
  1.000000000000000E-004
  CAR 
 unknown system                          
      8.76114837    -38.65082692  301      2.61734657      1.00000000
    -38.651  0.0000E+00  0.0000E+00
    -38.493  0.0000E+00  0.0000E+00
    -38.335  0.0000E+00  0.0000E+00
    -38.177  0.0000E+00  0.0000E+00
    -38.019  0.0000E+00  0.0000E+00
    -37.861  0.0000E+00  0.0000E+00
    -37.703  0.0000E+00  0.0000E+00
    -37.545  0.0000E+00  0.0000E+00
    -37.387  0.0000E+00  0.0000E+00
    -37.228  0.0000E+00  0.0000E+00
    -37.070  0.0000E+00  0.0000E+00
    -36.912  0.0000E+00  0.0000E+00
    -36.754  0.1601E-12  0.2531E-13
    -36.596  0.9949E-02  0.1572E-02
    -36.438  0.8010E+02  0.1266E+02
    -36.280  0.2227E+03  0.4786E+02
    -36.122  0.8918E+00  0.4800E+02
    -35.964  0.5621E-09  0.4800E+02
    -35.806  0.0000E+00  0.4800E+02
    -35.648  0.0000E+00  0.4800E+02
    -35.490  0.0000E+00  0.4800E+02
    -35.332  0.0000E+00  0.4800E+02
    -35.174  0.0000E+00  0.4800E+02
    -35.016  0.0000E+00  0.4800E+02
    -34.858  0.0000E+00  0.4800E+02
    -34.700  0.0000E+00  0.4800E+02
    -34.542  0.0000E+00  0.4800E+02
    -34.384  0.0000E+00  0.4800E+02
    -34.226  0.0000E+00  0.4800E+02
    -34.068  0.0000E+00  0.4800E+02
    -33.910  0.0000E+00  0.4800E+02
    -33.752  0.0000E+00  0.4800E+02
    -33.594  0.0000E+00  0.4800E+02
    -33.436  0.0000E+00  0.4800E+02
    -33.277  0.0000E+00  0.4800E+02
    -33.119  0.0000E+00  0.4800E+02
    -32.961  0.0000E+00  0.4800E+02
    -32.803  0.0000E+00  0.4800E+02
    -32.645  0.0000E+00  0.4800E+02
    -32.487  0.0000E+00  0.4800E+02
    -32.329  0.0000E+00  0.4800E+02
    -32.171  0.0000E+00  0.4800E+02
    -32.013  0.0000E+00  0.4800E+02
    -31.855  0.0000E+00  0.4800E+02
    -31.697  0.0000E+00  0.4800E+02
    -31.539  0.0000E+00  0.4800E+02
    -31.381  0.0000E+00  0.4800E+02
    -31.223  0.0000E+00  0.4800E+02
    -31.065  0.0000E+00  0.4800E+02
    -30.907  0.0000E+00  0.4800E+02
    -30.749  0.0000E+00  0.4800E+02
    -30.591  0.0000E+00  0.4800E+02
    -30.433  0.0000E+00  0.4800E+02
    -30.275  0.0000E+00  0.4800E+02
    -30.117  0.0000E+00  0.4800E+02
    -29.959  0.0000E+00  0.4800E+02
    -29.801  0.0000E+00  0.4800E+02
    -29.643  0.0000E+00  0.4800E+02
    -29.485  0.0000E+00  0.4800E+02
    -29.326  0.0000E+00  0.4800E+02
    -29.168  0.0000E+00  0.4800E+02
    -29.010  0.0000E+00  0.4800E+02
    -28.852  0.0000E+00  0.4800E+02
    -28.694  0.0000E+00  0.4800E+02
    -28.536  0.0000E+00  0.4800E+02
    -28.378  0.0000E+00  0.4800E+02
    -28.220  0.0000E+00  0.4800E+02
    -28.062  0.0000E+00  0.4800E+02
    -27.904  0.0000E+00  0.4800E+02
    -27.746  0.0000E+00  0.4800E+02
    -27.588  0.0000E+00  0.4800E+02
    -27.430  0.0000E+00  0.4800E+02
    -27.272  0.0000E+00  0.4800E+02
    -27.114  0.0000E+00  0.4800E+02
    -26.956  0.0000E+00  0.4800E+02
    -26.798  0.0000E+00  0.4800E+02
    -26.640  0.0000E+00  0.4800E+02
    -26.482  0.0000E+00  0.4800E+02
    -26.324  0.0000E+00  0.4800E+02
    -26.166  0.0000E+00  0.4800E+02
    -26.008  0.0000E+00  0.4800E+02
    -25.850  0.0000E+00  0.4800E+02
    -25.692  0.0000E+00  0.4800E+02
    -25.534  0.0000E+00  0.4800E+02
    -25.375  0.0000E+00  0.4800E+02
    -25.217  0.0000E+00  0.4800E+02
    -25.059  0.0000E+00  0.4800E+02
    -24.901  0.0000E+00  0.4800E+02
    -24.743  0.0000E+00  0.4800E+02
    -24.585  0.0000E+00  0.4800E+02
    -24.427  0.0000E+00  0.4800E+02
    -24.269  0.0000E+00  0.4800E+02
    -24.111  0.0000E+00  0.4800E+02
    -23.953  0.0000E+00  0.4800E+02
    -23.795  0.0000E+00  0.4800E+02
    -23.637  0.0000E+00  0.4800E+02
    -23.479  0.0000E+00  0.4800E+02
    -23.321  0.0000E+00  0.4800E+02
    -23.163  0.0000E+00  0.4800E+02
    -23.005  0.0000E+00  0.4800E+02
    -22.847  0.0000E+00  0.4800E+02
    -22.689  0.0000E+00  0.4800E+02
    -22.531  0.0000E+00  0.4800E+02
    -22.373  0.0000E+00  0.4800E+02
    -22.215  0.0000E+00  0.4800E+02
    -22.057  0.0000E+00  0.4800E+02
    -21.899  0.0000E+00  0.4800E+02
    -21.741  0.0000E+00  0.4800E+02
    -21.583  0.0000E+00  0.4800E+02
    -21.424  0.0000E+00  0.4800E+02
    -21.266  0.0000E+00  0.4800E+02
    -21.108  0.0000E+00  0.4800E+02
    -20.950  0.0000E+00  0.4800E+02
    -20.792  0.0000E+00  0.4800E+02
    -20.634  0.0000E+00  0.4800E+02
    -20.476  0.0000E+00  0.4800E+02
    -20.318  0.0000E+00  0.4800E+02
    -20.160  0.0000E+00  0.4800E+02
    -20.002  0.0000E+00  0.4800E+02
    -19.844  0.0000E+00  0.4800E+02
    -19.686  0.0000E+00  0.4800E+02
    -19.528  0.0000E+00  0.4800E+02
    -19.370  0.0000E+00  0.4800E+02
    -19.212  0.0000E+00  0.4800E+02
    -19.054  0.0000E+00  0.4800E+02
    -18.896  0.0000E+00  0.4800E+02
    -18.738  0.0000E+00  0.4800E+02
    -18.580  0.0000E+00  0.4800E+02
    -18.422  0.0000E+00  0.4800E+02
    -18.264  0.0000E+00  0.4800E+02
    -18.106  0.8796E-05  0.4800E+02
    -17.948  0.6641E+01  0.4905E+02
    -17.790  0.1459E+03  0.7211E+02
    -17.632  0.1552E+03  0.9663E+02
    -17.473  0.2110E+03  0.1300E+03
    -17.315  0.2068E+03  0.1627E+03
    -17.157  0.1830E+03  0.1916E+03
    -16.999  0.2607E+01  0.1920E+03
    -16.841  0.1916E-06  0.1920E+03
    -16.683  0.0000E+00  0.1920E+03
    -16.525  0.0000E+00  0.1920E+03
    -16.367  0.0000E+00  0.1920E+03
    -16.209  0.0000E+00  0.1920E+03
    -16.051  0.0000E+00  0.1920E+03
    -15.893  0.0000E+00  0.1920E+03
    -15.735  0.0000E+00  0.1920E+03
    -15.577  0.0000E+00  0.1920E+03
    -15.419  0.0000E+00  0.1920E+03
    -15.261  0.0000E+00  0.1920E+03
    -15.103  0.0000E+00  0.1920E+03
    -14.945  0.0000E+00  0.1920E+03
    -14.787  0.0000E+00  0.1920E+03
    -14.629  0.0000E+00  0.1920E+03
    -14.471  0.0000E+00  0.1920E+03
    -14.313  0.0000E+00  0.1920E+03
    -14.155  0.0000E+00  0.1920E+03
    -13.997  0.0000E+00  0.1920E+03
    -13.839  0.0000E+00  0.1920E+03
    -13.681  0.0000E+00  0.1920E+03
    -13.522  0.0000E+00  0.1920E+03
    -13.364  0.0000E+00  0.1920E+03
    -13.206  0.0000E+00  0.1920E+03
    -13.048  0.0000E+00  0.1920E+03
    -12.890  0.0000E+00  0.1920E+03
    -12.732  0.0000E+00  0.1920E+03
    -12.574  0.0000E+00  0.1920E+03
    -12.416  0.0000E+00  0.1920E+03
    -12.258  0.0000E+00  0.1920E+03
    -12.100  0.0000E+00  0.1920E+03
    -11.942  0.0000E+00  0.1920E+03
    -11.784  0.0000E+00  0.1920E+03
    -11.626  0.0000E+00  0.1920E+03
    -11.468  0.0000E+00  0.1920E+03
    -11.310  0.0000E+00  0.1920E+03
    -11.152  0.0000E+00  0.1920E+03
    -10.994  0.0000E+00  0.1920E+03
    -10.836  0.0000E+00  0.1920E+03
    -10.678  0.0000E+00  0.1920E+03
    -10.520  0.0000E+00  0.1920E+03
    -10.362  0.0000E+00  0.1920E+03
    -10.204  0.0000E+00  0.1920E+03
    -10.046  0.0000E+00  0.1920E+03
     -9.888  0.0000E+00  0.1920E+03
     -9.730  0.0000E+00  0.1920E+03
     -9.571  0.0000E+00  0.1920E+03
     -9.413  0.0000E+00  0.1920E+03
     -9.255  0.0000E+00  0.1920E+03
     -9.097  0.5120E-10  0.1920E+03
     -8.939  0.1419E-01  0.1920E+03
     -8.781  0.3376E+01  0.1925E+03
     -8.623  0.1369E+02  0.1947E+03
     -8.465  0.3284E+02  0.1999E+03
     -8.307  0.9253E+02  0.2145E+03
     -8.149  0.5998E+02  0.2240E+03
     -7.991  0.4957E-01  0.2240E+03
     -7.833  0.1823E-11  0.2240E+03
     -7.675  0.0000E+00  0.2240E+03
     -7.517  0.0000E+00  0.2240E+03
     -7.359  0.0000E+00  0.2240E+03
     -7.201  0.0000E+00  0.2240E+03
     -7.043  0.0000E+00  0.2240E+03
     -6.885  0.0000E+00  0.2240E+03
     -6.727  0.0000E+00  0.2240E+03
     -6.569  0.0000E+00  0.2240E+03
     -6.411  0.0000E+00  0.2240E+03
     -6.253  0.0000E+00  0.2240E+03
     -6.095  0.0000E+00  0.2240E+03
     -5.937  0.0000E+00  0.2240E+03
     -5.779  0.0000E+00  0.2240E+03
     -5.620  0.0000E+00  0.2240E+03
     -5.462  0.0000E+00  0.2240E+03
     -5.304  0.0000E+00  0.2240E+03
     -5.146  0.0000E+00  0.2240E+03
     -4.988  0.0000E+00  0.2240E+03
     -4.830  0.0000E+00  0.2240E+03
     -4.672  0.0000E+00  0.2240E+03
     -4.514  0.0000E+00  0.2240E+03
     -4.356  0.0000E+00  0.2240E+03
     -4.198  0.0000E+00  0.2240E+03
     -4.040  0.0000E+00  0.2240E+03
     -3.882  0.0000E+00  0.2240E+03
     -3.724  0.0000E+00  0.2240E+03
     -3.566  0.0000E+00  0.2240E+03
     -3.408  0.0000E+00  0.2240E+03
     -3.250  0.0000E+00  0.2240E+03
     -3.092  0.0000E+00  0.2240E+03
     -2.934  0.0000E+00  0.2240E+03
     -2.776  0.0000E+00  0.2240E+03
     -2.618  0.0000E+00  0.2240E+03
     -2.460  0.0000E+00  0.2240E+03
     -2.302  0.0000E+00  0.2240E+03
     -2.144  0.0000E+00  0.2240E+03
     -1.986  0.0000E+00  0.2240E+03
     -1.828  0.0000E+00  0.2240E+03
     -1.669  0.0000E+00  0.2240E+03
     -1.511  0.0000E+00  0.2240E+03
     -1.353  0.0000E+00  0.2240E+03
     -1.195  0.0000E+00  0.2240E+03
     -1.037  0.0000E+00  0.2240E+03
     -0.879  0.0000E+00  0.2240E+03
     -0.721  0.0000E+00  0.2240E+03
     -0.563  0.0000E+00  0.2240E+03
     -0.405  0.0000E+00  0.2240E+03
     -0.247  0.0000E+00  0.2240E+03
     -0.089  0.0000E+00  0.2240E+03
      0.069  0.0000E+00  0.2240E+03
      0.227  0.0000E+00  0.2240E+03
      0.385  0.7374E-13  0.2240E+03
      0.543  0.5270E-02  0.2240E+03
      0.701  0.1681E+02  0.2267E+03
      0.859  0.5191E+02  0.2349E+03
      1.017  0.4102E+02  0.2413E+03
      1.175  0.3742E+02  0.2473E+03
      1.333  0.3369E+02  0.2526E+03
      1.491  0.2299E+02  0.2562E+03
      1.649  0.2295E+02  0.2598E+03
      1.807  0.4729E+02  0.2673E+03
      1.965  0.1062E+03  0.2841E+03
      2.123  0.9267E+02  0.2988E+03
      2.282  0.1124E+03  0.3165E+03
      2.440  0.2202E+02  0.3200E+03
      2.598  0.5163E-02  0.3200E+03
      2.756  0.0000E+00  0.3200E+03
      2.914  0.0000E+00  0.3200E+03
      3.072  0.0000E+00  0.3200E+03
      3.230  0.6713E-12  0.3200E+03
      3.388  0.2796E-02  0.3200E+03
      3.546  0.4541E+00  0.3201E+03
      3.704  0.1183E-01  0.3201E+03
      3.862  0.3072E-10  0.3201E+03
      4.020  0.6206E-03  0.3201E+03
      4.178  0.4393E+01  0.3208E+03
      4.336  0.1231E+01  0.3210E+03
      4.494  0.4601E-03  0.3210E+03
      4.652  0.2281E+01  0.3213E+03
      4.810  0.1729E+02  0.3241E+03
      4.968  0.3896E+02  0.3302E+03
      5.126  0.3377E+02  0.3355E+03
      5.284  0.3778E+02  0.3415E+03
      5.442  0.2913E+02  0.3461E+03
      5.600  0.3212E+02  0.3512E+03
      5.758  0.2724E+02  0.3555E+03
      5.916  0.2240E+02  0.3590E+03
      6.074  0.8906E+01  0.3605E+03
      6.233  0.1920E+02  0.3635E+03
      6.391  0.1475E+02  0.3658E+03
      6.549  0.1090E+02  0.3675E+03
      6.707  0.2917E+01  0.3680E+03
      6.865  0.1101E-02  0.3680E+03
      7.023  0.0000E+00  0.3680E+03
      7.181  0.0000E+00  0.3680E+03
      7.339  0.0000E+00  0.3680E+03
      7.497  0.0000E+00  0.3680E+03
      7.655  0.0000E+00  0.3680E+03
      7.813  0.0000E+00  0.3680E+03
      7.971  0.0000E+00  0.3680E+03
      8.129  0.0000E+00  0.3680E+03
      8.287  0.0000E+00  0.3680E+03
      8.445  0.0000E+00  0.3680E+03
      8.603  0.0000E+00  0.3680E+03
      8.761  0.0000E+00  0.3680E+03
