       N       E                     dE             d eps       ncg     rms          rms(c)
DAV:   1     0.409404137484E+04    0.40940E+04   -0.17070E+05  9952   0.191E+03
DAV:   2     0.256166121994E+03   -0.38379E+04   -0.37584E+04 10456   0.568E+02
DAV:   3    -0.224213833415E+03   -0.48038E+03   -0.46629E+03 13848   0.149E+02
DAV:   4    -0.264890692929E+03   -0.40677E+02   -0.40494E+02 15208   0.408E+01
DAV:   5    -0.268095270732E+03   -0.32046E+01   -0.32019E+01 15808   0.101E+01    0.423E+01
DAV:   6    -0.215846753935E+03    0.52249E+02   -0.46813E+02 12520   0.321E+01    0.224E+01
DAV:   7    -0.212294640350E+03    0.35521E+01   -0.57014E+01 12200   0.134E+01    0.865E+00
DAV:   8    -0.211303287689E+03    0.99135E+00   -0.39138E+00 12264   0.481E+00    0.188E+00
DAV:   9    -0.211316441093E+03   -0.13153E-01   -0.51259E-01 15824   0.140E+00    0.100E+00
DAV:  10    -0.211336575900E+03   -0.20135E-01   -0.11093E-01 13944   0.629E-01    0.460E-01
DAV:  11    -0.211340213773E+03   -0.36379E-02   -0.54443E-02 13304   0.367E-01    0.237E-01
DAV:  12    -0.211339405998E+03    0.80777E-03   -0.76226E-03 12512   0.167E-01    0.911E-02
DAV:  13    -0.211339696921E+03   -0.29092E-03   -0.16501E-03 13784   0.834E-02    0.772E-02
DAV:  14    -0.211339607385E+03    0.89536E-04   -0.67312E-04 13544   0.444E-02    0.208E-02
DAV:  15    -0.211339627372E+03   -0.19987E-04   -0.97376E-05 12896   0.189E-02    0.818E-03
DAV:  16    -0.211339627468E+03   -0.96479E-07   -0.10268E-05  8416   0.772E-03    0.361E-03
DAV:  17    -0.211339627186E+03    0.28242E-06   -0.15903E-06  7352   0.302E-03
   1 F= -.21133963E+03 E0= -.21133963E+03  d E =-.112945E-15
