Ca24 N16
1.0
   9.3357647000000004   -0.0000000000000000   -3.3006910299999999
  -4.6678828599999997    8.0850096400000009   -3.3006910299999999
  -0.0000000000000000   -0.0000000000000000    9.9020730900000000
Ca N
24 16
direct
   0.0439126100000000    0.2715373700000000    0.0069576800000000 Ca
   0.2723762400000000    0.7354213100000000    0.2284626300000000 Ca
   0.7645786900000000    0.0369539300000000    0.4930423200000000 Ca
   0.4560873900000000    0.4630460700000000    0.2276237600000000 Ca
   0.2276237600000000    0.4560873900000000    0.4630460700000000 Ca
   0.2715373700000000    0.0069576800000000    0.0439126100000000 Ca
   0.2284626300000000    0.2723762400000000    0.7354213100000000 Ca
   0.0369539300000000    0.4930423200000000    0.7645786900000000 Ca
   0.4930423200000000    0.7645786900000000    0.0369539300000000 Ca
   0.7354213100000000    0.2284626300000000    0.2723762400000000 Ca
   0.0069576800000000    0.0439126100000000    0.2715373700000000 Ca
   0.4630460700000000    0.2276237600000000    0.4560873900000000 Ca
   0.9630460700000000    0.5069576800000000    0.2354213100000000 Ca
   0.7715373700000000    0.7276237600000000    0.2645786900000000 Ca
   0.7284626300000000    0.9930423200000000    0.9560873900000000 Ca
   0.7723762400000000    0.5439126100000000    0.5369539300000000 Ca
   0.5439126100000000    0.5369539300000000    0.7723762400000000 Ca
   0.2354213100000000    0.9630460700000000    0.5069576800000000 Ca
   0.7276237600000000    0.2645786900000000    0.7715373700000000 Ca
   0.9560873900000000    0.7284626300000000    0.9930423200000000 Ca
   0.5069576800000000    0.2354213100000000    0.9630460700000000 Ca
   0.2645786900000000    0.7715373700000000    0.7276237600000000 Ca
   0.9930423200000000    0.9560873900000000    0.7284626300000000 Ca
   0.5369539300000000    0.7723762400000000    0.5439126100000000 Ca
   0.2500000000000000    0.7103561600000000    0.4603561600000000 N
   0.0396438400000000    0.7500000000000000    0.7896438400000000 N
   0.7896438400000000    0.0396438400000000    0.7500000000000000 N
   0.4603561600000000    0.2500000000000000    0.7103561600000000 N
   0.7103561600000000    0.4603561600000000    0.2500000000000000 N
   0.7500000000000000    0.7896438400000000    0.0396438400000000 N
   0.7500000000000000    0.2896438400000000    0.5396438400000000 N
   0.9603561600000000    0.2500000000000000    0.2103561600000000 N
   0.2103561600000000    0.9603561600000000    0.2500000000000000 N
   0.5396438400000000    0.7500000000000000    0.2896438400000000 N
   0.2896438400000000    0.5396438400000000    0.7500000000000000 N
   0.2500000000000000    0.2103561600000000    0.9603561600000000 N
   0.0000000000000000    0.5000000000000000   -0.0000000000000000 N
   0.5000000000000000   -0.0000000000000000   -0.0000000000000000 N
   0.0000000000000000   -0.0000000000000000    0.5000000000000000 N
   0.5000000000000000    0.5000000000000000    0.5000000000000000 N
