   3   3   0   0
  0.3395903E+02  0.5242404E-09  0.5242404E-09  0.5242404E-09  0.5000000E-15
  1.000000000000000E-004
  CAR 
 unknown system                          
      8.93456745    -31.42016599  301     -0.06117521      1.00000000
    -31.420  0.0000E+00  0.0000E+00
    -31.286  0.0000E+00  0.0000E+00
    -31.151  0.0000E+00  0.0000E+00
    -31.017  0.0000E+00  0.0000E+00
    -30.882  0.0000E+00  0.0000E+00
    -30.748  0.0000E+00  0.0000E+00
    -30.613  0.0000E+00  0.0000E+00
    -30.479  0.0000E+00  0.0000E+00
    -30.344  0.0000E+00  0.0000E+00
    -30.210  0.0000E+00  0.0000E+00
    -30.075  0.0000E+00  0.0000E+00
    -29.940  0.0000E+00  0.0000E+00
    -29.806  0.1282E-09  0.1724E-10
    -29.671  0.1615E-01  0.2173E-02
    -29.537  0.1707E+02  0.2298E+01
    -29.402  0.1265E+02  0.4000E+01
    -29.268  0.3644E-02  0.4000E+01
    -29.133  0.5732E-11  0.4000E+01
    -28.999  0.0000E+00  0.4000E+01
    -28.864  0.0000E+00  0.4000E+01
    -28.730  0.0000E+00  0.4000E+01
    -28.595  0.0000E+00  0.4000E+01
    -28.461  0.0000E+00  0.4000E+01
    -28.326  0.0000E+00  0.4000E+01
    -28.192  0.0000E+00  0.4000E+01
    -28.057  0.0000E+00  0.4000E+01
    -27.923  0.0000E+00  0.4000E+01
    -27.788  0.0000E+00  0.4000E+01
    -27.654  0.0000E+00  0.4000E+01
    -27.519  0.0000E+00  0.4000E+01
    -27.385  0.0000E+00  0.4000E+01
    -27.250  0.0000E+00  0.4000E+01
    -27.116  0.0000E+00  0.4000E+01
    -26.981  0.0000E+00  0.4000E+01
    -26.847  0.0000E+00  0.4000E+01
    -26.712  0.0000E+00  0.4000E+01
    -26.578  0.0000E+00  0.4000E+01
    -26.443  0.0000E+00  0.4000E+01
    -26.309  0.0000E+00  0.4000E+01
    -26.174  0.0000E+00  0.4000E+01
    -26.040  0.0000E+00  0.4000E+01
    -25.905  0.0000E+00  0.4000E+01
    -25.771  0.0000E+00  0.4000E+01
    -25.636  0.0000E+00  0.4000E+01
    -25.501  0.0000E+00  0.4000E+01
    -25.367  0.0000E+00  0.4000E+01
    -25.232  0.0000E+00  0.4000E+01
    -25.098  0.0000E+00  0.4000E+01
    -24.963  0.0000E+00  0.4000E+01
    -24.829  0.0000E+00  0.4000E+01
    -24.694  0.0000E+00  0.4000E+01
    -24.560  0.0000E+00  0.4000E+01
    -24.425  0.0000E+00  0.4000E+01
    -24.291  0.0000E+00  0.4000E+01
    -24.156  0.0000E+00  0.4000E+01
    -24.022  0.0000E+00  0.4000E+01
    -23.887  0.0000E+00  0.4000E+01
    -23.753  0.0000E+00  0.4000E+01
    -23.618  0.0000E+00  0.4000E+01
    -23.484  0.0000E+00  0.4000E+01
    -23.349  0.0000E+00  0.4000E+01
    -23.215  0.0000E+00  0.4000E+01
    -23.080  0.0000E+00  0.4000E+01
    -22.946  0.0000E+00  0.4000E+01
    -22.811  0.0000E+00  0.4000E+01
    -22.677  0.0000E+00  0.4000E+01
    -22.542  0.0000E+00  0.4000E+01
    -22.408  0.0000E+00  0.4000E+01
    -22.273  0.0000E+00  0.4000E+01
    -22.139  0.0000E+00  0.4000E+01
    -22.004  0.0000E+00  0.4000E+01
    -21.870  0.0000E+00  0.4000E+01
    -21.735  0.0000E+00  0.4000E+01
    -21.601  0.0000E+00  0.4000E+01
    -21.466  0.0000E+00  0.4000E+01
    -21.331  0.0000E+00  0.4000E+01
    -21.197  0.0000E+00  0.4000E+01
    -21.062  0.0000E+00  0.4000E+01
    -20.928  0.0000E+00  0.4000E+01
    -20.793  0.0000E+00  0.4000E+01
    -20.659  0.0000E+00  0.4000E+01
    -20.524  0.0000E+00  0.4000E+01
    -20.390  0.0000E+00  0.4000E+01
    -20.255  0.0000E+00  0.4000E+01
    -20.121  0.0000E+00  0.4000E+01
    -19.986  0.0000E+00  0.4000E+01
    -19.852  0.0000E+00  0.4000E+01
    -19.717  0.0000E+00  0.4000E+01
    -19.583  0.0000E+00  0.4000E+01
    -19.448  0.0000E+00  0.4000E+01
    -19.314  0.0000E+00  0.4000E+01
    -19.179  0.0000E+00  0.4000E+01
    -19.045  0.0000E+00  0.4000E+01
    -18.910  0.0000E+00  0.4000E+01
    -18.776  0.0000E+00  0.4000E+01
    -18.641  0.0000E+00  0.4000E+01
    -18.507  0.0000E+00  0.4000E+01
    -18.372  0.0000E+00  0.4000E+01
    -18.238  0.0000E+00  0.4000E+01
    -18.103  0.0000E+00  0.4000E+01
    -17.969  0.0000E+00  0.4000E+01
    -17.834  0.0000E+00  0.4000E+01
    -17.700  0.0000E+00  0.4000E+01
    -17.565  0.0000E+00  0.4000E+01
    -17.431  0.0000E+00  0.4000E+01
    -17.296  0.0000E+00  0.4000E+01
    -17.161  0.0000E+00  0.4000E+01
    -17.027  0.0000E+00  0.4000E+01
    -16.892  0.0000E+00  0.4000E+01
    -16.758  0.0000E+00  0.4000E+01
    -16.623  0.0000E+00  0.4000E+01
    -16.489  0.0000E+00  0.4000E+01
    -16.354  0.0000E+00  0.4000E+01
    -16.220  0.0000E+00  0.4000E+01
    -16.085  0.0000E+00  0.4000E+01
    -15.951  0.0000E+00  0.4000E+01
    -15.816  0.0000E+00  0.4000E+01
    -15.682  0.0000E+00  0.4000E+01
    -15.547  0.0000E+00  0.4000E+01
    -15.413  0.0000E+00  0.4000E+01
    -15.278  0.0000E+00  0.4000E+01
    -15.144  0.0000E+00  0.4000E+01
    -15.009  0.0000E+00  0.4000E+01
    -14.875  0.0000E+00  0.4000E+01
    -14.740  0.0000E+00  0.4000E+01
    -14.606  0.0000E+00  0.4000E+01
    -14.471  0.0000E+00  0.4000E+01
    -14.337  0.0000E+00  0.4000E+01
    -14.202  0.0000E+00  0.4000E+01
    -14.068  0.0000E+00  0.4000E+01
    -13.933  0.0000E+00  0.4000E+01
    -13.799  0.0000E+00  0.4000E+01
    -13.664  0.6878E-16  0.4000E+01
    -13.530  0.2904E-05  0.4000E+01
    -13.395  0.3749E+00  0.4050E+01
    -13.261  0.9540E+01  0.5334E+01
    -13.126  0.2722E+02  0.8996E+01
    -12.992  0.2402E+02  0.1223E+02
    -12.857  0.2695E+02  0.1585E+02
    -12.722  0.1104E+01  0.1600E+02
    -12.588  0.4551E-05  0.1600E+02
    -12.453  0.0000E+00  0.1600E+02
    -12.319  0.0000E+00  0.1600E+02
    -12.184  0.0000E+00  0.1600E+02
    -12.050  0.0000E+00  0.1600E+02
    -11.915  0.0000E+00  0.1600E+02
    -11.781  0.0000E+00  0.1600E+02
    -11.646  0.0000E+00  0.1600E+02
    -11.512  0.0000E+00  0.1600E+02
    -11.377  0.0000E+00  0.1600E+02
    -11.243  0.0000E+00  0.1600E+02
    -11.108  0.0000E+00  0.1600E+02
    -10.974  0.0000E+00  0.1600E+02
    -10.839  0.0000E+00  0.1600E+02
    -10.705  0.0000E+00  0.1600E+02
    -10.570  0.0000E+00  0.1600E+02
    -10.436  0.0000E+00  0.1600E+02
    -10.301  0.0000E+00  0.1600E+02
    -10.167  0.1013E-08  0.1600E+02
    -10.032  0.3235E-02  0.1600E+02
     -9.898  0.8242E+00  0.1611E+02
     -9.763  0.7715E+01  0.1715E+02
     -9.629  0.6320E+01  0.1800E+02
     -9.494  0.5698E-02  0.1800E+02
     -9.360  0.2237E-10  0.1800E+02
     -9.225  0.0000E+00  0.1800E+02
     -9.091  0.0000E+00  0.1800E+02
     -8.956  0.0000E+00  0.1800E+02
     -8.822  0.0000E+00  0.1800E+02
     -8.687  0.0000E+00  0.1800E+02
     -8.552  0.0000E+00  0.1800E+02
     -8.418  0.0000E+00  0.1800E+02
     -8.283  0.0000E+00  0.1800E+02
     -8.149  0.0000E+00  0.1800E+02
     -8.014  0.0000E+00  0.1800E+02
     -7.880  0.0000E+00  0.1800E+02
     -7.745  0.0000E+00  0.1800E+02
     -7.611  0.0000E+00  0.1800E+02
     -7.476  0.0000E+00  0.1800E+02
     -7.342  0.0000E+00  0.1800E+02
     -7.207  0.0000E+00  0.1800E+02
     -7.073  0.0000E+00  0.1800E+02
     -6.938  0.0000E+00  0.1800E+02
     -6.804  0.0000E+00  0.1800E+02
     -6.669  0.0000E+00  0.1800E+02
     -6.535  0.0000E+00  0.1800E+02
     -6.400  0.0000E+00  0.1800E+02
     -6.266  0.0000E+00  0.1800E+02
     -6.131  0.0000E+00  0.1800E+02
     -5.997  0.0000E+00  0.1800E+02
     -5.862  0.0000E+00  0.1800E+02
     -5.728  0.0000E+00  0.1800E+02
     -5.593  0.0000E+00  0.1800E+02
     -5.459  0.0000E+00  0.1800E+02
     -5.324  0.0000E+00  0.1800E+02
     -5.190  0.0000E+00  0.1800E+02
     -5.055  0.0000E+00  0.1800E+02
     -4.921  0.0000E+00  0.1800E+02
     -4.786  0.0000E+00  0.1800E+02
     -4.652  0.0000E+00  0.1800E+02
     -4.517  0.0000E+00  0.1800E+02
     -4.382  0.0000E+00  0.1800E+02
     -4.248  0.0000E+00  0.1800E+02
     -4.113  0.0000E+00  0.1800E+02
     -3.979  0.0000E+00  0.1800E+02
     -3.844  0.0000E+00  0.1800E+02
     -3.710  0.0000E+00  0.1800E+02
     -3.575  0.0000E+00  0.1800E+02
     -3.441  0.0000E+00  0.1800E+02
     -3.306  0.0000E+00  0.1800E+02
     -3.172  0.0000E+00  0.1800E+02
     -3.037  0.0000E+00  0.1800E+02
     -2.903  0.0000E+00  0.1800E+02
     -2.768  0.0000E+00  0.1800E+02
     -2.634  0.0000E+00  0.1800E+02
     -2.499  0.0000E+00  0.1800E+02
     -2.365  0.0000E+00  0.1800E+02
     -2.230  0.0000E+00  0.1800E+02
     -2.096  0.0000E+00  0.1800E+02
     -1.961  0.0000E+00  0.1800E+02
     -1.827  0.0000E+00  0.1800E+02
     -1.692  0.0000E+00  0.1800E+02
     -1.558  0.0000E+00  0.1800E+02
     -1.423  0.0000E+00  0.1800E+02
     -1.289  0.9961E-08  0.1800E+02
     -1.154  0.1332E-01  0.1800E+02
     -1.020  0.1070E+01  0.1815E+02
     -0.885  0.7807E+01  0.1920E+02
     -0.751  0.5224E+01  0.1990E+02
     -0.616  0.3077E+01  0.2031E+02
     -0.482  0.1018E+02  0.2168E+02
     -0.347  0.1601E+02  0.2384E+02
     -0.213  0.1221E+01  0.2400E+02
     -0.078  0.1349E-04  0.2400E+02
      0.057  0.0000E+00  0.2400E+02
      0.191  0.0000E+00  0.2400E+02
      0.326  0.0000E+00  0.2400E+02
      0.460  0.0000E+00  0.2400E+02
      0.595  0.0000E+00  0.2400E+02
      0.729  0.0000E+00  0.2400E+02
      0.864  0.0000E+00  0.2400E+02
      0.998  0.0000E+00  0.2400E+02
      1.133  0.0000E+00  0.2400E+02
      1.267  0.0000E+00  0.2400E+02
      1.402  0.0000E+00  0.2400E+02
      1.536  0.0000E+00  0.2400E+02
      1.671  0.0000E+00  0.2400E+02
      1.805  0.1950E-09  0.2400E+02
      1.940  0.1487E-02  0.2400E+02
      2.074  0.6478E-01  0.2401E+02
      2.209  0.2567E-02  0.2401E+02
      2.343  0.1380E-08  0.2401E+02
      2.478  0.8004E-02  0.2401E+02
      2.612  0.5142E+00  0.2408E+02
      2.747  0.3392E+00  0.2413E+02
      2.881  0.1023E+00  0.2414E+02
      3.016  0.1406E-04  0.2414E+02
      3.150  0.1355E+00  0.2416E+02
      3.285  0.1193E+01  0.2432E+02
      3.419  0.2421E+01  0.2464E+02
      3.554  0.3962E+01  0.2518E+02
      3.688  0.2533E+01  0.2552E+02
      3.823  0.7768E+00  0.2562E+02
      3.957  0.2531E+01  0.2596E+02
      4.092  0.8049E-02  0.2596E+02
      4.227  0.6816E-04  0.2596E+02
      4.361  0.1723E+00  0.2599E+02
      4.496  0.1030E+00  0.2600E+02
      4.630  0.1024E+00  0.2601E+02
      4.765  0.1052E+01  0.2616E+02
      4.899  0.1575E+01  0.2637E+02
      5.034  0.4037E+01  0.2691E+02
      5.168  0.6179E+01  0.2774E+02
      5.303  0.3165E+01  0.2817E+02
      5.437  0.2242E+01  0.2847E+02
      5.572  0.5145E+01  0.2916E+02
      5.706  0.6537E+01  0.3004E+02
      5.841  0.3082E+01  0.3045E+02
      5.975  0.3267E+01  0.3089E+02
      6.110  0.2942E+01  0.3129E+02
      6.244  0.2427E+01  0.3162E+02
      6.379  0.4343E+00  0.3167E+02
      6.513  0.8077E+00  0.3178E+02
      6.648  0.1126E+01  0.3193E+02
      6.782  0.2797E-02  0.3194E+02
      6.917  0.9696E-01  0.3195E+02
      7.051  0.3212E+00  0.3199E+02
      7.186  0.6312E-01  0.3200E+02
      7.320  0.5325E-03  0.3200E+02
      7.455  0.1649E-10  0.3200E+02
      7.589  0.0000E+00  0.3200E+02
      7.724  0.0000E+00  0.3200E+02
      7.858  0.0000E+00  0.3200E+02
      7.993  0.0000E+00  0.3200E+02
      8.127  0.0000E+00  0.3200E+02
      8.262  0.0000E+00  0.3200E+02
      8.397  0.0000E+00  0.3200E+02
      8.531  0.0000E+00  0.3200E+02
      8.666  0.0000E+00  0.3200E+02
      8.800  0.0000E+00  0.3200E+02
      8.935  0.0000E+00  0.3200E+02
