       N       E                     dE             d eps       ncg     rms          rms(c)
DAV:   1     0.171236818737E+03    0.17124E+03   -0.11881E+04  6912   0.144E+03
DAV:   2     0.328998586983E+01   -0.16795E+03   -0.16528E+03  7736   0.364E+02
DAV:   3    -0.105143191543E+02   -0.13804E+02   -0.13707E+02 12856   0.816E+01
DAV:   4    -0.108472034078E+02   -0.33288E+00   -0.33277E+00  9736   0.121E+01
DAV:   5    -0.108630695805E+02   -0.15866E-01   -0.15866E-01 11584   0.161E+00    0.524E+00
DAV:   6    -0.948121981798E+01    0.13818E+01   -0.42032E+00  8408   0.873E+00    0.463E+00
DAV:   7    -0.940056403803E+01    0.80656E-01   -0.11080E+00  8640   0.389E+00    0.365E+00
DAV:   8    -0.941750854517E+01   -0.16945E-01   -0.22666E-01  7696   0.210E+00    0.515E-01
DAV:   9    -0.941242314816E+01    0.50854E-02   -0.66743E-02  9320   0.912E-01    0.487E-01
DAV:  10    -0.941757095980E+01   -0.51478E-02   -0.76030E-03  7104   0.414E-01    0.122E-01
DAV:  11    -0.941792639331E+01   -0.35543E-03   -0.24108E-03  9320   0.182E-01    0.382E-02
DAV:  12    -0.941817150018E+01   -0.24511E-03   -0.94687E-04  7152   0.116E-01    0.578E-02
DAV:  13    -0.941815892788E+01    0.12572E-04   -0.11204E-04 10088   0.350E-02    0.172E-02
DAV:  14    -0.941815874674E+01    0.18115E-06   -0.73537E-06  6208   0.101E-02
   1 F= -.94181587E+01 E0= -.94181587E+01  d E =-.305911E-18
