   4   4   0   0
  0.1371292E+02  0.3799531E-09  0.3799531E-09  0.3799531E-09  0.5000000E-15
  1.000000000000000E-004
  CAR 
 unknown system                          
     23.76709189    -37.78395489  301     12.17882562      1.00000000
    -37.784  0.0000E+00  0.0000E+00
    -37.579  0.0000E+00  0.0000E+00
    -37.374  0.0000E+00  0.0000E+00
    -37.168  0.0000E+00  0.0000E+00
    -36.963  0.0000E+00  0.0000E+00
    -36.758  0.0000E+00  0.0000E+00
    -36.553  0.0000E+00  0.0000E+00
    -36.348  0.0000E+00  0.0000E+00
    -36.143  0.0000E+00  0.0000E+00
    -35.937  0.0000E+00  0.0000E+00
    -35.732  0.0000E+00  0.0000E+00
    -35.527  0.0000E+00  0.0000E+00
    -35.322  0.0000E+00  0.0000E+00
    -35.117  0.2539E-04  0.5210E-05
    -34.912  0.1892E+01  0.3881E+00
    -34.706  0.2867E+02  0.6271E+01
    -34.501  0.2985E+02  0.1240E+02
    -34.296  0.2725E+02  0.1799E+02
    -34.091  0.6778E-01  0.1800E+02
    -33.886  0.0000E+00  0.1800E+02
    -33.681  0.0000E+00  0.1800E+02
    -33.475  0.0000E+00  0.1800E+02
    -33.270  0.0000E+00  0.1800E+02
    -33.065  0.0000E+00  0.1800E+02
    -32.860  0.0000E+00  0.1800E+02
    -32.655  0.0000E+00  0.1800E+02
    -32.450  0.0000E+00  0.1800E+02
    -32.244  0.0000E+00  0.1800E+02
    -32.039  0.0000E+00  0.1800E+02
    -31.834  0.0000E+00  0.1800E+02
    -31.629  0.0000E+00  0.1800E+02
    -31.424  0.0000E+00  0.1800E+02
    -31.219  0.0000E+00  0.1800E+02
    -31.013  0.9466E-17  0.1800E+02
    -30.808  0.3572E-01  0.1801E+02
    -30.603  0.2908E+02  0.2397E+02
    -30.398  0.1299E+00  0.2400E+02
    -30.193  0.0000E+00  0.2400E+02
    -29.987  0.0000E+00  0.2400E+02
    -29.782  0.0000E+00  0.2400E+02
    -29.577  0.0000E+00  0.2400E+02
    -29.372  0.0000E+00  0.2400E+02
    -29.167  0.0000E+00  0.2400E+02
    -28.962  0.0000E+00  0.2400E+02
    -28.756  0.0000E+00  0.2400E+02
    -28.551  0.0000E+00  0.2400E+02
    -28.346  0.0000E+00  0.2400E+02
    -28.141  0.0000E+00  0.2400E+02
    -27.936  0.0000E+00  0.2400E+02
    -27.731  0.0000E+00  0.2400E+02
    -27.525  0.0000E+00  0.2400E+02
    -27.320  0.0000E+00  0.2400E+02
    -27.115  0.0000E+00  0.2400E+02
    -26.910  0.0000E+00  0.2400E+02
    -26.705  0.0000E+00  0.2400E+02
    -26.500  0.0000E+00  0.2400E+02
    -26.294  0.0000E+00  0.2400E+02
    -26.089  0.0000E+00  0.2400E+02
    -25.884  0.0000E+00  0.2400E+02
    -25.679  0.0000E+00  0.2400E+02
    -25.474  0.0000E+00  0.2400E+02
    -25.269  0.0000E+00  0.2400E+02
    -25.063  0.0000E+00  0.2400E+02
    -24.858  0.0000E+00  0.2400E+02
    -24.653  0.0000E+00  0.2400E+02
    -24.448  0.0000E+00  0.2400E+02
    -24.243  0.0000E+00  0.2400E+02
    -24.038  0.0000E+00  0.2400E+02
    -23.832  0.0000E+00  0.2400E+02
    -23.627  0.0000E+00  0.2400E+02
    -23.422  0.0000E+00  0.2400E+02
    -23.217  0.0000E+00  0.2400E+02
    -23.012  0.0000E+00  0.2400E+02
    -22.807  0.0000E+00  0.2400E+02
    -22.601  0.0000E+00  0.2400E+02
    -22.396  0.0000E+00  0.2400E+02
    -22.191  0.0000E+00  0.2400E+02
    -21.986  0.0000E+00  0.2400E+02
    -21.781  0.0000E+00  0.2400E+02
    -21.576  0.0000E+00  0.2400E+02
    -21.370  0.0000E+00  0.2400E+02
    -21.165  0.0000E+00  0.2400E+02
    -20.960  0.0000E+00  0.2400E+02
    -20.755  0.0000E+00  0.2400E+02
    -20.550  0.0000E+00  0.2400E+02
    -20.344  0.0000E+00  0.2400E+02
    -20.139  0.0000E+00  0.2400E+02
    -19.934  0.0000E+00  0.2400E+02
    -19.729  0.0000E+00  0.2400E+02
    -19.524  0.0000E+00  0.2400E+02
    -19.319  0.0000E+00  0.2400E+02
    -19.113  0.0000E+00  0.2400E+02
    -18.908  0.0000E+00  0.2400E+02
    -18.703  0.0000E+00  0.2400E+02
    -18.498  0.0000E+00  0.2400E+02
    -18.293  0.0000E+00  0.2400E+02
    -18.088  0.0000E+00  0.2400E+02
    -17.882  0.0000E+00  0.2400E+02
    -17.677  0.0000E+00  0.2400E+02
    -17.472  0.0000E+00  0.2400E+02
    -17.267  0.0000E+00  0.2400E+02
    -17.062  0.0000E+00  0.2400E+02
    -16.857  0.0000E+00  0.2400E+02
    -16.651  0.0000E+00  0.2400E+02
    -16.446  0.0000E+00  0.2400E+02
    -16.241  0.0000E+00  0.2400E+02
    -16.036  0.0000E+00  0.2400E+02
    -15.831  0.0000E+00  0.2400E+02
    -15.626  0.0000E+00  0.2400E+02
    -15.420  0.0000E+00  0.2400E+02
    -15.215  0.0000E+00  0.2400E+02
    -15.010  0.0000E+00  0.2400E+02
    -14.805  0.0000E+00  0.2400E+02
    -14.600  0.0000E+00  0.2400E+02
    -14.395  0.0000E+00  0.2400E+02
    -14.189  0.0000E+00  0.2400E+02
    -13.984  0.0000E+00  0.2400E+02
    -13.779  0.0000E+00  0.2400E+02
    -13.574  0.0000E+00  0.2400E+02
    -13.369  0.0000E+00  0.2400E+02
    -13.164  0.0000E+00  0.2400E+02
    -12.958  0.0000E+00  0.2400E+02
    -12.753  0.0000E+00  0.2400E+02
    -12.548  0.0000E+00  0.2400E+02
    -12.343  0.0000E+00  0.2400E+02
    -12.138  0.0000E+00  0.2400E+02
    -11.933  0.0000E+00  0.2400E+02
    -11.727  0.0000E+00  0.2400E+02
    -11.522  0.0000E+00  0.2400E+02
    -11.317  0.0000E+00  0.2400E+02
    -11.112  0.0000E+00  0.2400E+02
    -10.907  0.0000E+00  0.2400E+02
    -10.701  0.0000E+00  0.2400E+02
    -10.496  0.0000E+00  0.2400E+02
    -10.291  0.0000E+00  0.2400E+02
    -10.086  0.0000E+00  0.2400E+02
     -9.881  0.0000E+00  0.2400E+02
     -9.676  0.0000E+00  0.2400E+02
     -9.470  0.0000E+00  0.2400E+02
     -9.265  0.0000E+00  0.2400E+02
     -9.060  0.0000E+00  0.2400E+02
     -8.855  0.0000E+00  0.2400E+02
     -8.650  0.0000E+00  0.2400E+02
     -8.445  0.0000E+00  0.2400E+02
     -8.239  0.0000E+00  0.2400E+02
     -8.034  0.0000E+00  0.2400E+02
     -7.829  0.0000E+00  0.2400E+02
     -7.624  0.0000E+00  0.2400E+02
     -7.419  0.0000E+00  0.2400E+02
     -7.214  0.0000E+00  0.2400E+02
     -7.008  0.0000E+00  0.2400E+02
     -6.803  0.0000E+00  0.2400E+02
     -6.598  0.0000E+00  0.2400E+02
     -6.393  0.0000E+00  0.2400E+02
     -6.188  0.0000E+00  0.2400E+02
     -5.983  0.0000E+00  0.2400E+02
     -5.777  0.0000E+00  0.2400E+02
     -5.572  0.0000E+00  0.2400E+02
     -5.367  0.0000E+00  0.2400E+02
     -5.162  0.0000E+00  0.2400E+02
     -4.957  0.0000E+00  0.2400E+02
     -4.752  0.0000E+00  0.2400E+02
     -4.546  0.0000E+00  0.2400E+02
     -4.341  0.0000E+00  0.2400E+02
     -4.136  0.0000E+00  0.2400E+02
     -3.931  0.0000E+00  0.2400E+02
     -3.726  0.0000E+00  0.2400E+02
     -3.521  0.0000E+00  0.2400E+02
     -3.315  0.0000E+00  0.2400E+02
     -3.110  0.0000E+00  0.2400E+02
     -2.905  0.0000E+00  0.2400E+02
     -2.700  0.0000E+00  0.2400E+02
     -2.495  0.0000E+00  0.2400E+02
     -2.290  0.0000E+00  0.2400E+02
     -2.084  0.0000E+00  0.2400E+02
     -1.879  0.0000E+00  0.2400E+02
     -1.674  0.0000E+00  0.2400E+02
     -1.469  0.0000E+00  0.2400E+02
     -1.264  0.0000E+00  0.2400E+02
     -1.058  0.0000E+00  0.2400E+02
     -0.853  0.0000E+00  0.2400E+02
     -0.648  0.0000E+00  0.2400E+02
     -0.443  0.0000E+00  0.2400E+02
     -0.238  0.0000E+00  0.2400E+02
     -0.033  0.0000E+00  0.2400E+02
      0.173  0.0000E+00  0.2400E+02
      0.378  0.0000E+00  0.2400E+02
      0.583  0.0000E+00  0.2400E+02
      0.788  0.0000E+00  0.2400E+02
      0.993  0.0000E+00  0.2400E+02
      1.198  0.0000E+00  0.2400E+02
      1.404  0.0000E+00  0.2400E+02
      1.609  0.0000E+00  0.2400E+02
      1.814  0.0000E+00  0.2400E+02
      2.019  0.0000E+00  0.2400E+02
      2.224  0.0000E+00  0.2400E+02
      2.429  0.0000E+00  0.2400E+02
      2.635  0.0000E+00  0.2400E+02
      2.840  0.0000E+00  0.2400E+02
      3.045  0.0000E+00  0.2400E+02
      3.250  0.0000E+00  0.2400E+02
      3.455  0.0000E+00  0.2400E+02
      3.660  0.0000E+00  0.2400E+02
      3.866  0.1578E-17  0.2400E+02
      4.071  0.1746E-03  0.2400E+02
      4.276  0.2823E-01  0.2401E+02
      4.481  0.1530E+00  0.2404E+02
      4.686  0.1375E+00  0.2407E+02
      4.891  0.2401E+00  0.2411E+02
      5.097  0.2085E+00  0.2416E+02
      5.302  0.1699E+00  0.2419E+02
      5.507  0.6754E+00  0.2433E+02
      5.712  0.6932E+00  0.2447E+02
      5.917  0.1817E+00  0.2451E+02
      6.122  0.2450E+01  0.2501E+02
      6.328  0.3542E+01  0.2574E+02
      6.533  0.5227E+01  0.2681E+02
      6.738  0.7331E+01  0.2832E+02
      6.943  0.8688E+01  0.3010E+02
      7.148  0.5492E+01  0.3123E+02
      7.353  0.8277E+01  0.3292E+02
      7.559  0.2670E+01  0.3347E+02
      7.764  0.4389E+01  0.3437E+02
      7.969  0.6253E+01  0.3566E+02
      8.174  0.5360E+01  0.3676E+02
      8.379  0.4707E+01  0.3772E+02
      8.585  0.4329E+01  0.3861E+02
      8.790  0.4790E+01  0.3959E+02
      8.995  0.6948E+01  0.4102E+02
      9.200  0.5876E+01  0.4222E+02
      9.405  0.8437E+01  0.4395E+02
      9.610  0.8240E+01  0.4564E+02
      9.816  0.7966E+01  0.4728E+02
     10.021  0.5190E+01  0.4834E+02
     10.226  0.3683E+01  0.4910E+02
     10.431  0.7006E+01  0.5054E+02
     10.636  0.5297E+01  0.5162E+02
     10.841  0.6371E+01  0.5293E+02
     11.047  0.3170E+01  0.5358E+02
     11.252  0.4203E+01  0.5444E+02
     11.457  0.5818E+01  0.5564E+02
     11.662  0.5653E+01  0.5680E+02
     11.867  0.4389E+01  0.5770E+02
     12.072  0.2429E+01  0.5820E+02
     12.278  0.7670E+01  0.5977E+02
     12.483  0.4756E+01  0.6074E+02
     12.688  0.4544E+01  0.6168E+02
     12.893  0.9882E+01  0.6370E+02
     13.098  0.4740E+01  0.6468E+02
     13.303  0.3845E+01  0.6547E+02
     13.509  0.2673E+01  0.6601E+02
     13.714  0.2002E+00  0.6606E+02
     13.919  0.6245E+00  0.6618E+02
     14.124  0.3727E+01  0.6695E+02
     14.329  0.8173E+00  0.6712E+02
     14.534  0.5622E+00  0.6723E+02
     14.740  0.8564E+00  0.6741E+02
     14.945  0.4732E+00  0.6750E+02
     15.150  0.1108E+01  0.6773E+02
     15.355  0.5970E+00  0.6785E+02
     15.560  0.4381E+00  0.6794E+02
     15.765  0.1589E+01  0.6827E+02
     15.971  0.1331E+01  0.6854E+02
     16.176  0.1161E+01  0.6878E+02
     16.381  0.2154E+00  0.6883E+02
     16.586  0.7617E+00  0.6898E+02
     16.791  0.8539E+00  0.6916E+02
     16.996  0.2069E+01  0.6958E+02
     17.202  0.2809E+00  0.6964E+02
     17.407  0.1958E+01  0.7004E+02
     17.612  0.6797E-02  0.7004E+02
     17.817  0.1013E+01  0.7025E+02
     18.022  0.3397E-02  0.7025E+02
     18.227  0.1292E+01  0.7052E+02
     18.433  0.5640E+00  0.7063E+02
     18.638  0.1476E+01  0.7093E+02
     18.843  0.1287E+00  0.7096E+02
     19.048  0.9670E+00  0.7116E+02
     19.253  0.6227E-02  0.7116E+02
     19.459  0.6697E+00  0.7130E+02
     19.664  0.1964E+01  0.7170E+02
     19.869  0.9449E-01  0.7172E+02
     20.074  0.2531E+00  0.7177E+02
     20.279  0.8790E-01  0.7179E+02
     20.484  0.1561E-12  0.7179E+02
     20.690  0.5167E-01  0.7180E+02
     20.895  0.6363E+00  0.7193E+02
     21.100  0.3351E+00  0.7200E+02
     21.305  0.3781E-04  0.7200E+02
     21.510  0.0000E+00  0.7200E+02
     21.715  0.0000E+00  0.7200E+02
     21.921  0.0000E+00  0.7200E+02
     22.126  0.0000E+00  0.7200E+02
     22.331  0.0000E+00  0.7200E+02
     22.536  0.0000E+00  0.7200E+02
     22.741  0.0000E+00  0.7200E+02
     22.946  0.0000E+00  0.7200E+02
     23.152  0.0000E+00  0.7200E+02
     23.357  0.0000E+00  0.7200E+02
     23.562  0.0000E+00  0.7200E+02
     23.767  0.0000E+00  0.7200E+02
