As16 S12                                
   1.00000000000000     
     8.3966495800000001    0.0000000000000000    0.0000000000000000
     0.0000000000000000    9.4184340899999999    0.0000000000000000
     0.0000000000000000    0.0000000000000000   10.2879254499999995
   As   S 
    16    12
Direct
     0.1008933600000006    0.1438982199999970    0.7155319399999982
     0.6008933600000006    0.8561017800000030    0.2844680600000018
     0.3991066399999994    0.6438982199999970    0.7844680600000018
     0.8991066399999994    0.3561017800000030    0.2155319399999982
     0.1008933600000006    0.6438982199999970    0.7844680600000018
     0.6008933600000006    0.3561017800000030    0.2155319399999982
     0.3991066399999994    0.1438982199999970    0.7155319399999982
     0.8991066399999994    0.8561017800000030    0.2844680600000018
     0.2500000000000000    0.4845318899999995    0.9344978900000029
     0.7500000000000000    0.5154681100000005    0.0655021099999971
     0.2500000000000000    0.9845318899999995    0.5655021099999971
     0.7500000000000000    0.0154681100000005    0.4344978900000029
     0.2500000000000000    0.8390517400000022    0.0561265300000002
     0.7500000000000000    0.1609482599999978    0.9438734699999998
     0.2500000000000000    0.3390517400000022    0.4438734699999998
     0.7500000000000000    0.6609482599999978    0.5561265300000002
     0.2500000000000000    0.6096581199999989    0.1168346999999983
     0.7500000000000000    0.3903418800000011    0.8831653000000017
     0.2500000000000000    0.1096581199999989    0.3831653000000017
     0.7500000000000000    0.8903418800000011    0.6168346999999983
     0.9507997899999978    0.1719312900000034    0.0879420799999977
     0.4507997899999978    0.8280687099999966    0.9120579200000023
     0.5492002100000022    0.6719312900000034    0.4120579200000023
     0.0492002100000022    0.3280687099999966    0.5879420799999977
     0.0492002100000022    0.8280687099999966    0.9120579200000023
     0.5492002100000022    0.1719312900000034    0.0879420799999977
     0.4507997899999978    0.3280687099999966    0.5879420799999977
     0.9507997899999978    0.6719312900000034    0.4120579200000023
 
  0.00000000E+00  0.00000000E+00  0.00000000E+00
  0.00000000E+00  0.00000000E+00  0.00000000E+00
  0.00000000E+00  0.00000000E+00  0.00000000E+00
  0.00000000E+00  0.00000000E+00  0.00000000E+00
  0.00000000E+00  0.00000000E+00  0.00000000E+00
  0.00000000E+00  0.00000000E+00  0.00000000E+00
  0.00000000E+00  0.00000000E+00  0.00000000E+00
  0.00000000E+00  0.00000000E+00  0.00000000E+00
  0.00000000E+00  0.00000000E+00  0.00000000E+00
  0.00000000E+00  0.00000000E+00  0.00000000E+00
  0.00000000E+00  0.00000000E+00  0.00000000E+00
  0.00000000E+00  0.00000000E+00  0.00000000E+00
  0.00000000E+00  0.00000000E+00  0.00000000E+00
  0.00000000E+00  0.00000000E+00  0.00000000E+00
  0.00000000E+00  0.00000000E+00  0.00000000E+00
  0.00000000E+00  0.00000000E+00  0.00000000E+00
  0.00000000E+00  0.00000000E+00  0.00000000E+00
  0.00000000E+00  0.00000000E+00  0.00000000E+00
  0.00000000E+00  0.00000000E+00  0.00000000E+00
  0.00000000E+00  0.00000000E+00  0.00000000E+00
  0.00000000E+00  0.00000000E+00  0.00000000E+00
  0.00000000E+00  0.00000000E+00  0.00000000E+00
  0.00000000E+00  0.00000000E+00  0.00000000E+00
  0.00000000E+00  0.00000000E+00  0.00000000E+00
  0.00000000E+00  0.00000000E+00  0.00000000E+00
  0.00000000E+00  0.00000000E+00  0.00000000E+00
  0.00000000E+00  0.00000000E+00  0.00000000E+00
  0.00000000E+00  0.00000000E+00  0.00000000E+00
