       N       E                     dE             d eps       ncg     rms          rms(c)
DAV:   1     0.862400479491E+03    0.86240E+03   -0.63784E+04  4032   0.126E+03
DAV:   2    -0.340119061160E+02   -0.89641E+03   -0.85445E+03  5048   0.203E+02
DAV:   3    -0.127067610671E+03   -0.93056E+02   -0.91596E+02  4840   0.679E+01
DAV:   4    -0.129515247250E+03   -0.24476E+01   -0.24247E+01  5056   0.121E+01
DAV:   5    -0.129579987654E+03   -0.64740E-01   -0.64583E-01  4920   0.206E+00    0.287E+01
DAV:   6    -0.127460444734E+03    0.21195E+01   -0.28271E+00  4480   0.426E+00    0.181E+01
DAV:   7    -0.127331412542E+03    0.12903E+00   -0.24770E+00  4504   0.324E+00    0.258E+00
DAV:   8    -0.127258546526E+03    0.72866E-01   -0.28710E-01  4336   0.152E+00    0.121E+00
DAV:   9    -0.127267072826E+03   -0.85263E-02   -0.87447E-02  4496   0.668E-01    0.601E-01
DAV:  10    -0.127266277317E+03    0.79551E-03   -0.42621E-03  4792   0.206E-01    0.319E-01
DAV:  11    -0.127267338313E+03   -0.10610E-02   -0.25692E-03  4328   0.127E-01    0.111E-01
DAV:  12    -0.127267337479E+03    0.83372E-06   -0.14482E-04  5136   0.315E-02    0.657E-02
DAV:  13    -0.127267360527E+03   -0.23048E-04   -0.80261E-05  5136   0.202E-02    0.310E-02
DAV:  14    -0.127267382404E+03   -0.21877E-04   -0.16586E-05  4592   0.109E-02    0.273E-02
DAV:  15    -0.127267385855E+03   -0.34508E-05   -0.29914E-06  4280   0.479E-03    0.112E-02
DAV:  16    -0.127267388107E+03   -0.22526E-05   -0.28303E-06  3168   0.387E-03    0.291E-03
DAV:  17    -0.127267388744E+03   -0.63655E-06   -0.58809E-07  2640   0.211E-03
   1 F= -.12726739E+03 E0= -.12726739E+03  d E =-.106495E-11
