unknown system                          
           1
     8.396650    0.000000    0.000000
     0.000000    9.418434    0.000000
     0.000000    0.000000   10.287925
   As   S 
    16    12
Direct configuration=     1
   0.10089336  0.14389822  0.71553194
   0.60089336  0.85610178  0.28446806
   0.39910664  0.64389822  0.78446806
   0.89910664  0.35610178  0.21553194
   0.10089336  0.64389822  0.78446806
   0.60089336  0.35610178  0.21553194
   0.39910664  0.14389822  0.71553194
   0.89910664  0.85610178  0.28446806
   0.25000000  0.48453189  0.93449789
   0.75000000  0.51546811  0.06550211
   0.25000000  0.98453189  0.56550211
   0.75000000  0.01546811  0.43449789
   0.25000000  0.83905174  0.05612653
   0.75000000  0.16094826  0.94387347
   0.25000000  0.33905174  0.44387347
   0.75000000  0.66094826  0.55612653
   0.25000000  0.60965812  0.11683470
   0.75000000  0.39034188  0.88316530
   0.25000000  0.10965812  0.38316530
   0.75000000  0.89034188  0.61683470
   0.95079979  0.17193129  0.08794208
   0.45079979  0.82806871  0.91205792
   0.54920021  0.67193129  0.41205792
   0.04920021  0.32806871  0.58794208
   0.04920021  0.82806871  0.91205792
   0.54920021  0.17193129  0.08794208
   0.45079979  0.32806871  0.58794208
   0.95079979  0.67193129  0.41205792
