   6   6   0   0
  0.2626799E+02  0.5715266E-09  0.5978890E-09  0.5978890E-09  0.5000000E-15
  1.000000000000000E-004
  CAR 
 unknown system                          
     20.20177790    -10.93901083  301      7.54149271      1.00000000
    -10.939  0.0000E+00  0.0000E+00
    -10.835  0.0000E+00  0.0000E+00
    -10.731  0.0000E+00  0.0000E+00
    -10.628  0.0000E+00  0.0000E+00
    -10.524  0.0000E+00  0.0000E+00
    -10.420  0.0000E+00  0.0000E+00
    -10.316  0.0000E+00  0.0000E+00
    -10.212  0.0000E+00  0.0000E+00
    -10.109  0.0000E+00  0.0000E+00
    -10.005  0.0000E+00  0.0000E+00
     -9.901  0.0000E+00  0.0000E+00
     -9.797  0.3269E-14  0.3393E-15
     -9.693  0.7369E-06  0.7649E-07
     -9.590  0.9856E-01  0.1023E-01
     -9.486  0.2420E+02  0.2522E+01
     -9.382  0.1146E+03  0.1442E+02
     -9.278  0.1311E+03  0.2803E+02
     -9.174  0.1091E+03  0.3936E+02
     -9.071  0.6204E+01  0.4000E+02
     -8.967  0.1276E-02  0.4000E+02
     -8.863  0.1352E-09  0.4000E+02
     -8.759  0.0000E+00  0.4000E+02
     -8.655  0.0000E+00  0.4000E+02
     -8.552  0.0000E+00  0.4000E+02
     -8.448  0.0000E+00  0.4000E+02
     -8.344  0.0000E+00  0.4000E+02
     -8.240  0.0000E+00  0.4000E+02
     -8.136  0.0000E+00  0.4000E+02
     -8.033  0.0000E+00  0.4000E+02
     -7.929  0.0000E+00  0.4000E+02
     -7.825  0.0000E+00  0.4000E+02
     -7.721  0.0000E+00  0.4000E+02
     -7.617  0.0000E+00  0.4000E+02
     -7.514  0.0000E+00  0.4000E+02
     -7.410  0.0000E+00  0.4000E+02
     -7.306  0.0000E+00  0.4000E+02
     -7.202  0.0000E+00  0.4000E+02
     -7.098  0.0000E+00  0.4000E+02
     -6.995  0.0000E+00  0.4000E+02
     -6.891  0.0000E+00  0.4000E+02
     -6.787  0.0000E+00  0.4000E+02
     -6.683  0.0000E+00  0.4000E+02
     -6.579  0.0000E+00  0.4000E+02
     -6.475  0.0000E+00  0.4000E+02
     -6.372  0.0000E+00  0.4000E+02
     -6.268  0.0000E+00  0.4000E+02
     -6.164  0.0000E+00  0.4000E+02
     -6.060  0.0000E+00  0.4000E+02
     -5.956  0.0000E+00  0.4000E+02
     -5.853  0.0000E+00  0.4000E+02
     -5.749  0.0000E+00  0.4000E+02
     -5.645  0.0000E+00  0.4000E+02
     -5.541  0.0000E+00  0.4000E+02
     -5.437  0.0000E+00  0.4000E+02
     -5.334  0.0000E+00  0.4000E+02
     -5.230  0.0000E+00  0.4000E+02
     -5.126  0.0000E+00  0.4000E+02
     -5.022  0.0000E+00  0.4000E+02
     -4.918  0.0000E+00  0.4000E+02
     -4.815  0.0000E+00  0.4000E+02
     -4.711  0.0000E+00  0.4000E+02
     -4.607  0.0000E+00  0.4000E+02
     -4.503  0.0000E+00  0.4000E+02
     -4.399  0.0000E+00  0.4000E+02
     -4.296  0.0000E+00  0.4000E+02
     -4.192  0.0000E+00  0.4000E+02
     -4.088  0.0000E+00  0.4000E+02
     -3.984  0.2168E-08  0.4000E+02
     -3.880  0.6842E-03  0.4000E+02
     -3.777  0.9569E-01  0.4001E+02
     -3.673  0.5823E-01  0.4002E+02
     -3.569  0.2702E+00  0.4004E+02
     -3.465  0.1174E+01  0.4017E+02
     -3.361  0.5717E+00  0.4023E+02
     -3.258  0.4441E+00  0.4027E+02
     -3.154  0.8426E-02  0.4027E+02
     -3.050  0.1096E+01  0.4039E+02
     -2.946  0.1796E+01  0.4057E+02
     -2.842  0.6339E+00  0.4064E+02
     -2.739  0.1294E+01  0.4077E+02
     -2.635  0.1594E+01  0.4094E+02
     -2.531  0.1849E+01  0.4113E+02
     -2.427  0.2491E+00  0.4116E+02
     -2.323  0.1011E+01  0.4126E+02
     -2.220  0.5557E+00  0.4132E+02
     -2.116  0.1060E+01  0.4143E+02
     -2.012  0.2784E+01  0.4172E+02
     -1.908  0.3619E+01  0.4209E+02
     -1.804  0.5775E+00  0.4215E+02
     -1.701  0.4267E+00  0.4220E+02
     -1.597  0.3933E+01  0.4261E+02
     -1.493  0.1403E+01  0.4275E+02
     -1.389  0.9267E+00  0.4285E+02
     -1.285  0.2116E+01  0.4307E+02
     -1.182  0.3206E+01  0.4340E+02
     -1.078  0.4083E+01  0.4382E+02
     -0.974  0.2879E+01  0.4412E+02
     -0.870  0.2758E+01  0.4441E+02
     -0.766  0.1884E+01  0.4460E+02
     -0.663  0.2316E+01  0.4484E+02
     -0.559  0.4875E+01  0.4535E+02
     -0.455  0.5641E+01  0.4594E+02
     -0.351  0.6256E+01  0.4659E+02
     -0.247  0.1620E+01  0.4675E+02
     -0.144  0.7770E+00  0.4683E+02
     -0.040  0.2396E+01  0.4708E+02
      0.064  0.4737E+01  0.4757E+02
      0.168  0.2462E+01  0.4783E+02
      0.272  0.5214E+00  0.4788E+02
      0.375  0.4981E+00  0.4794E+02
      0.479  0.4849E+00  0.4799E+02
      0.583  0.1305E+00  0.4800E+02
      0.687  0.5756E-04  0.4800E+02
      0.791  0.4700E-07  0.4800E+02
      0.894  0.6423E-02  0.4800E+02
      0.998  0.5358E+00  0.4806E+02
      1.102  0.3799E+00  0.4810E+02
      1.206  0.2659E-02  0.4810E+02
      1.310  0.8192E-03  0.4810E+02
      1.414  0.7533E+00  0.4817E+02
      1.517  0.2174E+01  0.4840E+02
      1.621  0.2370E+01  0.4865E+02
      1.725  0.4903E+00  0.4870E+02
      1.829  0.3140E+01  0.4902E+02
      1.933  0.1683E+01  0.4920E+02
      2.036  0.4018E+00  0.4924E+02
      2.140  0.8467E+00  0.4933E+02
      2.244  0.7548E+00  0.4941E+02
      2.348  0.5060E+01  0.4993E+02
      2.452  0.8037E+01  0.5077E+02
      2.555  0.5648E+01  0.5135E+02
      2.659  0.7735E+01  0.5215E+02
      2.763  0.1118E+02  0.5332E+02
      2.867  0.8293E+01  0.5418E+02
      2.971  0.9161E+01  0.5513E+02
      3.074  0.1061E+02  0.5623E+02
      3.178  0.1263E+02  0.5754E+02
      3.282  0.1691E+02  0.5930E+02
      3.386  0.1059E+02  0.6039E+02
      3.490  0.1241E+02  0.6168E+02
      3.593  0.1492E+02  0.6323E+02
      3.697  0.6926E+01  0.6395E+02
      3.801  0.1107E+02  0.6510E+02
      3.905  0.1032E+02  0.6617E+02
      4.009  0.3874E+01  0.6657E+02
      4.112  0.4984E+01  0.6709E+02
      4.216  0.5872E+01  0.6770E+02
      4.320  0.9821E+01  0.6872E+02
      4.424  0.5143E+01  0.6925E+02
      4.528  0.3769E+01  0.6964E+02
      4.631  0.2512E+01  0.6990E+02
      4.735  0.2489E+01  0.7016E+02
      4.839  0.1081E+01  0.7028E+02
      4.943  0.2617E+01  0.7055E+02
      5.047  0.3843E+01  0.7095E+02
      5.150  0.1344E+01  0.7109E+02
      5.254  0.6223E+00  0.7115E+02
      5.358  0.2255E+01  0.7138E+02
      5.462  0.7895E+00  0.7147E+02
      5.566  0.3048E+01  0.7178E+02
      5.669  0.5795E+01  0.7238E+02
      5.773  0.4637E+01  0.7287E+02
      5.877  0.3871E+01  0.7327E+02
      5.981  0.4438E+01  0.7373E+02
      6.085  0.5980E+01  0.7435E+02
      6.188  0.2326E+01  0.7459E+02
      6.292  0.6197E+00  0.7465E+02
      6.396  0.3697E+00  0.7469E+02
      6.500  0.8477E+00  0.7478E+02
      6.604  0.2202E+01  0.7501E+02
      6.707  0.1922E+01  0.7521E+02
      6.811  0.5714E+01  0.7580E+02
      6.915  0.4784E+01  0.7630E+02
      7.019  0.4346E+01  0.7675E+02
      7.123  0.3386E+01  0.7710E+02
      7.226  0.7267E+00  0.7718E+02
      7.330  0.2694E+01  0.7746E+02
      7.434  0.3638E+01  0.7783E+02
      7.538  0.1467E+01  0.7799E+02
      7.642  0.3507E+01  0.7835E+02
      7.745  0.2594E+01  0.7862E+02
      7.849  0.1272E+01  0.7875E+02
      7.953  0.1229E+01  0.7888E+02
      8.057  0.1779E+01  0.7906E+02
      8.161  0.3003E+01  0.7938E+02
      8.264  0.4070E+01  0.7980E+02
      8.368  0.1456E+01  0.7995E+02
      8.472  0.1673E+01  0.8012E+02
      8.576  0.4328E+01  0.8057E+02
      8.680  0.3070E+01  0.8089E+02
      8.783  0.1748E+00  0.8091E+02
      8.887  0.1159E+01  0.8103E+02
      8.991  0.2000E+01  0.8124E+02
      9.095  0.4291E+01  0.8168E+02
      9.199  0.3269E+01  0.8202E+02
      9.303  0.6752E+01  0.8272E+02
      9.406  0.2967E+01  0.8303E+02
      9.510  0.5024E+01  0.8355E+02
      9.614  0.9656E+00  0.8365E+02
      9.718  0.1899E+01  0.8385E+02
      9.822  0.3386E+01  0.8420E+02
      9.925  0.2653E+01  0.8448E+02
     10.029  0.7353E+00  0.8455E+02
     10.133  0.1482E+01  0.8471E+02
     10.237  0.7085E+00  0.8478E+02
     10.341  0.5722E+01  0.8537E+02
     10.444  0.9236E+01  0.8633E+02
     10.548  0.4125E+01  0.8676E+02
     10.652  0.3799E+01  0.8715E+02
     10.756  0.8447E+00  0.8724E+02
     10.860  0.5063E+01  0.8777E+02
     10.963  0.5673E+01  0.8836E+02
     11.067  0.4571E+01  0.8883E+02
     11.171  0.2774E+01  0.8912E+02
     11.275  0.2003E+01  0.8933E+02
     11.379  0.4750E+01  0.8982E+02
     11.482  0.6341E+01  0.9048E+02
     11.586  0.3688E+01  0.9086E+02
     11.690  0.4739E+01  0.9135E+02
     11.794  0.6814E+01  0.9206E+02
     11.898  0.3766E+01  0.9245E+02
     12.001  0.2938E+01  0.9276E+02
     12.105  0.3385E+01  0.9311E+02
     12.209  0.3777E+01  0.9350E+02
     12.313  0.7367E+01  0.9426E+02
     12.417  0.4789E+01  0.9476E+02
     12.520  0.3159E+01  0.9509E+02
     12.624  0.1071E+01  0.9520E+02
     12.728  0.1033E+01  0.9531E+02
     12.832  0.9589E+00  0.9541E+02
     12.936  0.2684E+01  0.9569E+02
     13.039  0.1960E+01  0.9589E+02
     13.143  0.1232E+01  0.9602E+02
     13.247  0.1002E+01  0.9612E+02
     13.351  0.5220E+00  0.9618E+02
     13.455  0.9943E+00  0.9628E+02
     13.558  0.2629E+01  0.9655E+02
     13.662  0.6699E+00  0.9662E+02
     13.766  0.2760E+01  0.9691E+02
     13.870  0.1883E+01  0.9710E+02
     13.974  0.1830E+01  0.9729E+02
     14.077  0.1856E+01  0.9749E+02
     14.181  0.4316E+01  0.9793E+02
     14.285  0.4503E+01  0.9840E+02
     14.389  0.3445E+01  0.9876E+02
     14.493  0.9516E+00  0.9886E+02
     14.596  0.3483E+01  0.9922E+02
     14.700  0.6323E+01  0.9988E+02
     14.804  0.4553E+01  0.1003E+03
     14.908  0.2830E+01  0.1006E+03
     15.012  0.4778E+01  0.1011E+03
     15.115  0.1932E+01  0.1013E+03
     15.219  0.3040E+01  0.1017E+03
     15.323  0.2118E+01  0.1019E+03
     15.427  0.1811E+01  0.1021E+03
     15.531  0.3603E+01  0.1024E+03
     15.634  0.2334E+01  0.1027E+03
     15.738  0.2259E+01  0.1029E+03
     15.842  0.3765E+01  0.1033E+03
     15.946  0.5350E+01  0.1039E+03
     16.050  0.2916E+01  0.1042E+03
     16.153  0.4326E+01  0.1046E+03
     16.257  0.4659E+01  0.1051E+03
     16.361  0.2567E+01  0.1054E+03
     16.465  0.2164E+01  0.1056E+03
     16.569  0.4692E+01  0.1061E+03
     16.672  0.2997E+01  0.1064E+03
     16.776  0.3959E+01  0.1068E+03
     16.880  0.4324E+01  0.1072E+03
     16.984  0.5565E+01  0.1078E+03
     17.088  0.5093E+01  0.1083E+03
     17.192  0.2397E+01  0.1086E+03
     17.295  0.3465E+01  0.1090E+03
     17.399  0.2059E+01  0.1092E+03
     17.503  0.2553E+01  0.1094E+03
     17.607  0.5713E+01  0.1100E+03
     17.711  0.2411E+01  0.1103E+03
     17.814  0.1394E+01  0.1104E+03
     17.918  0.1648E+01  0.1106E+03
     18.022  0.2124E+01  0.1108E+03
     18.126  0.4063E+01  0.1112E+03
     18.230  0.1434E+01  0.1114E+03
     18.333  0.3157E+00  0.1114E+03
     18.437  0.8215E+00  0.1115E+03
     18.541  0.1021E+01  0.1116E+03
     18.645  0.1322E+01  0.1117E+03
     18.749  0.1884E+01  0.1119E+03
     18.852  0.5217E+00  0.1120E+03
     18.956  0.1902E-01  0.1120E+03
     19.060  0.4785E-06  0.1120E+03
     19.164  0.3012E-14  0.1120E+03
     19.268  0.0000E+00  0.1120E+03
     19.371  0.0000E+00  0.1120E+03
     19.475  0.0000E+00  0.1120E+03
     19.579  0.0000E+00  0.1120E+03
     19.683  0.0000E+00  0.1120E+03
     19.787  0.0000E+00  0.1120E+03
     19.890  0.0000E+00  0.1120E+03
     19.994  0.0000E+00  0.1120E+03
     20.098  0.0000E+00  0.1120E+03
     20.202  0.0000E+00  0.1120E+03
