       N       E                     dE             d eps       ncg     rms          rms(c)
DAV:   1     0.100765809275E+04    0.10077E+04   -0.39117E+04 14088   0.184E+03
DAV:   2     0.109960010602E+03   -0.89770E+03   -0.84910E+03 14008   0.510E+02
DAV:   3    -0.154142455214E+02   -0.12537E+03   -0.11960E+03 15464   0.206E+02
DAV:   4    -0.217395833021E+02   -0.63253E+01   -0.62815E+01 16896   0.476E+01
DAV:   5    -0.219770846427E+02   -0.23750E+00   -0.23747E+00 18296   0.903E+00    0.755E+00
DAV:   6    -0.212567642127E+02    0.72032E+00   -0.30262E+00 16760   0.873E+00    0.622E+00
DAV:   7    -0.211884193680E+02    0.68345E-01   -0.21619E-01 16152   0.279E+00    0.342E+00
DAV:   8    -0.211693771516E+02    0.19042E-01   -0.64466E-02 18000   0.166E+00    0.335E-01
DAV:   9    -0.211670457517E+02    0.23314E-02   -0.14442E-02 17584   0.914E-01    0.199E-01
DAV:  10    -0.211669854096E+02    0.60342E-04   -0.15639E-03 17120   0.282E-01    0.339E-02
DAV:  11    -0.211669810898E+02    0.43199E-05   -0.69277E-05 18096   0.524E-02    0.908E-03
DAV:  12    -0.211669805891E+02    0.50070E-06   -0.48053E-06 14496   0.142E-02
   1 F= -.21166981E+02 E0= -.21164580E+02  d E =-.480191E-02
