Pb4 Au2
1.0
   5.0178921599999997    0.0004156600000000    2.7358765200000001
   2.5110449500000001    5.2515568899999998    1.3648897200000001
  -0.0041834800000000   -0.0034738300000000    5.9788879300000000
Pb Au
4 2
direct
   0.1594923500000000    0.4999757600000000    0.1809093400000000 Pb
   0.3405076500000000    0.8190906600000000    0.5000242400000000 Pb
   0.6594923499999999    0.1809093400000000    0.4999757600000000 Pb
   0.8405076500000001    0.5000242400000000    0.8190906600000000 Pb
   0.2500000000000000    0.9998759900000000    0.0001240100000000 Au
   0.7500000000000000    0.0001240100000000    0.9998759900000000 Au
