       N       E                     dE             d eps       ncg     rms          rms(c)
DAV:   1     0.879156024541E+02    0.87916E+02   -0.85691E+03 23432   0.105E+03
DAV:   2    -0.732992284343E+01   -0.95246E+02   -0.86205E+02 28440   0.242E+02
DAV:   3    -0.101623566471E+02   -0.28324E+01   -0.28162E+01 28304   0.439E+01
DAV:   4    -0.101748205982E+02   -0.12464E-01   -0.12463E-01 30232   0.307E+00
DAV:   5    -0.101749354042E+02   -0.11481E-03   -0.11481E-03 28720   0.283E-01    0.144E+01
DAV:   6    -0.864535067665E+01    0.15296E+01   -0.18121E+01 30800   0.460E+01    0.142E+01
DAV:   7    -0.768358320703E+01    0.96177E+00   -0.23929E+00 24440   0.179E+01    0.589E+00
DAV:   8    -0.768311081486E+01    0.47239E-03   -0.37281E-01 27000   0.580E+00    0.145E+00
DAV:   9    -0.766517592952E+01    0.17935E-01   -0.49203E-02 26688   0.260E+00    0.397E-01
DAV:  10    -0.766461322934E+01    0.56270E-03   -0.50847E-03 27600   0.550E-01    0.102E-01
DAV:  11    -0.766458676855E+01    0.26461E-04   -0.89559E-04 28664   0.347E-01    0.736E-02
DAV:  12    -0.766456573566E+01    0.21033E-04   -0.24204E-04 29208   0.174E-01    0.202E-02
DAV:  13    -0.766456498072E+01    0.75494E-06   -0.78036E-06 26960   0.319E-02
   1 F= -.76645650E+01 E0= -.76632538E+01  d E =-.262236E-02
