Sr10 Sn6
1.0
   7.7888794099999998   -0.0003252900000000   -3.6571907299999999
  -1.7175056200000001    7.5969978100000004   -3.6577365700000000
   0.0563565400000000    0.0692996500000000   10.2440956500000002
Sr Sn
10 6
direct
   0.3182763100000000    0.8183939700000000    0.2799586400000000 Sr
   0.4616855100000000    0.3183698800000000    0.2799477600000000 Sr
   0.8182723500000000    0.9619528200000000    0.2801655200000000 Sr
   0.5383144900000000    0.6816301200000000    0.7200522400000000 Sr
   0.1817276500000000    0.0380471800000000    0.7198344800000001 Sr
   0.0381212900000000    0.5380598900000000    0.7198407999999999 Sr
   0.6817236900000000    0.1816060300000000    0.7200413600000000 Sr
   0.9618787100000000    0.4619401100000000    0.2801592000000000 Sr
  -0.0000000000000000    0.0000000000000000    0.0000000000000000 Sr
   0.5000000000000000    0.5000000000000000    0.0000000000000000 Sr
   0.3798819100000000    0.8798812700000000    0.9996747400000000 Sn
   0.1198179200000000    0.3799057400000000    0.9997255700000000 Sn
   0.8801820800000000    0.6200942600000000    0.0002744300000000 Sn
   0.6201180900000000    0.1201187300000000    0.0003252600000000 Sn
   0.2503229000000000    0.2499662000000000    0.4999544800000000 Sn
   0.7496771000000000    0.7500338000000000    0.5000455200000000 Sn
