   1   1   0   0
  0.1532745E+02  0.2788228E-09  0.2788229E-09  0.2788228E-09  0.5000000E-15
  1.000000000000000E-004
  CAR 
 unknown system                          
     44.83298187     -1.17017965  301     10.89171528      1.00000000
     -1.170  0.0000E+00  0.0000E+00
     -1.017  0.0000E+00  0.0000E+00
     -0.863  0.0000E+00  0.0000E+00
     -0.710  0.0000E+00  0.0000E+00
     -0.557  0.0000E+00  0.0000E+00
     -0.403  0.0000E+00  0.0000E+00
     -0.250  0.0000E+00  0.0000E+00
     -0.097  0.0000E+00  0.0000E+00
      0.057  0.0000E+00  0.0000E+00
      0.210  0.0000E+00  0.0000E+00
      0.363  0.0000E+00  0.0000E+00
      0.517  0.0000E+00  0.0000E+00
      0.670  0.6234E-14  0.9560E-15
      0.823  0.2832E-04  0.4342E-05
      0.977  0.9209E-02  0.1416E-02
      1.130  0.6069E-03  0.1509E-02
      1.283  0.6873E-01  0.1205E-01
      1.437  0.6782E-01  0.2245E-01
      1.590  0.5848E-03  0.2254E-01
      1.743  0.3384E-01  0.2773E-01
      1.897  0.8374E-01  0.4057E-01
      2.050  0.8832E-01  0.5411E-01
      2.203  0.2240E+00  0.8846E-01
      2.357  0.1299E-02  0.8866E-01
      2.510  0.8201E-02  0.8991E-01
      2.663  0.5118E-01  0.9776E-01
      2.817  0.2243E+00  0.1322E+00
      2.970  0.2424E+00  0.1693E+00
      3.123  0.1296E+00  0.1892E+00
      3.277  0.1868E+00  0.2178E+00
      3.430  0.8376E-01  0.2307E+00
      3.583  0.1517E+00  0.2539E+00
      3.737  0.2168E+00  0.2872E+00
      3.890  0.4727E+00  0.3597E+00
      4.044  0.9289E+00  0.5021E+00
      4.197  0.4840E+00  0.5763E+00
      4.350  0.6762E+00  0.6800E+00
      4.504  0.1140E+01  0.8549E+00
      4.657  0.1324E+01  0.1058E+01
      4.810  0.1389E+01  0.1271E+01
      4.964  0.1523E+01  0.1504E+01
      5.117  0.9554E+00  0.1651E+01
      5.270  0.1799E+01  0.1927E+01
      5.424  0.1333E+01  0.2131E+01
      5.577  0.9513E+00  0.2277E+01
      5.730  0.1038E+01  0.2436E+01
      5.884  0.1204E+01  0.2621E+01
      6.037  0.1049E+01  0.2782E+01
      6.190  0.1389E+01  0.2995E+01
      6.344  0.1408E+01  0.3211E+01
      6.497  0.7598E+00  0.3327E+01
      6.650  0.1433E+01  0.3547E+01
      6.804  0.2104E+01  0.3870E+01
      6.957  0.1405E+01  0.4085E+01
      7.110  0.2002E+01  0.4392E+01
      7.264  0.1448E+01  0.4614E+01
      7.417  0.1997E+01  0.4920E+01
      7.570  0.2144E+01  0.5249E+01
      7.724  0.2003E+01  0.5556E+01
      7.877  0.1911E+01  0.5849E+01
      8.030  0.1479E+01  0.6076E+01
      8.184  0.1821E+01  0.6355E+01
      8.337  0.1059E+01  0.6518E+01
      8.490  0.7931E+00  0.6639E+01
      8.644  0.1295E+01  0.6838E+01
      8.797  0.1311E+01  0.7039E+01
      8.951  0.9451E+00  0.7184E+01
      9.104  0.1725E+01  0.7448E+01
      9.257  0.2139E+01  0.7776E+01
      9.411  0.1500E+01  0.8006E+01
      9.564  0.1372E+01  0.8217E+01
      9.717  0.4648E+00  0.8288E+01
      9.871  0.6542E+00  0.8388E+01
     10.024  0.1162E+01  0.8566E+01
     10.177  0.1072E+01  0.8731E+01
     10.331  0.2198E+01  0.9068E+01
     10.484  0.1424E+01  0.9286E+01
     10.637  0.7761E+00  0.9405E+01
     10.791  0.1966E+01  0.9707E+01
     10.944  0.2651E+01  0.1011E+02
     11.097  0.1259E+01  0.1031E+02
     11.251  0.8555E+00  0.1044E+02
     11.404  0.8401E+00  0.1057E+02
     11.557  0.3846E-02  0.1057E+02
     11.711  0.3393E+00  0.1062E+02
     11.864  0.1337E+00  0.1064E+02
     12.017  0.5006E+00  0.1072E+02
     12.171  0.1137E+01  0.1089E+02
     12.324  0.6441E-01  0.1090E+02
     12.477  0.4283E+00  0.1097E+02
     12.631  0.3282E+00  0.1102E+02
     12.784  0.1827E+00  0.1104E+02
     12.937  0.2686E-04  0.1104E+02
     13.091  0.0000E+00  0.1104E+02
     13.244  0.4283E-05  0.1104E+02
     13.397  0.1548E+00  0.1107E+02
     13.551  0.8500E+00  0.1120E+02
     13.704  0.2907E+00  0.1124E+02
     13.858  0.2271E+00  0.1128E+02
     14.011  0.1802E-01  0.1128E+02
     14.164  0.6146E+00  0.1137E+02
     14.318  0.5764E+00  0.1146E+02
     14.471  0.2560E+00  0.1150E+02
     14.624  0.6991E-01  0.1151E+02
     14.778  0.5460E-03  0.1151E+02
     14.931  0.2241E+00  0.1155E+02
     15.084  0.2432E+00  0.1158E+02
     15.238  0.1367E-01  0.1159E+02
     15.391  0.2891E+00  0.1163E+02
     15.544  0.6390E+00  0.1173E+02
     15.698  0.1001E-01  0.1173E+02
     15.851  0.4559E+00  0.1180E+02
     16.004  0.5752E-02  0.1180E+02
     16.158  0.1328E-02  0.1180E+02
     16.311  0.3302E+00  0.1185E+02
     16.464  0.4404E+00  0.1192E+02
     16.618  0.2086E+00  0.1195E+02
     16.771  0.5497E+00  0.1204E+02
     16.924  0.4459E+00  0.1210E+02
     17.078  0.9733E-01  0.1212E+02
     17.231  0.7118E+00  0.1223E+02
     17.384  0.4305E+00  0.1229E+02
     17.538  0.2728E+00  0.1234E+02
     17.691  0.8291E-05  0.1234E+02
     17.844  0.1002E-03  0.1234E+02
     17.998  0.2662E+00  0.1238E+02
     18.151  0.2789E+00  0.1242E+02
     18.304  0.6378E+00  0.1252E+02
     18.458  0.4420E+00  0.1259E+02
     18.611  0.5957E+00  0.1268E+02
     18.765  0.2787E-01  0.1268E+02
     18.918  0.2206E+00  0.1272E+02
     19.071  0.6037E+00  0.1281E+02
     19.225  0.2178E+00  0.1284E+02
     19.378  0.3734E-02  0.1284E+02
     19.531  0.4554E+00  0.1291E+02
     19.685  0.2470E+00  0.1295E+02
     19.838  0.1957E+00  0.1298E+02
     19.991  0.3835E+00  0.1304E+02
     20.145  0.2060E+00  0.1307E+02
     20.298  0.4345E+00  0.1314E+02
     20.451  0.7189E+00  0.1325E+02
     20.605  0.8131E-01  0.1326E+02
     20.758  0.1509E+00  0.1328E+02
     20.911  0.3717E+00  0.1334E+02
     21.065  0.1850E+00  0.1337E+02
     21.218  0.3041E+00  0.1341E+02
     21.371  0.3991E+00  0.1348E+02
     21.525  0.1590E-02  0.1348E+02
     21.678  0.6697E+00  0.1358E+02
     21.831  0.5023E+00  0.1366E+02
     21.985  0.1618E+00  0.1368E+02
     22.138  0.6613E+00  0.1378E+02
     22.291  0.2786E+00  0.1382E+02
     22.445  0.6625E+00  0.1393E+02
     22.598  0.5725E+00  0.1401E+02
     22.751  0.3762E+00  0.1407E+02
     22.905  0.1292E+00  0.1409E+02
     23.058  0.6712E+00  0.1419E+02
     23.211  0.7879E-01  0.1421E+02
     23.365  0.2545E+00  0.1425E+02
     23.518  0.6973E+00  0.1435E+02
     23.672  0.2160E+00  0.1439E+02
     23.825  0.1133E+01  0.1456E+02
     23.978  0.2754E+00  0.1460E+02
     24.132  0.2563E+00  0.1464E+02
     24.285  0.5729E+00  0.1473E+02
     24.438  0.8755E+00  0.1486E+02
     24.592  0.1084E+00  0.1488E+02
     24.745  0.6259E+00  0.1498E+02
     24.898  0.3969E+00  0.1504E+02
     25.052  0.4361E+00  0.1510E+02
     25.205  0.6933E+00  0.1521E+02
     25.358  0.6429E+00  0.1531E+02
     25.512  0.5270E+00  0.1539E+02
     25.665  0.9026E+00  0.1553E+02
     25.818  0.6436E+00  0.1563E+02
     25.972  0.5742E+00  0.1571E+02
     26.125  0.7041E+00  0.1582E+02
     26.278  0.5992E+00  0.1591E+02
     26.432  0.7984E+00  0.1604E+02
     26.585  0.1368E+01  0.1625E+02
     26.738  0.3564E+00  0.1630E+02
     26.892  0.9063E+00  0.1644E+02
     27.045  0.3045E+00  0.1649E+02
     27.198  0.2954E+00  0.1653E+02
     27.352  0.1121E+01  0.1670E+02
     27.505  0.5791E+00  0.1679E+02
     27.658  0.6193E+00  0.1689E+02
     27.812  0.1023E+01  0.1704E+02
     27.965  0.5689E+00  0.1713E+02
     28.118  0.1529E+00  0.1715E+02
     28.272  0.8100E+00  0.1728E+02
     28.425  0.5967E+00  0.1737E+02
     28.579  0.2226E+00  0.1740E+02
     28.732  0.2585E+00  0.1744E+02
     28.885  0.3704E+00  0.1750E+02
     29.039  0.5338E+00  0.1758E+02
     29.192  0.6668E+00  0.1769E+02
     29.345  0.1515E+00  0.1771E+02
     29.499  0.3953E+00  0.1777E+02
     29.652  0.5218E-01  0.1778E+02
     29.805  0.9514E+00  0.1792E+02
     29.959  0.3339E+00  0.1797E+02
     30.112  0.7008E+00  0.1808E+02
     30.265  0.8870E+00  0.1822E+02
     30.419  0.5271E+00  0.1830E+02
     30.572  0.1294E+01  0.1850E+02
     30.725  0.2468E+00  0.1853E+02
     30.879  0.4686E+00  0.1861E+02
     31.032  0.6409E+00  0.1870E+02
     31.185  0.5107E+00  0.1878E+02
     31.339  0.1051E+01  0.1894E+02
     31.492  0.1911E+01  0.1924E+02
     31.645  0.8000E+00  0.1936E+02
     31.799  0.3127E+00  0.1941E+02
     31.952  0.2044E+00  0.1944E+02
     32.105  0.4562E+00  0.1951E+02
     32.259  0.3254E+00  0.1956E+02
     32.412  0.6522E+00  0.1966E+02
     32.565  0.3590E+00  0.1971E+02
     32.719  0.6738E+00  0.1982E+02
     32.872  0.4383E+00  0.1988E+02
     33.026  0.4984E-01  0.1989E+02
     33.179  0.3654E+00  0.1995E+02
     33.332  0.5286E+00  0.2003E+02
     33.486  0.2285E+00  0.2006E+02
     33.639  0.6213E+00  0.2016E+02
     33.792  0.2675E+00  0.2020E+02
     33.946  0.4708E+00  0.2027E+02
     34.099  0.2648E+00  0.2031E+02
     34.252  0.2335E+00  0.2035E+02
     34.406  0.5636E+00  0.2044E+02
     34.559  0.5657E+00  0.2052E+02
     34.712  0.1399E+00  0.2054E+02
     34.866  0.1611E+00  0.2057E+02
     35.019  0.9302E+00  0.2071E+02
     35.172  0.6467E+00  0.2081E+02
     35.326  0.3299E+00  0.2086E+02
     35.479  0.9264E+00  0.2100E+02
     35.632  0.1276E+01  0.2120E+02
     35.786  0.2471E+00  0.2124E+02
     35.939  0.3687E+00  0.2129E+02
     36.092  0.1140E+00  0.2131E+02
     36.246  0.6618E+00  0.2141E+02
     36.399  0.2070E+00  0.2144E+02
     36.552  0.4531E+00  0.2151E+02
     36.706  0.5074E+00  0.2159E+02
     36.859  0.8070E+00  0.2172E+02
     37.012  0.1073E+01  0.2188E+02
     37.166  0.9630E-01  0.2189E+02
     37.319  0.4157E+00  0.2196E+02
     37.472  0.6996E+00  0.2207E+02
     37.626  0.2498E+00  0.2210E+02
     37.779  0.5221E+00  0.2218E+02
     37.933  0.7750E+00  0.2230E+02
     38.086  0.6544E+00  0.2240E+02
     38.239  0.2556E+00  0.2244E+02
     38.393  0.1047E+01  0.2260E+02
     38.546  0.1198E+01  0.2279E+02
     38.699  0.1771E+01  0.2306E+02
     38.853  0.6644E+00  0.2316E+02
     39.006  0.1294E+01  0.2336E+02
     39.159  0.5023E+00  0.2344E+02
     39.313  0.1054E+01  0.2360E+02
     39.466  0.2495E+00  0.2364E+02
     39.619  0.1138E+01  0.2381E+02
     39.773  0.1740E+00  0.2384E+02
     39.926  0.5259E+00  0.2392E+02
     40.079  0.3274E-02  0.2392E+02
     40.233  0.3200E-11  0.2392E+02
     40.386  0.1940E-02  0.2392E+02
     40.539  0.4473E+00  0.2399E+02
     40.693  0.2116E-01  0.2399E+02
     40.846  0.6632E-02  0.2399E+02
     40.999  0.5211E-01  0.2400E+02
     41.153  0.5219E-04  0.2400E+02
     41.306  0.0000E+00  0.2400E+02
     41.459  0.0000E+00  0.2400E+02
     41.613  0.0000E+00  0.2400E+02
     41.766  0.0000E+00  0.2400E+02
     41.919  0.0000E+00  0.2400E+02
     42.073  0.0000E+00  0.2400E+02
     42.226  0.0000E+00  0.2400E+02
     42.379  0.0000E+00  0.2400E+02
     42.533  0.1632E-10  0.2400E+02
     42.686  0.5623E-03  0.2400E+02
     42.840  0.9209E-02  0.2400E+02
     42.993  0.2832E-04  0.2400E+02
     43.146  0.0000E+00  0.2400E+02
     43.300  0.0000E+00  0.2400E+02
     43.453  0.0000E+00  0.2400E+02
     43.606  0.0000E+00  0.2400E+02
     43.760  0.0000E+00  0.2400E+02
     43.913  0.0000E+00  0.2400E+02
     44.066  0.0000E+00  0.2400E+02
     44.220  0.0000E+00  0.2400E+02
     44.373  0.0000E+00  0.2400E+02
     44.526  0.0000E+00  0.2400E+02
     44.680  0.0000E+00  0.2400E+02
     44.833  0.0000E+00  0.2400E+02
