       N       E                     dE             d eps       ncg     rms          rms(c)
DAV:   1     0.429484285819E+03    0.42948E+03   -0.25130E+04 30892   0.278E+03
DAV:   2     0.334863530726E+02   -0.39600E+03   -0.37927E+03 27664   0.609E+02
DAV:   3    -0.188708379427E+02   -0.52357E+02   -0.50901E+02 32592   0.177E+02
DAV:   4    -0.206547634477E+02   -0.17839E+01   -0.17646E+01 35140   0.342E+01
DAV:   5    -0.207077627382E+02   -0.52999E-01   -0.52954E-01 35828   0.658E+00    0.177E+01
DAV:   6    -0.201284726663E+02    0.57929E+00   -0.16088E+00 37396   0.108E+01    0.640E+00
DAV:   7    -0.200398714902E+02    0.88601E-01   -0.27425E-01 41624   0.551E+00    0.403E+00
DAV:   8    -0.200148504722E+02    0.25021E-01   -0.84664E-02 36748   0.409E+00    0.220E-01
DAV:   9    -0.200136259586E+02    0.12245E-02   -0.79009E-03 32440   0.208E+00    0.101E-01
DAV:  10    -0.200137100599E+02   -0.84101E-04   -0.26919E-03 36936   0.782E-01    0.554E-02
DAV:  11    -0.200137392466E+02   -0.29187E-04   -0.69916E-04 30532   0.469E-01    0.303E-02
DAV:  12    -0.200137393774E+02   -0.13077E-06   -0.11544E-04 33136   0.252E-01    0.583E-03
DAV:  13    -0.200137459320E+02   -0.65547E-05   -0.71357E-05 38788   0.829E-02    0.771E-03
DAV:  14    -0.200137454424E+02    0.48965E-06   -0.55799E-06 28104   0.609E-02
   1 F= -.20013745E+02 E0= -.20013102E+02  d E =-.128707E-02
