Zr10 Pb6                                
   1.00000000000000     
     8.6222388799999994   -0.0000249000000000   -0.0000305200000000
    -4.3111410799999996    7.4669761699999997   -0.0000002700000000
    -0.0000104000000000   -0.0000808500000000    5.8749464800000002
   Zr   Pb
    10     6
Direct
     0.7513009600000018    0.7513033899999968    0.2500227999999964
     0.0000079900000003    0.2487034600000015    0.2499737699999969
     0.7514269099999993    0.9999922800000007    0.7500079200000016
     0.3333371700000001    0.6666663099999965    0.4999886399999980
     0.2487108199999994    0.9999994300000026    0.2500009399999996
     0.6666621800000030    0.3333356799999976    0.4999878699999982
     0.0000028400000005    0.7514419000000032    0.7500093600000000
     0.3333286200000032    0.6666664400000002    0.0000114999999994
     0.2485530699999998    0.2485619899999989    0.7499847899999992
     0.6666708799999981    0.3333329900000024    0.0000123399999978
     0.6098268599999983    0.6097867100000016    0.7500160299999976
     0.3902086299999965    0.0000414499999977    0.7500028999999984
     0.6099136500000029    0.0000494800000013    0.2500048100000001
     0.9999558700000009    0.3901689500000032    0.7499802999999972
     0.3901403300000013    0.3900911599999972    0.2499903200000020
     0.9999522199999973    0.6098613799999981    0.2500057100000035
 
  0.00000000E+00  0.00000000E+00  0.00000000E+00
  0.00000000E+00  0.00000000E+00  0.00000000E+00
  0.00000000E+00  0.00000000E+00  0.00000000E+00
  0.00000000E+00  0.00000000E+00  0.00000000E+00
  0.00000000E+00  0.00000000E+00  0.00000000E+00
  0.00000000E+00  0.00000000E+00  0.00000000E+00
  0.00000000E+00  0.00000000E+00  0.00000000E+00
  0.00000000E+00  0.00000000E+00  0.00000000E+00
  0.00000000E+00  0.00000000E+00  0.00000000E+00
  0.00000000E+00  0.00000000E+00  0.00000000E+00
  0.00000000E+00  0.00000000E+00  0.00000000E+00
  0.00000000E+00  0.00000000E+00  0.00000000E+00
  0.00000000E+00  0.00000000E+00  0.00000000E+00
  0.00000000E+00  0.00000000E+00  0.00000000E+00
  0.00000000E+00  0.00000000E+00  0.00000000E+00
  0.00000000E+00  0.00000000E+00  0.00000000E+00
