  16  16   0   0
  0.2364003E+02  0.8622239E-09  0.8622162E-09  0.5874947E-09  0.5000000E-15
  1.000000000000000E-004
  CAR 
 unknown system                          
     20.71774435    -42.98718860  301      9.31285340      1.00000000
    -42.987  0.0000E+00  0.0000E+00
    -42.775  0.0000E+00  0.0000E+00
    -42.562  0.0000E+00  0.0000E+00
    -42.350  0.0000E+00  0.0000E+00
    -42.138  0.0000E+00  0.0000E+00
    -41.925  0.0000E+00  0.0000E+00
    -41.713  0.0000E+00  0.0000E+00
    -41.501  0.0000E+00  0.0000E+00
    -41.288  0.0000E+00  0.0000E+00
    -41.076  0.0000E+00  0.0000E+00
    -40.864  0.0000E+00  0.0000E+00
    -40.651  0.0000E+00  0.0000E+00
    -40.439  0.0000E+00  0.0000E+00
    -40.227  0.9928E-03  0.2108E-03
    -40.014  0.5447E+02  0.1157E+02
    -39.802  0.2036E+01  0.1200E+02
    -39.590  0.2663E+00  0.1206E+02
    -39.377  0.3494E+02  0.1948E+02
    -39.165  0.2465E+01  0.2000E+02
    -38.953  0.0000E+00  0.2000E+02
    -38.740  0.0000E+00  0.2000E+02
    -38.528  0.0000E+00  0.2000E+02
    -38.315  0.0000E+00  0.2000E+02
    -38.103  0.0000E+00  0.2000E+02
    -37.891  0.0000E+00  0.2000E+02
    -37.678  0.0000E+00  0.2000E+02
    -37.466  0.0000E+00  0.2000E+02
    -37.254  0.0000E+00  0.2000E+02
    -37.041  0.0000E+00  0.2000E+02
    -36.829  0.0000E+00  0.2000E+02
    -36.617  0.0000E+00  0.2000E+02
    -36.404  0.0000E+00  0.2000E+02
    -36.192  0.0000E+00  0.2000E+02
    -35.980  0.0000E+00  0.2000E+02
    -35.767  0.0000E+00  0.2000E+02
    -35.555  0.0000E+00  0.2000E+02
    -35.343  0.0000E+00  0.2000E+02
    -35.130  0.0000E+00  0.2000E+02
    -34.918  0.0000E+00  0.2000E+02
    -34.706  0.0000E+00  0.2000E+02
    -34.493  0.0000E+00  0.2000E+02
    -34.281  0.0000E+00  0.2000E+02
    -34.068  0.0000E+00  0.2000E+02
    -33.856  0.0000E+00  0.2000E+02
    -33.644  0.0000E+00  0.2000E+02
    -33.431  0.0000E+00  0.2000E+02
    -33.219  0.0000E+00  0.2000E+02
    -33.007  0.0000E+00  0.2000E+02
    -32.794  0.0000E+00  0.2000E+02
    -32.582  0.0000E+00  0.2000E+02
    -32.370  0.0000E+00  0.2000E+02
    -32.157  0.0000E+00  0.2000E+02
    -31.945  0.0000E+00  0.2000E+02
    -31.733  0.0000E+00  0.2000E+02
    -31.520  0.0000E+00  0.2000E+02
    -31.308  0.0000E+00  0.2000E+02
    -31.096  0.0000E+00  0.2000E+02
    -30.883  0.0000E+00  0.2000E+02
    -30.671  0.0000E+00  0.2000E+02
    -30.459  0.0000E+00  0.2000E+02
    -30.246  0.0000E+00  0.2000E+02
    -30.034  0.0000E+00  0.2000E+02
    -29.822  0.0000E+00  0.2000E+02
    -29.609  0.0000E+00  0.2000E+02
    -29.397  0.0000E+00  0.2000E+02
    -29.184  0.0000E+00  0.2000E+02
    -28.972  0.0000E+00  0.2000E+02
    -28.760  0.0000E+00  0.2000E+02
    -28.547  0.0000E+00  0.2000E+02
    -28.335  0.0000E+00  0.2000E+02
    -28.123  0.0000E+00  0.2000E+02
    -27.910  0.0000E+00  0.2000E+02
    -27.698  0.0000E+00  0.2000E+02
    -27.486  0.0000E+00  0.2000E+02
    -27.273  0.0000E+00  0.2000E+02
    -27.061  0.0000E+00  0.2000E+02
    -26.849  0.0000E+00  0.2000E+02
    -26.636  0.0000E+00  0.2000E+02
    -26.424  0.0000E+00  0.2000E+02
    -26.212  0.0000E+00  0.2000E+02
    -25.999  0.0000E+00  0.2000E+02
    -25.787  0.0000E+00  0.2000E+02
    -25.575  0.0000E+00  0.2000E+02
    -25.362  0.0000E+00  0.2000E+02
    -25.150  0.0000E+00  0.2000E+02
    -24.937  0.0000E+00  0.2000E+02
    -24.725  0.0000E+00  0.2000E+02
    -24.513  0.0000E+00  0.2000E+02
    -24.300  0.0000E+00  0.2000E+02
    -24.088  0.0000E+00  0.2000E+02
    -23.876  0.0000E+00  0.2000E+02
    -23.663  0.0000E+00  0.2000E+02
    -23.451  0.0000E+00  0.2000E+02
    -23.239  0.0000E+00  0.2000E+02
    -23.026  0.0000E+00  0.2000E+02
    -22.814  0.0000E+00  0.2000E+02
    -22.602  0.0000E+00  0.2000E+02
    -22.389  0.0000E+00  0.2000E+02
    -22.177  0.0000E+00  0.2000E+02
    -21.965  0.0000E+00  0.2000E+02
    -21.752  0.0000E+00  0.2000E+02
    -21.540  0.0000E+00  0.2000E+02
    -21.328  0.0000E+00  0.2000E+02
    -21.115  0.0000E+00  0.2000E+02
    -20.903  0.0000E+00  0.2000E+02
    -20.690  0.0000E+00  0.2000E+02
    -20.478  0.0000E+00  0.2000E+02
    -20.266  0.0000E+00  0.2000E+02
    -20.053  0.0000E+00  0.2000E+02
    -19.841  0.0000E+00  0.2000E+02
    -19.629  0.0000E+00  0.2000E+02
    -19.416  0.0000E+00  0.2000E+02
    -19.204  0.0000E+00  0.2000E+02
    -18.992  0.0000E+00  0.2000E+02
    -18.779  0.0000E+00  0.2000E+02
    -18.567  0.0000E+00  0.2000E+02
    -18.355  0.2402E-03  0.2000E+02
    -18.142  0.5164E+02  0.3097E+02
    -17.930  0.1263E+03  0.5779E+02
    -17.718  0.5937E+01  0.5906E+02
    -17.505  0.6894E+02  0.7369E+02
    -17.293  0.1834E+02  0.7759E+02
    -17.081  0.5292E+01  0.7871E+02
    -16.868  0.6065E+01  0.8000E+02
    -16.656  0.1345E-02  0.8000E+02
    -16.443  0.0000E+00  0.8000E+02
    -16.231  0.0000E+00  0.8000E+02
    -16.019  0.0000E+00  0.8000E+02
    -15.806  0.0000E+00  0.8000E+02
    -15.594  0.0000E+00  0.8000E+02
    -15.382  0.0000E+00  0.8000E+02
    -15.169  0.0000E+00  0.8000E+02
    -14.957  0.0000E+00  0.8000E+02
    -14.745  0.0000E+00  0.8000E+02
    -14.532  0.0000E+00  0.8000E+02
    -14.320  0.0000E+00  0.8000E+02
    -14.108  0.0000E+00  0.8000E+02
    -13.895  0.0000E+00  0.8000E+02
    -13.683  0.0000E+00  0.8000E+02
    -13.471  0.0000E+00  0.8000E+02
    -13.258  0.0000E+00  0.8000E+02
    -13.046  0.0000E+00  0.8000E+02
    -12.834  0.0000E+00  0.8000E+02
    -12.621  0.0000E+00  0.8000E+02
    -12.409  0.0000E+00  0.8000E+02
    -12.196  0.0000E+00  0.8000E+02
    -11.984  0.0000E+00  0.8000E+02
    -11.772  0.0000E+00  0.8000E+02
    -11.559  0.0000E+00  0.8000E+02
    -11.347  0.0000E+00  0.8000E+02
    -11.135  0.0000E+00  0.8000E+02
    -10.922  0.0000E+00  0.8000E+02
    -10.710  0.0000E+00  0.8000E+02
    -10.498  0.0000E+00  0.8000E+02
    -10.285  0.0000E+00  0.8000E+02
    -10.073  0.0000E+00  0.8000E+02
     -9.861  0.0000E+00  0.8000E+02
     -9.648  0.0000E+00  0.8000E+02
     -9.436  0.0000E+00  0.8000E+02
     -9.224  0.0000E+00  0.8000E+02
     -9.011  0.0000E+00  0.8000E+02
     -8.799  0.0000E+00  0.8000E+02
     -8.587  0.0000E+00  0.8000E+02
     -8.374  0.0000E+00  0.8000E+02
     -8.162  0.0000E+00  0.8000E+02
     -7.949  0.0000E+00  0.8000E+02
     -7.737  0.0000E+00  0.8000E+02
     -7.525  0.3545E-01  0.8001E+02
     -7.312  0.1739E+03  0.1169E+03
     -7.100  0.1087E+03  0.1400E+03
     -6.888  0.2280E-02  0.1400E+03
     -6.675  0.0000E+00  0.1400E+03
     -6.463  0.0000E+00  0.1400E+03
     -6.251  0.0000E+00  0.1400E+03
     -6.038  0.0000E+00  0.1400E+03
     -5.826  0.0000E+00  0.1400E+03
     -5.614  0.0000E+00  0.1400E+03
     -5.401  0.0000E+00  0.1400E+03
     -5.189  0.0000E+00  0.1400E+03
     -4.977  0.0000E+00  0.1400E+03
     -4.764  0.0000E+00  0.1400E+03
     -4.552  0.0000E+00  0.1400E+03
     -4.340  0.0000E+00  0.1400E+03
     -4.127  0.0000E+00  0.1400E+03
     -3.915  0.0000E+00  0.1400E+03
     -3.702  0.0000E+00  0.1400E+03
     -3.490  0.0000E+00  0.1400E+03
     -3.278  0.0000E+00  0.1400E+03
     -3.065  0.0000E+00  0.1400E+03
     -2.853  0.0000E+00  0.1400E+03
     -2.641  0.0000E+00  0.1400E+03
     -2.428  0.0000E+00  0.1400E+03
     -2.216  0.0000E+00  0.1400E+03
     -2.004  0.0000E+00  0.1400E+03
     -1.791  0.0000E+00  0.1400E+03
     -1.579  0.0000E+00  0.1400E+03
     -1.367  0.8304E-04  0.1400E+03
     -1.154  0.2119E+00  0.1400E+03
     -0.942  0.1565E+01  0.1404E+03
     -0.730  0.2611E+01  0.1409E+03
     -0.517  0.1555E+01  0.1413E+03
     -0.305  0.4948E+01  0.1423E+03
     -0.093  0.5961E+01  0.1436E+03
      0.120  0.6794E+01  0.1450E+03
      0.332  0.5440E+01  0.1462E+03
      0.545  0.7140E+01  0.1477E+03
      0.757  0.8196E+01  0.1494E+03
      0.969  0.8380E+01  0.1512E+03
      1.182  0.2866E+01  0.1518E+03
      1.394  0.8423E+00  0.1520E+03
      1.606  0.0000E+00  0.1520E+03
      1.819  0.0000E+00  0.1520E+03
      2.031  0.0000E+00  0.1520E+03
      2.243  0.0000E+00  0.1520E+03
      2.456  0.0000E+00  0.1520E+03
      2.668  0.0000E+00  0.1520E+03
      2.880  0.0000E+00  0.1520E+03
      3.093  0.0000E+00  0.1520E+03
      3.305  0.0000E+00  0.1520E+03
      3.517  0.0000E+00  0.1520E+03
      3.730  0.0000E+00  0.1520E+03
      3.942  0.0000E+00  0.1520E+03
      4.154  0.0000E+00  0.1520E+03
      4.367  0.5809E-15  0.1520E+03
      4.579  0.7411E-02  0.1520E+03
      4.792  0.3478E+00  0.1521E+03
      5.004  0.5600E+01  0.1533E+03
      5.216  0.5442E+01  0.1544E+03
      5.429  0.1313E+02  0.1572E+03
      5.641  0.1188E+02  0.1597E+03
      5.853  0.3866E+01  0.1606E+03
      6.066  0.4079E+01  0.1614E+03
      6.278  0.6475E+01  0.1628E+03
      6.490  0.8309E+01  0.1646E+03
      6.703  0.9715E+01  0.1666E+03
      6.915  0.1394E+02  0.1696E+03
      7.127  0.1525E+02  0.1728E+03
      7.340  0.1261E+02  0.1755E+03
      7.552  0.1095E+02  0.1778E+03
      7.764  0.1601E+02  0.1812E+03
      7.977  0.1852E+02  0.1852E+03
      8.189  0.1907E+02  0.1892E+03
      8.401  0.2126E+02  0.1937E+03
      8.614  0.1660E+02  0.1972E+03
      8.826  0.1494E+02  0.2004E+03
      9.039  0.6807E+01  0.2019E+03
      9.251  0.6536E+01  0.2033E+03
      9.463  0.1100E+02  0.2056E+03
      9.676  0.2025E+02  0.2099E+03
      9.888  0.1698E+02  0.2135E+03
     10.100  0.1069E+02  0.2158E+03
     10.313  0.1135E+02  0.2182E+03
     10.525  0.7666E+01  0.2198E+03
     10.737  0.1279E+02  0.2225E+03
     10.950  0.1613E+02  0.2259E+03
     11.162  0.2035E+02  0.2303E+03
     11.374  0.2239E+02  0.2350E+03
     11.587  0.1358E+02  0.2379E+03
     11.799  0.2244E+02  0.2427E+03
     12.011  0.1842E+02  0.2466E+03
     12.224  0.2139E+02  0.2511E+03
     12.436  0.2185E+02  0.2558E+03
     12.648  0.1923E+02  0.2598E+03
     12.861  0.2189E+02  0.2645E+03
     13.073  0.1559E+02  0.2678E+03
     13.286  0.1937E+02  0.2719E+03
     13.498  0.9397E+01  0.2739E+03
     13.710  0.8518E+01  0.2757E+03
     13.923  0.8462E+01  0.2775E+03
     14.135  0.8945E+01  0.2794E+03
     14.347  0.3530E+01  0.2802E+03
     14.560  0.1449E+02  0.2832E+03
     14.772  0.9757E+01  0.2853E+03
     14.984  0.9358E+01  0.2873E+03
     15.197  0.1502E+02  0.2905E+03
     15.409  0.1364E+02  0.2934E+03
     15.621  0.8080E+01  0.2951E+03
     15.834  0.3619E+01  0.2959E+03
     16.046  0.6260E+01  0.2972E+03
     16.258  0.9908E+01  0.2993E+03
     16.471  0.9583E+01  0.3013E+03
     16.683  0.8349E+01  0.3031E+03
     16.895  0.8142E+01  0.3048E+03
     17.108  0.1403E+02  0.3078E+03
     17.320  0.8363E+01  0.3096E+03
     17.532  0.6924E+01  0.3111E+03
     17.745  0.3632E+01  0.3118E+03
     17.957  0.7945E+00  0.3120E+03
     18.170  0.1385E-04  0.3120E+03
     18.382  0.0000E+00  0.3120E+03
     18.594  0.0000E+00  0.3120E+03
     18.807  0.0000E+00  0.3120E+03
     19.019  0.0000E+00  0.3120E+03
     19.231  0.0000E+00  0.3120E+03
     19.444  0.0000E+00  0.3120E+03
     19.656  0.0000E+00  0.3120E+03
     19.868  0.0000E+00  0.3120E+03
     20.081  0.0000E+00  0.3120E+03
     20.293  0.0000E+00  0.3120E+03
     20.505  0.0000E+00  0.3120E+03
     20.718  0.0000E+00  0.3120E+03
