       N       E                     dE             d eps       ncg     rms          rms(c)
DAV:   1     0.326765554748E+04    0.32677E+04   -0.96930E+04 14064   0.165E+03
DAV:   2     0.356513450056E+03   -0.29111E+04   -0.27364E+04 14096   0.502E+02
DAV:   3    -0.661380275682E+02   -0.42265E+03   -0.39666E+03 15716   0.207E+02
DAV:   4    -0.113123681647E+03   -0.46986E+02   -0.45453E+02 22288   0.588E+01
DAV:   5    -0.117765287442E+03   -0.46416E+01   -0.45844E+01 25392   0.150E+01    0.331E+01
DAV:   6    -0.111847554197E+03    0.59177E+01   -0.12172E+01 18824   0.106E+01    0.118E+01
DAV:   7    -0.111366101914E+03    0.48145E+00   -0.54884E+00 18992   0.652E+00    0.642E+00
DAV:   8    -0.110590415645E+03    0.77569E+00   -0.21903E+00 17520   0.406E+00    0.212E+00
DAV:   9    -0.110597106305E+03   -0.66907E-02   -0.34866E-01 19952   0.149E+00    0.103E+00
DAV:  10    -0.110597143562E+03   -0.37257E-04   -0.42153E-02 19636   0.652E-01    0.113E-01
DAV:  11    -0.110597064039E+03    0.79523E-04   -0.37479E-03 20960   0.192E-01    0.739E-02
DAV:  12    -0.110597061852E+03    0.21868E-05   -0.32020E-04 21320   0.552E-02    0.401E-02
DAV:  13    -0.110597051053E+03    0.10799E-04   -0.34162E-05 20788   0.204E-02    0.241E-02
DAV:  14    -0.110597041992E+03    0.90609E-05   -0.11369E-05 16352   0.118E-02    0.533E-03
DAV:  15    -0.110597041626E+03    0.36647E-06   -0.17940E-06 10608   0.691E-03
   1 F= -.11059704E+03 E0= -.11058803E+03  d E =-.180229E-01
