K1 P1                                   
   1.00000000000000     
     1.3145540000000000    2.3489390000000001   -3.8502580000000002
     1.3145540000000000   -2.3489390000000001   -3.8502580000000002
    -2.8826950000000000    0.0000000000000000   -3.8502580000000002
   K    P 
     1     1
Direct
     0.0000000000000000    0.0000000000000000    0.0000000000000000
     0.5000000000000000    0.5000000000000000    0.5000000000000000
 
  0.00000000E+00  0.00000000E+00  0.00000000E+00
  0.00000000E+00  0.00000000E+00  0.00000000E+00
