  14  14   0   0
  0.1322947E+02  0.5930967E-09  0.6282719E-09  0.6370367E-09  0.5000000E-15
  1.000000000000000E-004
  CAR 
 unknown system                          
     13.01673204    -40.25141980  301      1.31993370      1.00000000
    -40.251  0.0000E+00  0.0000E+00
    -40.074  0.0000E+00  0.0000E+00
    -39.896  0.0000E+00  0.0000E+00
    -39.719  0.0000E+00  0.0000E+00
    -39.541  0.0000E+00  0.0000E+00
    -39.364  0.0000E+00  0.0000E+00
    -39.186  0.0000E+00  0.0000E+00
    -39.008  0.0000E+00  0.0000E+00
    -38.831  0.0000E+00  0.0000E+00
    -38.653  0.0000E+00  0.0000E+00
    -38.476  0.0000E+00  0.0000E+00
    -38.298  0.0000E+00  0.0000E+00
    -38.121  0.1382E-14  0.2454E-15
    -37.943  0.1245E-01  0.2210E-02
    -37.766  0.2163E+02  0.3842E+01
    -37.588  0.8889E+00  0.4000E+01
    -37.410  0.0000E+00  0.4000E+01
    -37.233  0.0000E+00  0.4000E+01
    -37.055  0.0000E+00  0.4000E+01
    -36.878  0.0000E+00  0.4000E+01
    -36.700  0.0000E+00  0.4000E+01
    -36.523  0.0000E+00  0.4000E+01
    -36.345  0.0000E+00  0.4000E+01
    -36.168  0.0000E+00  0.4000E+01
    -35.990  0.0000E+00  0.4000E+01
    -35.812  0.0000E+00  0.4000E+01
    -35.635  0.0000E+00  0.4000E+01
    -35.457  0.0000E+00  0.4000E+01
    -35.280  0.0000E+00  0.4000E+01
    -35.102  0.0000E+00  0.4000E+01
    -34.925  0.0000E+00  0.4000E+01
    -34.747  0.0000E+00  0.4000E+01
    -34.569  0.0000E+00  0.4000E+01
    -34.392  0.0000E+00  0.4000E+01
    -34.214  0.0000E+00  0.4000E+01
    -34.037  0.0000E+00  0.4000E+01
    -33.859  0.0000E+00  0.4000E+01
    -33.682  0.0000E+00  0.4000E+01
    -33.504  0.0000E+00  0.4000E+01
    -33.327  0.0000E+00  0.4000E+01
    -33.149  0.0000E+00  0.4000E+01
    -32.971  0.0000E+00  0.4000E+01
    -32.794  0.0000E+00  0.4000E+01
    -32.616  0.0000E+00  0.4000E+01
    -32.439  0.0000E+00  0.4000E+01
    -32.261  0.0000E+00  0.4000E+01
    -32.084  0.0000E+00  0.4000E+01
    -31.906  0.0000E+00  0.4000E+01
    -31.729  0.0000E+00  0.4000E+01
    -31.551  0.0000E+00  0.4000E+01
    -31.373  0.0000E+00  0.4000E+01
    -31.196  0.0000E+00  0.4000E+01
    -31.018  0.0000E+00  0.4000E+01
    -30.841  0.0000E+00  0.4000E+01
    -30.663  0.0000E+00  0.4000E+01
    -30.486  0.0000E+00  0.4000E+01
    -30.308  0.0000E+00  0.4000E+01
    -30.130  0.0000E+00  0.4000E+01
    -29.953  0.0000E+00  0.4000E+01
    -29.775  0.0000E+00  0.4000E+01
    -29.598  0.0000E+00  0.4000E+01
    -29.420  0.0000E+00  0.4000E+01
    -29.243  0.0000E+00  0.4000E+01
    -29.065  0.0000E+00  0.4000E+01
    -28.888  0.0000E+00  0.4000E+01
    -28.710  0.0000E+00  0.4000E+01
    -28.532  0.0000E+00  0.4000E+01
    -28.355  0.0000E+00  0.4000E+01
    -28.177  0.0000E+00  0.4000E+01
    -28.000  0.0000E+00  0.4000E+01
    -27.822  0.0000E+00  0.4000E+01
    -27.645  0.0000E+00  0.4000E+01
    -27.467  0.0000E+00  0.4000E+01
    -27.290  0.0000E+00  0.4000E+01
    -27.112  0.0000E+00  0.4000E+01
    -26.934  0.0000E+00  0.4000E+01
    -26.757  0.0000E+00  0.4000E+01
    -26.579  0.0000E+00  0.4000E+01
    -26.402  0.0000E+00  0.4000E+01
    -26.224  0.0000E+00  0.4000E+01
    -26.047  0.0000E+00  0.4000E+01
    -25.869  0.0000E+00  0.4000E+01
    -25.691  0.0000E+00  0.4000E+01
    -25.514  0.0000E+00  0.4000E+01
    -25.336  0.0000E+00  0.4000E+01
    -25.159  0.0000E+00  0.4000E+01
    -24.981  0.0000E+00  0.4000E+01
    -24.804  0.0000E+00  0.4000E+01
    -24.626  0.0000E+00  0.4000E+01
    -24.449  0.0000E+00  0.4000E+01
    -24.271  0.0000E+00  0.4000E+01
    -24.093  0.0000E+00  0.4000E+01
    -23.916  0.0000E+00  0.4000E+01
    -23.738  0.0000E+00  0.4000E+01
    -23.561  0.0000E+00  0.4000E+01
    -23.383  0.0000E+00  0.4000E+01
    -23.206  0.0000E+00  0.4000E+01
    -23.028  0.0000E+00  0.4000E+01
    -22.850  0.0000E+00  0.4000E+01
    -22.673  0.0000E+00  0.4000E+01
    -22.495  0.0000E+00  0.4000E+01
    -22.318  0.0000E+00  0.4000E+01
    -22.140  0.0000E+00  0.4000E+01
    -21.963  0.0000E+00  0.4000E+01
    -21.785  0.2160E-07  0.4000E+01
    -21.608  0.1046E+01  0.4186E+01
    -21.430  0.1841E+02  0.7455E+01
    -21.252  0.1991E+02  0.1099E+02
    -21.075  0.5685E+01  0.1200E+02
    -20.897  0.5647E-04  0.1200E+02
    -20.720  0.0000E+00  0.1200E+02
    -20.542  0.0000E+00  0.1200E+02
    -20.365  0.0000E+00  0.1200E+02
    -20.187  0.0000E+00  0.1200E+02
    -20.010  0.0000E+00  0.1200E+02
    -19.832  0.0000E+00  0.1200E+02
    -19.654  0.0000E+00  0.1200E+02
    -19.477  0.0000E+00  0.1200E+02
    -19.299  0.0000E+00  0.1200E+02
    -19.122  0.3789E-05  0.1200E+02
    -18.944  0.6889E+01  0.1322E+02
    -18.767  0.5956E+02  0.2380E+02
    -18.589  0.1129E+01  0.2400E+02
    -18.411  0.0000E+00  0.2400E+02
    -18.234  0.0000E+00  0.2400E+02
    -18.056  0.0000E+00  0.2400E+02
    -17.879  0.0000E+00  0.2400E+02
    -17.701  0.0000E+00  0.2400E+02
    -17.524  0.0000E+00  0.2400E+02
    -17.346  0.1828E-05  0.2400E+02
    -17.169  0.2506E+01  0.2444E+02
    -16.991  0.4146E+02  0.3181E+02
    -16.813  0.1088E+01  0.3200E+02
    -16.636  0.3840E-09  0.3200E+02
    -16.458  0.0000E+00  0.3200E+02
    -16.281  0.0000E+00  0.3200E+02
    -16.103  0.0000E+00  0.3200E+02
    -15.926  0.0000E+00  0.3200E+02
    -15.748  0.0000E+00  0.3200E+02
    -15.571  0.0000E+00  0.3200E+02
    -15.393  0.0000E+00  0.3200E+02
    -15.215  0.0000E+00  0.3200E+02
    -15.038  0.0000E+00  0.3200E+02
    -14.860  0.0000E+00  0.3200E+02
    -14.683  0.0000E+00  0.3200E+02
    -14.505  0.0000E+00  0.3200E+02
    -14.328  0.0000E+00  0.3200E+02
    -14.150  0.0000E+00  0.3200E+02
    -13.972  0.0000E+00  0.3200E+02
    -13.795  0.0000E+00  0.3200E+02
    -13.617  0.0000E+00  0.3200E+02
    -13.440  0.0000E+00  0.3200E+02
    -13.262  0.0000E+00  0.3200E+02
    -13.085  0.0000E+00  0.3200E+02
    -12.907  0.0000E+00  0.3200E+02
    -12.730  0.0000E+00  0.3200E+02
    -12.552  0.0000E+00  0.3200E+02
    -12.374  0.0000E+00  0.3200E+02
    -12.197  0.0000E+00  0.3200E+02
    -12.019  0.0000E+00  0.3200E+02
    -11.842  0.0000E+00  0.3200E+02
    -11.664  0.0000E+00  0.3200E+02
    -11.487  0.0000E+00  0.3200E+02
    -11.309  0.0000E+00  0.3200E+02
    -11.131  0.0000E+00  0.3200E+02
    -10.954  0.0000E+00  0.3200E+02
    -10.776  0.0000E+00  0.3200E+02
    -10.599  0.0000E+00  0.3200E+02
    -10.421  0.0000E+00  0.3200E+02
    -10.244  0.0000E+00  0.3200E+02
    -10.066  0.0000E+00  0.3200E+02
     -9.889  0.0000E+00  0.3200E+02
     -9.711  0.0000E+00  0.3200E+02
     -9.533  0.0000E+00  0.3200E+02
     -9.356  0.0000E+00  0.3200E+02
     -9.178  0.0000E+00  0.3200E+02
     -9.001  0.0000E+00  0.3200E+02
     -8.823  0.0000E+00  0.3200E+02
     -8.646  0.0000E+00  0.3200E+02
     -8.468  0.0000E+00  0.3200E+02
     -8.291  0.0000E+00  0.3200E+02
     -8.113  0.0000E+00  0.3200E+02
     -7.935  0.0000E+00  0.3200E+02
     -7.758  0.0000E+00  0.3200E+02
     -7.580  0.0000E+00  0.3200E+02
     -7.403  0.0000E+00  0.3200E+02
     -7.225  0.0000E+00  0.3200E+02
     -7.048  0.0000E+00  0.3200E+02
     -6.870  0.0000E+00  0.3200E+02
     -6.692  0.2624E-09  0.3200E+02
     -6.515  0.2947E-01  0.3201E+02
     -6.337  0.3788E+01  0.3268E+02
     -6.160  0.1720E+02  0.3573E+02
     -5.982  0.1427E+02  0.3827E+02
     -5.805  0.1382E+02  0.4072E+02
     -5.627  0.4805E+01  0.4157E+02
     -5.450  0.1165E+02  0.4364E+02
     -5.272  0.1260E+02  0.4588E+02
     -5.094  0.1165E+02  0.4795E+02
     -4.917  0.1979E+02  0.5146E+02
     -4.739  0.2350E+02  0.5564E+02
     -4.562  0.2054E+01  0.5600E+02
     -4.384  0.3040E+01  0.5654E+02
     -4.207  0.4578E+01  0.5735E+02
     -4.029  0.6045E+01  0.5843E+02
     -3.852  0.5793E+01  0.5945E+02
     -3.674  0.5776E+01  0.6048E+02
     -3.496  0.8806E+01  0.6204E+02
     -3.319  0.8663E+01  0.6358E+02
     -3.141  0.2355E+01  0.6400E+02
     -2.964  0.1070E-03  0.6400E+02
     -2.786  0.0000E+00  0.6400E+02
     -2.609  0.0000E+00  0.6400E+02
     -2.431  0.0000E+00  0.6400E+02
     -2.253  0.0000E+00  0.6400E+02
     -2.076  0.0000E+00  0.6400E+02
     -1.898  0.0000E+00  0.6400E+02
     -1.721  0.0000E+00  0.6400E+02
     -1.543  0.0000E+00  0.6400E+02
     -1.366  0.0000E+00  0.6400E+02
     -1.188  0.0000E+00  0.6400E+02
     -1.011  0.7435E-07  0.6400E+02
     -0.833  0.6488E-01  0.6401E+02
     -0.655  0.4751E+00  0.6410E+02
     -0.478  0.2194E+01  0.6449E+02
     -0.300  0.6562E+01  0.6565E+02
     -0.123  0.8938E+01  0.6724E+02
      0.055  0.1308E+02  0.6956E+02
      0.232  0.1058E+02  0.7144E+02
      0.410  0.7846E+01  0.7283E+02
      0.587  0.1186E+02  0.7494E+02
      0.765  0.1050E+02  0.7680E+02
      0.943  0.1262E+02  0.7904E+02
      1.120  0.5392E+01  0.8000E+02
      1.298  0.2243E-02  0.8000E+02
      1.475  0.0000E+00  0.8000E+02
      1.653  0.0000E+00  0.8000E+02
      1.830  0.0000E+00  0.8000E+02
      2.008  0.0000E+00  0.8000E+02
      2.186  0.0000E+00  0.8000E+02
      2.363  0.0000E+00  0.8000E+02
      2.541  0.0000E+00  0.8000E+02
      2.718  0.0000E+00  0.8000E+02
      2.896  0.0000E+00  0.8000E+02
      3.073  0.0000E+00  0.8000E+02
      3.251  0.0000E+00  0.8000E+02
      3.428  0.0000E+00  0.8000E+02
      3.606  0.0000E+00  0.8000E+02
      3.784  0.0000E+00  0.8000E+02
      3.961  0.0000E+00  0.8000E+02
      4.139  0.0000E+00  0.8000E+02
      4.316  0.5394E-11  0.8000E+02
      4.494  0.8262E-02  0.8000E+02
      4.671  0.2388E+00  0.8004E+02
      4.849  0.9084E+00  0.8021E+02
      5.027  0.5554E+01  0.8119E+02
      5.204  0.5834E+01  0.8223E+02
      5.382  0.6015E+01  0.8330E+02
      5.559  0.8448E+01  0.8480E+02
      5.737  0.1175E+02  0.8688E+02
      5.914  0.1522E+02  0.8958E+02
      6.092  0.1053E+02  0.9145E+02
      6.269  0.7592E+01  0.9280E+02
      6.447  0.1146E+02  0.9484E+02
      6.625  0.6395E+01  0.9597E+02
      6.802  0.1520E+00  0.9600E+02
      6.980  0.4514E-07  0.9600E+02
      7.157  0.6021E-01  0.9601E+02
      7.335  0.1454E+01  0.9627E+02
      7.512  0.6637E+01  0.9745E+02
      7.690  0.7202E+01  0.9873E+02
      7.867  0.1204E+02  0.1009E+03
      8.045  0.1403E+02  0.1034E+03
      8.223  0.1227E+02  0.1055E+03
      8.400  0.9167E+01  0.1072E+03
      8.578  0.8897E+01  0.1087E+03
      8.755  0.6770E+01  0.1099E+03
      8.933  0.1081E+02  0.1119E+03
      9.110  0.1319E+02  0.1142E+03
      9.288  0.1043E+02  0.1161E+03
      9.466  0.6598E+01  0.1172E+03
      9.643  0.3653E+01  0.1179E+03
      9.821  0.2344E+01  0.1183E+03
      9.998  0.3428E+01  0.1189E+03
     10.176  0.2059E+01  0.1193E+03
     10.353  0.2245E+01  0.1197E+03
     10.531  0.1531E+01  0.1199E+03
     10.708  0.3517E+00  0.1200E+03
     10.886  0.1511E-03  0.1200E+03
     11.064  0.0000E+00  0.1200E+03
     11.241  0.0000E+00  0.1200E+03
     11.419  0.0000E+00  0.1200E+03
     11.596  0.0000E+00  0.1200E+03
     11.774  0.0000E+00  0.1200E+03
     11.951  0.0000E+00  0.1200E+03
     12.129  0.0000E+00  0.1200E+03
     12.306  0.0000E+00  0.1200E+03
     12.484  0.0000E+00  0.1200E+03
     12.662  0.0000E+00  0.1200E+03
     12.839  0.0000E+00  0.1200E+03
     13.017  0.0000E+00  0.1200E+03
