       N       E                     dE             d eps       ncg     rms          rms(c)
DAV:   1     0.713433019393E+03    0.71343E+03   -0.43588E+04 12016   0.143E+03
DAV:   2    -0.491499741763E+02   -0.76258E+03   -0.72207E+03 14476   0.387E+02
DAV:   3    -0.111181739918E+03   -0.62032E+02   -0.61165E+02 16876   0.111E+02
DAV:   4    -0.113232520850E+03   -0.20508E+01   -0.20431E+01 18488   0.176E+01
DAV:   5    -0.113337826582E+03   -0.10531E+00   -0.10526E+00 18556   0.269E+00    0.205E+01
DAV:   6    -0.106661758118E+03    0.66761E+01   -0.16800E+01 14292   0.175E+01    0.104E+01
DAV:   7    -0.106088177037E+03    0.57358E+00   -0.25021E+00 15440   0.782E+00    0.616E+00
DAV:   8    -0.106010722332E+03    0.77455E-01   -0.64852E-01 13968   0.307E+00    0.191E+00
DAV:   9    -0.106013828044E+03   -0.31057E-02   -0.61034E-02 16592   0.115E+00    0.514E-01
DAV:  10    -0.106016603490E+03   -0.27754E-02   -0.11020E-02 13388   0.541E-01    0.117E-01
DAV:  11    -0.106017590052E+03   -0.98656E-03   -0.18055E-03 15024   0.197E-01    0.458E-02
DAV:  12    -0.106017638959E+03   -0.48907E-04   -0.18921E-04 16064   0.762E-02    0.193E-02
DAV:  13    -0.106017669414E+03   -0.30455E-04   -0.57246E-05 13488   0.341E-02    0.651E-03
DAV:  14    -0.106017670329E+03   -0.91470E-06   -0.34617E-06 15004   0.872E-03
   1 F= -.10601767E+03 E0= -.10601767E+03  d E =-.288469E-18
