Ga6 Au21                                
   1.00000000000000     
     7.7234632999999997    0.0000000000000000    0.0000000000000000
    -3.8617321599999999    6.6887151300000003    0.0000000000000000
     0.0000000000000000    0.0000000000000000    8.9739875300000005
   Ga   Au
     6    21
Direct
     0.3333330000000032    0.6666669999999968    0.1910808399999979
     0.0000000000000000    0.0000000000000000    0.6959816800000027
     0.3333330000000032    0.6666669999999968    0.8089191600000021
     0.6666669999999968    0.3333330000000032    0.8089191600000021
     0.6666669999999968    0.3333330000000032    0.1910808399999979
     0.0000000000000000    0.0000000000000000    0.3040183199999973
     0.0000000000000000    0.3571754900000030    0.3301473599999980
     0.6826974600000000    0.0000000000000000    0.8320710500000033
     0.0000000000000000    0.7284543199999973    0.5000000000000000
     0.0000000000000000    0.6826974600000000    0.8320710500000033
     0.3173025400000000    0.3173025400000000    0.1679289499999967
     0.2715456800000027    0.2715456800000027    0.5000000000000000
     0.0000000000000000    0.6826974600000000    0.1679289499999967
     0.7284543199999973    0.0000000000000000    0.5000000000000000
     0.3571754900000030    0.0000000000000000    0.3301473599999980
     0.6428245099999970    0.6428245099999970    0.6698526400000020
     0.3696892000000034    0.0000000000000000    0.0000000000000000
     0.6666669999999968    0.3333330000000032    0.5000000000000000
     0.3571754900000030    0.0000000000000000    0.6698526400000020
     0.0000000000000000    0.0000000000000000    0.0000000000000000
     0.3173025400000000    0.3173025400000000    0.8320710500000033
     0.6303107999999966    0.6303107999999966    0.0000000000000000
     0.6826974600000000    0.0000000000000000    0.1679289499999967
     0.6428245099999970    0.6428245099999970    0.3301473599999980
     0.0000000000000000    0.3696892000000034    0.0000000000000000
     0.3333330000000032    0.6666669999999968    0.5000000000000000
     0.0000000000000000    0.3571754900000030    0.6698526400000020
 
  0.00000000E+00  0.00000000E+00  0.00000000E+00
  0.00000000E+00  0.00000000E+00  0.00000000E+00
  0.00000000E+00  0.00000000E+00  0.00000000E+00
  0.00000000E+00  0.00000000E+00  0.00000000E+00
  0.00000000E+00  0.00000000E+00  0.00000000E+00
  0.00000000E+00  0.00000000E+00  0.00000000E+00
  0.00000000E+00  0.00000000E+00  0.00000000E+00
  0.00000000E+00  0.00000000E+00  0.00000000E+00
  0.00000000E+00  0.00000000E+00  0.00000000E+00
  0.00000000E+00  0.00000000E+00  0.00000000E+00
  0.00000000E+00  0.00000000E+00  0.00000000E+00
  0.00000000E+00  0.00000000E+00  0.00000000E+00
  0.00000000E+00  0.00000000E+00  0.00000000E+00
  0.00000000E+00  0.00000000E+00  0.00000000E+00
  0.00000000E+00  0.00000000E+00  0.00000000E+00
  0.00000000E+00  0.00000000E+00  0.00000000E+00
  0.00000000E+00  0.00000000E+00  0.00000000E+00
  0.00000000E+00  0.00000000E+00  0.00000000E+00
  0.00000000E+00  0.00000000E+00  0.00000000E+00
  0.00000000E+00  0.00000000E+00  0.00000000E+00
  0.00000000E+00  0.00000000E+00  0.00000000E+00
  0.00000000E+00  0.00000000E+00  0.00000000E+00
  0.00000000E+00  0.00000000E+00  0.00000000E+00
  0.00000000E+00  0.00000000E+00  0.00000000E+00
  0.00000000E+00  0.00000000E+00  0.00000000E+00
  0.00000000E+00  0.00000000E+00  0.00000000E+00
  0.00000000E+00  0.00000000E+00  0.00000000E+00
