  27  27   0   0
  0.1717024E+02  0.7723463E-09  0.7723463E-09  0.8973988E-09  0.5000000E-15
  1.000000000000000E-004
  CAR 
 unknown system                          
     26.62166129     -7.93423060  301      8.99548135      1.00000000
     -7.934  0.0000E+00  0.0000E+00
     -7.819  0.0000E+00  0.0000E+00
     -7.704  0.0000E+00  0.0000E+00
     -7.589  0.0000E+00  0.0000E+00
     -7.473  0.0000E+00  0.0000E+00
     -7.358  0.0000E+00  0.0000E+00
     -7.243  0.0000E+00  0.0000E+00
     -7.128  0.0000E+00  0.0000E+00
     -7.013  0.0000E+00  0.0000E+00
     -6.898  0.0000E+00  0.0000E+00
     -6.782  0.0000E+00  0.0000E+00
     -6.667  0.0000E+00  0.0000E+00
     -6.552  0.4973E-06  0.5728E-07
     -6.437  0.5148E+00  0.5929E-01
     -6.322  0.1823E+03  0.2106E+02
     -6.206  0.3337E+03  0.5949E+02
     -6.091  0.4417E+01  0.6000E+02
     -5.976  0.1478E-04  0.6000E+02
     -5.861  0.0000E+00  0.6000E+02
     -5.746  0.0000E+00  0.6000E+02
     -5.631  0.0000E+00  0.6000E+02
     -5.515  0.0000E+00  0.6000E+02
     -5.400  0.0000E+00  0.6000E+02
     -5.285  0.0000E+00  0.6000E+02
     -5.170  0.0000E+00  0.6000E+02
     -5.055  0.0000E+00  0.6000E+02
     -4.939  0.0000E+00  0.6000E+02
     -4.824  0.0000E+00  0.6000E+02
     -4.709  0.0000E+00  0.6000E+02
     -4.594  0.0000E+00  0.6000E+02
     -4.479  0.0000E+00  0.6000E+02
     -4.363  0.0000E+00  0.6000E+02
     -4.248  0.0000E+00  0.6000E+02
     -4.133  0.0000E+00  0.6000E+02
     -4.018  0.0000E+00  0.6000E+02
     -3.903  0.0000E+00  0.6000E+02
     -3.788  0.0000E+00  0.6000E+02
     -3.672  0.0000E+00  0.6000E+02
     -3.557  0.0000E+00  0.6000E+02
     -3.442  0.0000E+00  0.6000E+02
     -3.327  0.0000E+00  0.6000E+02
     -3.212  0.0000E+00  0.6000E+02
     -3.096  0.0000E+00  0.6000E+02
     -2.981  0.0000E+00  0.6000E+02
     -2.866  0.0000E+00  0.6000E+02
     -2.751  0.0000E+00  0.6000E+02
     -2.636  0.0000E+00  0.6000E+02
     -2.520  0.0000E+00  0.6000E+02
     -2.405  0.0000E+00  0.6000E+02
     -2.290  0.0000E+00  0.6000E+02
     -2.175  0.0000E+00  0.6000E+02
     -2.060  0.3570E-16  0.6000E+02
     -1.945  0.1276E-06  0.6000E+02
     -1.829  0.2248E-01  0.6000E+02
     -1.714  0.5729E+00  0.6007E+02
     -1.599  0.8839E-01  0.6008E+02
     -1.484  0.1142E+01  0.6021E+02
     -1.369  0.9741E+00  0.6032E+02
     -1.253  0.2965E+01  0.6066E+02
     -1.138  0.2615E+01  0.6097E+02
     -1.023  0.5107E+01  0.6155E+02
     -0.908  0.3793E+00  0.6160E+02
     -0.793  0.9243E+00  0.6170E+02
     -0.677  0.9162E+00  0.6181E+02
     -0.562  0.2444E+01  0.6209E+02
     -0.447  0.1048E+02  0.6330E+02
     -0.332  0.2139E+01  0.6354E+02
     -0.217  0.7291E+01  0.6438E+02
     -0.102  0.1497E+01  0.6456E+02
      0.014  0.9914E+01  0.6570E+02
      0.129  0.3682E+01  0.6612E+02
      0.244  0.6276E+01  0.6685E+02
      0.359  0.7357E+01  0.6769E+02
      0.474  0.1339E+02  0.6924E+02
      0.590  0.3444E+01  0.6963E+02
      0.705  0.5933E+01  0.7032E+02
      0.820  0.7418E+01  0.7117E+02
      0.935  0.2675E+01  0.7148E+02
      1.050  0.3290E+01  0.7186E+02
      1.165  0.1463E+01  0.7203E+02
      1.281  0.6894E+01  0.7282E+02
      1.396  0.4273E+01  0.7331E+02
      1.511  0.1026E+02  0.7449E+02
      1.626  0.1489E+02  0.7621E+02
      1.741  0.5703E+01  0.7687E+02
      1.857  0.2658E+02  0.7993E+02
      1.972  0.1562E+02  0.8173E+02
      2.087  0.1132E+02  0.8303E+02
      2.202  0.2281E+02  0.8566E+02
      2.317  0.2902E+02  0.8900E+02
      2.433  0.2369E+02  0.9173E+02
      2.548  0.4004E+02  0.9634E+02
      2.663  0.3494E+02  0.1004E+03
      2.778  0.3263E+02  0.1041E+03
      2.893  0.4635E+02  0.1095E+03
      3.008  0.4093E+02  0.1142E+03
      3.124  0.5260E+02  0.1202E+03
      3.239  0.4818E+02  0.1258E+03
      3.354  0.4006E+02  0.1304E+03
      3.469  0.5752E+02  0.1370E+03
      3.584  0.4417E+02  0.1421E+03
      3.700  0.5428E+02  0.1484E+03
      3.815  0.3811E+02  0.1528E+03
      3.930  0.6399E+02  0.1601E+03
      4.045  0.4971E+02  0.1659E+03
      4.160  0.6725E+02  0.1736E+03
      4.276  0.5942E+02  0.1804E+03
      4.391  0.4739E+02  0.1859E+03
      4.506  0.5544E+02  0.1923E+03
      4.621  0.6283E+02  0.1995E+03
      4.736  0.5727E+02  0.2061E+03
      4.851  0.4134E+02  0.2109E+03
      4.967  0.5021E+02  0.2167E+03
      5.082  0.4138E+02  0.2214E+03
      5.197  0.4338E+02  0.2264E+03
      5.312  0.4195E+02  0.2313E+03
      5.427  0.4528E+02  0.2365E+03
      5.543  0.5205E+02  0.2425E+03
      5.658  0.5579E+02  0.2489E+03
      5.773  0.4953E+02  0.2546E+03
      5.888  0.5074E+02  0.2605E+03
      6.003  0.5835E+02  0.2672E+03
      6.118  0.3964E+02  0.2717E+03
      6.234  0.3199E+02  0.2754E+03
      6.349  0.4435E+02  0.2805E+03
      6.464  0.2465E+02  0.2834E+03
      6.579  0.2467E+02  0.2862E+03
      6.694  0.1177E+02  0.2876E+03
      6.810  0.2052E+02  0.2899E+03
      6.925  0.9275E+01  0.2910E+03
      7.040  0.7597E+01  0.2919E+03
      7.155  0.1559E+02  0.2937E+03
      7.270  0.6912E+01  0.2945E+03
      7.386  0.1348E+02  0.2960E+03
      7.501  0.1086E+02  0.2973E+03
      7.616  0.7638E+01  0.2982E+03
      7.731  0.7940E+01  0.2991E+03
      7.846  0.1314E+02  0.3006E+03
      7.961  0.1341E+02  0.3021E+03
      8.077  0.8402E+01  0.3031E+03
      8.192  0.5830E+01  0.3038E+03
      8.307  0.4377E+01  0.3043E+03
      8.422  0.5038E+01  0.3048E+03
      8.537  0.1151E+02  0.3062E+03
      8.653  0.3083E+01  0.3065E+03
      8.768  0.5947E+01  0.3072E+03
      8.883  0.8524E+01  0.3082E+03
      8.998  0.7096E+01  0.3090E+03
      9.113  0.4592E+01  0.3095E+03
      9.229  0.5990E+01  0.3102E+03
      9.344  0.8000E+01  0.3112E+03
      9.459  0.1009E+02  0.3123E+03
      9.574  0.7872E+01  0.3132E+03
      9.689  0.6468E+01  0.3140E+03
      9.804  0.8708E+01  0.3150E+03
      9.920  0.1245E+02  0.3164E+03
     10.035  0.1002E+02  0.3176E+03
     10.150  0.8853E+01  0.3186E+03
     10.265  0.9145E+01  0.3196E+03
     10.380  0.9443E+01  0.3207E+03
     10.496  0.4555E+01  0.3212E+03
     10.611  0.1072E+02  0.3225E+03
     10.726  0.5522E+01  0.3231E+03
     10.841  0.1087E+02  0.3244E+03
     10.956  0.1131E+02  0.3257E+03
     11.072  0.9765E+01  0.3268E+03
     11.187  0.9706E+01  0.3279E+03
     11.302  0.9665E+01  0.3290E+03
     11.417  0.7426E+01  0.3299E+03
     11.532  0.7979E+01  0.3308E+03
     11.647  0.9748E+01  0.3319E+03
     11.763  0.1416E+02  0.3336E+03
     11.878  0.1012E+02  0.3347E+03
     11.993  0.8437E+01  0.3357E+03
     12.108  0.7410E+01  0.3365E+03
     12.223  0.1041E+02  0.3377E+03
     12.339  0.5485E+01  0.3384E+03
     12.454  0.1437E+02  0.3400E+03
     12.569  0.1362E+02  0.3416E+03
     12.684  0.4768E+01  0.3421E+03
     12.799  0.4374E+01  0.3427E+03
     12.914  0.9512E+01  0.3437E+03
     13.030  0.1162E+02  0.3451E+03
     13.145  0.1701E+02  0.3470E+03
     13.260  0.1101E+02  0.3483E+03
     13.375  0.6507E+01  0.3491E+03
     13.490  0.6395E+01  0.3498E+03
     13.606  0.1413E+02  0.3514E+03
     13.721  0.7336E+01  0.3523E+03
     13.836  0.8621E+01  0.3533E+03
     13.951  0.8203E+01  0.3542E+03
     14.066  0.4962E+01  0.3548E+03
     14.182  0.8449E+01  0.3558E+03
     14.297  0.1278E+02  0.3572E+03
     14.412  0.1526E+02  0.3590E+03
     14.527  0.9010E+01  0.3600E+03
     14.642  0.9024E+01  0.3611E+03
     14.757  0.1358E+02  0.3626E+03
     14.873  0.1282E+02  0.3641E+03
     14.988  0.4243E+01  0.3646E+03
     15.103  0.7426E+01  0.3654E+03
     15.218  0.1275E+02  0.3669E+03
     15.333  0.6525E+01  0.3677E+03
     15.449  0.9717E+01  0.3688E+03
     15.564  0.6052E+01  0.3695E+03
     15.679  0.1596E+02  0.3713E+03
     15.794  0.4240E+01  0.3718E+03
     15.909  0.9202E+01  0.3729E+03
     16.025  0.1526E+02  0.3746E+03
     16.140  0.1137E+02  0.3759E+03
     16.255  0.1645E+02  0.3778E+03
     16.370  0.1499E+02  0.3796E+03
     16.485  0.1532E+02  0.3813E+03
     16.600  0.1327E+02  0.3829E+03
     16.716  0.7313E+01  0.3837E+03
     16.831  0.3091E+01  0.3841E+03
     16.946  0.6943E+01  0.3849E+03
     17.061  0.6836E+01  0.3856E+03
     17.176  0.1226E+02  0.3871E+03
     17.292  0.2116E+02  0.3895E+03
     17.407  0.1236E+02  0.3909E+03
     17.522  0.9435E+01  0.3920E+03
     17.637  0.9389E+01  0.3931E+03
     17.752  0.1041E+02  0.3943E+03
     17.868  0.1494E+02  0.3960E+03
     17.983  0.8049E+01  0.3969E+03
     18.098  0.1710E+02  0.3989E+03
     18.213  0.1162E+02  0.4002E+03
     18.328  0.7508E+01  0.4011E+03
     18.443  0.9803E+01  0.4022E+03
     18.559  0.9321E+01  0.4033E+03
     18.674  0.2129E+02  0.4058E+03
     18.789  0.9898E+01  0.4069E+03
     18.904  0.4358E+01  0.4074E+03
     19.019  0.4092E+01  0.4079E+03
     19.135  0.7235E+01  0.4087E+03
     19.250  0.1138E+02  0.4100E+03
     19.365  0.8518E+01  0.4110E+03
     19.480  0.1314E+02  0.4125E+03
     19.595  0.1809E+02  0.4146E+03
     19.710  0.1365E+02  0.4162E+03
     19.826  0.6898E+01  0.4170E+03
     19.941  0.1771E+02  0.4190E+03
     20.056  0.1063E+02  0.4202E+03
     20.171  0.9294E+01  0.4213E+03
     20.286  0.1537E+02  0.4231E+03
     20.402  0.5846E+01  0.4237E+03
     20.517  0.2166E+02  0.4262E+03
     20.632  0.1443E+02  0.4279E+03
     20.747  0.7336E+01  0.4287E+03
     20.862  0.1601E+02  0.4306E+03
     20.978  0.2815E+02  0.4338E+03
     21.093  0.1875E+02  0.4360E+03
     21.208  0.2173E+02  0.4385E+03
     21.323  0.1503E+02  0.4402E+03
     21.438  0.1116E+02  0.4415E+03
     21.553  0.1472E+02  0.4432E+03
     21.669  0.1808E+02  0.4453E+03
     21.784  0.2041E+02  0.4476E+03
     21.899  0.1707E+02  0.4496E+03
     22.014  0.1554E+02  0.4514E+03
     22.129  0.2614E+02  0.4544E+03
     22.245  0.7113E+01  0.4552E+03
     22.360  0.1878E+02  0.4574E+03
     22.475  0.1740E+02  0.4594E+03
     22.590  0.1229E+02  0.4608E+03
     22.705  0.5496E+01  0.4614E+03
     22.821  0.1902E+02  0.4636E+03
     22.936  0.2528E+02  0.4665E+03
     23.051  0.1872E+02  0.4687E+03
     23.166  0.9134E+01  0.4697E+03
     23.281  0.1381E+02  0.4713E+03
     23.396  0.1705E+02  0.4733E+03
     23.512  0.1304E+02  0.4748E+03
     23.627  0.1385E+02  0.4764E+03
     23.742  0.1076E+02  0.4776E+03
     23.857  0.1586E+02  0.4795E+03
     23.972  0.1554E+02  0.4813E+03
     24.088  0.1502E+02  0.4830E+03
     24.203  0.1547E+02  0.4848E+03
     24.318  0.7592E+01  0.4856E+03
     24.433  0.6071E+01  0.4863E+03
     24.548  0.3452E+01  0.4867E+03
     24.663  0.5613E+01  0.4874E+03
     24.779  0.1686E+01  0.4876E+03
     24.894  0.1727E+01  0.4878E+03
     25.009  0.1354E+01  0.4879E+03
     25.124  0.5618E+00  0.4880E+03
     25.239  0.1227E-01  0.4880E+03
     25.355  0.3137E-07  0.4880E+03
     25.470  0.0000E+00  0.4880E+03
     25.585  0.0000E+00  0.4880E+03
     25.700  0.0000E+00  0.4880E+03
     25.815  0.0000E+00  0.4880E+03
     25.931  0.0000E+00  0.4880E+03
     26.046  0.0000E+00  0.4880E+03
     26.161  0.0000E+00  0.4880E+03
     26.276  0.0000E+00  0.4880E+03
     26.391  0.0000E+00  0.4880E+03
     26.506  0.0000E+00  0.4880E+03
     26.622  0.0000E+00  0.4880E+03
