unknown system                          
           1
     7.723463    0.000000    0.000000
    -3.861732    6.688715    0.000000
     0.000000    0.000000    8.973988
   Ga   Au
     6    21
Direct configuration=     1
   0.33333300  0.66666700  0.19108084
   0.00000000  0.00000000  0.69598168
   0.33333300  0.66666700  0.80891916
   0.66666700  0.33333300  0.80891916
   0.66666700  0.33333300  0.19108084
   0.00000000  0.00000000  0.30401832
   0.00000000  0.35717549  0.33014736
   0.68269746  0.00000000  0.83207105
   0.00000000  0.72845432  0.50000000
   0.00000000  0.68269746  0.83207105
   0.31730254  0.31730254  0.16792895
   0.27154568  0.27154568  0.50000000
   0.00000000  0.68269746  0.16792895
   0.72845432  0.00000000  0.50000000
   0.35717549  0.00000000  0.33014736
   0.64282451  0.64282451  0.66985264
   0.36968920  0.00000000  0.00000000
   0.66666700  0.33333300  0.50000000
   0.35717549  0.00000000  0.66985264
   0.00000000  0.00000000  0.00000000
   0.31730254  0.31730254  0.83207105
   0.63031080  0.63031080  0.00000000
   0.68269746  0.00000000  0.16792895
   0.64282451  0.64282451  0.33014736
   0.00000000  0.36968920  0.00000000
   0.33333300  0.66666700  0.50000000
   0.00000000  0.35717549  0.66985264
