Si1 O2                                  
   1.00000000000000     
     0.0000000000000000    2.2914159999999999    2.2914159999999999
     2.2914159999999999    0.0000000000000000    2.2914159999999999
     2.2914159999999999    2.2914159999999999    0.0000000000000000
   Si   O 
     1     2
Direct
     0.0000000000000000    0.0000000000000000    0.0000000000000000
     0.2500000000000000    0.2500000000000000    0.2500000000000000
     0.7500000000000000    0.7500000000000000    0.7500000000000000
 
  0.00000000E+00  0.00000000E+00  0.00000000E+00
  0.00000000E+00  0.00000000E+00  0.00000000E+00
  0.00000000E+00  0.00000000E+00  0.00000000E+00
