       N       E                     dE             d eps       ncg     rms          rms(c)
DAV:   1     0.659045594738E+02    0.65905E+02   -0.97511E+03 25004   0.141E+03
DAV:   2    -0.194434632700E+02   -0.85348E+02   -0.75154E+02 31144   0.266E+02
DAV:   3    -0.225965155152E+02   -0.31531E+01   -0.31284E+01 29184   0.518E+01
DAV:   4    -0.226170285940E+02   -0.20513E-01   -0.20493E-01 27252   0.470E+00
DAV:   5    -0.226172476124E+02   -0.21902E-03   -0.21890E-03 28688   0.427E-01    0.107E+01
DAV:   6    -0.199361227794E+02    0.26811E+01   -0.76811E+00 25268   0.267E+01    0.392E+00
DAV:   7    -0.199361787787E+02   -0.55999E-04   -0.22882E-01 28696   0.462E+00    0.168E+00
DAV:   8    -0.199336580027E+02    0.25208E-02   -0.14731E-02 27460   0.155E+00    0.504E-01
DAV:   9    -0.199354642212E+02   -0.18062E-02   -0.28199E-03 29700   0.634E-01    0.177E-01
DAV:  10    -0.199357265391E+02   -0.26232E-03   -0.79292E-04 24568   0.261E-01    0.424E-02
DAV:  11    -0.199356998961E+02    0.26643E-04   -0.10640E-04 29912   0.103E-01    0.786E-03
DAV:  12    -0.199357044684E+02   -0.45724E-05   -0.68098E-06 26620   0.247E-02    0.382E-03
DAV:  13    -0.199357045161E+02   -0.47617E-07   -0.67139E-07 21164   0.848E-03
   1 F= -.19935705E+02 E0= -.19935705E+02  d E =-.215042E-16
