   8   8   0   0
  0.7129153E+01  0.2685229E-09  0.4608645E-09  0.4608645E-09  0.5000000E-15
  1.000000000000000E-004
  CAR 
 unknown system                          
     27.61712417   -100.26332911  301      2.57386873      1.00000000
   -100.263  0.0000E+00  0.0000E+00
    -99.837  0.0000E+00  0.0000E+00
    -99.411  0.0000E+00  0.0000E+00
    -98.985  0.0000E+00  0.0000E+00
    -98.558  0.0000E+00  0.0000E+00
    -98.132  0.0000E+00  0.0000E+00
    -97.706  0.0000E+00  0.0000E+00
    -97.279  0.0000E+00  0.0000E+00
    -96.853  0.0000E+00  0.0000E+00
    -96.427  0.0000E+00  0.0000E+00
    -96.001  0.0000E+00  0.0000E+00
    -95.574  0.0000E+00  0.0000E+00
    -95.148  0.0000E+00  0.0000E+00
    -94.722  0.7675E-13  0.3272E-13
    -94.296  0.1877E+02  0.8000E+01
    -93.869  0.0000E+00  0.8000E+01
    -93.443  0.0000E+00  0.8000E+01
    -93.017  0.0000E+00  0.8000E+01
    -92.591  0.0000E+00  0.8000E+01
    -92.164  0.0000E+00  0.8000E+01
    -91.738  0.0000E+00  0.8000E+01
    -91.312  0.0000E+00  0.8000E+01
    -90.885  0.0000E+00  0.8000E+01
    -90.459  0.0000E+00  0.8000E+01
    -90.033  0.0000E+00  0.8000E+01
    -89.607  0.0000E+00  0.8000E+01
    -89.180  0.0000E+00  0.8000E+01
    -88.754  0.0000E+00  0.8000E+01
    -88.328  0.0000E+00  0.8000E+01
    -87.902  0.0000E+00  0.8000E+01
    -87.475  0.0000E+00  0.8000E+01
    -87.049  0.0000E+00  0.8000E+01
    -86.623  0.0000E+00  0.8000E+01
    -86.196  0.0000E+00  0.8000E+01
    -85.770  0.0000E+00  0.8000E+01
    -85.344  0.0000E+00  0.8000E+01
    -84.918  0.0000E+00  0.8000E+01
    -84.491  0.0000E+00  0.8000E+01
    -84.065  0.0000E+00  0.8000E+01
    -83.639  0.0000E+00  0.8000E+01
    -83.213  0.0000E+00  0.8000E+01
    -82.786  0.0000E+00  0.8000E+01
    -82.360  0.0000E+00  0.8000E+01
    -81.934  0.0000E+00  0.8000E+01
    -81.508  0.0000E+00  0.8000E+01
    -81.081  0.0000E+00  0.8000E+01
    -80.655  0.0000E+00  0.8000E+01
    -80.229  0.0000E+00  0.8000E+01
    -79.802  0.0000E+00  0.8000E+01
    -79.376  0.0000E+00  0.8000E+01
    -78.950  0.0000E+00  0.8000E+01
    -78.524  0.0000E+00  0.8000E+01
    -78.097  0.0000E+00  0.8000E+01
    -77.671  0.0000E+00  0.8000E+01
    -77.245  0.0000E+00  0.8000E+01
    -76.819  0.0000E+00  0.8000E+01
    -76.392  0.0000E+00  0.8000E+01
    -75.966  0.0000E+00  0.8000E+01
    -75.540  0.0000E+00  0.8000E+01
    -75.114  0.0000E+00  0.8000E+01
    -74.687  0.0000E+00  0.8000E+01
    -74.261  0.0000E+00  0.8000E+01
    -73.835  0.0000E+00  0.8000E+01
    -73.408  0.0000E+00  0.8000E+01
    -72.982  0.0000E+00  0.8000E+01
    -72.556  0.0000E+00  0.8000E+01
    -72.130  0.0000E+00  0.8000E+01
    -71.703  0.0000E+00  0.8000E+01
    -71.277  0.0000E+00  0.8000E+01
    -70.851  0.0000E+00  0.8000E+01
    -70.425  0.0000E+00  0.8000E+01
    -69.998  0.0000E+00  0.8000E+01
    -69.572  0.0000E+00  0.8000E+01
    -69.146  0.0000E+00  0.8000E+01
    -68.719  0.0000E+00  0.8000E+01
    -68.293  0.0000E+00  0.8000E+01
    -67.867  0.0000E+00  0.8000E+01
    -67.441  0.0000E+00  0.8000E+01
    -67.014  0.0000E+00  0.8000E+01
    -66.588  0.0000E+00  0.8000E+01
    -66.162  0.0000E+00  0.8000E+01
    -65.736  0.0000E+00  0.8000E+01
    -65.309  0.0000E+00  0.8000E+01
    -64.883  0.0000E+00  0.8000E+01
    -64.457  0.0000E+00  0.8000E+01
    -64.031  0.0000E+00  0.8000E+01
    -63.604  0.0000E+00  0.8000E+01
    -63.178  0.0000E+00  0.8000E+01
    -62.752  0.0000E+00  0.8000E+01
    -62.325  0.0000E+00  0.8000E+01
    -61.899  0.0000E+00  0.8000E+01
    -61.473  0.0000E+00  0.8000E+01
    -61.047  0.0000E+00  0.8000E+01
    -60.620  0.0000E+00  0.8000E+01
    -60.194  0.0000E+00  0.8000E+01
    -59.768  0.0000E+00  0.8000E+01
    -59.342  0.0000E+00  0.8000E+01
    -58.915  0.0000E+00  0.8000E+01
    -58.489  0.0000E+00  0.8000E+01
    -58.063  0.0000E+00  0.8000E+01
    -57.637  0.0000E+00  0.8000E+01
    -57.210  0.0000E+00  0.8000E+01
    -56.784  0.0000E+00  0.8000E+01
    -56.358  0.0000E+00  0.8000E+01
    -55.931  0.0000E+00  0.8000E+01
    -55.505  0.0000E+00  0.8000E+01
    -55.079  0.0000E+00  0.8000E+01
    -54.653  0.0000E+00  0.8000E+01
    -54.226  0.0000E+00  0.8000E+01
    -53.800  0.0000E+00  0.8000E+01
    -53.374  0.0000E+00  0.8000E+01
    -52.948  0.0000E+00  0.8000E+01
    -52.521  0.0000E+00  0.8000E+01
    -52.095  0.0000E+00  0.8000E+01
    -51.669  0.0000E+00  0.8000E+01
    -51.242  0.0000E+00  0.8000E+01
    -50.816  0.0000E+00  0.8000E+01
    -50.390  0.0000E+00  0.8000E+01
    -49.964  0.0000E+00  0.8000E+01
    -49.537  0.0000E+00  0.8000E+01
    -49.111  0.0000E+00  0.8000E+01
    -48.685  0.0000E+00  0.8000E+01
    -48.259  0.0000E+00  0.8000E+01
    -47.832  0.0000E+00  0.8000E+01
    -47.406  0.0000E+00  0.8000E+01
    -46.980  0.0000E+00  0.8000E+01
    -46.554  0.0000E+00  0.8000E+01
    -46.127  0.0000E+00  0.8000E+01
    -45.701  0.0000E+00  0.8000E+01
    -45.275  0.0000E+00  0.8000E+01
    -44.848  0.0000E+00  0.8000E+01
    -44.422  0.0000E+00  0.8000E+01
    -43.996  0.0000E+00  0.8000E+01
    -43.570  0.0000E+00  0.8000E+01
    -43.143  0.0000E+00  0.8000E+01
    -42.717  0.0000E+00  0.8000E+01
    -42.291  0.0000E+00  0.8000E+01
    -41.865  0.0000E+00  0.8000E+01
    -41.438  0.0000E+00  0.8000E+01
    -41.012  0.0000E+00  0.8000E+01
    -40.586  0.0000E+00  0.8000E+01
    -40.160  0.0000E+00  0.8000E+01
    -39.733  0.0000E+00  0.8000E+01
    -39.307  0.0000E+00  0.8000E+01
    -38.881  0.0000E+00  0.8000E+01
    -38.454  0.0000E+00  0.8000E+01
    -38.028  0.0000E+00  0.8000E+01
    -37.602  0.0000E+00  0.8000E+01
    -37.176  0.0000E+00  0.8000E+01
    -36.749  0.0000E+00  0.8000E+01
    -36.323  0.0000E+00  0.8000E+01
    -35.897  0.0000E+00  0.8000E+01
    -35.471  0.0000E+00  0.8000E+01
    -35.044  0.0000E+00  0.8000E+01
    -34.618  0.0000E+00  0.8000E+01
    -34.192  0.0000E+00  0.8000E+01
    -33.765  0.0000E+00  0.8000E+01
    -33.339  0.0000E+00  0.8000E+01
    -32.913  0.0000E+00  0.8000E+01
    -32.487  0.0000E+00  0.8000E+01
    -32.060  0.0000E+00  0.8000E+01
    -31.634  0.0000E+00  0.8000E+01
    -31.208  0.0000E+00  0.8000E+01
    -30.782  0.0000E+00  0.8000E+01
    -30.355  0.0000E+00  0.8000E+01
    -29.929  0.0000E+00  0.8000E+01
    -29.503  0.0000E+00  0.8000E+01
    -29.077  0.0000E+00  0.8000E+01
    -28.650  0.0000E+00  0.8000E+01
    -28.224  0.0000E+00  0.8000E+01
    -27.798  0.0000E+00  0.8000E+01
    -27.371  0.0000E+00  0.8000E+01
    -26.945  0.0000E+00  0.8000E+01
    -26.519  0.0000E+00  0.8000E+01
    -26.093  0.0000E+00  0.8000E+01
    -25.666  0.0000E+00  0.8000E+01
    -25.240  0.0000E+00  0.8000E+01
    -24.814  0.0000E+00  0.8000E+01
    -24.388  0.0000E+00  0.8000E+01
    -23.961  0.0000E+00  0.8000E+01
    -23.535  0.0000E+00  0.8000E+01
    -23.109  0.0000E+00  0.8000E+01
    -22.683  0.0000E+00  0.8000E+01
    -22.256  0.0000E+00  0.8000E+01
    -21.830  0.0000E+00  0.8000E+01
    -21.404  0.0000E+00  0.8000E+01
    -20.977  0.0000E+00  0.8000E+01
    -20.551  0.0000E+00  0.8000E+01
    -20.125  0.0000E+00  0.8000E+01
    -19.699  0.0000E+00  0.8000E+01
    -19.272  0.0000E+00  0.8000E+01
    -18.846  0.0000E+00  0.8000E+01
    -18.420  0.0000E+00  0.8000E+01
    -17.994  0.0000E+00  0.8000E+01
    -17.567  0.0000E+00  0.8000E+01
    -17.141  0.0000E+00  0.8000E+01
    -16.715  0.0000E+00  0.8000E+01
    -16.288  0.1093E+00  0.8047E+01
    -15.862  0.1022E+01  0.8482E+01
    -15.436  0.1945E+01  0.9322E+01
    -15.010  0.2514E+01  0.1060E+02
    -14.583  0.4745E+01  0.1270E+02
    -14.157  0.7251E+01  0.1596E+02
    -13.731  0.0000E+00  0.1600E+02
    -13.305  0.0000E+00  0.1600E+02
    -12.878  0.0000E+00  0.1600E+02
    -12.452  0.0000E+00  0.1600E+02
    -12.026  0.0000E+00  0.1600E+02
    -11.600  0.0000E+00  0.1600E+02
    -11.173  0.0000E+00  0.1600E+02
    -10.747  0.0000E+00  0.1600E+02
    -10.321  0.0000E+00  0.1600E+02
     -9.894  0.0000E+00  0.1600E+02
     -9.468  0.0000E+00  0.1600E+02
     -9.042  0.0000E+00  0.1600E+02
     -8.616  0.0000E+00  0.1600E+02
     -8.189  0.0000E+00  0.1600E+02
     -7.763  0.0000E+00  0.1600E+02
     -7.337  0.0000E+00  0.1600E+02
     -6.911  0.0000E+00  0.1600E+02
     -6.484  0.0000E+00  0.1600E+02
     -6.058  0.0000E+00  0.1600E+02
     -5.632  0.0000E+00  0.1600E+02
     -5.206  0.0000E+00  0.1600E+02
     -4.779  0.0000E+00  0.1600E+02
     -4.353  0.0000E+00  0.1600E+02
     -3.927  0.1179E-01  0.1601E+02
     -3.500  0.1799E+01  0.1677E+02
     -3.074  0.2256E+01  0.1789E+02
     -2.648  0.2444E+01  0.1905E+02
     -2.222  0.3369E+01  0.2057E+02
     -1.795  0.3894E+01  0.2234E+02
     -1.369  0.3697E+01  0.2409E+02
     -0.943  0.2772E+01  0.2538E+02
     -0.517  0.3460E+01  0.2696E+02
     -0.090  0.4233E+01  0.2888E+02
      0.336  0.4981E+01  0.3116E+02
      0.762  0.5632E+01  0.3382E+02
      1.188  0.5999E+01  0.3656E+02
      1.615  0.4522E+01  0.3876E+02
      2.041  0.2395E+01  0.3988E+02
      2.467  0.1043E+00  0.4000E+02
      2.894  0.0000E+00  0.4000E+02
      3.320  0.0000E+00  0.4000E+02
      3.746  0.0000E+00  0.4000E+02
      4.172  0.0000E+00  0.4000E+02
      4.599  0.0000E+00  0.4000E+02
      5.025  0.0000E+00  0.4000E+02
      5.451  0.0000E+00  0.4000E+02
      5.877  0.0000E+00  0.4000E+02
      6.304  0.0000E+00  0.4000E+02
      6.730  0.0000E+00  0.4000E+02
      7.156  0.0000E+00  0.4000E+02
      7.583  0.0000E+00  0.4000E+02
      8.009  0.0000E+00  0.4000E+02
      8.435  0.0000E+00  0.4000E+02
      8.861  0.0000E+00  0.4000E+02
      9.288  0.0000E+00  0.4000E+02
      9.714  0.3549E-01  0.4002E+02
     10.140  0.2267E-02  0.4005E+02
     10.566  0.4089E+00  0.4022E+02
     10.993  0.6234E+00  0.4049E+02
     11.419  0.1550E+01  0.4121E+02
     11.845  0.1995E+01  0.4210E+02
     12.271  0.1981E+01  0.4298E+02
     12.698  0.3442E+01  0.4468E+02
     13.124  0.3247E+01  0.4616E+02
     13.550  0.1936E+01  0.4710E+02
     13.977  0.9241E+00  0.4764E+02
     14.403  0.1493E+01  0.4829E+02
     14.829  0.1714E+01  0.4905E+02
     15.255  0.1622E+01  0.4978E+02
     15.682  0.2110E+01  0.5068E+02
     16.108  0.3343E+01  0.5218E+02
     16.534  0.3245E+01  0.5377E+02
     16.960  0.4824E+01  0.5586E+02
     17.387  0.4841E+01  0.5808E+02
     17.813  0.3651E+01  0.5988E+02
     18.239  0.2797E+01  0.6120E+02
     18.665  0.2626E+01  0.6248E+02
     19.092  0.2970E+01  0.6381E+02
     19.518  0.3163E+01  0.6536E+02
     19.944  0.4781E+01  0.6743E+02
     20.371  0.2529E+01  0.6882E+02
     20.797  0.2746E+01  0.7000E+02
     21.223  0.2879E+01  0.7123E+02
     21.649  0.1321E+01  0.7193E+02
     22.076  0.1043E+00  0.7200E+02
     22.502  0.0000E+00  0.7200E+02
     22.928  0.0000E+00  0.7200E+02
     23.354  0.0000E+00  0.7200E+02
     23.781  0.0000E+00  0.7200E+02
     24.207  0.0000E+00  0.7200E+02
     24.633  0.0000E+00  0.7200E+02
     25.060  0.0000E+00  0.7200E+02
     25.486  0.0000E+00  0.7200E+02
     25.912  0.0000E+00  0.7200E+02
     26.338  0.0000E+00  0.7200E+02
     26.765  0.0000E+00  0.7200E+02
     27.191  0.0000E+00  0.7200E+02
     27.617  0.0000E+00  0.7200E+02
