unknown system                          
           1
     2.685229    0.000000    0.000000
     0.000000    4.608645    0.000000
     0.000000    0.000000    4.608645
   Be   O 
     4     4
Direct configuration=     1
   0.00000000  0.32641998  0.67358002
   0.50000000  0.82641998  0.82641998
   0.50000000  0.17358002  0.17358002
   0.00000000  0.67358002  0.32641998
   0.00000000  0.31135549  0.31135549
   0.50000000  0.18864451  0.81135549
   0.50000000  0.81135549  0.18864451
   0.00000000  0.68864451  0.68864451
