B6 Pb1                                  
   1.00000000000000     
     4.2218090000000004    0.0000000000000000    0.0000000000000000
     0.0000000000000000    4.2218090000000004    0.0000000000000000
     0.0000000000000000    0.0000000000000000    4.2218090000000004
   B    Pb
     6     1
Direct
     0.2030030000000025    0.5000000000000000    0.5000000000000000
     0.5000000000000000    0.5000000000000000    0.7969969999999975
     0.5000000000000000    0.5000000000000000    0.2030030000000025
     0.5000000000000000    0.2030030000000025    0.5000000000000000
     0.5000000000000000    0.7969969999999975    0.5000000000000000
     0.7969969999999975    0.5000000000000000    0.5000000000000000
     0.0000000000000000    0.0000000000000000    0.0000000000000000
 
  0.00000000E+00  0.00000000E+00  0.00000000E+00
  0.00000000E+00  0.00000000E+00  0.00000000E+00
  0.00000000E+00  0.00000000E+00  0.00000000E+00
  0.00000000E+00  0.00000000E+00  0.00000000E+00
  0.00000000E+00  0.00000000E+00  0.00000000E+00
  0.00000000E+00  0.00000000E+00  0.00000000E+00
  0.00000000E+00  0.00000000E+00  0.00000000E+00
