       N       E                     dE             d eps       ncg     rms          rms(c)
DAV:   1     0.248874452687E+03    0.24887E+03   -0.14395E+04 15588   0.101E+03
DAV:   2    -0.234930380325E+02   -0.27237E+03   -0.23796E+03 16512   0.285E+02
DAV:   3    -0.490079713700E+02   -0.25515E+02   -0.24576E+02 19228   0.878E+01
DAV:   4    -0.497946406157E+02   -0.78667E+00   -0.78327E+00 19944   0.140E+01
DAV:   5    -0.498120392492E+02   -0.17399E-01   -0.17390E-01 20364   0.232E+00    0.934E+00
DAV:   6    -0.439557628842E+02    0.58563E+01   -0.26107E+00 23688   0.151E+01    0.460E+00
DAV:   7    -0.429867608844E+02    0.96900E+00   -0.23123E+00 21872   0.953E+00    0.145E+00
DAV:   8    -0.430116741269E+02   -0.24913E-01   -0.51817E-01 20064   0.417E+00    0.757E-01
DAV:   9    -0.429943691358E+02    0.17305E-01   -0.31704E-02 22932   0.112E+00    0.190E-01
DAV:  10    -0.429953766549E+02   -0.10075E-02   -0.83517E-03 17912   0.327E-01    0.877E-02
DAV:  11    -0.429953792873E+02   -0.26323E-05   -0.87122E-04 22488   0.245E-01    0.280E-02
DAV:  12    -0.429953332260E+02    0.46061E-04   -0.11646E-04 21532   0.781E-02    0.113E-02
DAV:  13    -0.429953363291E+02   -0.31031E-05   -0.22775E-05 20520   0.235E-02    0.419E-03
DAV:  14    -0.429953355249E+02    0.80420E-06   -0.36786E-06 21096   0.196E-02
   1 F= -.42995336E+02 E0= -.42995336E+02  d E =-.219242E-17
