B6Pb1
1.0
      4.2218090       0.0000000       0.0000000
      0.0000000       4.2218090       0.0000000
      0.0000000       0.0000000       4.2218090
  B     Pb  
  6     1   
Direct
      0.2030030       0.5000000       0.5000000
      0.5000000       0.5000000       0.7969970
      0.5000000       0.5000000       0.2030030
      0.5000000       0.2030030       0.5000000
      0.5000000       0.7969970       0.5000000
      0.7969970       0.5000000       0.5000000
      0.0000000       0.0000000       0.0000000
