       N       E                     dE             d eps       ncg     rms          rms(c)
DAV:   1     0.808750808990E+03    0.80875E+03   -0.33600E+04 36392   0.158E+03
DAV:   2     0.238816770969E+02   -0.78487E+03   -0.72193E+03 36288   0.392E+02
DAV:   3    -0.688327547306E+02   -0.92714E+02   -0.78358E+02 37368   0.153E+02
DAV:   4    -0.723536167597E+02   -0.35209E+01   -0.34861E+01 40720   0.338E+01
DAV:   5    -0.724254678921E+02   -0.71851E-01   -0.71832E-01 53488   0.362E+00    0.411E+01
DAV:   6    -0.648708450274E+02    0.75546E+01   -0.36324E+01 42336   0.608E+01    0.209E+01
DAV:   7    -0.802433916884E+02   -0.15373E+02   -0.45732E+01 41568   0.559E+01    0.575E+01
DAV:   8    -0.617427319585E+02    0.18501E+02   -0.18937E+01 41688   0.546E+01    0.419E+00
DAV:   9    -0.615266661618E+02    0.21607E+00   -0.11088E+00 42552   0.605E+00    0.296E+00
DAV:  10    -0.614436907431E+02    0.82975E-01   -0.10645E-01 51344   0.308E+00    0.153E+00
DAV:  11    -0.614466560215E+02   -0.29653E-02   -0.36095E-02 42656   0.250E+00    0.161E+00
DAV:  12    -0.614312375071E+02    0.15419E-01   -0.17735E-02 41520   0.185E+00    0.322E-01
DAV:  13    -0.614314897188E+02   -0.25221E-03   -0.49557E-03 42104   0.775E-01    0.426E-01
DAV:  14    -0.614305383805E+02    0.95134E-03   -0.37657E-03 41576   0.742E-01    0.187E-01
DAV:  15    -0.614304994761E+02    0.38904E-04   -0.49400E-04 42144   0.221E-01    0.164E-01
DAV:  16    -0.614304955299E+02    0.39463E-05   -0.34666E-04 43264   0.245E-01    0.144E-01
DAV:  17    -0.614303951257E+02    0.10040E-03   -0.19610E-04 43976   0.188E-01    0.432E-02
DAV:  18    -0.614304001705E+02   -0.50449E-05   -0.26737E-05 52360   0.414E-02    0.216E-02
DAV:  19    -0.614303988858E+02    0.12847E-05   -0.10465E-05 41096   0.426E-02    0.148E-02
DAV:  20    -0.614303966173E+02    0.22685E-05   -0.24114E-06 20528   0.202E-02    0.707E-03
DAV:  21    -0.614303964753E+02    0.14207E-06   -0.60431E-07 19488   0.995E-03
   1 F= -.61430396E+02 E0= -.61425665E+02  d E =-.946242E-02
