V2 Co6
1.0
   0.0000000000000000    0.0000000000000000   -3.9781873299999999
  -2.4700827400000001   -4.2783971599999999    0.0000000000000000
  -2.4701161100000002    4.2784162800000001    0.0000000000000000
V Co
2 6
direct
   0.7500000000000000    0.6666861100000000    0.3333289500000000 V
   0.2500000000000000    0.3333128900000000    0.6666700500000000 V
   0.7500000000000000    0.1630319200000000    0.3260023500000000 Co
   0.7500000000000000    0.1629775000000000    0.8369799999999999 Co
   0.7500000000000000    0.6739925000000000    0.8370069100000000 Co
   0.2500000000000000    0.8369700799999999    0.6739986500000000 Co
   0.2500000000000000    0.8370215000000000    0.1630180000000000 Co
   0.2500000000000000    0.3260065000000000    0.1629940900000000 Co
