unknown system                          
           1
     0.000000    0.000000   -3.978187
    -2.470083   -4.278397    0.000000
    -2.470116    4.278416    0.000000
   V    Co
     2     6
Direct configuration=     1
   0.75000000  0.66668611  0.33332895
   0.25000000  0.33331289  0.66667005
   0.75000000  0.16303192  0.32600235
   0.75000000  0.16297750  0.83698000
   0.75000000  0.67399250  0.83700691
   0.25000000  0.83697008  0.67399865
   0.25000000  0.83702150  0.16301800
   0.25000000  0.32600650  0.16299409
