   4   4   0   0
  0.1773647E+02  0.4646730E-09  0.4646730E-09  0.4646730E-09  0.5000000E-15
  1.000000000000000E-004
  CAR 
 unknown system                          
     26.75388232     -3.42134433  301      8.91849675      1.00000000
     -3.421  0.0000E+00  0.0000E+00
     -3.321  0.0000E+00  0.0000E+00
     -3.220  0.0000E+00  0.0000E+00
     -3.120  0.0000E+00  0.0000E+00
     -3.019  0.0000E+00  0.0000E+00
     -2.918  0.0000E+00  0.0000E+00
     -2.818  0.0000E+00  0.0000E+00
     -2.717  0.0000E+00  0.0000E+00
     -2.617  0.0000E+00  0.0000E+00
     -2.516  0.0000E+00  0.0000E+00
     -2.416  0.0000E+00  0.0000E+00
     -2.315  0.1844E-14  0.1855E-15
     -2.214  0.9374E-07  0.9429E-08
     -2.114  0.2036E-02  0.2048E-03
     -2.013  0.4721E-01  0.4954E-02
     -1.913  0.1060E-01  0.6020E-02
     -1.812  0.2748E+00  0.3366E-01
     -1.711  0.4685E+00  0.8079E-01
     -1.611  0.6630E-01  0.8746E-01
     -1.510  0.3540E-01  0.9102E-01
     -1.410  0.5813E+00  0.1495E+00
     -1.309  0.1177E+00  0.1613E+00
     -1.208  0.1194E+01  0.2815E+00
     -1.108  0.6102E+00  0.3428E+00
     -1.007  0.1279E-01  0.3441E+00
     -0.907  0.1798E+00  0.3622E+00
     -0.806  0.2434E+00  0.3867E+00
     -0.706  0.1603E+01  0.5479E+00
     -0.605  0.1091E+01  0.6576E+00
     -0.504  0.3876E+00  0.6966E+00
     -0.404  0.1074E+01  0.8047E+00
     -0.303  0.1537E+01  0.9592E+00
     -0.203  0.6030E+00  0.1020E+01
     -0.102  0.2830E+01  0.1305E+01
     -0.001  0.2837E+01  0.1590E+01
      0.099  0.3205E+01  0.1912E+01
      0.200  0.8698E+00  0.2000E+01
      0.300  0.2985E-02  0.2000E+01
      0.401  0.7808E-08  0.2000E+01
      0.501  0.0000E+00  0.2000E+01
      0.602  0.0000E+00  0.2000E+01
      0.703  0.0000E+00  0.2000E+01
      0.803  0.0000E+00  0.2000E+01
      0.904  0.0000E+00  0.2000E+01
      1.004  0.0000E+00  0.2000E+01
      1.105  0.0000E+00  0.2000E+01
      1.206  0.5656E-11  0.2000E+01
      1.306  0.4875E-04  0.2000E+01
      1.407  0.2287E+00  0.2023E+01
      1.507  0.2759E+01  0.2300E+01
      1.608  0.1431E+01  0.2444E+01
      1.708  0.4912E+01  0.2938E+01
      1.809  0.3230E+01  0.3263E+01
      1.910  0.3272E+01  0.3592E+01
      2.010  0.7608E+00  0.3669E+01
      2.111  0.2420E+01  0.3912E+01
      2.211  0.1615E+01  0.4075E+01
      2.312  0.2423E+01  0.4318E+01
      2.413  0.1681E+01  0.4487E+01
      2.513  0.3050E+01  0.4794E+01
      2.614  0.4744E+01  0.5271E+01
      2.714  0.4238E+01  0.5698E+01
      2.815  0.7213E+01  0.6423E+01
      2.915  0.1112E+02  0.7542E+01
      3.016  0.7977E+01  0.8344E+01
      3.117  0.9282E+01  0.9278E+01
      3.217  0.9837E+01  0.1027E+02
      3.318  0.1390E+02  0.1167E+02
      3.418  0.8475E+01  0.1252E+02
      3.519  0.4093E+01  0.1293E+02
      3.620  0.5331E+01  0.1347E+02
      3.720  0.6290E+01  0.1410E+02
      3.821  0.5860E+01  0.1469E+02
      3.921  0.5289E+01  0.1522E+02
      4.022  0.5133E+01  0.1574E+02
      4.122  0.7920E+01  0.1653E+02
      4.223  0.8244E+01  0.1736E+02
      4.324  0.6644E+01  0.1803E+02
      4.424  0.1175E+02  0.1921E+02
      4.525  0.9281E+01  0.2015E+02
      4.625  0.6035E+01  0.2075E+02
      4.726  0.5831E+01  0.2134E+02
      4.827  0.8714E+01  0.2222E+02
      4.927  0.8679E+01  0.2309E+02
      5.028  0.3542E+01  0.2345E+02
      5.128  0.2635E+01  0.2371E+02
      5.229  0.3959E+01  0.2411E+02
      5.329  0.7967E+01  0.2491E+02
      5.430  0.3804E+01  0.2529E+02
      5.531  0.8728E+01  0.2617E+02
      5.631  0.1105E+02  0.2728E+02
      5.732  0.1307E+02  0.2860E+02
      5.832  0.1496E+02  0.3010E+02
      5.933  0.7222E+01  0.3083E+02
      6.034  0.6940E+01  0.3153E+02
      6.134  0.5368E+01  0.3207E+02
      6.235  0.2370E+01  0.3230E+02
      6.335  0.2311E+01  0.3254E+02
      6.436  0.2302E+01  0.3277E+02
      6.536  0.3843E+01  0.3315E+02
      6.637  0.1819E+01  0.3334E+02
      6.738  0.6828E+00  0.3341E+02
      6.838  0.3252E+01  0.3373E+02
      6.939  0.3155E+01  0.3405E+02
      7.039  0.2225E+01  0.3427E+02
      7.140  0.2099E+01  0.3449E+02
      7.241  0.1138E+01  0.3460E+02
      7.341  0.1207E+01  0.3472E+02
      7.442  0.1125E+01  0.3483E+02
      7.542  0.2896E+01  0.3513E+02
      7.643  0.1949E+01  0.3532E+02
      7.743  0.1321E+01  0.3546E+02
      7.844  0.2501E+01  0.3571E+02
      7.945  0.1097E+01  0.3582E+02
      8.045  0.9086E+00  0.3591E+02
      8.146  0.4377E+01  0.3635E+02
      8.246  0.3043E+01  0.3665E+02
      8.347  0.8853E+00  0.3674E+02
      8.448  0.8200E-01  0.3675E+02
      8.548  0.4526E-01  0.3676E+02
      8.649  0.1200E+01  0.3688E+02
      8.749  0.8040E+00  0.3696E+02
      8.850  0.6120E-01  0.3696E+02
      8.950  0.5639E+00  0.3702E+02
      9.051  0.2366E+00  0.3704E+02
      9.152  0.5549E+00  0.3710E+02
      9.252  0.3819E+00  0.3714E+02
      9.353  0.3326E+00  0.3717E+02
      9.453  0.2010E+01  0.3737E+02
      9.554  0.4276E+01  0.3780E+02
      9.655  0.2383E+01  0.3804E+02
      9.755  0.3255E+01  0.3837E+02
      9.856  0.8557E+00  0.3846E+02
      9.956  0.2117E+01  0.3867E+02
     10.057  0.1201E+01  0.3879E+02
     10.158  0.2498E+00  0.3882E+02
     10.258  0.1052E+01  0.3892E+02
     10.359  0.1155E+01  0.3904E+02
     10.459  0.2567E+01  0.3930E+02
     10.560  0.1897E+01  0.3949E+02
     10.660  0.3028E+01  0.3979E+02
     10.761  0.1705E+01  0.3996E+02
     10.862  0.6123E+00  0.4003E+02
     10.962  0.2700E+01  0.4030E+02
     11.063  0.1312E+01  0.4043E+02
     11.163  0.1889E+01  0.4062E+02
     11.264  0.2734E+01  0.4089E+02
     11.365  0.1580E+01  0.4105E+02
     11.465  0.1439E+01  0.4120E+02
     11.566  0.5718E+00  0.4126E+02
     11.666  0.2430E+01  0.4150E+02
     11.767  0.2198E+01  0.4172E+02
     11.867  0.1228E+01  0.4184E+02
     11.968  0.1059E+01  0.4195E+02
     12.069  0.6297E-01  0.4196E+02
     12.169  0.1644E+01  0.4212E+02
     12.270  0.1336E+01  0.4226E+02
     12.370  0.9738E+00  0.4236E+02
     12.471  0.4894E+00  0.4240E+02
     12.572  0.1006E+01  0.4251E+02
     12.672  0.1097E+01  0.4262E+02
     12.773  0.2884E+01  0.4291E+02
     12.873  0.5813E+01  0.4349E+02
     12.974  0.1614E+01  0.4365E+02
     13.074  0.2045E+01  0.4386E+02
     13.175  0.1837E+01  0.4404E+02
     13.276  0.3345E+01  0.4438E+02
     13.376  0.1054E+01  0.4449E+02
     13.477  0.2067E+01  0.4469E+02
     13.577  0.9227E+00  0.4479E+02
     13.678  0.8899E+00  0.4488E+02
     13.779  0.1035E+01  0.4498E+02
     13.879  0.6795E+00  0.4505E+02
     13.980  0.9817E-02  0.4505E+02
     14.080  0.9121E-03  0.4505E+02
     14.181  0.7444E+00  0.4512E+02
     14.281  0.3137E+01  0.4544E+02
     14.382  0.2653E+01  0.4571E+02
     14.483  0.5150E+01  0.4622E+02
     14.583  0.1973E+01  0.4642E+02
     14.684  0.1072E+01  0.4653E+02
     14.784  0.3257E+00  0.4656E+02
     14.885  0.1358E+01  0.4670E+02
     14.986  0.2109E+01  0.4691E+02
     15.086  0.1806E+01  0.4709E+02
     15.187  0.3570E+00  0.4713E+02
     15.287  0.8102E+00  0.4721E+02
     15.388  0.1753E+01  0.4739E+02
     15.488  0.2400E+01  0.4763E+02
     15.589  0.2323E+01  0.4786E+02
     15.690  0.1523E+01  0.4802E+02
     15.790  0.1644E+01  0.4818E+02
     15.891  0.7263E+00  0.4825E+02
     15.991  0.1072E+01  0.4836E+02
     16.092  0.2103E+01  0.4857E+02
     16.193  0.2280E+01  0.4880E+02
     16.293  0.3290E+01  0.4913E+02
     16.394  0.6639E+00  0.4920E+02
     16.494  0.2236E-02  0.4920E+02
     16.595  0.1561E+00  0.4922E+02
     16.695  0.2362E+01  0.4945E+02
     16.796  0.8601E+00  0.4954E+02
     16.897  0.1006E+00  0.4955E+02
     16.997  0.3427E+00  0.4959E+02
     17.098  0.1064E+01  0.4969E+02
     17.198  0.1868E+01  0.4988E+02
     17.299  0.3262E+01  0.5021E+02
     17.400  0.3043E+01  0.5051E+02
     17.500  0.1950E+01  0.5071E+02
     17.601  0.1842E+01  0.5090E+02
     17.701  0.4199E+01  0.5132E+02
     17.802  0.2197E+01  0.5154E+02
     17.902  0.2077E+01  0.5175E+02
     18.003  0.1700E+01  0.5192E+02
     18.104  0.3247E+01  0.5225E+02
     18.204  0.3253E+01  0.5257E+02
     18.305  0.2164E+01  0.5279E+02
     18.405  0.9914E+00  0.5289E+02
     18.506  0.6711E+00  0.5296E+02
     18.607  0.3475E+01  0.5331E+02
     18.707  0.3707E+01  0.5368E+02
     18.808  0.3658E+01  0.5405E+02
     18.908  0.1873E+01  0.5424E+02
     19.009  0.1431E+01  0.5438E+02
     19.109  0.1751E+01  0.5456E+02
     19.210  0.1003E+01  0.5466E+02
     19.311  0.1198E-01  0.5466E+02
     19.411  0.5378E-05  0.5466E+02
     19.512  0.1091E+00  0.5467E+02
     19.612  0.3132E+01  0.5498E+02
     19.713  0.2501E+01  0.5524E+02
     19.814  0.1625E+01  0.5540E+02
     19.914  0.5355E+01  0.5594E+02
     20.015  0.4769E+01  0.5642E+02
     20.115  0.3745E+00  0.5646E+02
     20.216  0.1175E+01  0.5657E+02
     20.317  0.2813E+01  0.5686E+02
     20.417  0.1819E+00  0.5688E+02
     20.518  0.8656E+00  0.5696E+02
     20.618  0.1985E+01  0.5716E+02
     20.719  0.3470E+01  0.5751E+02
     20.819  0.2395E+01  0.5775E+02
     20.920  0.3212E+01  0.5808E+02
     21.021  0.1273E+01  0.5820E+02
     21.121  0.3759E+01  0.5858E+02
     21.222  0.3789E+01  0.5896E+02
     21.322  0.1819E+01  0.5915E+02
     21.423  0.2870E+01  0.5943E+02
     21.524  0.3465E+01  0.5978E+02
     21.624  0.5090E+01  0.6029E+02
     21.725  0.1343E+01  0.6043E+02
     21.825  0.1354E+01  0.6057E+02
     21.926  0.8991E+00  0.6066E+02
     22.026  0.1310E+01  0.6079E+02
     22.127  0.2126E+01  0.6100E+02
     22.228  0.2455E+00  0.6103E+02
     22.328  0.5890E+00  0.6109E+02
     22.429  0.1210E+01  0.6121E+02
     22.529  0.2871E+01  0.6150E+02
     22.630  0.1796E+01  0.6168E+02
     22.731  0.2834E+01  0.6196E+02
     22.831  0.1332E+01  0.6210E+02
     22.932  0.1610E+01  0.6226E+02
     23.032  0.2752E+01  0.6253E+02
     23.133  0.1662E+00  0.6255E+02
     23.233  0.1295E+01  0.6268E+02
     23.334  0.2520E+00  0.6271E+02
     23.435  0.9788E+00  0.6281E+02
     23.535  0.2873E+01  0.6309E+02
     23.636  0.1695E+01  0.6326E+02
     23.736  0.1681E+00  0.6328E+02
     23.837  0.3702E+01  0.6365E+02
     23.938  0.1007E+01  0.6376E+02
     24.038  0.4245E+00  0.6380E+02
     24.139  0.2680E+00  0.6383E+02
     24.239  0.9445E-01  0.6383E+02
     24.340  0.5737E+00  0.6389E+02
     24.440  0.1824E+00  0.6391E+02
     24.541  0.4250E+00  0.6395E+02
     24.642  0.3417E+00  0.6399E+02
     24.742  0.6535E-02  0.6399E+02
     24.843  0.1081E-06  0.6399E+02
     24.943  0.7208E-15  0.6399E+02
     25.044  0.0000E+00  0.6399E+02
     25.145  0.1022E-11  0.6399E+02
     25.245  0.6069E-05  0.6399E+02
     25.346  0.1744E-01  0.6399E+02
     25.446  0.9443E-01  0.6400E+02
     25.547  0.4071E-02  0.6400E+02
     25.647  0.1875E-06  0.6400E+02
     25.748  0.3681E-14  0.6400E+02
     25.849  0.0000E+00  0.6400E+02
     25.949  0.0000E+00  0.6400E+02
     26.050  0.0000E+00  0.6400E+02
     26.150  0.0000E+00  0.6400E+02
     26.251  0.0000E+00  0.6400E+02
     26.352  0.0000E+00  0.6400E+02
     26.452  0.0000E+00  0.6400E+02
     26.553  0.0000E+00  0.6400E+02
     26.653  0.0000E+00  0.6400E+02
     26.754  0.0000E+00  0.6400E+02
