Ba4 N8                                  
   1.00000000000000     
     0.2225420000000000    0.0000000000000000   -7.4590850000000000
     6.4674769999999997    0.0000000000000000    2.0229149999999998
    -3.3450099999999998   -6.2196749999999996    2.7180849999999999
   Ba   N 
     4     8
Direct
     0.1654720000000012    0.7184189999999973    0.3290039999999976
     0.3364679999999964    0.3894140000000021    0.6709960000000024
     0.5449100000000016    0.3493080000000006    0.2271270000000030
     0.8177829999999986    0.1221809999999977    0.7728729999999970
     0.7415019999999970    0.4744760000000028    0.9937430000000020
     0.2477590000000021    0.4807320000000033    0.0062569999999980
     0.5349229999999991    0.6733430000000027    0.5455809999999985
     0.4893420000000006    0.1277630000000016    0.4544190000000015
     0.1404849999999982    0.2582680000000011    0.2232479999999981
     0.4172370000000001    0.0350200000000029    0.7767520000000019
     0.9501360000000005    0.4370150000000024    0.5302539999999993
     0.9198820000000012    0.9067610000000030    0.4697460000000007
 
  0.00000000E+00  0.00000000E+00  0.00000000E+00
  0.00000000E+00  0.00000000E+00  0.00000000E+00
  0.00000000E+00  0.00000000E+00  0.00000000E+00
  0.00000000E+00  0.00000000E+00  0.00000000E+00
  0.00000000E+00  0.00000000E+00  0.00000000E+00
  0.00000000E+00  0.00000000E+00  0.00000000E+00
  0.00000000E+00  0.00000000E+00  0.00000000E+00
  0.00000000E+00  0.00000000E+00  0.00000000E+00
  0.00000000E+00  0.00000000E+00  0.00000000E+00
  0.00000000E+00  0.00000000E+00  0.00000000E+00
  0.00000000E+00  0.00000000E+00  0.00000000E+00
  0.00000000E+00  0.00000000E+00  0.00000000E+00
