       N       E                     dE             d eps       ncg     rms          rms(c)
DAV:   1     0.603730834118E+03    0.60373E+03   -0.39224E+04  6656   0.151E+03
DAV:   2     0.113159274797E+01   -0.60260E+03   -0.58382E+03  9784   0.302E+02
DAV:   3    -0.545175576006E+02   -0.55649E+02   -0.52229E+02  7720   0.935E+01
DAV:   4    -0.567686026096E+02   -0.22510E+01   -0.22203E+01  9272   0.172E+01
DAV:   5    -0.568247529037E+02   -0.56150E-01   -0.56068E-01  8984   0.270E+00    0.227E+01
DAV:   6    -0.105261367024E+03   -0.48437E+02   -0.11339E+02  8960   0.438E+01    0.408E+01
DAV:   7    -0.664458944221E+02    0.38815E+02   -0.28757E+01  8432   0.228E+01    0.284E+01
DAV:   8    -0.573866353307E+02    0.90593E+01   -0.74941E+00  8460   0.112E+01    0.220E+01
DAV:   9    -0.536100036210E+02    0.37766E+01   -0.37576E+00  8736   0.972E+00    0.185E+01
DAV:  10    -0.604168069185E+02   -0.68068E+01   -0.11281E+01  8848   0.131E+01    0.280E+01
DAV:  11    -0.524658054813E+02    0.79510E+01   -0.36964E+00  8288   0.811E+00    0.105E+01
DAV:  12    -0.536507476564E+02   -0.11849E+01   -0.38212E+00  8896   0.727E+00    0.147E+01
DAV:  13    -0.523152012553E+02    0.13355E+01   -0.71230E-01  8032   0.369E+00    0.886E+00
DAV:  14    -0.518540199215E+02    0.46118E+00   -0.60691E-01  8848   0.282E+00    0.423E+00
DAV:  15    -0.518764357168E+02   -0.22416E-01   -0.27353E-01  8448   0.181E+00    0.489E+00
DAV:  16    -0.518864678760E+02   -0.10032E-01   -0.50840E-02  7944   0.834E-01    0.518E+00
DAV:  17    -0.518587298104E+02    0.27738E-01   -0.23841E-02  9232   0.452E-01    0.463E+00
DAV:  18    -0.517732399088E+02    0.85490E-01   -0.40611E-02  8440   0.725E-01    0.254E+00
DAV:  19    -0.517636800881E+02    0.95598E-02   -0.10855E-02  8080   0.402E-01    0.204E+00
DAV:  20    -0.517516167557E+02    0.12063E-01   -0.22912E-02  8440   0.497E-01    0.132E+00
DAV:  21    -0.517511225664E+02    0.49419E-03   -0.32615E-03  7168   0.236E-01    0.126E+00
DAV:  22    -0.517448187433E+02    0.63038E-02   -0.36438E-03  9612   0.190E-01    0.716E-01
DAV:  23    -0.517438189834E+02    0.99976E-03   -0.67744E-03  7984   0.304E-01    0.587E-01
DAV:  24    -0.517427721589E+02    0.10468E-02   -0.10934E-03  7460   0.131E-01    0.316E-01
DAV:  25    -0.517424231058E+02    0.34905E-03   -0.11850E-03  8572   0.103E-01    0.972E-02
DAV:  26    -0.517424614609E+02   -0.38355E-04   -0.25505E-04  8368   0.593E-02    0.113E-01
DAV:  27    -0.517424261160E+02    0.35345E-04   -0.28711E-05  8032   0.219E-02    0.736E-02
DAV:  28    -0.517424049956E+02    0.21120E-04   -0.12882E-05  7280   0.120E-02    0.327E-02
DAV:  29    -0.517424013382E+02    0.36574E-05   -0.65624E-06  6328   0.845E-03    0.686E-03
DAV:  30    -0.517424015032E+02   -0.16503E-06   -0.65251E-07  4096   0.369E-03
   1 F= -.51742402E+02 E0= -.51724681E+02  d E =-.354414E-01
