Ba4N8
1.0
      0.2225420       0.0000000      -7.4590850
      6.4674770       0.0000000       2.0229150
     -3.3450100      -6.2196750       2.7180850
  Ba    N   
  4     8   
Direct
      0.1654720       0.7184190       0.3290040
      0.3364680       0.3894140       0.6709960
      0.5449100       0.3493080       0.2271270
      0.8177830       0.1221810       0.7728730
      0.7415020       0.4744760       0.9937430
      0.2477590       0.4807320       0.0062570
      0.5349230       0.6733430       0.5455810
      0.4893420       0.1277630       0.4544190
      0.1404850       0.2582680       0.2232480
      0.4172370       0.0350200       0.7767520
      0.9501360       0.4370150       0.5302540
      0.9198820       0.9067610       0.4697460
