       N       E                     dE             d eps       ncg     rms          rms(c)
DAV:   1     0.117399554219E+03    0.11740E+03   -0.81217E+03 21000   0.111E+03
DAV:   2    -0.114149958355E+02   -0.12881E+03   -0.11918E+03 22272   0.334E+02
DAV:   3    -0.171142823163E+02   -0.56993E+01   -0.53722E+01 28760   0.643E+01
DAV:   4    -0.172501040932E+02   -0.13582E+00   -0.13552E+00 23672   0.885E+00
DAV:   5    -0.172547567296E+02   -0.46526E-02   -0.46516E-02 31696   0.175E+00    0.208E+01
DAV:   6    -0.163442690453E+02    0.91049E+00   -0.17618E+00 33576   0.181E+01    0.754E+00
DAV:   7    -0.162702371582E+02    0.74032E-01   -0.16140E-01 31344   0.361E+00    0.508E+00
DAV:   8    -0.162506475036E+02    0.19590E-01   -0.48906E-02 33152   0.241E+00    0.431E-01
DAV:   9    -0.162500736134E+02    0.57389E-03   -0.18940E-03 26752   0.368E-01    0.214E-01
DAV:  10    -0.162500436963E+02    0.29917E-04   -0.28706E-04 32992   0.174E-01    0.526E-02
DAV:  11    -0.162500345691E+02    0.91272E-05   -0.18278E-05 24176   0.372E-02    0.185E-02
DAV:  12    -0.162500341239E+02    0.44521E-06   -0.11465E-06 20744   0.113E-02
   1 F= -.16250034E+02 E0= -.16249221E+02  d E =-.162594E-02
