   2   2   0   0
  0.1914400E+02  0.3370447E-09  0.3370447E-09  0.3370447E-09  0.5000000E-15
  1.000000000000000E-004
  CAR 
 unknown system                          
     15.58720974    -27.33154375  301     -1.40146351      1.00000000
    -27.332  0.0000E+00  0.0000E+00
    -27.188  0.0000E+00  0.0000E+00
    -27.045  0.0000E+00  0.0000E+00
    -26.902  0.0000E+00  0.0000E+00
    -26.759  0.0000E+00  0.0000E+00
    -26.616  0.0000E+00  0.0000E+00
    -26.473  0.0000E+00  0.0000E+00
    -26.330  0.0000E+00  0.0000E+00
    -26.187  0.0000E+00  0.0000E+00
    -26.044  0.0000E+00  0.0000E+00
    -25.901  0.0000E+00  0.0000E+00
    -25.758  0.0000E+00  0.0000E+00
    -25.615  0.3886E-11  0.5559E-12
    -25.472  0.1106E-02  0.1582E-03
    -25.329  0.5449E+00  0.7811E-01
    -25.186  0.3189E+01  0.5343E+00
    -25.043  0.6441E+01  0.1456E+01
    -24.899  0.3533E+01  0.1961E+01
    -24.756  0.2717E+00  0.2000E+01
    -24.613  0.2046E-04  0.2000E+01
    -24.470  0.0000E+00  0.2000E+01
    -24.327  0.0000E+00  0.2000E+01
    -24.184  0.0000E+00  0.2000E+01
    -24.041  0.0000E+00  0.2000E+01
    -23.898  0.0000E+00  0.2000E+01
    -23.755  0.0000E+00  0.2000E+01
    -23.612  0.0000E+00  0.2000E+01
    -23.469  0.0000E+00  0.2000E+01
    -23.326  0.0000E+00  0.2000E+01
    -23.183  0.0000E+00  0.2000E+01
    -23.040  0.0000E+00  0.2000E+01
    -22.897  0.0000E+00  0.2000E+01
    -22.754  0.0000E+00  0.2000E+01
    -22.610  0.0000E+00  0.2000E+01
    -22.467  0.0000E+00  0.2000E+01
    -22.324  0.0000E+00  0.2000E+01
    -22.181  0.0000E+00  0.2000E+01
    -22.038  0.0000E+00  0.2000E+01
    -21.895  0.0000E+00  0.2000E+01
    -21.752  0.0000E+00  0.2000E+01
    -21.609  0.0000E+00  0.2000E+01
    -21.466  0.0000E+00  0.2000E+01
    -21.323  0.0000E+00  0.2000E+01
    -21.180  0.0000E+00  0.2000E+01
    -21.037  0.0000E+00  0.2000E+01
    -20.894  0.0000E+00  0.2000E+01
    -20.751  0.3638E-16  0.2000E+01
    -20.608  0.6968E-05  0.2000E+01
    -20.465  0.1150E+01  0.2165E+01
    -20.321  0.1220E+02  0.3910E+01
    -20.178  0.6283E+00  0.4000E+01
    -20.035  0.6745E-05  0.4000E+01
    -19.892  0.0000E+00  0.4000E+01
    -19.749  0.0000E+00  0.4000E+01
    -19.606  0.0000E+00  0.4000E+01
    -19.463  0.0000E+00  0.4000E+01
    -19.320  0.0000E+00  0.4000E+01
    -19.177  0.0000E+00  0.4000E+01
    -19.034  0.0000E+00  0.4000E+01
    -18.891  0.0000E+00  0.4000E+01
    -18.748  0.0000E+00  0.4000E+01
    -18.605  0.0000E+00  0.4000E+01
    -18.462  0.0000E+00  0.4000E+01
    -18.319  0.0000E+00  0.4000E+01
    -18.176  0.0000E+00  0.4000E+01
    -18.032  0.0000E+00  0.4000E+01
    -17.889  0.0000E+00  0.4000E+01
    -17.746  0.0000E+00  0.4000E+01
    -17.603  0.0000E+00  0.4000E+01
    -17.460  0.0000E+00  0.4000E+01
    -17.317  0.0000E+00  0.4000E+01
    -17.174  0.0000E+00  0.4000E+01
    -17.031  0.0000E+00  0.4000E+01
    -16.888  0.0000E+00  0.4000E+01
    -16.745  0.0000E+00  0.4000E+01
    -16.602  0.0000E+00  0.4000E+01
    -16.459  0.0000E+00  0.4000E+01
    -16.316  0.0000E+00  0.4000E+01
    -16.173  0.0000E+00  0.4000E+01
    -16.030  0.0000E+00  0.4000E+01
    -15.887  0.0000E+00  0.4000E+01
    -15.743  0.0000E+00  0.4000E+01
    -15.600  0.0000E+00  0.4000E+01
    -15.457  0.0000E+00  0.4000E+01
    -15.314  0.0000E+00  0.4000E+01
    -15.171  0.0000E+00  0.4000E+01
    -15.028  0.0000E+00  0.4000E+01
    -14.885  0.0000E+00  0.4000E+01
    -14.742  0.0000E+00  0.4000E+01
    -14.599  0.0000E+00  0.4000E+01
    -14.456  0.0000E+00  0.4000E+01
    -14.313  0.0000E+00  0.4000E+01
    -14.170  0.0000E+00  0.4000E+01
    -14.027  0.0000E+00  0.4000E+01
    -13.884  0.0000E+00  0.4000E+01
    -13.741  0.0000E+00  0.4000E+01
    -13.598  0.0000E+00  0.4000E+01
    -13.454  0.0000E+00  0.4000E+01
    -13.311  0.0000E+00  0.4000E+01
    -13.168  0.0000E+00  0.4000E+01
    -13.025  0.0000E+00  0.4000E+01
    -12.882  0.0000E+00  0.4000E+01
    -12.739  0.0000E+00  0.4000E+01
    -12.596  0.0000E+00  0.4000E+01
    -12.453  0.0000E+00  0.4000E+01
    -12.310  0.0000E+00  0.4000E+01
    -12.167  0.0000E+00  0.4000E+01
    -12.024  0.0000E+00  0.4000E+01
    -11.881  0.0000E+00  0.4000E+01
    -11.738  0.0000E+00  0.4000E+01
    -11.595  0.0000E+00  0.4000E+01
    -11.452  0.0000E+00  0.4000E+01
    -11.309  0.0000E+00  0.4000E+01
    -11.165  0.0000E+00  0.4000E+01
    -11.022  0.0000E+00  0.4000E+01
    -10.879  0.0000E+00  0.4000E+01
    -10.736  0.0000E+00  0.4000E+01
    -10.593  0.0000E+00  0.4000E+01
    -10.450  0.0000E+00  0.4000E+01
    -10.307  0.0000E+00  0.4000E+01
    -10.164  0.8763E-06  0.4000E+01
    -10.021  0.3221E+00  0.4046E+01
     -9.878  0.6707E+01  0.5006E+01
     -9.735  0.2686E+01  0.5390E+01
     -9.592  0.4997E+01  0.6105E+01
     -9.449  0.4731E+01  0.6782E+01
     -9.306  0.1427E+01  0.6986E+01
     -9.163  0.8922E+00  0.7113E+01
     -9.020  0.5389E+01  0.7884E+01
     -8.876  0.3450E+01  0.8378E+01
     -8.733  0.2184E+01  0.8690E+01
     -8.590  0.4725E+01  0.9366E+01
     -8.447  0.4085E+01  0.9951E+01
     -8.304  0.3451E+00  0.1000E+02
     -8.161  0.5020E-05  0.1000E+02
     -8.018  0.0000E+00  0.1000E+02
     -7.875  0.0000E+00  0.1000E+02
     -7.732  0.0000E+00  0.1000E+02
     -7.589  0.0000E+00  0.1000E+02
     -7.446  0.0000E+00  0.1000E+02
     -7.303  0.0000E+00  0.1000E+02
     -7.160  0.0000E+00  0.1000E+02
     -7.017  0.0000E+00  0.1000E+02
     -6.874  0.0000E+00  0.1000E+02
     -6.731  0.0000E+00  0.1000E+02
     -6.587  0.0000E+00  0.1000E+02
     -6.444  0.0000E+00  0.1000E+02
     -6.301  0.0000E+00  0.1000E+02
     -6.158  0.0000E+00  0.1000E+02
     -6.015  0.0000E+00  0.1000E+02
     -5.872  0.0000E+00  0.1000E+02
     -5.729  0.0000E+00  0.1000E+02
     -5.586  0.0000E+00  0.1000E+02
     -5.443  0.0000E+00  0.1000E+02
     -5.300  0.0000E+00  0.1000E+02
     -5.157  0.0000E+00  0.1000E+02
     -5.014  0.0000E+00  0.1000E+02
     -4.871  0.0000E+00  0.1000E+02
     -4.728  0.0000E+00  0.1000E+02
     -4.585  0.0000E+00  0.1000E+02
     -4.442  0.0000E+00  0.1000E+02
     -4.298  0.0000E+00  0.1000E+02
     -4.155  0.0000E+00  0.1000E+02
     -4.012  0.0000E+00  0.1000E+02
     -3.869  0.0000E+00  0.1000E+02
     -3.726  0.0000E+00  0.1000E+02
     -3.583  0.0000E+00  0.1000E+02
     -3.440  0.0000E+00  0.1000E+02
     -3.297  0.0000E+00  0.1000E+02
     -3.154  0.0000E+00  0.1000E+02
     -3.011  0.0000E+00  0.1000E+02
     -2.868  0.2425E-16  0.1000E+02
     -2.725  0.5718E-05  0.1000E+02
     -2.582  0.3499E+00  0.1005E+02
     -2.439  0.1315E+01  0.1024E+02
     -2.296  0.3875E+01  0.1079E+02
     -2.153  0.6906E+01  0.1178E+02
     -2.009  0.6368E+01  0.1269E+02
     -1.866  0.7033E+01  0.1370E+02
     -1.723  0.1061E+02  0.1522E+02
     -1.580  0.5412E+01  0.1599E+02
     -1.437  0.7296E-01  0.1600E+02
     -1.294  0.8073E-07  0.1600E+02
     -1.151  0.0000E+00  0.1600E+02
     -1.008  0.0000E+00  0.1600E+02
     -0.865  0.0000E+00  0.1600E+02
     -0.722  0.0000E+00  0.1600E+02
     -0.579  0.0000E+00  0.1600E+02
     -0.436  0.0000E+00  0.1600E+02
     -0.293  0.0000E+00  0.1600E+02
     -0.150  0.0000E+00  0.1600E+02
     -0.007  0.0000E+00  0.1600E+02
      0.136  0.0000E+00  0.1600E+02
      0.280  0.0000E+00  0.1600E+02
      0.423  0.0000E+00  0.1600E+02
      0.566  0.0000E+00  0.1600E+02
      0.709  0.0000E+00  0.1600E+02
      0.852  0.0000E+00  0.1600E+02
      0.995  0.0000E+00  0.1600E+02
      1.138  0.0000E+00  0.1600E+02
      1.281  0.0000E+00  0.1600E+02
      1.424  0.0000E+00  0.1600E+02
      1.567  0.0000E+00  0.1600E+02
      1.710  0.0000E+00  0.1600E+02
      1.853  0.0000E+00  0.1600E+02
      1.996  0.0000E+00  0.1600E+02
      2.139  0.0000E+00  0.1600E+02
      2.282  0.0000E+00  0.1600E+02
      2.425  0.0000E+00  0.1600E+02
      2.569  0.0000E+00  0.1600E+02
      2.712  0.0000E+00  0.1600E+02
      2.855  0.0000E+00  0.1600E+02
      2.998  0.0000E+00  0.1600E+02
      3.141  0.0000E+00  0.1600E+02
      3.284  0.0000E+00  0.1600E+02
      3.427  0.0000E+00  0.1600E+02
      3.570  0.0000E+00  0.1600E+02
      3.713  0.0000E+00  0.1600E+02
      3.856  0.0000E+00  0.1600E+02
      3.999  0.0000E+00  0.1600E+02
      4.142  0.0000E+00  0.1600E+02
      4.285  0.0000E+00  0.1600E+02
      4.428  0.0000E+00  0.1600E+02
      4.571  0.0000E+00  0.1600E+02
      4.714  0.0000E+00  0.1600E+02
      4.858  0.1782E-14  0.1600E+02
      5.001  0.3094E-04  0.1600E+02
      5.144  0.1444E+00  0.1602E+02
      5.287  0.7396E-01  0.1603E+02
      5.430  0.8840E-06  0.1603E+02
      5.573  0.5093E-15  0.1603E+02
      5.716  0.2813E-04  0.1603E+02
      5.859  0.3586E+00  0.1608E+02
      6.002  0.2966E+00  0.1612E+02
      6.145  0.1102E-04  0.1613E+02
      6.288  0.1261E+00  0.1614E+02
      6.431  0.1041E+01  0.1629E+02
      6.574  0.1075E+01  0.1645E+02
      6.717  0.1751E+00  0.1647E+02
      6.860  0.6339E+00  0.1656E+02
      7.003  0.2281E+01  0.1689E+02
      7.147  0.2502E+01  0.1725E+02
      7.290  0.1572E+01  0.1747E+02
      7.433  0.3837E+01  0.1802E+02
      7.576  0.1803E+01  0.1828E+02
      7.719  0.2191E+01  0.1859E+02
      7.862  0.3057E+01  0.1903E+02
      8.005  0.7633E+00  0.1914E+02
      8.148  0.1222E+01  0.1931E+02
      8.291  0.1422E+01  0.1952E+02
      8.434  0.2713E+00  0.1955E+02
      8.577  0.1462E+01  0.1976E+02
      8.720  0.2313E+01  0.2009E+02
      8.863  0.4971E+01  0.2081E+02
      9.006  0.1326E+01  0.2100E+02
      9.149  0.3436E+00  0.2104E+02
      9.292  0.7749E+00  0.2116E+02
      9.436  0.8542E+00  0.2128E+02
      9.579  0.2828E+01  0.2168E+02
      9.722  0.3503E+00  0.2173E+02
      9.865  0.5648E+00  0.2181E+02
     10.008  0.1571E+01  0.2204E+02
     10.151  0.1448E+01  0.2225E+02
     10.294  0.5207E+00  0.2232E+02
     10.437  0.2158E+01  0.2263E+02
     10.580  0.1554E+01  0.2285E+02
     10.723  0.2738E+01  0.2324E+02
     10.866  0.1841E+01  0.2351E+02
     11.009  0.8556E+00  0.2363E+02
     11.152  0.3768E+00  0.2368E+02
     11.295  0.1083E+01  0.2384E+02
     11.438  0.4622E-01  0.2384E+02
     11.581  0.1108E-07  0.2384E+02
     11.725  0.0000E+00  0.2384E+02
     11.868  0.5305E-11  0.2384E+02
     12.011  0.2029E-02  0.2384E+02
     12.154  0.5754E+00  0.2393E+02
     12.297  0.7789E-01  0.2394E+02
     12.440  0.2127E-06  0.2394E+02
     12.583  0.0000E+00  0.2394E+02
     12.726  0.3058E-08  0.2394E+02
     12.869  0.1432E-01  0.2394E+02
     13.012  0.2029E+00  0.2397E+02
     13.155  0.1235E-02  0.2397E+02
     13.298  0.5322E-11  0.2397E+02
     13.441  0.3768E-08  0.2397E+02
     13.584  0.1545E-01  0.2397E+02
     13.727  0.2019E+00  0.2400E+02
     13.870  0.1092E-02  0.2400E+02
     14.014  0.3861E-11  0.2400E+02
     14.157  0.0000E+00  0.2400E+02
     14.300  0.0000E+00  0.2400E+02
     14.443  0.0000E+00  0.2400E+02
     14.586  0.0000E+00  0.2400E+02
     14.729  0.0000E+00  0.2400E+02
     14.872  0.0000E+00  0.2400E+02
     15.015  0.0000E+00  0.2400E+02
     15.158  0.0000E+00  0.2400E+02
     15.301  0.0000E+00  0.2400E+02
     15.444  0.0000E+00  0.2400E+02
     15.587  0.0000E+00  0.2400E+02
