       N       E                     dE             d eps       ncg     rms          rms(c)
DAV:   1     0.211534166053E+03    0.21153E+03   -0.16361E+04 15120   0.218E+03
DAV:   2    -0.777169736094E+01   -0.21931E+03   -0.21605E+03 18212   0.519E+02
DAV:   3    -0.162658552661E+02   -0.84942E+01   -0.82844E+01 16572   0.115E+02
DAV:   4    -0.163466138394E+02   -0.80759E-01   -0.80748E-01 18408   0.116E+01
DAV:   5    -0.163472528863E+02   -0.63905E-03   -0.63904E-03 16568   0.104E+00    0.709E+00
DAV:   6    -0.149531206018E+02    0.13941E+01   -0.66350E+00 15244   0.240E+01    0.225E+00
DAV:   7    -0.149364982713E+02    0.16622E-01   -0.56835E-02 18324   0.309E+00    0.136E+00
DAV:   8    -0.149383906544E+02   -0.18924E-02   -0.36381E-02 17620   0.304E+00    0.112E-01
DAV:   9    -0.149391742057E+02   -0.78355E-03   -0.10976E-03 19300   0.454E-01    0.714E-02
DAV:  10    -0.149395473694E+02   -0.37316E-03   -0.47489E-04 17432   0.244E-01    0.158E-02
DAV:  11    -0.149395447832E+02    0.25861E-05   -0.44779E-05 19640   0.694E-02    0.447E-03
DAV:  12    -0.149395460502E+02   -0.12670E-05   -0.50502E-06 17336   0.288E-02    0.100E-03
DAV:  13    -0.149395462636E+02   -0.21343E-06   -0.32327E-07 14100   0.889E-03
   1 F= -.14939546E+02 E0= -.14939546E+02  d E =-.325335E-13
