   6   6   0   0
  0.2373219E+02  0.6188819E-09  0.6188819E-09  0.6188818E-09  0.5000000E-15
  1.000000000000000E-004
  CAR 
 unknown system                          
      6.86972668    -41.59985027  301      3.59564842      1.00000000
    -41.600  0.0000E+00  0.0000E+00
    -41.438  0.0000E+00  0.0000E+00
    -41.277  0.0000E+00  0.0000E+00
    -41.115  0.0000E+00  0.0000E+00
    -40.954  0.0000E+00  0.0000E+00
    -40.792  0.0000E+00  0.0000E+00
    -40.630  0.0000E+00  0.0000E+00
    -40.469  0.0000E+00  0.0000E+00
    -40.307  0.0000E+00  0.0000E+00
    -40.146  0.0000E+00  0.0000E+00
    -39.984  0.0000E+00  0.0000E+00
    -39.823  0.0000E+00  0.0000E+00
    -39.661  0.7858E-12  0.1270E-12
    -39.500  0.5721E-01  0.9243E-02
    -39.338  0.6591E+02  0.1066E+02
    -39.176  0.1173E+03  0.2961E+02
    -39.015  0.2423E+01  0.3000E+02
    -38.853  0.7721E-08  0.3000E+02
    -38.692  0.0000E+00  0.3000E+02
    -38.530  0.0000E+00  0.3000E+02
    -38.369  0.0000E+00  0.3000E+02
    -38.207  0.0000E+00  0.3000E+02
    -38.045  0.0000E+00  0.3000E+02
    -37.884  0.0000E+00  0.3000E+02
    -37.722  0.0000E+00  0.3000E+02
    -37.561  0.0000E+00  0.3000E+02
    -37.399  0.0000E+00  0.3000E+02
    -37.238  0.0000E+00  0.3000E+02
    -37.076  0.0000E+00  0.3000E+02
    -36.914  0.0000E+00  0.3000E+02
    -36.753  0.0000E+00  0.3000E+02
    -36.591  0.0000E+00  0.3000E+02
    -36.430  0.0000E+00  0.3000E+02
    -36.268  0.0000E+00  0.3000E+02
    -36.107  0.0000E+00  0.3000E+02
    -35.945  0.0000E+00  0.3000E+02
    -35.784  0.0000E+00  0.3000E+02
    -35.622  0.0000E+00  0.3000E+02
    -35.460  0.0000E+00  0.3000E+02
    -35.299  0.0000E+00  0.3000E+02
    -35.137  0.0000E+00  0.3000E+02
    -34.976  0.0000E+00  0.3000E+02
    -34.814  0.0000E+00  0.3000E+02
    -34.653  0.0000E+00  0.3000E+02
    -34.491  0.0000E+00  0.3000E+02
    -34.329  0.0000E+00  0.3000E+02
    -34.168  0.0000E+00  0.3000E+02
    -34.006  0.0000E+00  0.3000E+02
    -33.845  0.0000E+00  0.3000E+02
    -33.683  0.0000E+00  0.3000E+02
    -33.522  0.0000E+00  0.3000E+02
    -33.360  0.0000E+00  0.3000E+02
    -33.198  0.0000E+00  0.3000E+02
    -33.037  0.0000E+00  0.3000E+02
    -32.875  0.0000E+00  0.3000E+02
    -32.714  0.0000E+00  0.3000E+02
    -32.552  0.0000E+00  0.3000E+02
    -32.391  0.0000E+00  0.3000E+02
    -32.229  0.0000E+00  0.3000E+02
    -32.068  0.0000E+00  0.3000E+02
    -31.906  0.0000E+00  0.3000E+02
    -31.744  0.0000E+00  0.3000E+02
    -31.583  0.0000E+00  0.3000E+02
    -31.421  0.0000E+00  0.3000E+02
    -31.260  0.0000E+00  0.3000E+02
    -31.098  0.0000E+00  0.3000E+02
    -30.937  0.0000E+00  0.3000E+02
    -30.775  0.0000E+00  0.3000E+02
    -30.613  0.0000E+00  0.3000E+02
    -30.452  0.0000E+00  0.3000E+02
    -30.290  0.0000E+00  0.3000E+02
    -30.129  0.0000E+00  0.3000E+02
    -29.967  0.0000E+00  0.3000E+02
    -29.806  0.0000E+00  0.3000E+02
    -29.644  0.0000E+00  0.3000E+02
    -29.482  0.0000E+00  0.3000E+02
    -29.321  0.0000E+00  0.3000E+02
    -29.159  0.0000E+00  0.3000E+02
    -28.998  0.0000E+00  0.3000E+02
    -28.836  0.0000E+00  0.3000E+02
    -28.675  0.0000E+00  0.3000E+02
    -28.513  0.0000E+00  0.3000E+02
    -28.351  0.0000E+00  0.3000E+02
    -28.190  0.0000E+00  0.3000E+02
    -28.028  0.0000E+00  0.3000E+02
    -27.867  0.0000E+00  0.3000E+02
    -27.705  0.0000E+00  0.3000E+02
    -27.544  0.0000E+00  0.3000E+02
    -27.382  0.0000E+00  0.3000E+02
    -27.221  0.0000E+00  0.3000E+02
    -27.059  0.0000E+00  0.3000E+02
    -26.897  0.0000E+00  0.3000E+02
    -26.736  0.0000E+00  0.3000E+02
    -26.574  0.0000E+00  0.3000E+02
    -26.413  0.0000E+00  0.3000E+02
    -26.251  0.0000E+00  0.3000E+02
    -26.090  0.0000E+00  0.3000E+02
    -25.928  0.0000E+00  0.3000E+02
    -25.766  0.0000E+00  0.3000E+02
    -25.605  0.0000E+00  0.3000E+02
    -25.443  0.0000E+00  0.3000E+02
    -25.282  0.0000E+00  0.3000E+02
    -25.120  0.0000E+00  0.3000E+02
    -24.959  0.0000E+00  0.3000E+02
    -24.797  0.0000E+00  0.3000E+02
    -24.635  0.0000E+00  0.3000E+02
    -24.474  0.0000E+00  0.3000E+02
    -24.312  0.0000E+00  0.3000E+02
    -24.151  0.0000E+00  0.3000E+02
    -23.989  0.0000E+00  0.3000E+02
    -23.828  0.0000E+00  0.3000E+02
    -23.666  0.0000E+00  0.3000E+02
    -23.505  0.0000E+00  0.3000E+02
    -23.343  0.0000E+00  0.3000E+02
    -23.181  0.0000E+00  0.3000E+02
    -23.020  0.0000E+00  0.3000E+02
    -22.858  0.0000E+00  0.3000E+02
    -22.697  0.0000E+00  0.3000E+02
    -22.535  0.0000E+00  0.3000E+02
    -22.374  0.0000E+00  0.3000E+02
    -22.212  0.0000E+00  0.3000E+02
    -22.050  0.0000E+00  0.3000E+02
    -21.889  0.0000E+00  0.3000E+02
    -21.727  0.0000E+00  0.3000E+02
    -21.566  0.0000E+00  0.3000E+02
    -21.404  0.0000E+00  0.3000E+02
    -21.243  0.0000E+00  0.3000E+02
    -21.081  0.0000E+00  0.3000E+02
    -20.919  0.0000E+00  0.3000E+02
    -20.758  0.0000E+00  0.3000E+02
    -20.596  0.0000E+00  0.3000E+02
    -20.435  0.0000E+00  0.3000E+02
    -20.273  0.0000E+00  0.3000E+02
    -20.112  0.0000E+00  0.3000E+02
    -19.950  0.0000E+00  0.3000E+02
    -19.789  0.0000E+00  0.3000E+02
    -19.627  0.0000E+00  0.3000E+02
    -19.465  0.0000E+00  0.3000E+02
    -19.304  0.0000E+00  0.3000E+02
    -19.142  0.0000E+00  0.3000E+02
    -18.981  0.0000E+00  0.3000E+02
    -18.819  0.0000E+00  0.3000E+02
    -18.658  0.0000E+00  0.3000E+02
    -18.496  0.0000E+00  0.3000E+02
    -18.334  0.0000E+00  0.3000E+02
    -18.173  0.0000E+00  0.3000E+02
    -18.011  0.0000E+00  0.3000E+02
    -17.850  0.0000E+00  0.3000E+02
    -17.688  0.0000E+00  0.3000E+02
    -17.527  0.0000E+00  0.3000E+02
    -17.365  0.0000E+00  0.3000E+02
    -17.203  0.0000E+00  0.3000E+02
    -17.042  0.0000E+00  0.3000E+02
    -16.880  0.0000E+00  0.3000E+02
    -16.719  0.0000E+00  0.3000E+02
    -16.557  0.0000E+00  0.3000E+02
    -16.396  0.0000E+00  0.3000E+02
    -16.234  0.0000E+00  0.3000E+02
    -16.073  0.0000E+00  0.3000E+02
    -15.911  0.0000E+00  0.3000E+02
    -15.749  0.0000E+00  0.3000E+02
    -15.588  0.0000E+00  0.3000E+02
    -15.426  0.0000E+00  0.3000E+02
    -15.265  0.0000E+00  0.3000E+02
    -15.103  0.0000E+00  0.3000E+02
    -14.942  0.0000E+00  0.3000E+02
    -14.780  0.0000E+00  0.3000E+02
    -14.618  0.0000E+00  0.3000E+02
    -14.457  0.0000E+00  0.3000E+02
    -14.295  0.0000E+00  0.3000E+02
    -14.134  0.0000E+00  0.3000E+02
    -13.972  0.0000E+00  0.3000E+02
    -13.811  0.0000E+00  0.3000E+02
    -13.649  0.0000E+00  0.3000E+02
    -13.487  0.0000E+00  0.3000E+02
    -13.326  0.0000E+00  0.3000E+02
    -13.164  0.0000E+00  0.3000E+02
    -13.003  0.0000E+00  0.3000E+02
    -12.841  0.0000E+00  0.3000E+02
    -12.680  0.0000E+00  0.3000E+02
    -12.518  0.0000E+00  0.3000E+02
    -12.357  0.0000E+00  0.3000E+02
    -12.195  0.0000E+00  0.3000E+02
    -12.033  0.0000E+00  0.3000E+02
    -11.872  0.0000E+00  0.3000E+02
    -11.710  0.0000E+00  0.3000E+02
    -11.549  0.0000E+00  0.3000E+02
    -11.387  0.0000E+00  0.3000E+02
    -11.226  0.0000E+00  0.3000E+02
    -11.064  0.0000E+00  0.3000E+02
    -10.902  0.0000E+00  0.3000E+02
    -10.741  0.0000E+00  0.3000E+02
    -10.579  0.0000E+00  0.3000E+02
    -10.418  0.0000E+00  0.3000E+02
    -10.256  0.0000E+00  0.3000E+02
    -10.095  0.0000E+00  0.3000E+02
     -9.933  0.0000E+00  0.3000E+02
     -9.771  0.0000E+00  0.3000E+02
     -9.610  0.0000E+00  0.3000E+02
     -9.448  0.0000E+00  0.3000E+02
     -9.287  0.0000E+00  0.3000E+02
     -9.125  0.0000E+00  0.3000E+02
     -8.964  0.0000E+00  0.3000E+02
     -8.802  0.0000E+00  0.3000E+02
     -8.641  0.0000E+00  0.3000E+02
     -8.479  0.2893E-12  0.3000E+02
     -8.317  0.1135E-02  0.3000E+02
     -8.156  0.1354E+01  0.3022E+02
     -7.994  0.9959E+01  0.3183E+02
     -7.833  0.1064E+01  0.3200E+02
     -7.671  0.2765E-06  0.3200E+02
     -7.510  0.0000E+00  0.3200E+02
     -7.348  0.0000E+00  0.3200E+02
     -7.186  0.0000E+00  0.3200E+02
     -7.025  0.0000E+00  0.3200E+02
     -6.863  0.0000E+00  0.3200E+02
     -6.702  0.0000E+00  0.3200E+02
     -6.540  0.0000E+00  0.3200E+02
     -6.379  0.0000E+00  0.3200E+02
     -6.217  0.0000E+00  0.3200E+02
     -6.055  0.0000E+00  0.3200E+02
     -5.894  0.0000E+00  0.3200E+02
     -5.732  0.0000E+00  0.3200E+02
     -5.571  0.0000E+00  0.3200E+02
     -5.409  0.0000E+00  0.3200E+02
     -5.248  0.0000E+00  0.3200E+02
     -5.086  0.0000E+00  0.3200E+02
     -4.925  0.0000E+00  0.3200E+02
     -4.763  0.0000E+00  0.3200E+02
     -4.601  0.0000E+00  0.3200E+02
     -4.440  0.0000E+00  0.3200E+02
     -4.278  0.0000E+00  0.3200E+02
     -4.117  0.0000E+00  0.3200E+02
     -3.955  0.0000E+00  0.3200E+02
     -3.794  0.0000E+00  0.3200E+02
     -3.632  0.0000E+00  0.3200E+02
     -3.470  0.0000E+00  0.3200E+02
     -3.309  0.0000E+00  0.3200E+02
     -3.147  0.0000E+00  0.3200E+02
     -2.986  0.0000E+00  0.3200E+02
     -2.824  0.0000E+00  0.3200E+02
     -2.663  0.1517E-07  0.3200E+02
     -2.501  0.4923E-01  0.3201E+02
     -2.339  0.3428E+00  0.3206E+02
     -2.178  0.2224E+01  0.3242E+02
     -2.016  0.4855E+01  0.3321E+02
     -1.855  0.3844E+01  0.3383E+02
     -1.693  0.9641E+00  0.3398E+02
     -1.532  0.5326E+00  0.3407E+02
     -1.370  0.1605E+01  0.3433E+02
     -1.209  0.2271E+01  0.3470E+02
     -1.047  0.1644E+01  0.3496E+02
     -0.885  0.3248E+01  0.3549E+02
     -0.724  0.3746E+01  0.3609E+02
     -0.562  0.1686E+01  0.3636E+02
     -0.401  0.2967E+01  0.3684E+02
     -0.239  0.2868E+01  0.3731E+02
     -0.078  0.2249E+01  0.3767E+02
      0.084  0.2253E+01  0.3803E+02
      0.246  0.1955E+01  0.3835E+02
      0.407  0.8237E+00  0.3848E+02
      0.569  0.4761E+00  0.3856E+02
      0.730  0.2000E+01  0.3888E+02
      0.892  0.2332E+01  0.3926E+02
      1.053  0.2270E+01  0.3963E+02
      1.215  0.2567E+01  0.4004E+02
      1.377  0.8259E+00  0.4017E+02
      1.538  0.2391E+01  0.4056E+02
      1.700  0.1102E+01  0.4074E+02
      1.861  0.2270E+01  0.4111E+02
      2.023  0.3858E+01  0.4173E+02
      2.184  0.2555E+01  0.4214E+02
      2.346  0.3448E+01  0.4270E+02
      2.507  0.2761E+01  0.4315E+02
      2.669  0.1206E+01  0.4334E+02
      2.831  0.1307E+01  0.4355E+02
      2.992  0.2923E+01  0.4402E+02
      3.154  0.4338E+01  0.4472E+02
      3.315  0.1214E+01  0.4492E+02
      3.477  0.2891E+01  0.4539E+02
      3.638  0.4722E+01  0.4615E+02
      3.800  0.1922E+01  0.4646E+02
      3.962  0.1449E+01  0.4670E+02
      4.123  0.2132E+01  0.4704E+02
      4.285  0.6256E+00  0.4714E+02
      4.446  0.6371E+00  0.4724E+02
      4.608  0.2806E+01  0.4770E+02
      4.769  0.1872E+01  0.4800E+02
      4.931  0.2161E-02  0.4800E+02
      5.093  0.0000E+00  0.4800E+02
      5.254  0.0000E+00  0.4800E+02
      5.416  0.0000E+00  0.4800E+02
      5.577  0.0000E+00  0.4800E+02
      5.739  0.0000E+00  0.4800E+02
      5.900  0.0000E+00  0.4800E+02
      6.062  0.0000E+00  0.4800E+02
      6.223  0.0000E+00  0.4800E+02
      6.385  0.0000E+00  0.4800E+02
      6.547  0.0000E+00  0.4800E+02
      6.708  0.0000E+00  0.4800E+02
      6.870  0.0000E+00  0.4800E+02
