       N       E                     dE             d eps       ncg     rms          rms(c)
DAV:   1     0.416019746298E+03    0.41602E+03   -0.32633E+04  8096   0.204E+03
DAV:   2     0.122146166374E+02   -0.40381E+03   -0.40298E+03  6880   0.526E+02
DAV:   3    -0.107386211938E+02   -0.22953E+02   -0.22441E+02  7288   0.110E+02
DAV:   4    -0.112752978648E+02   -0.53668E+00   -0.53185E+00  6376   0.144E+01
DAV:   5    -0.112992226157E+02   -0.23925E-01   -0.23382E-01  8456   0.222E+00    0.696E+00
DAV:   6    -0.112276157616E+02    0.71607E-01   -0.12900E-01  6456   0.244E+00    0.440E+00
DAV:   7    -0.112012556305E+02    0.26360E-01   -0.10911E-01  7048   0.202E+00    0.304E-01
DAV:   8    -0.111985429604E+02    0.27127E-02   -0.14690E-02  6304   0.668E-01    0.277E-01
DAV:   9    -0.111984798943E+02    0.63066E-04   -0.15519E-03  6600   0.188E-01    0.986E-02
DAV:  10    -0.111984568324E+02    0.23062E-04   -0.65418E-05  8112   0.513E-02    0.426E-02
DAV:  11    -0.111984544885E+02    0.23439E-05   -0.27563E-05  5568   0.268E-02    0.523E-02
DAV:  12    -0.111984539074E+02    0.58106E-06   -0.57391E-06  5568   0.111E-02
   1 F= -.11198454E+02 E0= -.11195250E+02  d E =-.640794E-02
