       N       E                     dE             d eps       ncg     rms          rms(c)
DAV:   1     0.556350844521E+03    0.55635E+03   -0.31167E+04 20736   0.135E+03
DAV:   2    -0.545733383581E+02   -0.61092E+03   -0.58235E+03 22584   0.412E+02
DAV:   3    -0.893653030414E+02   -0.34792E+02   -0.33995E+02 25576   0.914E+01
DAV:   4    -0.899456834769E+02   -0.58038E+00   -0.57851E+00 24120   0.118E+01
DAV:   5    -0.899506246930E+02   -0.49412E-02   -0.49405E-02 25488   0.112E+00    0.443E+01
DAV:   6    -0.791009442761E+02    0.10850E+02   -0.24332E+01 23736   0.254E+01    0.167E+01
DAV:   7    -0.789962582604E+02    0.10469E+00   -0.40296E+00 23392   0.843E+00    0.877E+00
DAV:   8    -0.789892653411E+02    0.69929E-02   -0.22386E+00 25544   0.593E+00    0.302E+00
DAV:   9    -0.788403252138E+02    0.14894E+00   -0.69508E-01 25280   0.468E+00    0.533E-01
DAV:  10    -0.788380800290E+02    0.22452E-02   -0.28911E-02 24560   0.917E-01    0.237E-01
DAV:  11    -0.788377110074E+02    0.36902E-03   -0.32163E-03 24696   0.330E-01    0.155E-01
DAV:  12    -0.788376723842E+02    0.38623E-04   -0.85687E-04 25696   0.197E-01    0.522E-02
DAV:  13    -0.788376442235E+02    0.28161E-04   -0.20317E-04 24944   0.919E-02    0.271E-02
DAV:  14    -0.788376330511E+02    0.11172E-04   -0.29508E-05 25712   0.306E-02    0.142E-02
DAV:  15    -0.788376312905E+02    0.17605E-05   -0.46518E-06 21240   0.104E-02    0.342E-03
DAV:  16    -0.788376309952E+02    0.29528E-06   -0.51182E-07 12592   0.393E-03
   1 F= -.78837631E+02 E0= -.78836772E+02  d E =-.171803E-02
