Ta4 C3
1.0
  10.2670621700000009   -1.5605886400000000    0.0016493100000000
  10.2670621700000009    1.5605886400000000    0.0016493100000000
  10.0294209900000002   -0.0000000000000000    2.6942019199999998
Ta C
4 3
direct
   0.6265591100000000    0.6265591100000000    0.6265591100000000 Ta
   0.3755284500000000    0.3755284500000000    0.3755284500000000 Ta
   0.7901749900000000    0.7901749900000000    0.7901749900000000 Ta
   0.2055675200000000    0.2055675200000000    0.2055675200000000 Ta
   0.4976340400000000    0.4976340400000000    0.4976340500000000 C
   0.0042950300000000    0.0042950300000000    0.0042950300000000 C
   0.9152408500000000    0.9152408500000000    0.9152408500000000 C
