Li4 S2                                  
   1.00000000000000     
     1.9646560000000000   -3.4028839999999998    0.0000000000000000
     1.9646560000000000    3.4028839999999998    0.0000000000000000
     0.0000000000000000    0.0000000000000000    7.1071350000000004
   Li   S 
     4     2
Direct
     0.3333330000000032    0.6666669999999968    0.5921250000000029
     0.3333330000000032    0.6666669999999968    0.9078749999999971
     0.6666669999999968    0.3333330000000032    0.4078749999999971
     0.6666669999999968    0.3333330000000032    0.0921250000000029
     0.6666669999999968    0.3333330000000032    0.7500000000000000
     0.3333330000000032    0.6666669999999968    0.2500000000000000
 
  0.00000000E+00  0.00000000E+00  0.00000000E+00
  0.00000000E+00  0.00000000E+00  0.00000000E+00
  0.00000000E+00  0.00000000E+00  0.00000000E+00
  0.00000000E+00  0.00000000E+00  0.00000000E+00
  0.00000000E+00  0.00000000E+00  0.00000000E+00
  0.00000000E+00  0.00000000E+00  0.00000000E+00
