   8   8   0   0
  0.3204470E+02  0.7263708E-09  0.7263708E-09  0.7263708E-09  0.5000000E-15
  1.000000000000000E-004
  CAR 
 unknown system                          
      7.10596145    -33.24372311  301     -1.45155680      1.00000000
    -33.244  0.0000E+00  0.0000E+00
    -33.109  0.0000E+00  0.0000E+00
    -32.975  0.0000E+00  0.0000E+00
    -32.840  0.0000E+00  0.0000E+00
    -32.706  0.0000E+00  0.0000E+00
    -32.571  0.0000E+00  0.0000E+00
    -32.437  0.0000E+00  0.0000E+00
    -32.302  0.0000E+00  0.0000E+00
    -32.168  0.0000E+00  0.0000E+00
    -32.033  0.0000E+00  0.0000E+00
    -31.899  0.0000E+00  0.0000E+00
    -31.764  0.0000E+00  0.0000E+00
    -31.630  0.5591E-08  0.7520E-09
    -31.495  0.2066E+00  0.2779E-01
    -31.361  0.2687E+02  0.3642E+01
    -31.226  0.2663E+01  0.4000E+01
    -31.092  0.3929E-05  0.4000E+01
    -30.957  0.0000E+00  0.4000E+01
    -30.823  0.0000E+00  0.4000E+01
    -30.688  0.0000E+00  0.4000E+01
    -30.554  0.0000E+00  0.4000E+01
    -30.419  0.0000E+00  0.4000E+01
    -30.285  0.0000E+00  0.4000E+01
    -30.150  0.0000E+00  0.4000E+01
    -30.016  0.0000E+00  0.4000E+01
    -29.881  0.0000E+00  0.4000E+01
    -29.747  0.0000E+00  0.4000E+01
    -29.612  0.0000E+00  0.4000E+01
    -29.478  0.0000E+00  0.4000E+01
    -29.343  0.0000E+00  0.4000E+01
    -29.209  0.0000E+00  0.4000E+01
    -29.074  0.0000E+00  0.4000E+01
    -28.940  0.0000E+00  0.4000E+01
    -28.805  0.0000E+00  0.4000E+01
    -28.671  0.0000E+00  0.4000E+01
    -28.536  0.0000E+00  0.4000E+01
    -28.402  0.0000E+00  0.4000E+01
    -28.267  0.0000E+00  0.4000E+01
    -28.133  0.0000E+00  0.4000E+01
    -27.998  0.0000E+00  0.4000E+01
    -27.864  0.0000E+00  0.4000E+01
    -27.729  0.0000E+00  0.4000E+01
    -27.595  0.0000E+00  0.4000E+01
    -27.460  0.0000E+00  0.4000E+01
    -27.326  0.0000E+00  0.4000E+01
    -27.191  0.0000E+00  0.4000E+01
    -27.057  0.0000E+00  0.4000E+01
    -26.922  0.0000E+00  0.4000E+01
    -26.788  0.0000E+00  0.4000E+01
    -26.653  0.0000E+00  0.4000E+01
    -26.519  0.0000E+00  0.4000E+01
    -26.384  0.0000E+00  0.4000E+01
    -26.250  0.5848E-08  0.4000E+01
    -26.115  0.2107E+00  0.4028E+01
    -25.981  0.2690E+02  0.7647E+01
    -25.846  0.2628E+01  0.8000E+01
    -25.712  0.3777E-05  0.8000E+01
    -25.577  0.0000E+00  0.8000E+01
    -25.443  0.0000E+00  0.8000E+01
    -25.308  0.0000E+00  0.8000E+01
    -25.174  0.0000E+00  0.8000E+01
    -25.039  0.0000E+00  0.8000E+01
    -24.905  0.0000E+00  0.8000E+01
    -24.770  0.0000E+00  0.8000E+01
    -24.636  0.0000E+00  0.8000E+01
    -24.501  0.0000E+00  0.8000E+01
    -24.367  0.0000E+00  0.8000E+01
    -24.232  0.0000E+00  0.8000E+01
    -24.098  0.0000E+00  0.8000E+01
    -23.963  0.0000E+00  0.8000E+01
    -23.829  0.0000E+00  0.8000E+01
    -23.694  0.0000E+00  0.8000E+01
    -23.560  0.0000E+00  0.8000E+01
    -23.425  0.0000E+00  0.8000E+01
    -23.291  0.0000E+00  0.8000E+01
    -23.156  0.0000E+00  0.8000E+01
    -23.022  0.0000E+00  0.8000E+01
    -22.887  0.0000E+00  0.8000E+01
    -22.753  0.0000E+00  0.8000E+01
    -22.618  0.0000E+00  0.8000E+01
    -22.484  0.0000E+00  0.8000E+01
    -22.349  0.0000E+00  0.8000E+01
    -22.215  0.0000E+00  0.8000E+01
    -22.080  0.0000E+00  0.8000E+01
    -21.946  0.0000E+00  0.8000E+01
    -21.811  0.0000E+00  0.8000E+01
    -21.677  0.0000E+00  0.8000E+01
    -21.542  0.0000E+00  0.8000E+01
    -21.408  0.0000E+00  0.8000E+01
    -21.273  0.0000E+00  0.8000E+01
    -21.139  0.0000E+00  0.8000E+01
    -21.004  0.0000E+00  0.8000E+01
    -20.870  0.0000E+00  0.8000E+01
    -20.735  0.0000E+00  0.8000E+01
    -20.601  0.0000E+00  0.8000E+01
    -20.466  0.0000E+00  0.8000E+01
    -20.332  0.0000E+00  0.8000E+01
    -20.197  0.0000E+00  0.8000E+01
    -20.063  0.0000E+00  0.8000E+01
    -19.928  0.0000E+00  0.8000E+01
    -19.794  0.0000E+00  0.8000E+01
    -19.659  0.0000E+00  0.8000E+01
    -19.525  0.0000E+00  0.8000E+01
    -19.390  0.0000E+00  0.8000E+01
    -19.256  0.0000E+00  0.8000E+01
    -19.121  0.0000E+00  0.8000E+01
    -18.987  0.0000E+00  0.8000E+01
    -18.852  0.0000E+00  0.8000E+01
    -18.718  0.0000E+00  0.8000E+01
    -18.583  0.0000E+00  0.8000E+01
    -18.449  0.0000E+00  0.8000E+01
    -18.314  0.0000E+00  0.8000E+01
    -18.180  0.0000E+00  0.8000E+01
    -18.045  0.0000E+00  0.8000E+01
    -17.911  0.0000E+00  0.8000E+01
    -17.776  0.0000E+00  0.8000E+01
    -17.642  0.0000E+00  0.8000E+01
    -17.507  0.0000E+00  0.8000E+01
    -17.373  0.0000E+00  0.8000E+01
    -17.238  0.0000E+00  0.8000E+01
    -17.104  0.0000E+00  0.8000E+01
    -16.969  0.0000E+00  0.8000E+01
    -16.835  0.0000E+00  0.8000E+01
    -16.700  0.0000E+00  0.8000E+01
    -16.566  0.0000E+00  0.8000E+01
    -16.431  0.0000E+00  0.8000E+01
    -16.297  0.0000E+00  0.8000E+01
    -16.162  0.0000E+00  0.8000E+01
    -16.028  0.0000E+00  0.8000E+01
    -15.893  0.0000E+00  0.8000E+01
    -15.759  0.0000E+00  0.8000E+01
    -15.624  0.0000E+00  0.8000E+01
    -15.490  0.0000E+00  0.8000E+01
    -15.355  0.5159E-15  0.8000E+01
    -15.221  0.3168E-04  0.8000E+01
    -15.086  0.4584E+01  0.8617E+01
    -14.952  0.6196E+02  0.1695E+02
    -14.817  0.1501E+02  0.1897E+02
    -14.683  0.7651E+01  0.2000E+02
    -14.548  0.1907E-01  0.2000E+02
    -14.414  0.3115E-09  0.2000E+02
    -14.279  0.0000E+00  0.2000E+02
    -14.145  0.0000E+00  0.2000E+02
    -14.010  0.0000E+00  0.2000E+02
    -13.876  0.0000E+00  0.2000E+02
    -13.741  0.0000E+00  0.2000E+02
    -13.607  0.0000E+00  0.2000E+02
    -13.472  0.0000E+00  0.2000E+02
    -13.338  0.0000E+00  0.2000E+02
    -13.203  0.0000E+00  0.2000E+02
    -13.069  0.0000E+00  0.2000E+02
    -12.934  0.2677E-09  0.2000E+02
    -12.800  0.1522E-01  0.2000E+02
    -12.665  0.5301E+01  0.2072E+02
    -12.531  0.7529E+01  0.2173E+02
    -12.396  0.7470E+01  0.2273E+02
    -12.262  0.9168E+01  0.2397E+02
    -12.127  0.2561E+00  0.2400E+02
    -11.993  0.1539E-04  0.2400E+02
    -11.858  0.1560E+01  0.2421E+02
    -11.724  0.2586E+02  0.2769E+02
    -11.589  0.2323E+01  0.2800E+02
    -11.455  0.4676E-04  0.2800E+02
    -11.320  0.0000E+00  0.2800E+02
    -11.186  0.0000E+00  0.2800E+02
    -11.051  0.0000E+00  0.2800E+02
    -10.917  0.0000E+00  0.2800E+02
    -10.782  0.0000E+00  0.2800E+02
    -10.648  0.0000E+00  0.2800E+02
    -10.513  0.0000E+00  0.2800E+02
    -10.379  0.0000E+00  0.2800E+02
    -10.244  0.0000E+00  0.2800E+02
    -10.110  0.0000E+00  0.2800E+02
     -9.975  0.0000E+00  0.2800E+02
     -9.841  0.3638E-09  0.2800E+02
     -9.706  0.3041E-01  0.2800E+02
     -9.572  0.1947E+02  0.3062E+02
     -9.437  0.1176E+02  0.3220E+02
     -9.303  0.2768E+02  0.3593E+02
     -9.168  0.5447E+00  0.3600E+02
     -9.034  0.8748E-07  0.3600E+02
     -8.899  0.0000E+00  0.3600E+02
     -8.765  0.7558E-13  0.3600E+02
     -8.630  0.1660E-03  0.3600E+02
     -8.496  0.1125E+01  0.3615E+02
     -8.361  0.1958E+02  0.3878E+02
     -8.227  0.9034E+01  0.4000E+02
     -8.092  0.1777E-02  0.4000E+02
     -7.958  0.1937E-11  0.4000E+02
     -7.823  0.0000E+00  0.4000E+02
     -7.689  0.0000E+00  0.4000E+02
     -7.554  0.0000E+00  0.4000E+02
     -7.420  0.0000E+00  0.4000E+02
     -7.285  0.0000E+00  0.4000E+02
     -7.151  0.0000E+00  0.4000E+02
     -7.016  0.0000E+00  0.4000E+02
     -6.882  0.0000E+00  0.4000E+02
     -6.747  0.0000E+00  0.4000E+02
     -6.613  0.0000E+00  0.4000E+02
     -6.478  0.0000E+00  0.4000E+02
     -6.344  0.0000E+00  0.4000E+02
     -6.209  0.0000E+00  0.4000E+02
     -6.075  0.0000E+00  0.4000E+02
     -5.940  0.0000E+00  0.4000E+02
     -5.806  0.0000E+00  0.4000E+02
     -5.671  0.0000E+00  0.4000E+02
     -5.537  0.0000E+00  0.4000E+02
     -5.402  0.0000E+00  0.4000E+02
     -5.268  0.0000E+00  0.4000E+02
     -5.133  0.0000E+00  0.4000E+02
     -4.999  0.0000E+00  0.4000E+02
     -4.864  0.0000E+00  0.4000E+02
     -4.730  0.0000E+00  0.4000E+02
     -4.595  0.0000E+00  0.4000E+02
     -4.461  0.0000E+00  0.4000E+02
     -4.326  0.0000E+00  0.4000E+02
     -4.192  0.0000E+00  0.4000E+02
     -4.057  0.0000E+00  0.4000E+02
     -3.923  0.0000E+00  0.4000E+02
     -3.788  0.0000E+00  0.4000E+02
     -3.654  0.0000E+00  0.4000E+02
     -3.519  0.0000E+00  0.4000E+02
     -3.385  0.0000E+00  0.4000E+02
     -3.250  0.0000E+00  0.4000E+02
     -3.116  0.0000E+00  0.4000E+02
     -2.981  0.0000E+00  0.4000E+02
     -2.847  0.0000E+00  0.4000E+02
     -2.712  0.0000E+00  0.4000E+02
     -2.578  0.0000E+00  0.4000E+02
     -2.443  0.0000E+00  0.4000E+02
     -2.309  0.8770E-15  0.4000E+02
     -2.174  0.2285E-04  0.4000E+02
     -2.040  0.9731E+00  0.4013E+02
     -1.905  0.7872E+01  0.4119E+02
     -1.771  0.2449E+01  0.4152E+02
     -1.636  0.1524E+02  0.4357E+02
     -1.502  0.2297E+02  0.4666E+02
     -1.367  0.2953E+02  0.5063E+02
     -1.233  0.1016E+02  0.5200E+02
     -1.098  0.2790E-01  0.5200E+02
     -0.964  0.2116E-08  0.5200E+02
     -0.829  0.2295E-02  0.5200E+02
     -0.695  0.8658E+00  0.5212E+02
     -0.560  0.7935E+01  0.5318E+02
     -0.426  0.1718E+02  0.5550E+02
     -0.291  0.4282E+01  0.5607E+02
     -0.157  0.2394E+02  0.5929E+02
     -0.022  0.5270E+01  0.6000E+02
      0.112  0.4858E-03  0.6000E+02
      0.247  0.2538E-12  0.6000E+02
      0.381  0.0000E+00  0.6000E+02
      0.516  0.0000E+00  0.6000E+02
      0.650  0.0000E+00  0.6000E+02
      0.785  0.0000E+00  0.6000E+02
      0.919  0.0000E+00  0.6000E+02
      1.054  0.0000E+00  0.6000E+02
      1.188  0.0000E+00  0.6000E+02
      1.323  0.0000E+00  0.6000E+02
      1.457  0.0000E+00  0.6000E+02
      1.592  0.0000E+00  0.6000E+02
      1.726  0.0000E+00  0.6000E+02
      1.861  0.9135E-07  0.6000E+02
      1.995  0.4758E-01  0.6001E+02
      2.130  0.5455E+00  0.6008E+02
      2.264  0.7981E+00  0.6019E+02
      2.398  0.6212E+00  0.6027E+02
      2.533  0.2858E+01  0.6065E+02
      2.667  0.5704E+00  0.6073E+02
      2.802  0.9687E+00  0.6086E+02
      2.936  0.3277E+01  0.6130E+02
      3.071  0.3019E+01  0.6171E+02
      3.205  0.3183E+01  0.6214E+02
      3.340  0.4778E+01  0.6278E+02
      3.474  0.4732E+01  0.6342E+02
      3.609  0.5711E+01  0.6418E+02
      3.743  0.1790E+01  0.6442E+02
      3.878  0.1008E+01  0.6456E+02
      4.012  0.6419E+01  0.6542E+02
      4.147  0.8478E+01  0.6656E+02
      4.281  0.4293E+01  0.6714E+02
      4.416  0.5925E+01  0.6794E+02
      4.550  0.4507E+01  0.6854E+02
      4.685  0.5155E+01  0.6924E+02
      4.819  0.5362E+01  0.6996E+02
      4.954  0.7397E+01  0.7095E+02
      5.088  0.5842E+01  0.7174E+02
      5.223  0.1051E+01  0.7188E+02
      5.357  0.8768E+00  0.7200E+02
      5.492  0.7194E-02  0.7200E+02
      5.626  0.2236E-09  0.7200E+02
      5.761  0.0000E+00  0.7200E+02
      5.895  0.0000E+00  0.7200E+02
      6.030  0.0000E+00  0.7200E+02
      6.164  0.0000E+00  0.7200E+02
      6.299  0.0000E+00  0.7200E+02
      6.433  0.0000E+00  0.7200E+02
      6.568  0.0000E+00  0.7200E+02
      6.702  0.0000E+00  0.7200E+02
      6.837  0.0000E+00  0.7200E+02
      6.971  0.0000E+00  0.7200E+02
      7.106  0.0000E+00  0.7200E+02
