unknown system                          
           1
    -3.451859    3.451859    5.378735
     3.451859   -3.451859    5.378735
     3.451859    3.451859   -5.378735
   K    N 
     2     6
Direct configuration=     1
   0.50000000  0.50000000  0.00000000
   0.00000000  0.00000000  0.00000000
   0.94244500  0.55755500  0.50000000
   0.05755500  0.44244500  0.50000000
   0.44244500  0.94244500  0.38488900
   0.75000000  0.75000000  0.00000000
   0.25000000  0.25000000  0.00000000
   0.55755500  0.05755500  0.61511100
