Ag4 O4                                  
   1.00000000000000     
     3.5242763400000001    0.0000000000000000    0.0000000000000000
     0.0000000000000000    5.5338699800000004   -0.0353257600000000
     0.0000000000000000    1.7592821300000001    5.5238405400000001
   Ag   O 
     4     4
Direct
     0.5000000000000000    0.5000000000000000    0.0000000000000000
     0.0000000000000000    0.0000000000000000    0.0000000000000000
     0.5000000000000000    0.0000000000000000    0.5000000000000000
     0.0000000000000000    0.5000000000000000    0.5000000000000000
     0.8340693999999971    0.2802428500000005    0.2924070999999984
     0.3340693999999971    0.2197571499999995    0.7075929000000016
     0.1659306000000029    0.7197571499999995    0.7075929000000016
     0.6659306000000029    0.7802428500000005    0.2924070999999984
 
  0.00000000E+00  0.00000000E+00  0.00000000E+00
  0.00000000E+00  0.00000000E+00  0.00000000E+00
  0.00000000E+00  0.00000000E+00  0.00000000E+00
  0.00000000E+00  0.00000000E+00  0.00000000E+00
  0.00000000E+00  0.00000000E+00  0.00000000E+00
  0.00000000E+00  0.00000000E+00  0.00000000E+00
  0.00000000E+00  0.00000000E+00  0.00000000E+00
  0.00000000E+00  0.00000000E+00  0.00000000E+00
