   8   8   0   0
  0.1349373E+02  0.3524276E-09  0.5533983E-09  0.5797231E-09  0.5000000E-15
  1.000000000000000E-004
  CAR 
 unknown system                          
     24.05634885    -15.16735124  301      5.25188956      1.00000000
    -15.167  0.0000E+00  0.0000E+00
    -15.037  0.0000E+00  0.0000E+00
    -14.906  0.0000E+00  0.0000E+00
    -14.775  0.0000E+00  0.0000E+00
    -14.644  0.0000E+00  0.0000E+00
    -14.514  0.0000E+00  0.0000E+00
    -14.383  0.0000E+00  0.0000E+00
    -14.252  0.0000E+00  0.0000E+00
    -14.121  0.0000E+00  0.0000E+00
    -13.991  0.0000E+00  0.0000E+00
    -13.860  0.0000E+00  0.0000E+00
    -13.729  0.0000E+00  0.0000E+00
    -13.598  0.5496E-10  0.7185E-11
    -13.468  0.7486E-03  0.9787E-04
    -13.337  0.3090E+00  0.4050E-01
    -13.206  0.2086E+01  0.3132E+00
    -13.075  0.3392E+01  0.7567E+00
    -12.945  0.5297E+01  0.1449E+01
    -12.814  0.7329E+01  0.2407E+01
    -12.683  0.7345E+01  0.3368E+01
    -12.552  0.1229E+02  0.4975E+01
    -12.422  0.2090E+02  0.7707E+01
    -12.291  0.2241E+01  0.8000E+01
    -12.160  0.2337E-03  0.8000E+01
    -12.029  0.3576E-12  0.8000E+01
    -11.899  0.0000E+00  0.8000E+01
    -11.768  0.0000E+00  0.8000E+01
    -11.637  0.0000E+00  0.8000E+01
    -11.506  0.0000E+00  0.8000E+01
    -11.376  0.0000E+00  0.8000E+01
    -11.245  0.0000E+00  0.8000E+01
    -11.114  0.0000E+00  0.8000E+01
    -10.983  0.0000E+00  0.8000E+01
    -10.853  0.0000E+00  0.8000E+01
    -10.722  0.0000E+00  0.8000E+01
    -10.591  0.0000E+00  0.8000E+01
    -10.461  0.0000E+00  0.8000E+01
    -10.330  0.0000E+00  0.8000E+01
    -10.199  0.0000E+00  0.8000E+01
    -10.068  0.0000E+00  0.8000E+01
     -9.938  0.0000E+00  0.8000E+01
     -9.807  0.0000E+00  0.8000E+01
     -9.676  0.0000E+00  0.8000E+01
     -9.545  0.0000E+00  0.8000E+01
     -9.415  0.0000E+00  0.8000E+01
     -9.284  0.0000E+00  0.8000E+01
     -9.153  0.0000E+00  0.8000E+01
     -9.022  0.0000E+00  0.8000E+01
     -8.892  0.0000E+00  0.8000E+01
     -8.761  0.0000E+00  0.8000E+01
     -8.630  0.0000E+00  0.8000E+01
     -8.499  0.0000E+00  0.8000E+01
     -8.369  0.0000E+00  0.8000E+01
     -8.238  0.0000E+00  0.8000E+01
     -8.107  0.0000E+00  0.8000E+01
     -7.976  0.0000E+00  0.8000E+01
     -7.846  0.0000E+00  0.8000E+01
     -7.715  0.0000E+00  0.8000E+01
     -7.584  0.0000E+00  0.8000E+01
     -7.453  0.0000E+00  0.8000E+01
     -7.323  0.0000E+00  0.8000E+01
     -7.192  0.0000E+00  0.8000E+01
     -7.061  0.0000E+00  0.8000E+01
     -6.930  0.0000E+00  0.8000E+01
     -6.800  0.0000E+00  0.8000E+01
     -6.669  0.0000E+00  0.8000E+01
     -6.538  0.0000E+00  0.8000E+01
     -6.407  0.0000E+00  0.8000E+01
     -6.277  0.0000E+00  0.8000E+01
     -6.146  0.0000E+00  0.8000E+01
     -6.015  0.0000E+00  0.8000E+01
     -5.884  0.0000E+00  0.8000E+01
     -5.754  0.0000E+00  0.8000E+01
     -5.623  0.0000E+00  0.8000E+01
     -5.492  0.0000E+00  0.8000E+01
     -5.361  0.0000E+00  0.8000E+01
     -5.231  0.0000E+00  0.8000E+01
     -5.100  0.0000E+00  0.8000E+01
     -4.969  0.0000E+00  0.8000E+01
     -4.838  0.0000E+00  0.8000E+01
     -4.708  0.0000E+00  0.8000E+01
     -4.577  0.0000E+00  0.8000E+01
     -4.446  0.0000E+00  0.8000E+01
     -4.315  0.0000E+00  0.8000E+01
     -4.185  0.0000E+00  0.8000E+01
     -4.054  0.0000E+00  0.8000E+01
     -3.923  0.0000E+00  0.8000E+01
     -3.792  0.0000E+00  0.8000E+01
     -3.662  0.0000E+00  0.8000E+01
     -3.531  0.0000E+00  0.8000E+01
     -3.400  0.0000E+00  0.8000E+01
     -3.269  0.0000E+00  0.8000E+01
     -3.139  0.0000E+00  0.8000E+01
     -3.008  0.0000E+00  0.8000E+01
     -2.877  0.0000E+00  0.8000E+01
     -2.747  0.0000E+00  0.8000E+01
     -2.616  0.0000E+00  0.8000E+01
     -2.485  0.0000E+00  0.8000E+01
     -2.354  0.0000E+00  0.8000E+01
     -2.224  0.0000E+00  0.8000E+01
     -2.093  0.1061E-15  0.8000E+01
     -1.962  0.2639E-05  0.8000E+01
     -1.831  0.2082E+00  0.8027E+01
     -1.701  0.3588E+01  0.8496E+01
     -1.570  0.9661E+01  0.9759E+01
     -1.439  0.6966E+01  0.1067E+02
     -1.308  0.5767E+01  0.1142E+02
     -1.178  0.5120E+01  0.1209E+02
     -1.047  0.8290E+01  0.1318E+02
     -0.916  0.9830E+01  0.1446E+02
     -0.785  0.8403E+01  0.1556E+02
     -0.655  0.8297E+01  0.1665E+02
     -0.524  0.5301E+01  0.1734E+02
     -0.393  0.5290E+01  0.1803E+02
     -0.262  0.7653E+01  0.1903E+02
     -0.132  0.7894E+01  0.2006E+02
     -0.001  0.6862E+01  0.2096E+02
      0.130  0.7218E+01  0.2190E+02
      0.261  0.9058E+01  0.2309E+02
      0.391  0.5029E+01  0.2375E+02
      0.522  0.6352E+01  0.2458E+02
      0.653  0.8679E+01  0.2571E+02
      0.784  0.7703E+01  0.2672E+02
      0.914  0.8030E+01  0.2777E+02
      1.045  0.8814E+01  0.2892E+02
      1.176  0.6846E+01  0.2982E+02
      1.307  0.6267E+01  0.3064E+02
      1.437  0.1041E+02  0.3200E+02
      1.568  0.1137E+02  0.3348E+02
      1.699  0.1391E+02  0.3530E+02
      1.830  0.1425E+02  0.3716E+02
      1.960  0.1438E+02  0.3904E+02
      2.091  0.1027E+02  0.4039E+02
      2.222  0.1392E+02  0.4221E+02
      2.353  0.1097E+02  0.4364E+02
      2.483  0.1156E+02  0.4515E+02
      2.614  0.1628E+02  0.4728E+02
      2.745  0.1176E+02  0.4882E+02
      2.876  0.1298E+02  0.5051E+02
      3.006  0.1594E+02  0.5260E+02
      3.137  0.1293E+02  0.5429E+02
      3.268  0.1298E+02  0.5599E+02
      3.399  0.9712E+01  0.5726E+02
      3.529  0.7405E+01  0.5822E+02
      3.660  0.8573E+01  0.5934E+02
      3.791  0.1267E+02  0.6100E+02
      3.922  0.1372E+02  0.6280E+02
      4.052  0.8398E+01  0.6389E+02
      4.183  0.1605E+01  0.6410E+02
      4.314  0.2456E+01  0.6442E+02
      4.444  0.4284E+01  0.6498E+02
      4.575  0.5918E+01  0.6576E+02
      4.706  0.5830E+01  0.6652E+02
      4.837  0.5622E+01  0.6726E+02
      4.967  0.2604E+01  0.6760E+02
      5.098  0.2247E+01  0.6789E+02
      5.229  0.8024E+00  0.6799E+02
      5.360  0.7204E+00  0.6809E+02
      5.490  0.9778E+00  0.6822E+02
      5.621  0.1836E+01  0.6846E+02
      5.752  0.3281E+01  0.6889E+02
      5.883  0.2451E+01  0.6921E+02
      6.013  0.4765E+01  0.6983E+02
      6.144  0.5289E+01  0.7052E+02
      6.275  0.4697E+01  0.7113E+02
      6.406  0.4195E+01  0.7168E+02
      6.536  0.1295E+01  0.7185E+02
      6.667  0.6993E+00  0.7194E+02
      6.798  0.4453E+00  0.7200E+02
      6.929  0.6113E-01  0.7201E+02
      7.059  0.1188E+00  0.7203E+02
      7.190  0.3244E+00  0.7207E+02
      7.321  0.1702E+00  0.7209E+02
      7.452  0.5627E+00  0.7216E+02
      7.582  0.3526E+00  0.7221E+02
      7.713  0.3300E-02  0.7221E+02
      7.844  0.2946E+00  0.7225E+02
      7.975  0.2325E+00  0.7228E+02
      8.105  0.1120E+01  0.7243E+02
      8.236  0.1187E+01  0.7258E+02
      8.367  0.5257E+00  0.7265E+02
      8.498  0.8812E-01  0.7266E+02
      8.628  0.7652E+00  0.7276E+02
      8.759  0.1348E+01  0.7294E+02
      8.890  0.1154E+01  0.7309E+02
      9.021  0.1336E+01  0.7326E+02
      9.151  0.1540E+01  0.7346E+02
      9.282  0.1600E+01  0.7367E+02
      9.413  0.1051E+01  0.7381E+02
      9.544  0.1569E+01  0.7402E+02
      9.674  0.1997E+01  0.7428E+02
      9.805  0.1769E+01  0.7451E+02
      9.936  0.1902E+01  0.7476E+02
     10.067  0.2957E+01  0.7514E+02
     10.197  0.1643E+01  0.7536E+02
     10.328  0.2006E+01  0.7562E+02
     10.459  0.2643E+01  0.7597E+02
     10.590  0.9524E+00  0.7609E+02
     10.720  0.1078E+01  0.7623E+02
     10.851  0.1017E+01  0.7637E+02
     10.982  0.2668E+01  0.7671E+02
     11.113  0.2796E+01  0.7708E+02
     11.243  0.3265E+01  0.7751E+02
     11.374  0.2103E+01  0.7778E+02
     11.505  0.2084E+01  0.7805E+02
     11.636  0.2276E+01  0.7835E+02
     11.766  0.2069E+01  0.7862E+02
     11.897  0.2249E+01  0.7892E+02
     12.028  0.2118E+01  0.7919E+02
     12.158  0.1775E+01  0.7942E+02
     12.289  0.2052E+01  0.7969E+02
     12.420  0.1585E+01  0.7990E+02
     12.551  0.1715E+01  0.8012E+02
     12.681  0.2918E+01  0.8051E+02
     12.812  0.1935E+01  0.8076E+02
     12.943  0.6013E+00  0.8084E+02
     13.074  0.3633E+01  0.8131E+02
     13.204  0.5091E+01  0.8198E+02
     13.335  0.3961E+01  0.8250E+02
     13.466  0.3365E+01  0.8294E+02
     13.597  0.2115E+01  0.8321E+02
     13.727  0.3073E+01  0.8361E+02
     13.858  0.2716E+01  0.8397E+02
     13.989  0.3305E+01  0.8440E+02
     14.120  0.3922E+01  0.8491E+02
     14.250  0.2677E+01  0.8526E+02
     14.381  0.2116E+01  0.8554E+02
     14.512  0.1765E+01  0.8577E+02
     14.643  0.1985E+01  0.8603E+02
     14.773  0.2137E+01  0.8631E+02
     14.904  0.2468E+01  0.8663E+02
     15.035  0.1799E+01  0.8687E+02
     15.166  0.2779E+01  0.8723E+02
     15.296  0.1419E+01  0.8742E+02
     15.427  0.5351E+00  0.8749E+02
     15.558  0.1186E+01  0.8764E+02
     15.689  0.2182E+01  0.8793E+02
     15.819  0.2551E+01  0.8826E+02
     15.950  0.1635E+01  0.8848E+02
     16.081  0.2469E+01  0.8880E+02
     16.212  0.2849E+01  0.8917E+02
     16.342  0.3327E+01  0.8961E+02
     16.473  0.3627E+01  0.9008E+02
     16.604  0.2594E+01  0.9042E+02
     16.735  0.2635E+01  0.9076E+02
     16.865  0.2374E+01  0.9107E+02
     16.996  0.3842E+01  0.9158E+02
     17.127  0.2763E+01  0.9194E+02
     17.258  0.3663E+01  0.9242E+02
     17.388  0.2299E+01  0.9272E+02
     17.519  0.1859E+01  0.9296E+02
     17.650  0.2365E+01  0.9327E+02
     17.781  0.1969E+01  0.9353E+02
     17.911  0.2375E+01  0.9384E+02
     18.042  0.2729E+01  0.9419E+02
     18.173  0.1480E+01  0.9439E+02
     18.304  0.1194E+01  0.9454E+02
     18.434  0.2693E+01  0.9490E+02
     18.565  0.2055E+01  0.9516E+02
     18.696  0.2460E+01  0.9549E+02
     18.827  0.2559E+01  0.9582E+02
     18.957  0.2506E+01  0.9615E+02
     19.088  0.3087E+01  0.9655E+02
     19.219  0.3173E+01  0.9697E+02
     19.350  0.3803E+01  0.9746E+02
     19.480  0.3289E+01  0.9789E+02
     19.611  0.3957E+01  0.9841E+02
     19.742  0.2656E+01  0.9876E+02
     19.872  0.3768E+01  0.9925E+02
     20.003  0.4138E+01  0.9979E+02
     20.134  0.3677E+01  0.1003E+03
     20.265  0.3065E+01  0.1007E+03
     20.395  0.2348E+01  0.1010E+03
     20.526  0.2908E+01  0.1014E+03
     20.657  0.2147E+01  0.1016E+03
     20.788  0.1984E+01  0.1019E+03
     20.918  0.3217E+01  0.1023E+03
     21.049  0.1198E+01  0.1025E+03
     21.180  0.2733E+01  0.1028E+03
     21.311  0.1790E+01  0.1031E+03
     21.441  0.1186E+01  0.1032E+03
     21.572  0.1544E+01  0.1034E+03
     21.703  0.2225E+01  0.1037E+03
     21.834  0.1337E+01  0.1039E+03
     21.964  0.2193E+00  0.1039E+03
     22.095  0.1671E+00  0.1039E+03
     22.226  0.2908E+00  0.1040E+03
     22.357  0.1426E+00  0.1040E+03
     22.487  0.1419E-02  0.1040E+03
     22.618  0.1092E-09  0.1040E+03
     22.749  0.0000E+00  0.1040E+03
     22.880  0.0000E+00  0.1040E+03
     23.010  0.0000E+00  0.1040E+03
     23.141  0.0000E+00  0.1040E+03
     23.272  0.0000E+00  0.1040E+03
     23.403  0.0000E+00  0.1040E+03
     23.533  0.0000E+00  0.1040E+03
     23.664  0.0000E+00  0.1040E+03
     23.795  0.0000E+00  0.1040E+03
     23.926  0.0000E+00  0.1040E+03
     24.056  0.0000E+00  0.1040E+03
