Ag4O4
1.0
      3.5242763       0.0000000       0.0000000
      0.0000000       5.5338700      -0.0353258
      0.0000000       1.7592821       5.5238405
  Ag    O   
  4     4   
Direct
      0.5000000       0.5000000       0.0000000
      0.0000000       0.0000000       0.0000000
      0.5000000       0.0000000       0.5000000
      0.0000000       0.5000000       0.5000000
      0.8340694       0.2802429       0.2924071
      0.3340694       0.2197571       0.7075929
      0.1659306       0.7197571       0.7075929
      0.6659306       0.7802429       0.2924071
