unknown system                          
           1
     3.524276    0.000000    0.000000
     0.000000    5.533870   -0.035326
     0.000000    1.759282    5.523841
   Ag   O 
     4     4
Direct configuration=     1
   0.50000000  0.50000000  0.00000000
   0.00000000  0.00000000  0.00000000
   0.50000000  0.00000000  0.50000000
   0.00000000  0.50000000  0.50000000
   0.83406940  0.28024285  0.29240710
   0.33406940  0.21975715  0.70759290
   0.16593060  0.71975715  0.70759290
   0.66593060  0.78024285  0.29240710
