Re2                                     
   1.00000000000000     
     2.7653358199999998    0.0000000000000000    0.0000000000000000
    -1.3826679099999999    2.3948523599999998    0.0000000000000000
     0.0000000000000000    0.0000000000000000    4.4735766300000002
   Re
     2
Direct
     0.3333330000000032    0.6666669999999968    0.2500000000000000
     0.6666669999999968    0.3333330000000032    0.7500000000000000
 
  0.00000000E+00  0.00000000E+00  0.00000000E+00
  0.00000000E+00  0.00000000E+00  0.00000000E+00
