   2   2   0   0
  0.1481329E+02  0.2765336E-09  0.2765337E-09  0.4473577E-09  0.5000000E-15
  1.000000000000000E-004
  CAR 
 unknown system                          
     26.96662368    -37.88542985  301      7.44629436      1.00000000
    -37.885  0.0000E+00  0.0000E+00
    -37.669  0.0000E+00  0.0000E+00
    -37.453  0.0000E+00  0.0000E+00
    -37.237  0.0000E+00  0.0000E+00
    -37.021  0.0000E+00  0.0000E+00
    -36.805  0.0000E+00  0.0000E+00
    -36.588  0.0000E+00  0.0000E+00
    -36.372  0.0000E+00  0.0000E+00
    -36.156  0.0000E+00  0.0000E+00
    -35.940  0.0000E+00  0.0000E+00
    -35.724  0.0000E+00  0.0000E+00
    -35.508  0.0000E+00  0.0000E+00
    -35.291  0.0000E+00  0.0000E+00
    -35.075  0.7124E-06  0.1540E-06
    -34.859  0.5672E+00  0.1226E+00
    -34.643  0.9152E+01  0.2101E+01
    -34.427  0.6962E+01  0.3606E+01
    -34.210  0.8301E+01  0.5400E+01
    -33.994  0.1419E+02  0.8467E+01
    -33.778  0.1539E+02  0.1179E+02
    -33.562  0.9556E+00  0.1200E+02
    -33.346  0.4607E-07  0.1200E+02
    -33.130  0.0000E+00  0.1200E+02
    -32.913  0.0000E+00  0.1200E+02
    -32.697  0.0000E+00  0.1200E+02
    -32.481  0.0000E+00  0.1200E+02
    -32.265  0.0000E+00  0.1200E+02
    -32.049  0.0000E+00  0.1200E+02
    -31.833  0.0000E+00  0.1200E+02
    -31.616  0.0000E+00  0.1200E+02
    -31.400  0.0000E+00  0.1200E+02
    -31.184  0.0000E+00  0.1200E+02
    -30.968  0.0000E+00  0.1200E+02
    -30.752  0.0000E+00  0.1200E+02
    -30.536  0.0000E+00  0.1200E+02
    -30.319  0.0000E+00  0.1200E+02
    -30.103  0.0000E+00  0.1200E+02
    -29.887  0.0000E+00  0.1200E+02
    -29.671  0.0000E+00  0.1200E+02
    -29.455  0.0000E+00  0.1200E+02
    -29.238  0.0000E+00  0.1200E+02
    -29.022  0.0000E+00  0.1200E+02
    -28.806  0.0000E+00  0.1200E+02
    -28.590  0.0000E+00  0.1200E+02
    -28.374  0.0000E+00  0.1200E+02
    -28.158  0.0000E+00  0.1200E+02
    -27.941  0.0000E+00  0.1200E+02
    -27.725  0.0000E+00  0.1200E+02
    -27.509  0.0000E+00  0.1200E+02
    -27.293  0.0000E+00  0.1200E+02
    -27.077  0.0000E+00  0.1200E+02
    -26.861  0.0000E+00  0.1200E+02
    -26.644  0.0000E+00  0.1200E+02
    -26.428  0.0000E+00  0.1200E+02
    -26.212  0.0000E+00  0.1200E+02
    -25.996  0.0000E+00  0.1200E+02
    -25.780  0.0000E+00  0.1200E+02
    -25.564  0.0000E+00  0.1200E+02
    -25.347  0.0000E+00  0.1200E+02
    -25.131  0.0000E+00  0.1200E+02
    -24.915  0.0000E+00  0.1200E+02
    -24.699  0.0000E+00  0.1200E+02
    -24.483  0.0000E+00  0.1200E+02
    -24.266  0.0000E+00  0.1200E+02
    -24.050  0.0000E+00  0.1200E+02
    -23.834  0.0000E+00  0.1200E+02
    -23.618  0.0000E+00  0.1200E+02
    -23.402  0.0000E+00  0.1200E+02
    -23.186  0.0000E+00  0.1200E+02
    -22.969  0.0000E+00  0.1200E+02
    -22.753  0.0000E+00  0.1200E+02
    -22.537  0.0000E+00  0.1200E+02
    -22.321  0.0000E+00  0.1200E+02
    -22.105  0.0000E+00  0.1200E+02
    -21.889  0.0000E+00  0.1200E+02
    -21.672  0.0000E+00  0.1200E+02
    -21.456  0.0000E+00  0.1200E+02
    -21.240  0.0000E+00  0.1200E+02
    -21.024  0.0000E+00  0.1200E+02
    -20.808  0.0000E+00  0.1200E+02
    -20.592  0.0000E+00  0.1200E+02
    -20.375  0.0000E+00  0.1200E+02
    -20.159  0.0000E+00  0.1200E+02
    -19.943  0.0000E+00  0.1200E+02
    -19.727  0.0000E+00  0.1200E+02
    -19.511  0.0000E+00  0.1200E+02
    -19.295  0.0000E+00  0.1200E+02
    -19.078  0.0000E+00  0.1200E+02
    -18.862  0.0000E+00  0.1200E+02
    -18.646  0.0000E+00  0.1200E+02
    -18.430  0.0000E+00  0.1200E+02
    -18.214  0.0000E+00  0.1200E+02
    -17.997  0.0000E+00  0.1200E+02
    -17.781  0.0000E+00  0.1200E+02
    -17.565  0.0000E+00  0.1200E+02
    -17.349  0.0000E+00  0.1200E+02
    -17.133  0.0000E+00  0.1200E+02
    -16.917  0.0000E+00  0.1200E+02
    -16.700  0.0000E+00  0.1200E+02
    -16.484  0.0000E+00  0.1200E+02
    -16.268  0.0000E+00  0.1200E+02
    -16.052  0.0000E+00  0.1200E+02
    -15.836  0.0000E+00  0.1200E+02
    -15.620  0.0000E+00  0.1200E+02
    -15.403  0.0000E+00  0.1200E+02
    -15.187  0.0000E+00  0.1200E+02
    -14.971  0.0000E+00  0.1200E+02
    -14.755  0.0000E+00  0.1200E+02
    -14.539  0.0000E+00  0.1200E+02
    -14.323  0.0000E+00  0.1200E+02
    -14.106  0.0000E+00  0.1200E+02
    -13.890  0.0000E+00  0.1200E+02
    -13.674  0.0000E+00  0.1200E+02
    -13.458  0.0000E+00  0.1200E+02
    -13.242  0.0000E+00  0.1200E+02
    -13.025  0.0000E+00  0.1200E+02
    -12.809  0.0000E+00  0.1200E+02
    -12.593  0.0000E+00  0.1200E+02
    -12.377  0.0000E+00  0.1200E+02
    -12.161  0.0000E+00  0.1200E+02
    -11.945  0.0000E+00  0.1200E+02
    -11.728  0.0000E+00  0.1200E+02
    -11.512  0.0000E+00  0.1200E+02
    -11.296  0.0000E+00  0.1200E+02
    -11.080  0.0000E+00  0.1200E+02
    -10.864  0.0000E+00  0.1200E+02
    -10.648  0.0000E+00  0.1200E+02
    -10.431  0.0000E+00  0.1200E+02
    -10.215  0.0000E+00  0.1200E+02
     -9.999  0.0000E+00  0.1200E+02
     -9.783  0.0000E+00  0.1200E+02
     -9.567  0.0000E+00  0.1200E+02
     -9.351  0.0000E+00  0.1200E+02
     -9.134  0.0000E+00  0.1200E+02
     -8.918  0.0000E+00  0.1200E+02
     -8.702  0.0000E+00  0.1200E+02
     -8.486  0.0000E+00  0.1200E+02
     -8.270  0.0000E+00  0.1200E+02
     -8.053  0.0000E+00  0.1200E+02
     -7.837  0.0000E+00  0.1200E+02
     -7.621  0.0000E+00  0.1200E+02
     -7.405  0.0000E+00  0.1200E+02
     -7.189  0.0000E+00  0.1200E+02
     -6.973  0.0000E+00  0.1200E+02
     -6.756  0.0000E+00  0.1200E+02
     -6.540  0.0000E+00  0.1200E+02
     -6.324  0.0000E+00  0.1200E+02
     -6.108  0.0000E+00  0.1200E+02
     -5.892  0.0000E+00  0.1200E+02
     -5.676  0.0000E+00  0.1200E+02
     -5.459  0.0000E+00  0.1200E+02
     -5.243  0.0000E+00  0.1200E+02
     -5.027  0.0000E+00  0.1200E+02
     -4.811  0.0000E+00  0.1200E+02
     -4.595  0.0000E+00  0.1200E+02
     -4.379  0.0000E+00  0.1200E+02
     -4.162  0.0000E+00  0.1200E+02
     -3.946  0.0000E+00  0.1200E+02
     -3.730  0.0000E+00  0.1200E+02
     -3.514  0.0000E+00  0.1200E+02
     -3.298  0.0000E+00  0.1200E+02
     -3.081  0.0000E+00  0.1200E+02
     -2.865  0.0000E+00  0.1200E+02
     -2.649  0.5058E-13  0.1200E+02
     -2.433  0.2984E-02  0.1200E+02
     -2.217  0.9762E-02  0.1200E+02
     -2.001  0.9964E-01  0.1202E+02
     -1.784  0.2836E-01  0.1203E+02
     -1.568  0.1269E+00  0.1206E+02
     -1.352  0.7550E-01  0.1207E+02
     -1.136  0.1432E+00  0.1211E+02
     -0.920  0.1377E+00  0.1213E+02
     -0.704  0.2808E+00  0.1220E+02
     -0.487  0.8386E-06  0.1220E+02
     -0.271  0.2702E+00  0.1225E+02
     -0.055  0.4140E+00  0.1234E+02
      0.161  0.1814E+00  0.1238E+02
      0.377  0.3067E+00  0.1245E+02
      0.593  0.2589E+00  0.1250E+02
      0.810  0.3340E+00  0.1258E+02
      1.026  0.1345E+01  0.1287E+02
      1.242  0.1510E+01  0.1319E+02
      1.458  0.1057E+01  0.1342E+02
      1.674  0.1440E+01  0.1373E+02
      1.890  0.2075E+01  0.1418E+02
      2.107  0.2476E+01  0.1472E+02
      2.323  0.6816E+00  0.1487E+02
      2.539  0.3020E+01  0.1552E+02
      2.755  0.1683E+01  0.1588E+02
      2.971  0.6501E+00  0.1602E+02
      3.188  0.2269E+01  0.1651E+02
      3.404  0.2127E+01  0.1697E+02
      3.620  0.1635E+01  0.1733E+02
      3.836  0.1566E+01  0.1766E+02
      4.052  0.3065E+01  0.1833E+02
      4.268  0.2406E+01  0.1885E+02
      4.485  0.2046E+01  0.1929E+02
      4.701  0.1133E+01  0.1953E+02
      4.917  0.9951E+00  0.1975E+02
      5.133  0.1617E+01  0.2010E+02
      5.349  0.2786E+01  0.2070E+02
      5.565  0.3144E+01  0.2138E+02
      5.782  0.3025E+01  0.2204E+02
      5.998  0.2351E+01  0.2254E+02
      6.214  0.2106E+01  0.2300E+02
      6.430  0.2905E+01  0.2363E+02
      6.646  0.2373E+01  0.2414E+02
      6.862  0.3535E+01  0.2490E+02
      7.079  0.2282E+01  0.2540E+02
      7.295  0.1591E+01  0.2574E+02
      7.511  0.1776E+01  0.2613E+02
      7.727  0.1672E+01  0.2649E+02
      7.943  0.1307E+01  0.2677E+02
      8.160  0.1527E+01  0.2710E+02
      8.376  0.3330E+00  0.2717E+02
      8.592  0.1538E+01  0.2750E+02
      8.808  0.1452E+01  0.2782E+02
      9.024  0.1732E+01  0.2819E+02
      9.240  0.8960E+00  0.2839E+02
      9.457  0.8370E+00  0.2857E+02
      9.673  0.4857E+00  0.2867E+02
      9.889  0.1417E+01  0.2898E+02
     10.105  0.2213E+01  0.2946E+02
     10.321  0.1762E+01  0.2984E+02
     10.537  0.2204E+01  0.3031E+02
     10.754  0.2080E+01  0.3076E+02
     10.970  0.1826E+01  0.3116E+02
     11.186  0.3233E+01  0.3186E+02
     11.402  0.2909E+01  0.3249E+02
     11.618  0.2182E+01  0.3296E+02
     11.834  0.1808E+01  0.3335E+02
     12.051  0.2817E+00  0.3341E+02
     12.267  0.7139E+00  0.3356E+02
     12.483  0.1088E+01  0.3380E+02
     12.699  0.1157E+01  0.3405E+02
     12.915  0.1547E+00  0.3408E+02
     13.132  0.5683E+00  0.3421E+02
     13.348  0.6478E+00  0.3435E+02
     13.564  0.3817E-01  0.3435E+02
     13.780  0.9424E+00  0.3456E+02
     13.996  0.6581E+00  0.3470E+02
     14.212  0.6789E+00  0.3485E+02
     14.429  0.8238E+00  0.3502E+02
     14.645  0.3622E+00  0.3510E+02
     14.861  0.3799E+00  0.3519E+02
     15.077  0.3342E+00  0.3526E+02
     15.293  0.1256E+01  0.3553E+02
     15.509  0.3551E+00  0.3561E+02
     15.726  0.5163E+00  0.3572E+02
     15.942  0.1974E+00  0.3576E+02
     16.158  0.4078E-01  0.3577E+02
     16.374  0.4377E+00  0.3586E+02
     16.590  0.2010E+00  0.3591E+02
     16.806  0.3640E+00  0.3599E+02
     17.023  0.6346E+00  0.3612E+02
     17.239  0.8503E+00  0.3631E+02
     17.455  0.5551E+00  0.3643E+02
     17.671  0.5452E+00  0.3654E+02
     17.887  0.1192E+01  0.3680E+02
     18.104  0.8204E+00  0.3698E+02
     18.320  0.8493E+00  0.3716E+02
     18.536  0.1173E+01  0.3742E+02
     18.752  0.1525E+01  0.3775E+02
     18.968  0.6870E+00  0.3789E+02
     19.184  0.6013E+00  0.3802E+02
     19.401  0.2862E+00  0.3809E+02
     19.617  0.6395E+00  0.3822E+02
     19.833  0.2843E+00  0.3829E+02
     20.049  0.3985E+00  0.3837E+02
     20.265  0.1022E+01  0.3859E+02
     20.481  0.4166E+00  0.3868E+02
     20.698  0.4737E+00  0.3879E+02
     20.914  0.3497E+00  0.3886E+02
     21.130  0.2343E+00  0.3891E+02
     21.346  0.5863E+00  0.3904E+02
     21.562  0.6145E+00  0.3917E+02
     21.778  0.1548E+00  0.3920E+02
     21.995  0.6842E+00  0.3935E+02
     22.211  0.1267E-01  0.3936E+02
     22.427  0.4189E+00  0.3945E+02
     22.643  0.6796E+00  0.3959E+02
     22.859  0.2574E+00  0.3965E+02
     23.076  0.3247E+00  0.3972E+02
     23.292  0.2315E+00  0.3977E+02
     23.508  0.5197E+00  0.3988E+02
     23.724  0.2412E+00  0.3993E+02
     23.940  0.2777E+00  0.3999E+02
     24.156  0.3100E-01  0.4000E+02
     24.373  0.6831E-06  0.4000E+02
     24.589  0.0000E+00  0.4000E+02
     24.805  0.0000E+00  0.4000E+02
     25.021  0.0000E+00  0.4000E+02
     25.237  0.0000E+00  0.4000E+02
     25.453  0.0000E+00  0.4000E+02
     25.670  0.0000E+00  0.4000E+02
     25.886  0.0000E+00  0.4000E+02
     26.102  0.0000E+00  0.4000E+02
     26.318  0.0000E+00  0.4000E+02
     26.534  0.0000E+00  0.4000E+02
     26.750  0.0000E+00  0.4000E+02
     26.967  0.0000E+00  0.4000E+02
