Na1 N3                                  
   1.00000000000000     
     5.0992530000000000   -1.8957160000000000    0.0000000000000000
     5.0992530000000000    1.8957160000000000    0.0000000000000000
     4.3944960000000002    0.0000000000000000    3.2069500000000000
   Na   N 
     1     3
Direct
     0.0001279999999966    0.0001279999999966    0.0001279999999966
     0.4243499999999969    0.4243499999999969    0.4243499999999969
     0.5035110000000032    0.5035110000000032    0.5035110000000032
     0.5830109999999991    0.5830109999999991    0.5830109999999991
 
  0.00000000E+00  0.00000000E+00  0.00000000E+00
  0.00000000E+00  0.00000000E+00  0.00000000E+00
  0.00000000E+00  0.00000000E+00  0.00000000E+00
  0.00000000E+00  0.00000000E+00  0.00000000E+00
