       N       E                     dE             d eps       ncg     rms          rms(c)
DAV:   1     0.192055074652E+03    0.19206E+03   -0.12542E+04 11024   0.154E+03
DAV:   2    -0.124073239638E+02   -0.20446E+03   -0.19821E+03 13224   0.397E+02
DAV:   3    -0.286629413020E+02   -0.16256E+02   -0.16208E+02 14240   0.114E+02
DAV:   4    -0.288824933678E+02   -0.21955E+00   -0.21938E+00 13696   0.162E+01
DAV:   5    -0.288874559711E+02   -0.49626E-02   -0.49608E-02 14584   0.205E+00    0.997E+00
DAV:   6    -0.269322719940E+02    0.19552E+01   -0.53496E+00 15120   0.171E+01    0.490E+00
DAV:   7    -0.267517073525E+02    0.18056E+00   -0.60485E-01 15696   0.695E+00    0.295E+00
DAV:   8    -0.267302784251E+02    0.21429E-01   -0.15285E-01 14280   0.285E+00    0.104E+00
DAV:   9    -0.267315467303E+02   -0.12683E-02   -0.25127E-02 14416   0.149E+00    0.335E-01
DAV:  10    -0.267318445534E+02   -0.29782E-03   -0.83461E-03 12280   0.679E-01    0.109E-01
DAV:  11    -0.267322361546E+02   -0.39160E-03   -0.12341E-03 11392   0.348E-01    0.844E-02
DAV:  12    -0.267323780635E+02   -0.14191E-03   -0.24118E-04 11920   0.139E-01    0.310E-02
DAV:  13    -0.267323914207E+02   -0.13357E-04   -0.48357E-05 14336   0.680E-02    0.767E-03
DAV:  14    -0.267323925407E+02   -0.11200E-05   -0.11571E-05 13976   0.333E-02    0.390E-03
DAV:  15    -0.267323926089E+02   -0.68220E-07   -0.10043E-06  9408   0.111E-02
   1 F= -.26732393E+02 E0= -.26732393E+02  d E =-.406553E-16
