Ti4 O8                                  
   1.00000000000000     
     2.9662376699999999    0.0000000000000000    0.0000000000000000
     0.0000000000000000    4.8806004900000000    0.0000000000000000
     0.0000000000000000    0.0000000000000000    9.4596277200000003
   Ti   O 
     4     8
Direct
     0.2500000000000000    0.5714066399999993    0.6367910499999994
     0.7500000000000000    0.4285933600000007    0.3632089500000006
     0.7500000000000000    0.0714066399999993    0.8632089500000006
     0.2500000000000000    0.9285933600000007    0.1367910499999994
     0.2500000000000000    0.2943699400000028    0.4710449800000021
     0.7500000000000000    0.7056300599999972    0.5289550199999979
     0.7500000000000000    0.7943699400000028    0.0289550199999979
     0.2500000000000000    0.2056300599999972    0.9710449800000021
     0.2500000000000000    0.6366248599999977    0.2677586800000000
     0.7500000000000000    0.3633751400000023    0.7322413200000000
     0.7500000000000000    0.1366248599999977    0.2322413200000000
     0.2500000000000000    0.8633751400000023    0.7677586800000000
 
  0.00000000E+00  0.00000000E+00  0.00000000E+00
  0.00000000E+00  0.00000000E+00  0.00000000E+00
  0.00000000E+00  0.00000000E+00  0.00000000E+00
  0.00000000E+00  0.00000000E+00  0.00000000E+00
  0.00000000E+00  0.00000000E+00  0.00000000E+00
  0.00000000E+00  0.00000000E+00  0.00000000E+00
  0.00000000E+00  0.00000000E+00  0.00000000E+00
  0.00000000E+00  0.00000000E+00  0.00000000E+00
  0.00000000E+00  0.00000000E+00  0.00000000E+00
  0.00000000E+00  0.00000000E+00  0.00000000E+00
  0.00000000E+00  0.00000000E+00  0.00000000E+00
  0.00000000E+00  0.00000000E+00  0.00000000E+00
