       N       E                     dE             d eps       ncg     rms          rms(c)
DAV:   1     0.130440264071E+04    0.13044E+04   -0.45529E+04 18360   0.156E+03
DAV:   2     0.607214232875E+02   -0.12437E+04   -0.11314E+04 18772   0.478E+02
DAV:   3    -0.132598068818E+03   -0.19332E+03   -0.18572E+03 20088   0.187E+02
DAV:   4    -0.140718460445E+03   -0.81204E+01   -0.80664E+01 21196   0.398E+01
DAV:   5    -0.140879463145E+03   -0.16100E+00   -0.16084E+00 20952   0.617E+00    0.575E+01
DAV:   6    -0.108646153319E+03    0.32233E+02   -0.10301E+02 24816   0.742E+01    0.170E+01
DAV:   7    -0.107807064414E+03    0.83909E+00   -0.21442E+01 22904   0.336E+01    0.198E+01
DAV:   8    -0.106946904580E+03    0.86016E+00   -0.42279E+00 22708   0.215E+01    0.744E+00
DAV:   9    -0.106612563325E+03    0.33434E+00   -0.66754E-01 22152   0.741E+00    0.139E+00
DAV:  10    -0.106609932355E+03    0.26310E-02   -0.46976E-02 20588   0.111E+00    0.127E+00
DAV:  11    -0.106601460275E+03    0.84721E-02   -0.21538E-02 19164   0.147E+00    0.262E-01
DAV:  12    -0.106601552541E+03   -0.92266E-04   -0.26079E-03 19200   0.309E-01    0.142E-01
DAV:  13    -0.106601505069E+03    0.47472E-04   -0.21758E-04 20536   0.120E-01    0.445E-02
DAV:  14    -0.106601490186E+03    0.14883E-04   -0.14958E-04 25376   0.697E-02    0.152E-02
DAV:  15    -0.106601489566E+03    0.62061E-06   -0.10116E-05 19420   0.229E-02    0.170E-02
DAV:  16    -0.106601489588E+03   -0.22025E-07   -0.90602E-06 18152   0.124E-02
   1 F= -.10660149E+03 E0= -.10660149E+03  d E =-.867380E-21
