 vasp.6.5.0 16Dec24 (build Jan 23 2025 15:25:19) complex                        
  
 executed on             LinuxIFC date 2026.08.13  23:05:15
 running   16 mpi-ranks, with    1 threads/rank, on    1 nodes
 distrk:  each k-point on    8 cores,    2 groups
 distr:  one band on NCORE=   2 cores,    4 groups


--------------------------------------------------------------------------------------------------------


 INCAR:
   EDIFF = 1e-06
   ENCUT = 600.0
   IBRION = -1
   ISMEAR = 0
   ISYM = -1
   KPAR = 2
   LASPH = True
   LCHARG = True
   LWAVE = True
   NBANDS = 100
   NPAR = 4
   NSW = 0
   PREC = Accurate
   SIGMA = 0.05

 POTCAR:    PAW_PBE Si 05Jan2001                  
 POTCAR:    PAW_PBE Si 05Jan2001                  
   VRHFIN =Si: s2p2                                                                                 
   LEXCH  = PE                                                                                      
   EATOM  =   103.0669 eV,    7.5752 Ry                                                             
                                                                                                    
   TITEL  = PAW_PBE Si 05Jan2001                                                                    
   LULTRA =        F    use ultrasoft PP ?                                                          
   IUNSCR =        1    unscreen: 0-lin 1-nonlin 2-no                                               
   RPACOR =    1.500    partial core radius                                                         
   POMASS =   28.085; ZVAL   =    4.000    mass and valenz                                          
   RCORE  =    1.900    outmost cutoff radius                                                       
   RWIGS  =    2.480; RWIGS  =    1.312    wigner-seitz radius (au A)                               
   ENMAX  =  245.345; ENMIN  =  184.009 eV                                                          
   ICORE  =        2    local potential                                                             
   LCOR   =        T    correct aug charges                                                         
   LPAW   =        T    paw PP                                                                      
   EAUG   =  322.069                                                                                
   DEXC   =    0.000                                                                                
   RMAX   =    1.950    core radius for proj-oper                                                   
   RAUG   =    1.300    factor for augmentation sphere                                              
   RDEP   =    1.993    radius for radial grids                                                     
   RDEPT  =    1.837    core radius for aug-charge                                                  
                                                                                                    
   Atomic configuration                                                                             
    6 entries                                                                                       
     n  l   j            E        occ.                                                              
     1  0  0.50     -1785.8828   2.0000                                                             
     2  0  0.50      -139.4969   2.0000                                                             
     2  1  1.50       -95.5546   6.0000                                                             
     3  0  0.50       -10.8127   2.0000                                                             
     3  1  0.50        -4.0811   2.0000                                                             
     3  2  1.50        -4.0817   0.0000                                                             
   Description                                                                                      
     l       E           TYP  RCUT    TYP  RCUT                                                     
     0    -10.8127223     23  1.900                                                                 
     0     -7.6451159     23  1.900                                                                 
     1     -4.0811372     23  1.900                                                                 
     1      2.4879257     23  1.900                                                                 
     2     -4.0817478      7  1.900                                                                 
  local pseudopotential read in
  partial core-charges read in
  partial kinetic energy density read in
  atomic valenz-charges read in
  non local Contribution for L=           0  read in
    real space projection operators read in
  non local Contribution for L=           0  read in
    real space projection operators read in
  non local Contribution for L=           1  read in
    real space projection operators read in
  non local Contribution for L=           1  read in
    real space projection operators read in
    PAW grid and wavefunctions read in
 
   number of l-projection  operators is LMAX  =           4
   number of lm-projection operators is LMMAX =           8
 
  PAW_PBE Si 05Jan2001                  :
 energy of atom  1       EATOM= -103.0669
 kinetic energy error for atom=    0.0003 (will be added to EATOM!!)
 
 
 POSCAR: Si2
  positions in direct lattice
  No initial velocities read in


 exchange-correlation table for PE
   RHO(1)=    0.500       N(1)  =     2000
   RHO(2)=  100.500       N(2)  =     4000
 


--------------------------------------------------------------------------------------------------------


 ion  position               nearest neighbor table
   1  0.875  0.875  0.875-   2 2.36   2 2.36   2 2.36   2 2.36
   2  0.125  0.125  0.125-   1 2.36   1 2.36   1 2.36   1 2.36
 

IMPORTANT INFORMATION: All symmetrisations will be switched off!
NOSYMM: (Re-)initialisation of all symmetry stuff for point group C_1.


----------------------------------------------------------------------------------------

                                     Primitive cell                                     

  volume of cell :      40.3295

  direct lattice vectors                    reciprocal lattice vectors
     3.333573000  0.000000000  1.924639000     0.299978432 -0.106058350  0.000000000
     1.111191000  3.142924000  1.924639000     0.000000000  0.318175050  0.000000000
     0.000000000  0.000000000  3.849278000    -0.149989216 -0.106058350  0.259788979

  length of vectors
     3.849278403  3.849279412  3.849278000     0.318175161  0.318175050  0.318175190

  position of ions in fractional coordinates (direct lattice)
     0.875000000  0.875000000  0.875000000
     0.125000000  0.125000000  0.125000000

  ion indices of the primitive-cell ions
   primitive index   ion index
                 1           1
                 2           2

----------------------------------------------------------------------------------------

 
 
 KPOINTS: pymatgen with grid density = 1230 / numb

Automatic generation of k-mesh.
 Grid dimensions read from file:
 generate k-points for:    8    8    8

 Generating k-lattice:

  Cartesian coordinates                     Fractional coordinates (reciprocal lattice)
     0.037497304 -0.013257294  0.000000000     0.125000000  0.000000000  0.000000000
     0.000000000  0.039771881  0.000000000     0.000000000  0.125000000  0.000000000
    -0.018748652 -0.013257294  0.032473622     0.000000000  0.000000000  0.125000000

  Length of vectors
     0.039771895  0.039771881  0.039771899

  Shift w.r.t. Gamma in fractional coordinates (k-lattice)
     0.000000000  0.000000000  0.000000000

 
 Subroutine IBZKPT returns following result:
 ===========================================
 
 Found    512 irreducible k-points:
 
 Following reciprocal coordinates:
            Coordinates               Weight
  0.000000  0.000000  0.000000      1.000000
  0.125000  0.000000  0.000000      1.000000
  0.250000  0.000000  0.000000      1.000000
  0.375000  0.000000  0.000000      1.000000
  0.500000  0.000000  0.000000      1.000000
 -0.375000  0.000000  0.000000      1.000000
 -0.250000  0.000000  0.000000      1.000000
 -0.125000  0.000000  0.000000      1.000000
  0.000000  0.125000  0.000000      1.000000
  0.125000  0.125000  0.000000      1.000000
  0.250000  0.125000  0.000000      1.000000
  0.375000  0.125000  0.000000      1.000000
  0.500000  0.125000  0.000000      1.000000
 -0.375000  0.125000  0.000000      1.000000
 -0.250000  0.125000  0.000000      1.000000
 -0.125000  0.125000  0.000000      1.000000
  0.000000  0.250000  0.000000      1.000000
  0.125000  0.250000  0.000000      1.000000
  0.250000  0.250000  0.000000      1.000000
  0.375000  0.250000  0.000000      1.000000
  0.500000  0.250000  0.000000      1.000000
 -0.375000  0.250000  0.000000      1.000000
 -0.250000  0.250000  0.000000      1.000000
 -0.125000  0.250000  0.000000      1.000000
  0.000000  0.375000  0.000000      1.000000
  0.125000  0.375000  0.000000      1.000000
  0.250000  0.375000  0.000000      1.000000
  0.375000  0.375000  0.000000      1.000000
  0.500000  0.375000  0.000000      1.000000
 -0.375000  0.375000  0.000000      1.000000
 -0.250000  0.375000  0.000000      1.000000
 -0.125000  0.375000  0.000000      1.000000
  0.000000  0.500000  0.000000      1.000000
  0.125000  0.500000  0.000000      1.000000
  0.250000  0.500000  0.000000      1.000000
  0.375000  0.500000  0.000000      1.000000
  0.500000  0.500000  0.000000      1.000000
 -0.375000  0.500000  0.000000      1.000000
 -0.250000  0.500000  0.000000      1.000000
 -0.125000  0.500000  0.000000      1.000000
  0.000000 -0.375000  0.000000      1.000000
  0.125000 -0.375000  0.000000      1.000000
  0.250000 -0.375000  0.000000      1.000000
  0.375000 -0.375000  0.000000      1.000000
  0.500000 -0.375000  0.000000      1.000000
 -0.375000 -0.375000  0.000000      1.000000
 -0.250000 -0.375000  0.000000      1.000000
 -0.125000 -0.375000  0.000000      1.000000
  0.000000 -0.250000  0.000000      1.000000
  0.125000 -0.250000  0.000000      1.000000
  0.250000 -0.250000  0.000000      1.000000
  0.375000 -0.250000  0.000000      1.000000
  0.500000 -0.250000  0.000000      1.000000
 -0.375000 -0.250000  0.000000      1.000000
 -0.250000 -0.250000  0.000000      1.000000
 -0.125000 -0.250000  0.000000      1.000000
  0.000000 -0.125000  0.000000      1.000000
  0.125000 -0.125000  0.000000      1.000000
  0.250000 -0.125000  0.000000      1.000000
  0.375000 -0.125000  0.000000      1.000000
  0.500000 -0.125000  0.000000      1.000000
 -0.375000 -0.125000  0.000000      1.000000
 -0.250000 -0.125000  0.000000      1.000000
 -0.125000 -0.125000  0.000000      1.000000
  0.000000  0.000000  0.125000      1.000000
  0.125000 -0.000000  0.125000      1.000000
  0.250000 -0.000000  0.125000      1.000000
  0.375000 -0.000000  0.125000      1.000000
  0.500000 -0.000000  0.125000      1.000000
 -0.375000 -0.000000  0.125000      1.000000
 -0.250000  0.000000  0.125000      1.000000
 -0.125000  0.000000  0.125000      1.000000
  0.000000  0.125000  0.125000      1.000000
  0.125000  0.125000  0.125000      1.000000
  0.250000  0.125000  0.125000      1.000000
  0.375000  0.125000  0.125000      1.000000
  0.500000  0.125000  0.125000      1.000000
 -0.375000  0.125000  0.125000      1.000000
 -0.250000  0.125000  0.125000      1.000000
 -0.125000  0.125000  0.125000      1.000000
  0.000000  0.250000  0.125000      1.000000
  0.125000  0.250000  0.125000      1.000000
  0.250000  0.250000  0.125000      1.000000
  0.375000  0.250000  0.125000      1.000000
  0.500000  0.250000  0.125000      1.000000
 -0.375000  0.250000  0.125000      1.000000
 -0.250000  0.250000  0.125000      1.000000
 -0.125000  0.250000  0.125000      1.000000
  0.000000  0.375000  0.125000      1.000000
  0.125000  0.375000  0.125000      1.000000
  0.250000  0.375000  0.125000      1.000000
  0.375000  0.375000  0.125000      1.000000
  0.500000  0.375000  0.125000      1.000000
 -0.375000  0.375000  0.125000      1.000000
 -0.250000  0.375000  0.125000      1.000000
 -0.125000  0.375000  0.125000      1.000000
  0.000000  0.500000  0.125000      1.000000
  0.125000  0.500000  0.125000      1.000000
  0.250000  0.500000  0.125000      1.000000
  0.375000  0.500000  0.125000      1.000000
  0.500000  0.500000  0.125000      1.000000
 -0.375000  0.500000  0.125000      1.000000
 -0.250000  0.500000  0.125000      1.000000
 -0.125000  0.500000  0.125000      1.000000
  0.000000 -0.375000  0.125000      1.000000
  0.125000 -0.375000  0.125000      1.000000
  0.250000 -0.375000  0.125000      1.000000
  0.375000 -0.375000  0.125000      1.000000
  0.500000 -0.375000  0.125000      1.000000
 -0.375000 -0.375000  0.125000      1.000000
 -0.250000 -0.375000  0.125000      1.000000
 -0.125000 -0.375000  0.125000      1.000000
  0.000000 -0.250000  0.125000      1.000000
  0.125000 -0.250000  0.125000      1.000000
  0.250000 -0.250000  0.125000      1.000000
  0.375000 -0.250000  0.125000      1.000000
  0.500000 -0.250000  0.125000      1.000000
 -0.375000 -0.250000  0.125000      1.000000
 -0.250000 -0.250000  0.125000      1.000000
 -0.125000 -0.250000  0.125000      1.000000
  0.000000 -0.125000  0.125000      1.000000
  0.125000 -0.125000  0.125000      1.000000
  0.250000 -0.125000  0.125000      1.000000
  0.375000 -0.125000  0.125000      1.000000
  0.500000 -0.125000  0.125000      1.000000
 -0.375000 -0.125000  0.125000      1.000000
 -0.250000 -0.125000  0.125000      1.000000
 -0.125000 -0.125000  0.125000      1.000000
  0.000000  0.000000  0.250000      1.000000
  0.125000 -0.000000  0.250000      1.000000
  0.250000 -0.000000  0.250000      1.000000
  0.375000  0.000000  0.250000      1.000000
  0.500000 -0.000000  0.250000      1.000000
 -0.375000  0.000000  0.250000      1.000000
 -0.250000  0.000000  0.250000      1.000000
 -0.125000  0.000000  0.250000      1.000000
  0.000000  0.125000  0.250000      1.000000
  0.125000  0.125000  0.250000      1.000000
  0.250000  0.125000  0.250000      1.000000
  0.375000  0.125000  0.250000      1.000000
  0.500000  0.125000  0.250000      1.000000
 -0.375000  0.125000  0.250000      1.000000
 -0.250000  0.125000  0.250000      1.000000
 -0.125000  0.125000  0.250000      1.000000
  0.000000  0.250000  0.250000      1.000000
  0.125000  0.250000  0.250000      1.000000
  0.250000  0.250000  0.250000      1.000000
  0.375000  0.250000  0.250000      1.000000
  0.500000  0.250000  0.250000      1.000000
 -0.375000  0.250000  0.250000      1.000000
 -0.250000  0.250000  0.250000      1.000000
 -0.125000  0.250000  0.250000      1.000000
  0.000000  0.375000  0.250000      1.000000
  0.125000  0.375000  0.250000      1.000000
  0.250000  0.375000  0.250000      1.000000
  0.375000  0.375000  0.250000      1.000000
  0.500000  0.375000  0.250000      1.000000
 -0.375000  0.375000  0.250000      1.000000
 -0.250000  0.375000  0.250000      1.000000
 -0.125000  0.375000  0.250000      1.000000
  0.000000  0.500000  0.250000      1.000000
  0.125000  0.500000  0.250000      1.000000
  0.250000  0.500000  0.250000      1.000000
  0.375000  0.500000  0.250000      1.000000
  0.500000  0.500000  0.250000      1.000000
 -0.375000  0.500000  0.250000      1.000000
 -0.250000  0.500000  0.250000      1.000000
 -0.125000  0.500000  0.250000      1.000000
  0.000000 -0.375000  0.250000      1.000000
  0.125000 -0.375000  0.250000      1.000000
  0.250000 -0.375000  0.250000      1.000000
  0.375000 -0.375000  0.250000      1.000000
  0.500000 -0.375000  0.250000      1.000000
 -0.375000 -0.375000  0.250000      1.000000
 -0.250000 -0.375000  0.250000      1.000000
 -0.125000 -0.375000  0.250000      1.000000
  0.000000 -0.250000  0.250000      1.000000
  0.125000 -0.250000  0.250000      1.000000
  0.250000 -0.250000  0.250000      1.000000
  0.375000 -0.250000  0.250000      1.000000
  0.500000 -0.250000  0.250000      1.000000
 -0.375000 -0.250000  0.250000      1.000000
 -0.250000 -0.250000  0.250000      1.000000
 -0.125000 -0.250000  0.250000      1.000000
  0.000000 -0.125000  0.250000      1.000000
  0.125000 -0.125000  0.250000      1.000000
  0.250000 -0.125000  0.250000      1.000000
  0.375000 -0.125000  0.250000      1.000000
  0.500000 -0.125000  0.250000      1.000000
 -0.375000 -0.125000  0.250000      1.000000
 -0.250000 -0.125000  0.250000      1.000000
 -0.125000 -0.125000  0.250000      1.000000
 -0.000000  0.000000  0.375000      1.000000
  0.125000  0.000000  0.375000      1.000000
  0.250000  0.000000  0.375000      1.000000
  0.375000 -0.000000  0.375000      1.000000
  0.500000  0.000000  0.375000      1.000000
 -0.375000 -0.000000  0.375000      1.000000
 -0.250000  0.000000  0.375000      1.000000
 -0.125000  0.000000  0.375000      1.000000
 -0.000000  0.125000  0.375000      1.000000
  0.125000  0.125000  0.375000      1.000000
  0.250000  0.125000  0.375000      1.000000
  0.375000  0.125000  0.375000      1.000000
  0.500000  0.125000  0.375000      1.000000
 -0.375000  0.125000  0.375000      1.000000
 -0.250000  0.125000  0.375000      1.000000
 -0.125000  0.125000  0.375000      1.000000
 -0.000000  0.250000  0.375000      1.000000
  0.125000  0.250000  0.375000      1.000000
  0.250000  0.250000  0.375000      1.000000
  0.375000  0.250000  0.375000      1.000000
  0.500000  0.250000  0.375000      1.000000
 -0.375000  0.250000  0.375000      1.000000
 -0.250000  0.250000  0.375000      1.000000
 -0.125000  0.250000  0.375000      1.000000
 -0.000000  0.375000  0.375000      1.000000
  0.125000  0.375000  0.375000      1.000000
  0.250000  0.375000  0.375000      1.000000
  0.375000  0.375000  0.375000      1.000000
  0.500000  0.375000  0.375000      1.000000
 -0.375000  0.375000  0.375000      1.000000
 -0.250000  0.375000  0.375000      1.000000
 -0.125000  0.375000  0.375000      1.000000
 -0.000000  0.500000  0.375000      1.000000
  0.125000  0.500000  0.375000      1.000000
  0.250000  0.500000  0.375000      1.000000
  0.375000  0.500000  0.375000      1.000000
  0.500000  0.500000  0.375000      1.000000
 -0.375000  0.500000  0.375000      1.000000
 -0.250000  0.500000  0.375000      1.000000
 -0.125000  0.500000  0.375000      1.000000
 -0.000000 -0.375000  0.375000      1.000000
  0.125000 -0.375000  0.375000      1.000000
  0.250000 -0.375000  0.375000      1.000000
  0.375000 -0.375000  0.375000      1.000000
  0.500000 -0.375000  0.375000      1.000000
 -0.375000 -0.375000  0.375000      1.000000
 -0.250000 -0.375000  0.375000      1.000000
 -0.125000 -0.375000  0.375000      1.000000
 -0.000000 -0.250000  0.375000      1.000000
  0.125000 -0.250000  0.375000      1.000000
  0.250000 -0.250000  0.375000      1.000000
  0.375000 -0.250000  0.375000      1.000000
  0.500000 -0.250000  0.375000      1.000000
 -0.375000 -0.250000  0.375000      1.000000
 -0.250000 -0.250000  0.375000      1.000000
 -0.125000 -0.250000  0.375000      1.000000
 -0.000000 -0.125000  0.375000      1.000000
  0.125000 -0.125000  0.375000      1.000000
  0.250000 -0.125000  0.375000      1.000000
  0.375000 -0.125000  0.375000      1.000000
  0.500000 -0.125000  0.375000      1.000000
 -0.375000 -0.125000  0.375000      1.000000
 -0.250000 -0.125000  0.375000      1.000000
 -0.125000 -0.125000  0.375000      1.000000
  0.000000  0.000000  0.500000      1.000000
  0.125000 -0.000000  0.500000      1.000000
  0.250000 -0.000000  0.500000      1.000000
  0.375000  0.000000  0.500000      1.000000
  0.500000 -0.000000  0.500000      1.000000
 -0.375000 -0.000000  0.500000      1.000000
 -0.250000  0.000000  0.500000      1.000000
 -0.125000 -0.000000  0.500000      1.000000
  0.000000  0.125000  0.500000      1.000000
  0.125000  0.125000  0.500000      1.000000
  0.250000  0.125000  0.500000      1.000000
  0.375000  0.125000  0.500000      1.000000
  0.500000  0.125000  0.500000      1.000000
 -0.375000  0.125000  0.500000      1.000000
 -0.250000  0.125000  0.500000      1.000000
 -0.125000  0.125000  0.500000      1.000000
  0.000000  0.250000  0.500000      1.000000
  0.125000  0.250000  0.500000      1.000000
  0.250000  0.250000  0.500000      1.000000
  0.375000  0.250000  0.500000      1.000000
  0.500000  0.250000  0.500000      1.000000
 -0.375000  0.250000  0.500000      1.000000
 -0.250000  0.250000  0.500000      1.000000
 -0.125000  0.250000  0.500000      1.000000
  0.000000  0.375000  0.500000      1.000000
  0.125000  0.375000  0.500000      1.000000
  0.250000  0.375000  0.500000      1.000000
  0.375000  0.375000  0.500000      1.000000
  0.500000  0.375000  0.500000      1.000000
 -0.375000  0.375000  0.500000      1.000000
 -0.250000  0.375000  0.500000      1.000000
 -0.125000  0.375000  0.500000      1.000000
  0.000000  0.500000  0.500000      1.000000
  0.125000  0.500000  0.500000      1.000000
  0.250000  0.500000  0.500000      1.000000
  0.375000  0.500000  0.500000      1.000000
  0.500000  0.500000  0.500000      1.000000
 -0.375000  0.500000  0.500000      1.000000
 -0.250000  0.500000  0.500000      1.000000
 -0.125000  0.500000  0.500000      1.000000
  0.000000 -0.375000  0.500000      1.000000
  0.125000 -0.375000  0.500000      1.000000
  0.250000 -0.375000  0.500000      1.000000
  0.375000 -0.375000  0.500000      1.000000
  0.500000 -0.375000  0.500000      1.000000
 -0.375000 -0.375000  0.500000      1.000000
 -0.250000 -0.375000  0.500000      1.000000
 -0.125000 -0.375000  0.500000      1.000000
  0.000000 -0.250000  0.500000      1.000000
  0.125000 -0.250000  0.500000      1.000000
  0.250000 -0.250000  0.500000      1.000000
  0.375000 -0.250000  0.500000      1.000000
  0.500000 -0.250000  0.500000      1.000000
 -0.375000 -0.250000  0.500000      1.000000
 -0.250000 -0.250000  0.500000      1.000000
 -0.125000 -0.250000  0.500000      1.000000
  0.000000 -0.125000  0.500000      1.000000
  0.125000 -0.125000  0.500000      1.000000
  0.250000 -0.125000  0.500000      1.000000
  0.375000 -0.125000  0.500000      1.000000
  0.500000 -0.125000  0.500000      1.000000
 -0.375000 -0.125000  0.500000      1.000000
 -0.250000 -0.125000  0.500000      1.000000
 -0.125000 -0.125000  0.500000      1.000000
  0.000000  0.000000 -0.375000      1.000000
  0.125000  0.000000 -0.375000      1.000000
  0.250000  0.000000 -0.375000      1.000000
  0.375000  0.000000 -0.375000      1.000000
  0.500000  0.000000 -0.375000      1.000000
 -0.375000  0.000000 -0.375000      1.000000
 -0.250000  0.000000 -0.375000      1.000000
 -0.125000  0.000000 -0.375000      1.000000
  0.000000  0.125000 -0.375000      1.000000
  0.125000  0.125000 -0.375000      1.000000
  0.250000  0.125000 -0.375000      1.000000
  0.375000  0.125000 -0.375000      1.000000
  0.500000  0.125000 -0.375000      1.000000
 -0.375000  0.125000 -0.375000      1.000000
 -0.250000  0.125000 -0.375000      1.000000
 -0.125000  0.125000 -0.375000      1.000000
  0.000000  0.250000 -0.375000      1.000000
  0.125000  0.250000 -0.375000      1.000000
  0.250000  0.250000 -0.375000      1.000000
  0.375000  0.250000 -0.375000      1.000000
  0.500000  0.250000 -0.375000      1.000000
 -0.375000  0.250000 -0.375000      1.000000
 -0.250000  0.250000 -0.375000      1.000000
 -0.125000  0.250000 -0.375000      1.000000
  0.000000  0.375000 -0.375000      1.000000
  0.125000  0.375000 -0.375000      1.000000
  0.250000  0.375000 -0.375000      1.000000
  0.375000  0.375000 -0.375000      1.000000
  0.500000  0.375000 -0.375000      1.000000
 -0.375000  0.375000 -0.375000      1.000000
 -0.250000  0.375000 -0.375000      1.000000
 -0.125000  0.375000 -0.375000      1.000000
  0.000000  0.500000 -0.375000      1.000000
  0.125000  0.500000 -0.375000      1.000000
  0.250000  0.500000 -0.375000      1.000000
  0.375000  0.500000 -0.375000      1.000000
  0.500000  0.500000 -0.375000      1.000000
 -0.375000  0.500000 -0.375000      1.000000
 -0.250000  0.500000 -0.375000      1.000000
 -0.125000  0.500000 -0.375000      1.000000
  0.000000 -0.375000 -0.375000      1.000000
  0.125000 -0.375000 -0.375000      1.000000
  0.250000 -0.375000 -0.375000      1.000000
  0.375000 -0.375000 -0.375000      1.000000
  0.500000 -0.375000 -0.375000      1.000000
 -0.375000 -0.375000 -0.375000      1.000000
 -0.250000 -0.375000 -0.375000      1.000000
 -0.125000 -0.375000 -0.375000      1.000000
  0.000000 -0.250000 -0.375000      1.000000
  0.125000 -0.250000 -0.375000      1.000000
  0.250000 -0.250000 -0.375000      1.000000
  0.375000 -0.250000 -0.375000      1.000000
  0.500000 -0.250000 -0.375000      1.000000
 -0.375000 -0.250000 -0.375000      1.000000
 -0.250000 -0.250000 -0.375000      1.000000
 -0.125000 -0.250000 -0.375000      1.000000
  0.000000 -0.125000 -0.375000      1.000000
  0.125000 -0.125000 -0.375000      1.000000
  0.250000 -0.125000 -0.375000      1.000000
  0.375000 -0.125000 -0.375000      1.000000
  0.500000 -0.125000 -0.375000      1.000000
 -0.375000 -0.125000 -0.375000      1.000000
 -0.250000 -0.125000 -0.375000      1.000000
 -0.125000 -0.125000 -0.375000      1.000000
  0.000000  0.000000 -0.250000      1.000000
  0.125000 -0.000000 -0.250000      1.000000
  0.250000  0.000000 -0.250000      1.000000
  0.375000 -0.000000 -0.250000      1.000000
  0.500000  0.000000 -0.250000      1.000000
 -0.375000 -0.000000 -0.250000      1.000000
 -0.250000  0.000000 -0.250000      1.000000
 -0.125000  0.000000 -0.250000      1.000000
  0.000000  0.125000 -0.250000      1.000000
  0.125000  0.125000 -0.250000      1.000000
  0.250000  0.125000 -0.250000      1.000000
  0.375000  0.125000 -0.250000      1.000000
  0.500000  0.125000 -0.250000      1.000000
 -0.375000  0.125000 -0.250000      1.000000
 -0.250000  0.125000 -0.250000      1.000000
 -0.125000  0.125000 -0.250000      1.000000
  0.000000  0.250000 -0.250000      1.000000
  0.125000  0.250000 -0.250000      1.000000
  0.250000  0.250000 -0.250000      1.000000
  0.375000  0.250000 -0.250000      1.000000
  0.500000  0.250000 -0.250000      1.000000
 -0.375000  0.250000 -0.250000      1.000000
 -0.250000  0.250000 -0.250000      1.000000
 -0.125000  0.250000 -0.250000      1.000000
  0.000000  0.375000 -0.250000      1.000000
  0.125000  0.375000 -0.250000      1.000000
  0.250000  0.375000 -0.250000      1.000000
  0.375000  0.375000 -0.250000      1.000000
  0.500000  0.375000 -0.250000      1.000000
 -0.375000  0.375000 -0.250000      1.000000
 -0.250000  0.375000 -0.250000      1.000000
 -0.125000  0.375000 -0.250000      1.000000
  0.000000  0.500000 -0.250000      1.000000
  0.125000  0.500000 -0.250000      1.000000
  0.250000  0.500000 -0.250000      1.000000
  0.375000  0.500000 -0.250000      1.000000
  0.500000  0.500000 -0.250000      1.000000
 -0.375000  0.500000 -0.250000      1.000000
 -0.250000  0.500000 -0.250000      1.000000
 -0.125000  0.500000 -0.250000      1.000000
  0.000000 -0.375000 -0.250000      1.000000
  0.125000 -0.375000 -0.250000      1.000000
  0.250000 -0.375000 -0.250000      1.000000
  0.375000 -0.375000 -0.250000      1.000000
  0.500000 -0.375000 -0.250000      1.000000
 -0.375000 -0.375000 -0.250000      1.000000
 -0.250000 -0.375000 -0.250000      1.000000
 -0.125000 -0.375000 -0.250000      1.000000
  0.000000 -0.250000 -0.250000      1.000000
  0.125000 -0.250000 -0.250000      1.000000
  0.250000 -0.250000 -0.250000      1.000000
  0.375000 -0.250000 -0.250000      1.000000
  0.500000 -0.250000 -0.250000      1.000000
 -0.375000 -0.250000 -0.250000      1.000000
 -0.250000 -0.250000 -0.250000      1.000000
 -0.125000 -0.250000 -0.250000      1.000000
  0.000000 -0.125000 -0.250000      1.000000
  0.125000 -0.125000 -0.250000      1.000000
  0.250000 -0.125000 -0.250000      1.000000
  0.375000 -0.125000 -0.250000      1.000000
  0.500000 -0.125000 -0.250000      1.000000
 -0.375000 -0.125000 -0.250000      1.000000
 -0.250000 -0.125000 -0.250000      1.000000
 -0.125000 -0.125000 -0.250000      1.000000
  0.000000  0.000000 -0.125000      1.000000
  0.125000  0.000000 -0.125000      1.000000
  0.250000  0.000000 -0.125000      1.000000
  0.375000  0.000000 -0.125000      1.000000
  0.500000  0.000000 -0.125000      1.000000
 -0.375000  0.000000 -0.125000      1.000000
 -0.250000  0.000000 -0.125000      1.000000
 -0.125000  0.000000 -0.125000      1.000000
  0.000000  0.125000 -0.125000      1.000000
  0.125000  0.125000 -0.125000      1.000000
  0.250000  0.125000 -0.125000      1.000000
  0.375000  0.125000 -0.125000      1.000000
  0.500000  0.125000 -0.125000      1.000000
 -0.375000  0.125000 -0.125000      1.000000
 -0.250000  0.125000 -0.125000      1.000000
 -0.125000  0.125000 -0.125000      1.000000
  0.000000  0.250000 -0.125000      1.000000
  0.125000  0.250000 -0.125000      1.000000
  0.250000  0.250000 -0.125000      1.000000
  0.375000  0.250000 -0.125000      1.000000
  0.500000  0.250000 -0.125000      1.000000
 -0.375000  0.250000 -0.125000      1.000000
 -0.250000  0.250000 -0.125000      1.000000
 -0.125000  0.250000 -0.125000      1.000000
  0.000000  0.375000 -0.125000      1.000000
  0.125000  0.375000 -0.125000      1.000000
  0.250000  0.375000 -0.125000      1.000000
  0.375000  0.375000 -0.125000      1.000000
  0.500000  0.375000 -0.125000      1.000000
 -0.375000  0.375000 -0.125000      1.000000
 -0.250000  0.375000 -0.125000      1.000000
 -0.125000  0.375000 -0.125000      1.000000
  0.000000  0.500000 -0.125000      1.000000
  0.125000  0.500000 -0.125000      1.000000
  0.250000  0.500000 -0.125000      1.000000
  0.375000  0.500000 -0.125000      1.000000
  0.500000  0.500000 -0.125000      1.000000
 -0.375000  0.500000 -0.125000      1.000000
 -0.250000  0.500000 -0.125000      1.000000
 -0.125000  0.500000 -0.125000      1.000000
  0.000000 -0.375000 -0.125000      1.000000
  0.125000 -0.375000 -0.125000      1.000000
  0.250000 -0.375000 -0.125000      1.000000
  0.375000 -0.375000 -0.125000      1.000000
  0.500000 -0.375000 -0.125000      1.000000
 -0.375000 -0.375000 -0.125000      1.000000
 -0.250000 -0.375000 -0.125000      1.000000
 -0.125000 -0.375000 -0.125000      1.000000
  0.000000 -0.250000 -0.125000      1.000000
  0.125000 -0.250000 -0.125000      1.000000
  0.250000 -0.250000 -0.125000      1.000000
  0.375000 -0.250000 -0.125000      1.000000
  0.500000 -0.250000 -0.125000      1.000000
 -0.375000 -0.250000 -0.125000      1.000000
 -0.250000 -0.250000 -0.125000      1.000000
 -0.125000 -0.250000 -0.125000      1.000000
  0.000000 -0.125000 -0.125000      1.000000
  0.125000 -0.125000 -0.125000      1.000000
  0.250000 -0.125000 -0.125000      1.000000
  0.375000 -0.125000 -0.125000      1.000000
  0.500000 -0.125000 -0.125000      1.000000
 -0.375000 -0.125000 -0.125000      1.000000
 -0.250000 -0.125000 -0.125000      1.000000
 -0.125000 -0.125000 -0.125000      1.000000
 
 Following cartesian coordinates:
            Coordinates               Weight
  0.000000  0.000000  0.000000      1.000000
  0.037497 -0.013257  0.000000      1.000000
  0.074995 -0.026515  0.000000      1.000000
  0.112492 -0.039772  0.000000      1.000000
  0.149989 -0.053029  0.000000      1.000000
 -0.112492  0.039772  0.000000      1.000000
 -0.074995  0.026515  0.000000      1.000000
 -0.037497  0.013257  0.000000      1.000000
  0.000000  0.039772  0.000000      1.000000
  0.037497  0.026515  0.000000      1.000000
  0.074995  0.013257  0.000000      1.000000
  0.112492  0.000000  0.000000      1.000000
  0.149989 -0.013257  0.000000      1.000000
 -0.112492  0.079544  0.000000      1.000000
 -0.074995  0.066286  0.000000      1.000000
 -0.037497  0.053029  0.000000      1.000000
  0.000000  0.079544  0.000000      1.000000
  0.037497  0.066286  0.000000      1.000000
  0.074995  0.053029  0.000000      1.000000
  0.112492  0.039772  0.000000      1.000000
  0.149989  0.026515  0.000000      1.000000
 -0.112492  0.119316  0.000000      1.000000
 -0.074995  0.106058  0.000000      1.000000
 -0.037497  0.092801  0.000000      1.000000
  0.000000  0.119316  0.000000      1.000000
  0.037497  0.106058  0.000000      1.000000
  0.074995  0.092801  0.000000      1.000000
  0.112492  0.079544  0.000000      1.000000
  0.149989  0.066286  0.000000      1.000000
 -0.112492  0.159088  0.000000      1.000000
 -0.074995  0.145830  0.000000      1.000000
 -0.037497  0.132573  0.000000      1.000000
  0.000000  0.159088  0.000000      1.000000
  0.037497  0.145830  0.000000      1.000000
  0.074995  0.132573  0.000000      1.000000
  0.112492  0.119316  0.000000      1.000000
  0.149989  0.106058  0.000000      1.000000
 -0.112492  0.198859  0.000000      1.000000
 -0.074995  0.185602  0.000000      1.000000
 -0.037497  0.172345  0.000000      1.000000
  0.000000 -0.119316  0.000000      1.000000
  0.037497 -0.132573  0.000000      1.000000
  0.074995 -0.145830  0.000000      1.000000
  0.112492 -0.159088  0.000000      1.000000
  0.149989 -0.172345  0.000000      1.000000
 -0.112492 -0.079544  0.000000      1.000000
 -0.074995 -0.092801  0.000000      1.000000
 -0.037497 -0.106058  0.000000      1.000000
  0.000000 -0.079544  0.000000      1.000000
  0.037497 -0.092801  0.000000      1.000000
  0.074995 -0.106058  0.000000      1.000000
  0.112492 -0.119316  0.000000      1.000000
  0.149989 -0.132573  0.000000      1.000000
 -0.112492 -0.039772  0.000000      1.000000
 -0.074995 -0.053029  0.000000      1.000000
 -0.037497 -0.066286  0.000000      1.000000
  0.000000 -0.039772  0.000000      1.000000
  0.037497 -0.053029  0.000000      1.000000
  0.074995 -0.066286  0.000000      1.000000
  0.112492 -0.079544  0.000000      1.000000
  0.149989 -0.092801  0.000000      1.000000
 -0.112492  0.000000  0.000000      1.000000
 -0.074995 -0.013257  0.000000      1.000000
 -0.037497 -0.026515  0.000000      1.000000
 -0.018749 -0.013257  0.032474      1.000000
  0.018749 -0.026515  0.032474      1.000000
  0.056246 -0.039772  0.032474      1.000000
  0.093743 -0.053029  0.032474      1.000000
  0.131241 -0.066286  0.032474      1.000000
 -0.131241  0.026515  0.032474      1.000000
 -0.093743  0.013257  0.032474      1.000000
 -0.056246  0.000000  0.032474      1.000000
 -0.018749  0.026515  0.032474      1.000000
  0.018749  0.013257  0.032474      1.000000
  0.056246  0.000000  0.032474      1.000000
  0.093743 -0.013257  0.032474      1.000000
  0.131241 -0.026515  0.032474      1.000000
 -0.131241  0.066286  0.032474      1.000000
 -0.093743  0.053029  0.032474      1.000000
 -0.056246  0.039772  0.032474      1.000000
 -0.018749  0.066286  0.032474      1.000000
  0.018749  0.053029  0.032474      1.000000
  0.056246  0.039772  0.032474      1.000000
  0.093743  0.026515  0.032474      1.000000
  0.131241  0.013257  0.032474      1.000000
 -0.131241  0.106058  0.032474      1.000000
 -0.093743  0.092801  0.032474      1.000000
 -0.056246  0.079544  0.032474      1.000000
 -0.018749  0.106058  0.032474      1.000000
  0.018749  0.092801  0.032474      1.000000
  0.056246  0.079544  0.032474      1.000000
  0.093743  0.066286  0.032474      1.000000
  0.131241  0.053029  0.032474      1.000000
 -0.131241  0.145830  0.032474      1.000000
 -0.093743  0.132573  0.032474      1.000000
 -0.056246  0.119316  0.032474      1.000000
 -0.018749  0.145830  0.032474      1.000000
  0.018749  0.132573  0.032474      1.000000
  0.056246  0.119316  0.032474      1.000000
  0.093743  0.106058  0.032474      1.000000
  0.131241  0.092801  0.032474      1.000000
 -0.131241  0.185602  0.032474      1.000000
 -0.093743  0.172345  0.032474      1.000000
 -0.056246  0.159088  0.032474      1.000000
 -0.018749 -0.132573  0.032474      1.000000
  0.018749 -0.145830  0.032474      1.000000
  0.056246 -0.159088  0.032474      1.000000
  0.093743 -0.172345  0.032474      1.000000
  0.131241 -0.185602  0.032474      1.000000
 -0.131241 -0.092801  0.032474      1.000000
 -0.093743 -0.106058  0.032474      1.000000
 -0.056246 -0.119316  0.032474      1.000000
 -0.018749 -0.092801  0.032474      1.000000
  0.018749 -0.106058  0.032474      1.000000
  0.056246 -0.119316  0.032474      1.000000
  0.093743 -0.132573  0.032474      1.000000
  0.131241 -0.145830  0.032474      1.000000
 -0.131241 -0.053029  0.032474      1.000000
 -0.093743 -0.066286  0.032474      1.000000
 -0.056246 -0.079544  0.032474      1.000000
 -0.018749 -0.053029  0.032474      1.000000
  0.018749 -0.066286  0.032474      1.000000
  0.056246 -0.079544  0.032474      1.000000
  0.093743 -0.092801  0.032474      1.000000
  0.131241 -0.106058  0.032474      1.000000
 -0.131241 -0.013257  0.032474      1.000000
 -0.093743 -0.026515  0.032474      1.000000
 -0.056246 -0.039772  0.032474      1.000000
 -0.037497 -0.026515  0.064947      1.000000
  0.000000 -0.039772  0.064947      1.000000
  0.037497 -0.053029  0.064947      1.000000
  0.074995 -0.066286  0.064947      1.000000
  0.112492 -0.079544  0.064947      1.000000
 -0.149989  0.013257  0.064947      1.000000
 -0.112492  0.000000  0.064947      1.000000
 -0.074995 -0.013257  0.064947      1.000000
 -0.037497  0.013257  0.064947      1.000000
  0.000000  0.000000  0.064947      1.000000
  0.037497 -0.013257  0.064947      1.000000
  0.074995 -0.026515  0.064947      1.000000
  0.112492 -0.039772  0.064947      1.000000
 -0.149989  0.053029  0.064947      1.000000
 -0.112492  0.039772  0.064947      1.000000
 -0.074995  0.026515  0.064947      1.000000
 -0.037497  0.053029  0.064947      1.000000
  0.000000  0.039772  0.064947      1.000000
  0.037497  0.026515  0.064947      1.000000
  0.074995  0.013257  0.064947      1.000000
  0.112492  0.000000  0.064947      1.000000
 -0.149989  0.092801  0.064947      1.000000
 -0.112492  0.079544  0.064947      1.000000
 -0.074995  0.066286  0.064947      1.000000
 -0.037497  0.092801  0.064947      1.000000
  0.000000  0.079544  0.064947      1.000000
  0.037497  0.066286  0.064947      1.000000
  0.074995  0.053029  0.064947      1.000000
  0.112492  0.039772  0.064947      1.000000
 -0.149989  0.132573  0.064947      1.000000
 -0.112492  0.119316  0.064947      1.000000
 -0.074995  0.106058  0.064947      1.000000
 -0.037497  0.132573  0.064947      1.000000
  0.000000  0.119316  0.064947      1.000000
  0.037497  0.106058  0.064947      1.000000
  0.074995  0.092801  0.064947      1.000000
  0.112492  0.079544  0.064947      1.000000
 -0.149989  0.172345  0.064947      1.000000
 -0.112492  0.159088  0.064947      1.000000
 -0.074995  0.145830  0.064947      1.000000
 -0.037497 -0.145830  0.064947      1.000000
  0.000000 -0.159088  0.064947      1.000000
  0.037497 -0.172345  0.064947      1.000000
  0.074995 -0.185602  0.064947      1.000000
  0.112492 -0.198859  0.064947      1.000000
 -0.149989 -0.106058  0.064947      1.000000
 -0.112492 -0.119316  0.064947      1.000000
 -0.074995 -0.132573  0.064947      1.000000
 -0.037497 -0.106058  0.064947      1.000000
  0.000000 -0.119316  0.064947      1.000000
  0.037497 -0.132573  0.064947      1.000000
  0.074995 -0.145830  0.064947      1.000000
  0.112492 -0.159088  0.064947      1.000000
 -0.149989 -0.066286  0.064947      1.000000
 -0.112492 -0.079544  0.064947      1.000000
 -0.074995 -0.092801  0.064947      1.000000
 -0.037497 -0.066286  0.064947      1.000000
  0.000000 -0.079544  0.064947      1.000000
  0.037497 -0.092801  0.064947      1.000000
  0.074995 -0.106058  0.064947      1.000000
  0.112492 -0.119316  0.064947      1.000000
 -0.149989 -0.026515  0.064947      1.000000
 -0.112492 -0.039772  0.064947      1.000000
 -0.074995 -0.053029  0.064947      1.000000
 -0.056246 -0.039772  0.097421      1.000000
 -0.018749 -0.053029  0.097421      1.000000
  0.018749 -0.066286  0.097421      1.000000
  0.056246 -0.079544  0.097421      1.000000
  0.093743 -0.092801  0.097421      1.000000
 -0.168738  0.000000  0.097421      1.000000
 -0.131241 -0.013257  0.097421      1.000000
 -0.093743 -0.026515  0.097421      1.000000
 -0.056246  0.000000  0.097421      1.000000
 -0.018749 -0.013257  0.097421      1.000000
  0.018749 -0.026515  0.097421      1.000000
  0.056246 -0.039772  0.097421      1.000000
  0.093743 -0.053029  0.097421      1.000000
 -0.168738  0.039772  0.097421      1.000000
 -0.131241  0.026515  0.097421      1.000000
 -0.093743  0.013257  0.097421      1.000000
 -0.056246  0.039772  0.097421      1.000000
 -0.018749  0.026515  0.097421      1.000000
  0.018749  0.013257  0.097421      1.000000
  0.056246  0.000000  0.097421      1.000000
  0.093743 -0.013257  0.097421      1.000000
 -0.168738  0.079544  0.097421      1.000000
 -0.131241  0.066286  0.097421      1.000000
 -0.093743  0.053029  0.097421      1.000000
 -0.056246  0.079544  0.097421      1.000000
 -0.018749  0.066286  0.097421      1.000000
  0.018749  0.053029  0.097421      1.000000
  0.056246  0.039772  0.097421      1.000000
  0.093743  0.026515  0.097421      1.000000
 -0.168738  0.119316  0.097421      1.000000
 -0.131241  0.106058  0.097421      1.000000
 -0.093743  0.092801  0.097421      1.000000
 -0.056246  0.119316  0.097421      1.000000
 -0.018749  0.106058  0.097421      1.000000
  0.018749  0.092801  0.097421      1.000000
  0.056246  0.079544  0.097421      1.000000
  0.093743  0.066286  0.097421      1.000000
 -0.168738  0.159088  0.097421      1.000000
 -0.131241  0.145830  0.097421      1.000000
 -0.093743  0.132573  0.097421      1.000000
 -0.056246 -0.159088  0.097421      1.000000
 -0.018749 -0.172345  0.097421      1.000000
  0.018749 -0.185602  0.097421      1.000000
  0.056246 -0.198859  0.097421      1.000000
  0.093743 -0.212117  0.097421      1.000000
 -0.168738 -0.119316  0.097421      1.000000
 -0.131241 -0.132573  0.097421      1.000000
 -0.093743 -0.145830  0.097421      1.000000
 -0.056246 -0.119316  0.097421      1.000000
 -0.018749 -0.132573  0.097421      1.000000
  0.018749 -0.145830  0.097421      1.000000
  0.056246 -0.159088  0.097421      1.000000
  0.093743 -0.172345  0.097421      1.000000
 -0.168738 -0.079544  0.097421      1.000000
 -0.131241 -0.092801  0.097421      1.000000
 -0.093743 -0.106058  0.097421      1.000000
 -0.056246 -0.079544  0.097421      1.000000
 -0.018749 -0.092801  0.097421      1.000000
  0.018749 -0.106058  0.097421      1.000000
  0.056246 -0.119316  0.097421      1.000000
  0.093743 -0.132573  0.097421      1.000000
 -0.168738 -0.039772  0.097421      1.000000
 -0.131241 -0.053029  0.097421      1.000000
 -0.093743 -0.066286  0.097421      1.000000
 -0.074995 -0.053029  0.129894      1.000000
 -0.037497 -0.066286  0.129894      1.000000
  0.000000 -0.079544  0.129894      1.000000
  0.037497 -0.092801  0.129894      1.000000
  0.074995 -0.106058  0.129894      1.000000
 -0.187487 -0.013257  0.129894      1.000000
 -0.149989 -0.026515  0.129894      1.000000
 -0.112492 -0.039772  0.129894      1.000000
 -0.074995 -0.013257  0.129894      1.000000
 -0.037497 -0.026515  0.129894      1.000000
  0.000000 -0.039772  0.129894      1.000000
  0.037497 -0.053029  0.129894      1.000000
  0.074995 -0.066286  0.129894      1.000000
 -0.187487  0.026515  0.129894      1.000000
 -0.149989  0.013257  0.129894      1.000000
 -0.112492  0.000000  0.129894      1.000000
 -0.074995  0.026515  0.129894      1.000000
 -0.037497  0.013257  0.129894      1.000000
  0.000000  0.000000  0.129894      1.000000
  0.037497 -0.013257  0.129894      1.000000
  0.074995 -0.026515  0.129894      1.000000
 -0.187487  0.066286  0.129894      1.000000
 -0.149989  0.053029  0.129894      1.000000
 -0.112492  0.039772  0.129894      1.000000
 -0.074995  0.066286  0.129894      1.000000
 -0.037497  0.053029  0.129894      1.000000
  0.000000  0.039772  0.129894      1.000000
  0.037497  0.026515  0.129894      1.000000
  0.074995  0.013257  0.129894      1.000000
 -0.187487  0.106058  0.129894      1.000000
 -0.149989  0.092801  0.129894      1.000000
 -0.112492  0.079544  0.129894      1.000000
 -0.074995  0.106058  0.129894      1.000000
 -0.037497  0.092801  0.129894      1.000000
  0.000000  0.079544  0.129894      1.000000
  0.037497  0.066286  0.129894      1.000000
  0.074995  0.053029  0.129894      1.000000
 -0.187487  0.145830  0.129894      1.000000
 -0.149989  0.132573  0.129894      1.000000
 -0.112492  0.119316  0.129894      1.000000
 -0.074995 -0.172345  0.129894      1.000000
 -0.037497 -0.185602  0.129894      1.000000
  0.000000 -0.198859  0.129894      1.000000
  0.037497 -0.212117  0.129894      1.000000
  0.074995 -0.225374  0.129894      1.000000
 -0.187487 -0.132573  0.129894      1.000000
 -0.149989 -0.145830  0.129894      1.000000
 -0.112492 -0.159088  0.129894      1.000000
 -0.074995 -0.132573  0.129894      1.000000
 -0.037497 -0.145830  0.129894      1.000000
  0.000000 -0.159088  0.129894      1.000000
  0.037497 -0.172345  0.129894      1.000000
  0.074995 -0.185602  0.129894      1.000000
 -0.187487 -0.092801  0.129894      1.000000
 -0.149989 -0.106058  0.129894      1.000000
 -0.112492 -0.119316  0.129894      1.000000
 -0.074995 -0.092801  0.129894      1.000000
 -0.037497 -0.106058  0.129894      1.000000
  0.000000 -0.119316  0.129894      1.000000
  0.037497 -0.132573  0.129894      1.000000
  0.074995 -0.145830  0.129894      1.000000
 -0.187487 -0.053029  0.129894      1.000000
 -0.149989 -0.066286  0.129894      1.000000
 -0.112492 -0.079544  0.129894      1.000000
  0.056246  0.039772 -0.097421      1.000000
  0.093743  0.026515 -0.097421      1.000000
  0.131241  0.013257 -0.097421      1.000000
  0.168738  0.000000 -0.097421      1.000000
  0.206235 -0.013257 -0.097421      1.000000
 -0.056246  0.079544 -0.097421      1.000000
 -0.018749  0.066286 -0.097421      1.000000
  0.018749  0.053029 -0.097421      1.000000
  0.056246  0.079544 -0.097421      1.000000
  0.093743  0.066286 -0.097421      1.000000
  0.131241  0.053029 -0.097421      1.000000
  0.168738  0.039772 -0.097421      1.000000
  0.206235  0.026515 -0.097421      1.000000
 -0.056246  0.119316 -0.097421      1.000000
 -0.018749  0.106058 -0.097421      1.000000
  0.018749  0.092801 -0.097421      1.000000
  0.056246  0.119316 -0.097421      1.000000
  0.093743  0.106058 -0.097421      1.000000
  0.131241  0.092801 -0.097421      1.000000
  0.168738  0.079544 -0.097421      1.000000
  0.206235  0.066286 -0.097421      1.000000
 -0.056246  0.159088 -0.097421      1.000000
 -0.018749  0.145830 -0.097421      1.000000
  0.018749  0.132573 -0.097421      1.000000
  0.056246  0.159088 -0.097421      1.000000
  0.093743  0.145830 -0.097421      1.000000
  0.131241  0.132573 -0.097421      1.000000
  0.168738  0.119316 -0.097421      1.000000
  0.206235  0.106058 -0.097421      1.000000
 -0.056246  0.198859 -0.097421      1.000000
 -0.018749  0.185602 -0.097421      1.000000
  0.018749  0.172345 -0.097421      1.000000
  0.056246  0.198859 -0.097421      1.000000
  0.093743  0.185602 -0.097421      1.000000
  0.131241  0.172345 -0.097421      1.000000
  0.168738  0.159088 -0.097421      1.000000
  0.206235  0.145830 -0.097421      1.000000
 -0.056246  0.238631 -0.097421      1.000000
 -0.018749  0.225374 -0.097421      1.000000
  0.018749  0.212117 -0.097421      1.000000
  0.056246 -0.079544 -0.097421      1.000000
  0.093743 -0.092801 -0.097421      1.000000
  0.131241 -0.106058 -0.097421      1.000000
  0.168738 -0.119316 -0.097421      1.000000
  0.206235 -0.132573 -0.097421      1.000000
 -0.056246 -0.039772 -0.097421      1.000000
 -0.018749 -0.053029 -0.097421      1.000000
  0.018749 -0.066286 -0.097421      1.000000
  0.056246 -0.039772 -0.097421      1.000000
  0.093743 -0.053029 -0.097421      1.000000
  0.131241 -0.066286 -0.097421      1.000000
  0.168738 -0.079544 -0.097421      1.000000
  0.206235 -0.092801 -0.097421      1.000000
 -0.056246 -0.000000 -0.097421      1.000000
 -0.018749 -0.013257 -0.097421      1.000000
  0.018749 -0.026515 -0.097421      1.000000
  0.056246 -0.000000 -0.097421      1.000000
  0.093743 -0.013257 -0.097421      1.000000
  0.131241 -0.026515 -0.097421      1.000000
  0.168738 -0.039772 -0.097421      1.000000
  0.206235 -0.053029 -0.097421      1.000000
 -0.056246  0.039772 -0.097421      1.000000
 -0.018749  0.026515 -0.097421      1.000000
  0.018749  0.013257 -0.097421      1.000000
  0.037497  0.026515 -0.064947      1.000000
  0.074995  0.013257 -0.064947      1.000000
  0.112492 -0.000000 -0.064947      1.000000
  0.149989 -0.013257 -0.064947      1.000000
  0.187487 -0.026515 -0.064947      1.000000
 -0.074995  0.066286 -0.064947      1.000000
 -0.037497  0.053029 -0.064947      1.000000
  0.000000  0.039772 -0.064947      1.000000
  0.037497  0.066286 -0.064947      1.000000
  0.074995  0.053029 -0.064947      1.000000
  0.112492  0.039772 -0.064947      1.000000
  0.149989  0.026515 -0.064947      1.000000
  0.187487  0.013257 -0.064947      1.000000
 -0.074995  0.106058 -0.064947      1.000000
 -0.037497  0.092801 -0.064947      1.000000
  0.000000  0.079544 -0.064947      1.000000
  0.037497  0.106058 -0.064947      1.000000
  0.074995  0.092801 -0.064947      1.000000
  0.112492  0.079544 -0.064947      1.000000
  0.149989  0.066286 -0.064947      1.000000
  0.187487  0.053029 -0.064947      1.000000
 -0.074995  0.145830 -0.064947      1.000000
 -0.037497  0.132573 -0.064947      1.000000
  0.000000  0.119316 -0.064947      1.000000
  0.037497  0.145830 -0.064947      1.000000
  0.074995  0.132573 -0.064947      1.000000
  0.112492  0.119316 -0.064947      1.000000
  0.149989  0.106058 -0.064947      1.000000
  0.187487  0.092801 -0.064947      1.000000
 -0.074995  0.185602 -0.064947      1.000000
 -0.037497  0.172345 -0.064947      1.000000
  0.000000  0.159088 -0.064947      1.000000
  0.037497  0.185602 -0.064947      1.000000
  0.074995  0.172345 -0.064947      1.000000
  0.112492  0.159088 -0.064947      1.000000
  0.149989  0.145830 -0.064947      1.000000
  0.187487  0.132573 -0.064947      1.000000
 -0.074995  0.225374 -0.064947      1.000000
 -0.037497  0.212117 -0.064947      1.000000
  0.000000  0.198859 -0.064947      1.000000
  0.037497 -0.092801 -0.064947      1.000000
  0.074995 -0.106058 -0.064947      1.000000
  0.112492 -0.119316 -0.064947      1.000000
  0.149989 -0.132573 -0.064947      1.000000
  0.187487 -0.145830 -0.064947      1.000000
 -0.074995 -0.053029 -0.064947      1.000000
 -0.037497 -0.066286 -0.064947      1.000000
  0.000000 -0.079544 -0.064947      1.000000
  0.037497 -0.053029 -0.064947      1.000000
  0.074995 -0.066286 -0.064947      1.000000
  0.112492 -0.079544 -0.064947      1.000000
  0.149989 -0.092801 -0.064947      1.000000
  0.187487 -0.106058 -0.064947      1.000000
 -0.074995 -0.013257 -0.064947      1.000000
 -0.037497 -0.026515 -0.064947      1.000000
  0.000000 -0.039772 -0.064947      1.000000
  0.037497 -0.013257 -0.064947      1.000000
  0.074995 -0.026515 -0.064947      1.000000
  0.112492 -0.039772 -0.064947      1.000000
  0.149989 -0.053029 -0.064947      1.000000
  0.187487 -0.066286 -0.064947      1.000000
 -0.074995  0.026515 -0.064947      1.000000
 -0.037497  0.013257 -0.064947      1.000000
  0.000000 -0.000000 -0.064947      1.000000
  0.018749  0.013257 -0.032474      1.000000
  0.056246 -0.000000 -0.032474      1.000000
  0.093743 -0.013257 -0.032474      1.000000
  0.131241 -0.026515 -0.032474      1.000000
  0.168738 -0.039772 -0.032474      1.000000
 -0.093743  0.053029 -0.032474      1.000000
 -0.056246  0.039772 -0.032474      1.000000
 -0.018749  0.026515 -0.032474      1.000000
  0.018749  0.053029 -0.032474      1.000000
  0.056246  0.039772 -0.032474      1.000000
  0.093743  0.026515 -0.032474      1.000000
  0.131241  0.013257 -0.032474      1.000000
  0.168738  0.000000 -0.032474      1.000000
 -0.093743  0.092801 -0.032474      1.000000
 -0.056246  0.079544 -0.032474      1.000000
 -0.018749  0.066286 -0.032474      1.000000
  0.018749  0.092801 -0.032474      1.000000
  0.056246  0.079544 -0.032474      1.000000
  0.093743  0.066286 -0.032474      1.000000
  0.131241  0.053029 -0.032474      1.000000
  0.168738  0.039772 -0.032474      1.000000
 -0.093743  0.132573 -0.032474      1.000000
 -0.056246  0.119316 -0.032474      1.000000
 -0.018749  0.106058 -0.032474      1.000000
  0.018749  0.132573 -0.032474      1.000000
  0.056246  0.119316 -0.032474      1.000000
  0.093743  0.106058 -0.032474      1.000000
  0.131241  0.092801 -0.032474      1.000000
  0.168738  0.079544 -0.032474      1.000000
 -0.093743  0.172345 -0.032474      1.000000
 -0.056246  0.159088 -0.032474      1.000000
 -0.018749  0.145830 -0.032474      1.000000
  0.018749  0.172345 -0.032474      1.000000
  0.056246  0.159088 -0.032474      1.000000
  0.093743  0.145830 -0.032474      1.000000
  0.131241  0.132573 -0.032474      1.000000
  0.168738  0.119316 -0.032474      1.000000
 -0.093743  0.212117 -0.032474      1.000000
 -0.056246  0.198859 -0.032474      1.000000
 -0.018749  0.185602 -0.032474      1.000000
  0.018749 -0.106058 -0.032474      1.000000
  0.056246 -0.119316 -0.032474      1.000000
  0.093743 -0.132573 -0.032474      1.000000
  0.131241 -0.145830 -0.032474      1.000000
  0.168738 -0.159088 -0.032474      1.000000
 -0.093743 -0.066286 -0.032474      1.000000
 -0.056246 -0.079544 -0.032474      1.000000
 -0.018749 -0.092801 -0.032474      1.000000
  0.018749 -0.066286 -0.032474      1.000000
  0.056246 -0.079544 -0.032474      1.000000
  0.093743 -0.092801 -0.032474      1.000000
  0.131241 -0.106058 -0.032474      1.000000
  0.168738 -0.119316 -0.032474      1.000000
 -0.093743 -0.026515 -0.032474      1.000000
 -0.056246 -0.039772 -0.032474      1.000000
 -0.018749 -0.053029 -0.032474      1.000000
  0.018749 -0.026515 -0.032474      1.000000
  0.056246 -0.039772 -0.032474      1.000000
  0.093743 -0.053029 -0.032474      1.000000
  0.131241 -0.066286 -0.032474      1.000000
  0.168738 -0.079544 -0.032474      1.000000
 -0.093743  0.013257 -0.032474      1.000000
 -0.056246 -0.000000 -0.032474      1.000000
 -0.018749 -0.013257 -0.032474      1.000000
 


--------------------------------------------------------------------------------------------------------




 Dimension of arrays:
   k-points           NKPTS =    512   k-points in BZ     NKDIM =    512   number of bands    NBANDS=    100
   number of dos      NEDOS =    301   number of ions     NIONS =      2
   non local maximal  LDIM  =      4   non local SUM 2l+1 LMDIM =      8
   total plane-waves  NPLWV =  32768
   max r-space proj   IRMAX =      1   max aug-charges    IRDMAX=  27362
   dimension x,y,z NGX =    32 NGY =   32 NGZ =   32
   dimension x,y,z NGXF=    64 NGYF=   64 NGZF=   64
   support grid    NGXF=    64 NGYF=   64 NGZF=   64
   ions per type =               2
   NGX,Y,Z   is equivalent  to a cutoff of  13.82, 13.82, 13.82 a.u.
   NGXF,Y,Z  is equivalent  to a cutoff of  27.64, 27.64, 27.64 a.u.

 SYSTEM =  unknown system                          
 POSCAR =  Si2                                     

 Startparameter for this run:
   NWRITE =      2    write-flag & timer
   PREC   = accura    normal or accurate (medium, high low for compatibility)
   ISTART =      0    job   : 0-new  1-cont  2-samecut
   ICHARG =      2    charge: 1-file 2-atom 10-const
   ISPIN  =      1    spin polarized calculation?
   LNONCOLLINEAR =      F non collinear calculations
   LSORBIT =      F    spin-orbit coupling
   INIWAV =      1    electr: 0-lowe 1-rand  2-diag
   LASPH  =      T    aspherical Exc in radial PAW
 Electronic Relaxation 1
   ENCUT  =  600.0 eV  44.10 Ry    6.64 a.u.   7.69  7.69  7.69*2*pi/ulx,y,z
   ENINI  =  600.0     initial cutoff
   ENAUG  =  322.1 eV  augmentation charge cutoff
   NELM   =     60;   NELMIN=  2; NELMDL= -5     # of ELM steps 
   EDIFF  = 0.1E-05   stopping-criterion for ELM
   LREAL  =      F    real-space projection
   NLSPLINE    = F    spline interpolate recip. space projectors
   LCOMPAT=      F    compatible to vasp.4.4
   GGA_COMPAT  = T    GGA compatible to vasp.4.4-vasp.4.6
   LMAXPAW     = -100 max onsite density
   LMAXMIX     =    2 max onsite mixed and CHGCAR
   VOSKOWN=      0    Vosko Wilk Nusair interpolation
   ROPT   =    0.00000
 Ionic relaxation
   EDIFFG = 0.1E-04   stopping-criterion for IOM
   NSW    =      0    number of steps for IOM
   NBLOCK =      1;   KBLOCK =      1    inner block; outer block 
   IBRION =     -1    ionic relax: 0-MD 1-quasi-New 2-CG
   NFREE  =      0    steps in history (QN), initial steepest desc. (CG)
   ISIF   =      2    stress and relaxation
   IWAVPR =     10    prediction:  0-non 1-charg 2-wave 3-comb
   ISYM   =     -1    0-nonsym 1-usesym 2-fastsym
   LCORR  =      T    Harris-Foulkes like correction to forces

   POTIM  = 0.5000    time-step for ionic-motion
   TEIN   =    0.0    initial temperature
   TEBEG  =    0.0;   TEEND  =   0.0 temperature during run
   SMASS  =  -3.00    Nose mass-parameter (am)
   estimated Nose-frequenzy (Omega)   =  0.10E-29 period in steps = 0.13E+47 mass=  -0.339E-27a.u.
   SCALEE = 1.0000    scale energy and forces
   NPACO  =    256;   APACO  = 10.0  distance and # of slots for P.C.
   PSTRESS=    0.0 pullay stress

  Mass of Ions in am
   POMASS =  28.09
  Ionic Valenz
   ZVAL   =   4.00
  Atomic Wigner-Seitz radii
   RWIGS  =  -1.00
  virtual crystal weights 
   VCA    =   1.00
   NELECT =       8.0000    total number of electrons
   NUPDOWN=      -1.0000    fix difference up-down

 DOS related values:
   EMIN   =  10.00;   EMAX   =-10.00  energy-range for DOS
   EFERMI =   0.00;   METHOD = LEGACY      
   ISMEAR =     0;   SIGMA  =   0.05  broadening in eV -4-tet -1-fermi 0-gaus
   EFERMI_NEDOS =   21; number of points for ismear=-14 and -15

 Electronic relaxation 2 (details)
   IALGO  =     38    algorithm
   LDIAG  =      T    sub-space diagonalisation (order eigenvalues)
   LSUBROT=      F    optimize rotation matrix (better conditioning)
   TURBO    =      0    0=normal 1=particle mesh
   IRESTART =      0    0=no restart 2=restart with 2 vectors
   NREBOOT  =      0    no. of reboots
   NMIN     =      0    reboot dimension
   EREF     =   0.00    reference energy to select bands
   IMIX   =      4    mixing-type and parameters
     AMIX     =   0.40;   BMIX     =  1.00
     AMIX_MAG =   1.60;   BMIX_MAG =  1.00
     AMIN     =   0.10
     WC   =   100.;   INIMIX=   1;  MIXPRE=   1;  MAXMIX= -45

 Intra band minimization:
   WEIMIN = 0.0000     energy-eigenvalue tresh-hold
   EBREAK =  0.25E-08  absolut break condition
   DEPER  =   0.30     relativ break condition  

   TIME   =   0.40     timestep for ELM

  volume/ion in A,a.u.               =      20.16       136.08
  Fermi-wavevector in a.u.,A,eV,Ry     =   0.954766  1.804247 12.402783  0.911579
  Thomas-Fermi vector in A             =   2.083543
 
 Write flags
   LWAVE        =      T    write WAVECAR
   LDOWNSAMPLE  =      F    k-point downsampling of WAVECAR
   LCHARG       =      T    write CHGCAR
   LVTOT        =      F    write LOCPOT, total local potential
   LVHAR        =      F    write LOCPOT, Hartree potential only
   WRT_POTENTIAL= false  ! write potential to hdf5 file
   LELF         =      F    write electronic localiz. function (ELF)
   LORBIT       =      0    0 simple, 1 ext, 2 COOP (PROOUT), +10 PAW based schemes


 Python interface
   PLUGINS active      =      F    recompile with -DPLUGINS to activate
 
 Dipole corrections
   LMONO      =      F    monopole corrections only (constant potential shift)
   LDIPOL     =      F    correct potential (dipole corrections)
   IDIPOL     =      0    1-x, 2-y, 3-z, 4-all directions 
   EPSILON    =  1.0000000 bulk dielectric constant
   LVACPOTAV  =      F  vacuum potentials using an averaging scheme for the charge density
   VACPOTFLAT =  0.1000000 required flatness to determine vacuum potential
 
Coulomb truncation method
  LTRUNCATE          =      F  Coulomb kernel truncation to be used
  IDIMENSIONALITY    =      3  Dimensionality of cutoff (0 molecules / 2 surfaces)
  ISURFACE           =     -1  Direction of surface normal
  LCOARSEN           =      F  Coarsen the charge grid before padding, preferred

 
 Exchange correlation treatment:
   GGA     = PE    functional components
   XC_C    = 1    coefficients multiplying the functional components
   LIBXC   =     F    Libxc                    
   VOSKOWN =     0    Vosko Wilk Nusair interpolation
   LHFCALC =     F    Hartree Fock is set to
   LHFONE  =     F    Hartree Fock one center treatment
   AEXX    =    0.0000 exact exchange contribution

 Parameters of functionals:
   PE:
     No parameter
 
 Van der Waals corrections
   IVDW    =     0    specifies the selected vdW correction

 Linear response parameters
   LEPSILON=     F    determine dielectric tensor
   LRPA    =     F    only Hartree local field effects (RPA)
   LNABLA  =     F    use nabla operator in PAW spheres
   LVEL    =     F    velocity operator in full k-point grid
   CSHIFT  =0.1000    complex shift for real part using Kramers Kronig
   OMEGAMAX=  -1.0    maximum frequency
   DEG_THRESHOLD= 0.2000000E-02 threshold for treating states as degnerate
   RTIME   =   -0.100 relaxation time in fs
  (WPLASMAI=    0.000 imaginary part of plasma frequency in eV, 0.658/RTIME)
   DFIELD  = 0.0000000 0.0000000 0.0000000 field for delta impulse in time
 
  Optional k-point grid parameters
   LKPOINTS_OPT  =     F    use optional k-point grid
   KPOINTS_OPT_MODE=     1    mode for optional k-point grid
 
 Orbital magnetization related:
   ORBITALMAG=     F  switch on orbital magnetization
   LCHIMAG   =     F  perturbation theory with respect to B field
   DQ        =  0.001000  dq finite difference perturbation B field
   LLRAUG    =     F  two centre corrections for induced B field
   LBONE     =     F  B-component reconstruction in AE one-centre
   LVGVCALC  =     T  calculate vGv susceptibility
   LVGVAPPL  =     F  apply vGv susceptibility instead of pGv for G=0

 Random number generation:
   RANDOM_GENERATOR = DEFAULT
   PCG_SEED         = not used


--------------------------------------------------------------------------------------------------------


 Static calculation
 charge density and potential will be updated during run
 non-spin polarized calculation
 Variant of blocked Davidson
 Davidson routine will perform the subspace rotation
 perform sub-space diagonalisation
    after iterative eigenvector-optimisation
 modified Broyden-mixing scheme, WC =      100.0
 initial mixing is a Kerker type mixing with AMIX =  0.4000 and BMIX =      1.0000
 Hartree-type preconditioning will be used
 using additional bands           96
 reciprocal scheme for non local part
 use partial core corrections
 calculate Harris-corrections to forces 
   (improved forces if not selfconsistent)
 use gradient corrections 
 use of overlap-Matrix (Vanderbilt PP)
 Gauss-broadening in eV      SIGMA  =   0.05


--------------------------------------------------------------------------------------------------------


  energy-cutoff  :      600.00
  volume of cell :       40.33
      direct lattice vectors                 reciprocal lattice vectors
     3.333573000  0.000000000  1.924639000     0.299978432 -0.106058350  0.000000000
     1.111191000  3.142924000  1.924639000     0.000000000  0.318175050  0.000000000
     0.000000000  0.000000000  3.849278000    -0.149989216 -0.106058350  0.259788979

  length of vectors
     3.849278403  3.849279412  3.849278000     0.318175161  0.318175050  0.318175190


 
 k-points in units of 2pi/SCALE and weight: pymatgen with grid density = 1230 / numb
   0.00000000  0.00000000  0.00000000       0.002
   0.03749730 -0.01325729  0.00000000       0.002
   0.07499461 -0.02651459  0.00000000       0.002
   0.11249191 -0.03977188  0.00000000       0.002
   0.14998922 -0.05302917  0.00000000       0.002
  -0.11249191  0.03977188  0.00000000       0.002
  -0.07499461  0.02651459  0.00000000       0.002
  -0.03749730  0.01325729  0.00000000       0.002
   0.00000000  0.03977188  0.00000000       0.002
   0.03749730  0.02651459  0.00000000       0.002
   0.07499461  0.01325729  0.00000000       0.002
   0.11249191  0.00000000  0.00000000       0.002
   0.14998922 -0.01325729  0.00000000       0.002
  -0.11249191  0.07954376  0.00000000       0.002
  -0.07499461  0.06628647  0.00000000       0.002
  -0.03749730  0.05302917  0.00000000       0.002
   0.00000000  0.07954376  0.00000000       0.002
   0.03749730  0.06628647  0.00000000       0.002
   0.07499461  0.05302917  0.00000000       0.002
   0.11249191  0.03977188  0.00000000       0.002
   0.14998922  0.02651459  0.00000000       0.002
  -0.11249191  0.11931564  0.00000000       0.002
  -0.07499461  0.10605835  0.00000000       0.002
  -0.03749730  0.09280106  0.00000000       0.002
   0.00000000  0.11931564  0.00000000       0.002
   0.03749730  0.10605835  0.00000000       0.002
   0.07499461  0.09280106  0.00000000       0.002
   0.11249191  0.07954376  0.00000000       0.002
   0.14998922  0.06628647  0.00000000       0.002
  -0.11249191  0.15908752  0.00000000       0.002
  -0.07499461  0.14583023  0.00000000       0.002
  -0.03749730  0.13257294  0.00000000       0.002
   0.00000000  0.15908752  0.00000000       0.002
   0.03749730  0.14583023  0.00000000       0.002
   0.07499461  0.13257294  0.00000000       0.002
   0.11249191  0.11931564  0.00000000       0.002
   0.14998922  0.10605835  0.00000000       0.002
  -0.11249191  0.19885941  0.00000000       0.002
  -0.07499461  0.18560211  0.00000000       0.002
  -0.03749730  0.17234482  0.00000000       0.002
   0.00000000 -0.11931564  0.00000000       0.002
   0.03749730 -0.13257294  0.00000000       0.002
   0.07499461 -0.14583023  0.00000000       0.002
   0.11249191 -0.15908752  0.00000000       0.002
   0.14998922 -0.17234482  0.00000000       0.002
  -0.11249191 -0.07954376  0.00000000       0.002
  -0.07499461 -0.09280106  0.00000000       0.002
  -0.03749730 -0.10605835  0.00000000       0.002
   0.00000000 -0.07954376  0.00000000       0.002
   0.03749730 -0.09280106  0.00000000       0.002
   0.07499461 -0.10605835  0.00000000       0.002
   0.11249191 -0.11931564  0.00000000       0.002
   0.14998922 -0.13257294  0.00000000       0.002
  -0.11249191 -0.03977188  0.00000000       0.002
  -0.07499461 -0.05302917  0.00000000       0.002
  -0.03749730 -0.06628647  0.00000000       0.002
   0.00000000 -0.03977188  0.00000000       0.002
   0.03749730 -0.05302917  0.00000000       0.002
   0.07499461 -0.06628647  0.00000000       0.002
   0.11249191 -0.07954376  0.00000000       0.002
   0.14998922 -0.09280106  0.00000000       0.002
  -0.11249191  0.00000000  0.00000000       0.002
  -0.07499461 -0.01325729  0.00000000       0.002
  -0.03749730 -0.02651459  0.00000000       0.002
  -0.01874865 -0.01325729  0.03247362       0.002
   0.01874865 -0.02651459  0.03247362       0.002
   0.05624596 -0.03977188  0.03247362       0.002
   0.09374326 -0.05302917  0.03247362       0.002
   0.13124056 -0.06628647  0.03247362       0.002
  -0.13124056  0.02651459  0.03247362       0.002
  -0.09374326  0.01325729  0.03247362       0.002
  -0.05624596  0.00000000  0.03247362       0.002
  -0.01874865  0.02651459  0.03247362       0.002
   0.01874865  0.01325729  0.03247362       0.002
   0.05624596  0.00000000  0.03247362       0.002
   0.09374326 -0.01325729  0.03247362       0.002
   0.13124056 -0.02651459  0.03247362       0.002
  -0.13124056  0.06628647  0.03247362       0.002
  -0.09374326  0.05302917  0.03247362       0.002
  -0.05624596  0.03977188  0.03247362       0.002
  -0.01874865  0.06628647  0.03247362       0.002
   0.01874865  0.05302917  0.03247362       0.002
   0.05624596  0.03977188  0.03247362       0.002
   0.09374326  0.02651459  0.03247362       0.002
   0.13124056  0.01325729  0.03247362       0.002
  -0.13124056  0.10605835  0.03247362       0.002
  -0.09374326  0.09280106  0.03247362       0.002
  -0.05624596  0.07954376  0.03247362       0.002
  -0.01874865  0.10605835  0.03247362       0.002
   0.01874865  0.09280106  0.03247362       0.002
   0.05624596  0.07954376  0.03247362       0.002
   0.09374326  0.06628647  0.03247362       0.002
   0.13124056  0.05302917  0.03247362       0.002
  -0.13124056  0.14583023  0.03247362       0.002
  -0.09374326  0.13257294  0.03247362       0.002
  -0.05624596  0.11931564  0.03247362       0.002
  -0.01874865  0.14583023  0.03247362       0.002
   0.01874865  0.13257294  0.03247362       0.002
   0.05624596  0.11931564  0.03247362       0.002
   0.09374326  0.10605835  0.03247362       0.002
   0.13124056  0.09280106  0.03247362       0.002
  -0.13124056  0.18560211  0.03247362       0.002
  -0.09374326  0.17234482  0.03247362       0.002
  -0.05624596  0.15908752  0.03247362       0.002
  -0.01874865 -0.13257294  0.03247362       0.002
   0.01874865 -0.14583023  0.03247362       0.002
   0.05624596 -0.15908752  0.03247362       0.002
   0.09374326 -0.17234482  0.03247362       0.002
   0.13124056 -0.18560211  0.03247362       0.002
  -0.13124056 -0.09280106  0.03247362       0.002
  -0.09374326 -0.10605835  0.03247362       0.002
  -0.05624596 -0.11931564  0.03247362       0.002
  -0.01874865 -0.09280106  0.03247362       0.002
   0.01874865 -0.10605835  0.03247362       0.002
   0.05624596 -0.11931564  0.03247362       0.002
   0.09374326 -0.13257294  0.03247362       0.002
   0.13124056 -0.14583023  0.03247362       0.002
  -0.13124056 -0.05302917  0.03247362       0.002
  -0.09374326 -0.06628647  0.03247362       0.002
  -0.05624596 -0.07954376  0.03247362       0.002
  -0.01874865 -0.05302917  0.03247362       0.002
   0.01874865 -0.06628647  0.03247362       0.002
   0.05624596 -0.07954376  0.03247362       0.002
   0.09374326 -0.09280106  0.03247362       0.002
   0.13124056 -0.10605835  0.03247362       0.002
  -0.13124056 -0.01325729  0.03247362       0.002
  -0.09374326 -0.02651459  0.03247362       0.002
  -0.05624596 -0.03977188  0.03247362       0.002
  -0.03749730 -0.02651459  0.06494724       0.002
   0.00000000 -0.03977188  0.06494724       0.002
   0.03749730 -0.05302917  0.06494724       0.002
   0.07499461 -0.06628647  0.06494724       0.002
   0.11249191 -0.07954376  0.06494724       0.002
  -0.14998922  0.01325729  0.06494724       0.002
  -0.11249191  0.00000000  0.06494724       0.002
  -0.07499461 -0.01325729  0.06494724       0.002
  -0.03749730  0.01325729  0.06494724       0.002
   0.00000000  0.00000000  0.06494724       0.002
   0.03749730 -0.01325729  0.06494724       0.002
   0.07499461 -0.02651459  0.06494724       0.002
   0.11249191 -0.03977188  0.06494724       0.002
  -0.14998922  0.05302917  0.06494724       0.002
  -0.11249191  0.03977188  0.06494724       0.002
  -0.07499461  0.02651459  0.06494724       0.002
  -0.03749730  0.05302917  0.06494724       0.002
   0.00000000  0.03977188  0.06494724       0.002
   0.03749730  0.02651459  0.06494724       0.002
   0.07499461  0.01325729  0.06494724       0.002
   0.11249191  0.00000000  0.06494724       0.002
  -0.14998922  0.09280106  0.06494724       0.002
  -0.11249191  0.07954376  0.06494724       0.002
  -0.07499461  0.06628647  0.06494724       0.002
  -0.03749730  0.09280106  0.06494724       0.002
   0.00000000  0.07954376  0.06494724       0.002
   0.03749730  0.06628647  0.06494724       0.002
   0.07499461  0.05302917  0.06494724       0.002
   0.11249191  0.03977188  0.06494724       0.002
  -0.14998922  0.13257294  0.06494724       0.002
  -0.11249191  0.11931564  0.06494724       0.002
  -0.07499461  0.10605835  0.06494724       0.002
  -0.03749730  0.13257294  0.06494724       0.002
   0.00000000  0.11931564  0.06494724       0.002
   0.03749730  0.10605835  0.06494724       0.002
   0.07499461  0.09280106  0.06494724       0.002
   0.11249191  0.07954376  0.06494724       0.002
  -0.14998922  0.17234482  0.06494724       0.002
  -0.11249191  0.15908752  0.06494724       0.002
  -0.07499461  0.14583023  0.06494724       0.002
  -0.03749730 -0.14583023  0.06494724       0.002
   0.00000000 -0.15908752  0.06494724       0.002
   0.03749730 -0.17234482  0.06494724       0.002
   0.07499461 -0.18560211  0.06494724       0.002
   0.11249191 -0.19885941  0.06494724       0.002
  -0.14998922 -0.10605835  0.06494724       0.002
  -0.11249191 -0.11931564  0.06494724       0.002
  -0.07499461 -0.13257294  0.06494724       0.002
  -0.03749730 -0.10605835  0.06494724       0.002
   0.00000000 -0.11931564  0.06494724       0.002
   0.03749730 -0.13257294  0.06494724       0.002
   0.07499461 -0.14583023  0.06494724       0.002
   0.11249191 -0.15908752  0.06494724       0.002
  -0.14998922 -0.06628647  0.06494724       0.002
  -0.11249191 -0.07954376  0.06494724       0.002
  -0.07499461 -0.09280106  0.06494724       0.002
  -0.03749730 -0.06628647  0.06494724       0.002
   0.00000000 -0.07954376  0.06494724       0.002
   0.03749730 -0.09280106  0.06494724       0.002
   0.07499461 -0.10605835  0.06494724       0.002
   0.11249191 -0.11931564  0.06494724       0.002
  -0.14998922 -0.02651459  0.06494724       0.002
  -0.11249191 -0.03977188  0.06494724       0.002
  -0.07499461 -0.05302917  0.06494724       0.002
  -0.05624596 -0.03977188  0.09742087       0.002
  -0.01874865 -0.05302917  0.09742087       0.002
   0.01874865 -0.06628647  0.09742087       0.002
   0.05624596 -0.07954376  0.09742087       0.002
   0.09374326 -0.09280106  0.09742087       0.002
  -0.16873787  0.00000000  0.09742087       0.002
  -0.13124056 -0.01325729  0.09742087       0.002
  -0.09374326 -0.02651459  0.09742087       0.002
  -0.05624596  0.00000000  0.09742087       0.002
  -0.01874865 -0.01325729  0.09742087       0.002
   0.01874865 -0.02651459  0.09742087       0.002
   0.05624596 -0.03977188  0.09742087       0.002
   0.09374326 -0.05302917  0.09742087       0.002
  -0.16873787  0.03977188  0.09742087       0.002
  -0.13124056  0.02651459  0.09742087       0.002
  -0.09374326  0.01325729  0.09742087       0.002
  -0.05624596  0.03977188  0.09742087       0.002
  -0.01874865  0.02651459  0.09742087       0.002
   0.01874865  0.01325729  0.09742087       0.002
   0.05624596  0.00000000  0.09742087       0.002
   0.09374326 -0.01325729  0.09742087       0.002
  -0.16873787  0.07954376  0.09742087       0.002
  -0.13124056  0.06628647  0.09742087       0.002
  -0.09374326  0.05302917  0.09742087       0.002
  -0.05624596  0.07954376  0.09742087       0.002
  -0.01874865  0.06628647  0.09742087       0.002
   0.01874865  0.05302917  0.09742087       0.002
   0.05624596  0.03977188  0.09742087       0.002
   0.09374326  0.02651459  0.09742087       0.002
  -0.16873787  0.11931564  0.09742087       0.002
  -0.13124056  0.10605835  0.09742087       0.002
  -0.09374326  0.09280106  0.09742087       0.002
  -0.05624596  0.11931564  0.09742087       0.002
  -0.01874865  0.10605835  0.09742087       0.002
   0.01874865  0.09280106  0.09742087       0.002
   0.05624596  0.07954376  0.09742087       0.002
   0.09374326  0.06628647  0.09742087       0.002
  -0.16873787  0.15908752  0.09742087       0.002
  -0.13124056  0.14583023  0.09742087       0.002
  -0.09374326  0.13257294  0.09742087       0.002
  -0.05624596 -0.15908752  0.09742087       0.002
  -0.01874865 -0.17234482  0.09742087       0.002
   0.01874865 -0.18560211  0.09742087       0.002
   0.05624596 -0.19885941  0.09742087       0.002
   0.09374326 -0.21211670  0.09742087       0.002
  -0.16873787 -0.11931564  0.09742087       0.002
  -0.13124056 -0.13257294  0.09742087       0.002
  -0.09374326 -0.14583023  0.09742087       0.002
  -0.05624596 -0.11931564  0.09742087       0.002
  -0.01874865 -0.13257294  0.09742087       0.002
   0.01874865 -0.14583023  0.09742087       0.002
   0.05624596 -0.15908752  0.09742087       0.002
   0.09374326 -0.17234482  0.09742087       0.002
  -0.16873787 -0.07954376  0.09742087       0.002
  -0.13124056 -0.09280106  0.09742087       0.002
  -0.09374326 -0.10605835  0.09742087       0.002
  -0.05624596 -0.07954376  0.09742087       0.002
  -0.01874865 -0.09280106  0.09742087       0.002
   0.01874865 -0.10605835  0.09742087       0.002
   0.05624596 -0.11931564  0.09742087       0.002
   0.09374326 -0.13257294  0.09742087       0.002
  -0.16873787 -0.03977188  0.09742087       0.002
  -0.13124056 -0.05302917  0.09742087       0.002
  -0.09374326 -0.06628647  0.09742087       0.002
  -0.07499461 -0.05302917  0.12989449       0.002
  -0.03749730 -0.06628647  0.12989449       0.002
   0.00000000 -0.07954376  0.12989449       0.002
   0.03749730 -0.09280106  0.12989449       0.002
   0.07499461 -0.10605835  0.12989449       0.002
  -0.18748652 -0.01325729  0.12989449       0.002
  -0.14998922 -0.02651459  0.12989449       0.002
  -0.11249191 -0.03977188  0.12989449       0.002
  -0.07499461 -0.01325729  0.12989449       0.002
  -0.03749730 -0.02651459  0.12989449       0.002
   0.00000000 -0.03977188  0.12989449       0.002
   0.03749730 -0.05302917  0.12989449       0.002
   0.07499461 -0.06628647  0.12989449       0.002
  -0.18748652  0.02651459  0.12989449       0.002
  -0.14998922  0.01325729  0.12989449       0.002
  -0.11249191  0.00000000  0.12989449       0.002
  -0.07499461  0.02651459  0.12989449       0.002
  -0.03749730  0.01325729  0.12989449       0.002
   0.00000000  0.00000000  0.12989449       0.002
   0.03749730 -0.01325729  0.12989449       0.002
   0.07499461 -0.02651459  0.12989449       0.002
  -0.18748652  0.06628647  0.12989449       0.002
  -0.14998922  0.05302917  0.12989449       0.002
  -0.11249191  0.03977188  0.12989449       0.002
  -0.07499461  0.06628647  0.12989449       0.002
  -0.03749730  0.05302917  0.12989449       0.002
   0.00000000  0.03977188  0.12989449       0.002
   0.03749730  0.02651459  0.12989449       0.002
   0.07499461  0.01325729  0.12989449       0.002
  -0.18748652  0.10605835  0.12989449       0.002
  -0.14998922  0.09280106  0.12989449       0.002
  -0.11249191  0.07954376  0.12989449       0.002
  -0.07499461  0.10605835  0.12989449       0.002
  -0.03749730  0.09280106  0.12989449       0.002
   0.00000000  0.07954376  0.12989449       0.002
   0.03749730  0.06628647  0.12989449       0.002
   0.07499461  0.05302917  0.12989449       0.002
  -0.18748652  0.14583023  0.12989449       0.002
  -0.14998922  0.13257294  0.12989449       0.002
  -0.11249191  0.11931564  0.12989449       0.002
  -0.07499461 -0.17234482  0.12989449       0.002
  -0.03749730 -0.18560211  0.12989449       0.002
   0.00000000 -0.19885941  0.12989449       0.002
   0.03749730 -0.21211670  0.12989449       0.002
   0.07499461 -0.22537399  0.12989449       0.002
  -0.18748652 -0.13257294  0.12989449       0.002
  -0.14998922 -0.14583023  0.12989449       0.002
  -0.11249191 -0.15908752  0.12989449       0.002
  -0.07499461 -0.13257294  0.12989449       0.002
  -0.03749730 -0.14583023  0.12989449       0.002
   0.00000000 -0.15908752  0.12989449       0.002
   0.03749730 -0.17234482  0.12989449       0.002
   0.07499461 -0.18560211  0.12989449       0.002
  -0.18748652 -0.09280106  0.12989449       0.002
  -0.14998922 -0.10605835  0.12989449       0.002
  -0.11249191 -0.11931564  0.12989449       0.002
  -0.07499461 -0.09280106  0.12989449       0.002
  -0.03749730 -0.10605835  0.12989449       0.002
   0.00000000 -0.11931564  0.12989449       0.002
   0.03749730 -0.13257294  0.12989449       0.002
   0.07499461 -0.14583023  0.12989449       0.002
  -0.18748652 -0.05302917  0.12989449       0.002
  -0.14998922 -0.06628647  0.12989449       0.002
  -0.11249191 -0.07954376  0.12989449       0.002
   0.05624596  0.03977188 -0.09742087       0.002
   0.09374326  0.02651459 -0.09742087       0.002
   0.13124056  0.01325729 -0.09742087       0.002
   0.16873787  0.00000000 -0.09742087       0.002
   0.20623517 -0.01325729 -0.09742087       0.002
  -0.05624596  0.07954376 -0.09742087       0.002
  -0.01874865  0.06628647 -0.09742087       0.002
   0.01874865  0.05302917 -0.09742087       0.002
   0.05624596  0.07954376 -0.09742087       0.002
   0.09374326  0.06628647 -0.09742087       0.002
   0.13124056  0.05302917 -0.09742087       0.002
   0.16873787  0.03977188 -0.09742087       0.002
   0.20623517  0.02651459 -0.09742087       0.002
  -0.05624596  0.11931564 -0.09742087       0.002
  -0.01874865  0.10605835 -0.09742087       0.002
   0.01874865  0.09280106 -0.09742087       0.002
   0.05624596  0.11931564 -0.09742087       0.002
   0.09374326  0.10605835 -0.09742087       0.002
   0.13124056  0.09280106 -0.09742087       0.002
   0.16873787  0.07954376 -0.09742087       0.002
   0.20623517  0.06628647 -0.09742087       0.002
  -0.05624596  0.15908752 -0.09742087       0.002
  -0.01874865  0.14583023 -0.09742087       0.002
   0.01874865  0.13257294 -0.09742087       0.002
   0.05624596  0.15908752 -0.09742087       0.002
   0.09374326  0.14583023 -0.09742087       0.002
   0.13124056  0.13257294 -0.09742087       0.002
   0.16873787  0.11931564 -0.09742087       0.002
   0.20623517  0.10605835 -0.09742087       0.002
  -0.05624596  0.19885941 -0.09742087       0.002
  -0.01874865  0.18560211 -0.09742087       0.002
   0.01874865  0.17234482 -0.09742087       0.002
   0.05624596  0.19885941 -0.09742087       0.002
   0.09374326  0.18560211 -0.09742087       0.002
   0.13124056  0.17234482 -0.09742087       0.002
   0.16873787  0.15908752 -0.09742087       0.002
   0.20623517  0.14583023 -0.09742087       0.002
  -0.05624596  0.23863129 -0.09742087       0.002
  -0.01874865  0.22537399 -0.09742087       0.002
   0.01874865  0.21211670 -0.09742087       0.002
   0.05624596 -0.07954376 -0.09742087       0.002
   0.09374326 -0.09280106 -0.09742087       0.002
   0.13124056 -0.10605835 -0.09742087       0.002
   0.16873787 -0.11931564 -0.09742087       0.002
   0.20623517 -0.13257294 -0.09742087       0.002
  -0.05624596 -0.03977188 -0.09742087       0.002
  -0.01874865 -0.05302917 -0.09742087       0.002
   0.01874865 -0.06628647 -0.09742087       0.002
   0.05624596 -0.03977188 -0.09742087       0.002
   0.09374326 -0.05302917 -0.09742087       0.002
   0.13124056 -0.06628647 -0.09742087       0.002
   0.16873787 -0.07954376 -0.09742087       0.002
   0.20623517 -0.09280106 -0.09742087       0.002
  -0.05624596 -0.00000000 -0.09742087       0.002
  -0.01874865 -0.01325729 -0.09742087       0.002
   0.01874865 -0.02651459 -0.09742087       0.002
   0.05624596 -0.00000000 -0.09742087       0.002
   0.09374326 -0.01325729 -0.09742087       0.002
   0.13124056 -0.02651459 -0.09742087       0.002
   0.16873787 -0.03977188 -0.09742087       0.002
   0.20623517 -0.05302917 -0.09742087       0.002
  -0.05624596  0.03977188 -0.09742087       0.002
  -0.01874865  0.02651459 -0.09742087       0.002
   0.01874865  0.01325729 -0.09742087       0.002
   0.03749730  0.02651459 -0.06494724       0.002
   0.07499461  0.01325729 -0.06494724       0.002
   0.11249191 -0.00000000 -0.06494724       0.002
   0.14998922 -0.01325729 -0.06494724       0.002
   0.18748652 -0.02651459 -0.06494724       0.002
  -0.07499461  0.06628647 -0.06494724       0.002
  -0.03749730  0.05302917 -0.06494724       0.002
   0.00000000  0.03977188 -0.06494724       0.002
   0.03749730  0.06628647 -0.06494724       0.002
   0.07499461  0.05302917 -0.06494724       0.002
   0.11249191  0.03977188 -0.06494724       0.002
   0.14998922  0.02651459 -0.06494724       0.002
   0.18748652  0.01325729 -0.06494724       0.002
  -0.07499461  0.10605835 -0.06494724       0.002
  -0.03749730  0.09280106 -0.06494724       0.002
   0.00000000  0.07954376 -0.06494724       0.002
   0.03749730  0.10605835 -0.06494724       0.002
   0.07499461  0.09280106 -0.06494724       0.002
   0.11249191  0.07954376 -0.06494724       0.002
   0.14998922  0.06628647 -0.06494724       0.002
   0.18748652  0.05302917 -0.06494724       0.002
  -0.07499461  0.14583023 -0.06494724       0.002
  -0.03749730  0.13257294 -0.06494724       0.002
   0.00000000  0.11931564 -0.06494724       0.002
   0.03749730  0.14583023 -0.06494724       0.002
   0.07499461  0.13257294 -0.06494724       0.002
   0.11249191  0.11931564 -0.06494724       0.002
   0.14998922  0.10605835 -0.06494724       0.002
   0.18748652  0.09280106 -0.06494724       0.002
  -0.07499461  0.18560211 -0.06494724       0.002
  -0.03749730  0.17234482 -0.06494724       0.002
   0.00000000  0.15908752 -0.06494724       0.002
   0.03749730  0.18560211 -0.06494724       0.002
   0.07499461  0.17234482 -0.06494724       0.002
   0.11249191  0.15908752 -0.06494724       0.002
   0.14998922  0.14583023 -0.06494724       0.002
   0.18748652  0.13257294 -0.06494724       0.002
  -0.07499461  0.22537399 -0.06494724       0.002
  -0.03749730  0.21211670 -0.06494724       0.002
   0.00000000  0.19885941 -0.06494724       0.002
   0.03749730 -0.09280106 -0.06494724       0.002
   0.07499461 -0.10605835 -0.06494724       0.002
   0.11249191 -0.11931564 -0.06494724       0.002
   0.14998922 -0.13257294 -0.06494724       0.002
   0.18748652 -0.14583023 -0.06494724       0.002
  -0.07499461 -0.05302917 -0.06494724       0.002
  -0.03749730 -0.06628647 -0.06494724       0.002
   0.00000000 -0.07954376 -0.06494724       0.002
   0.03749730 -0.05302917 -0.06494724       0.002
   0.07499461 -0.06628647 -0.06494724       0.002
   0.11249191 -0.07954376 -0.06494724       0.002
   0.14998922 -0.09280106 -0.06494724       0.002
   0.18748652 -0.10605835 -0.06494724       0.002
  -0.07499461 -0.01325729 -0.06494724       0.002
  -0.03749730 -0.02651459 -0.06494724       0.002
   0.00000000 -0.03977188 -0.06494724       0.002
   0.03749730 -0.01325729 -0.06494724       0.002
   0.07499461 -0.02651459 -0.06494724       0.002
   0.11249191 -0.03977188 -0.06494724       0.002
   0.14998922 -0.05302917 -0.06494724       0.002
   0.18748652 -0.06628647 -0.06494724       0.002
  -0.07499461  0.02651459 -0.06494724       0.002
  -0.03749730  0.01325729 -0.06494724       0.002
   0.00000000 -0.00000000 -0.06494724       0.002
   0.01874865  0.01325729 -0.03247362       0.002
   0.05624596 -0.00000000 -0.03247362       0.002
   0.09374326 -0.01325729 -0.03247362       0.002
   0.13124056 -0.02651459 -0.03247362       0.002
   0.16873787 -0.03977188 -0.03247362       0.002
  -0.09374326  0.05302917 -0.03247362       0.002
  -0.05624596  0.03977188 -0.03247362       0.002
  -0.01874865  0.02651459 -0.03247362       0.002
   0.01874865  0.05302917 -0.03247362       0.002
   0.05624596  0.03977188 -0.03247362       0.002
   0.09374326  0.02651459 -0.03247362       0.002
   0.13124056  0.01325729 -0.03247362       0.002
   0.16873787  0.00000000 -0.03247362       0.002
  -0.09374326  0.09280106 -0.03247362       0.002
  -0.05624596  0.07954376 -0.03247362       0.002
  -0.01874865  0.06628647 -0.03247362       0.002
   0.01874865  0.09280106 -0.03247362       0.002
   0.05624596  0.07954376 -0.03247362       0.002
   0.09374326  0.06628647 -0.03247362       0.002
   0.13124056  0.05302917 -0.03247362       0.002
   0.16873787  0.03977188 -0.03247362       0.002
  -0.09374326  0.13257294 -0.03247362       0.002
  -0.05624596  0.11931564 -0.03247362       0.002
  -0.01874865  0.10605835 -0.03247362       0.002
   0.01874865  0.13257294 -0.03247362       0.002
   0.05624596  0.11931564 -0.03247362       0.002
   0.09374326  0.10605835 -0.03247362       0.002
   0.13124056  0.09280106 -0.03247362       0.002
   0.16873787  0.07954376 -0.03247362       0.002
  -0.09374326  0.17234482 -0.03247362       0.002
  -0.05624596  0.15908752 -0.03247362       0.002
  -0.01874865  0.14583023 -0.03247362       0.002
   0.01874865  0.17234482 -0.03247362       0.002
   0.05624596  0.15908752 -0.03247362       0.002
   0.09374326  0.14583023 -0.03247362       0.002
   0.13124056  0.13257294 -0.03247362       0.002
   0.16873787  0.11931564 -0.03247362       0.002
  -0.09374326  0.21211670 -0.03247362       0.002
  -0.05624596  0.19885941 -0.03247362       0.002
  -0.01874865  0.18560211 -0.03247362       0.002
   0.01874865 -0.10605835 -0.03247362       0.002
   0.05624596 -0.11931564 -0.03247362       0.002
   0.09374326 -0.13257294 -0.03247362       0.002
   0.13124056 -0.14583023 -0.03247362       0.002
   0.16873787 -0.15908752 -0.03247362       0.002
  -0.09374326 -0.06628647 -0.03247362       0.002
  -0.05624596 -0.07954376 -0.03247362       0.002
  -0.01874865 -0.09280106 -0.03247362       0.002
   0.01874865 -0.06628647 -0.03247362       0.002
   0.05624596 -0.07954376 -0.03247362       0.002
   0.09374326 -0.09280106 -0.03247362       0.002
   0.13124056 -0.10605835 -0.03247362       0.002
   0.16873787 -0.11931564 -0.03247362       0.002
  -0.09374326 -0.02651459 -0.03247362       0.002
  -0.05624596 -0.03977188 -0.03247362       0.002
  -0.01874865 -0.05302917 -0.03247362       0.002
   0.01874865 -0.02651459 -0.03247362       0.002
   0.05624596 -0.03977188 -0.03247362       0.002
   0.09374326 -0.05302917 -0.03247362       0.002
   0.13124056 -0.06628647 -0.03247362       0.002
   0.16873787 -0.07954376 -0.03247362       0.002
  -0.09374326  0.01325729 -0.03247362       0.002
  -0.05624596 -0.00000000 -0.03247362       0.002
  -0.01874865 -0.01325729 -0.03247362       0.002
 
 k-points in reciprocal lattice and weights: pymatgen with grid density = 1230 / numb
   0.00000000  0.00000000  0.00000000       0.002
   0.12500000  0.00000000  0.00000000       0.002
   0.25000000  0.00000000  0.00000000       0.002
   0.37500000  0.00000000  0.00000000       0.002
   0.50000000  0.00000000  0.00000000       0.002
  -0.37500000  0.00000000  0.00000000       0.002
  -0.25000000  0.00000000  0.00000000       0.002
  -0.12500000  0.00000000  0.00000000       0.002
   0.00000000  0.12500000  0.00000000       0.002
   0.12500000  0.12500000  0.00000000       0.002
   0.25000000  0.12500000  0.00000000       0.002
   0.37500000  0.12500000  0.00000000       0.002
   0.50000000  0.12500000  0.00000000       0.002
  -0.37500000  0.12500000  0.00000000       0.002
  -0.25000000  0.12500000  0.00000000       0.002
  -0.12500000  0.12500000  0.00000000       0.002
   0.00000000  0.25000000  0.00000000       0.002
   0.12500000  0.25000000  0.00000000       0.002
   0.25000000  0.25000000  0.00000000       0.002
   0.37500000  0.25000000  0.00000000       0.002
   0.50000000  0.25000000  0.00000000       0.002
  -0.37500000  0.25000000  0.00000000       0.002
  -0.25000000  0.25000000  0.00000000       0.002
  -0.12500000  0.25000000  0.00000000       0.002
   0.00000000  0.37500000  0.00000000       0.002
   0.12500000  0.37500000  0.00000000       0.002
   0.25000000  0.37500000  0.00000000       0.002
   0.37500000  0.37500000  0.00000000       0.002
   0.50000000  0.37500000  0.00000000       0.002
  -0.37500000  0.37500000  0.00000000       0.002
  -0.25000000  0.37500000  0.00000000       0.002
  -0.12500000  0.37500000  0.00000000       0.002
   0.00000000  0.50000000  0.00000000       0.002
   0.12500000  0.50000000  0.00000000       0.002
   0.25000000  0.50000000  0.00000000       0.002
   0.37500000  0.50000000  0.00000000       0.002
   0.50000000  0.50000000  0.00000000       0.002
  -0.37500000  0.50000000  0.00000000       0.002
  -0.25000000  0.50000000  0.00000000       0.002
  -0.12500000  0.50000000  0.00000000       0.002
   0.00000000 -0.37500000  0.00000000       0.002
   0.12500000 -0.37500000  0.00000000       0.002
   0.25000000 -0.37500000  0.00000000       0.002
   0.37500000 -0.37500000  0.00000000       0.002
   0.50000000 -0.37500000  0.00000000       0.002
  -0.37500000 -0.37500000  0.00000000       0.002
  -0.25000000 -0.37500000  0.00000000       0.002
  -0.12500000 -0.37500000  0.00000000       0.002
   0.00000000 -0.25000000  0.00000000       0.002
   0.12500000 -0.25000000  0.00000000       0.002
   0.25000000 -0.25000000  0.00000000       0.002
   0.37500000 -0.25000000  0.00000000       0.002
   0.50000000 -0.25000000  0.00000000       0.002
  -0.37500000 -0.25000000  0.00000000       0.002
  -0.25000000 -0.25000000  0.00000000       0.002
  -0.12500000 -0.25000000  0.00000000       0.002
   0.00000000 -0.12500000  0.00000000       0.002
   0.12500000 -0.12500000  0.00000000       0.002
   0.25000000 -0.12500000  0.00000000       0.002
   0.37500000 -0.12500000  0.00000000       0.002
   0.50000000 -0.12500000  0.00000000       0.002
  -0.37500000 -0.12500000  0.00000000       0.002
  -0.25000000 -0.12500000  0.00000000       0.002
  -0.12500000 -0.12500000  0.00000000       0.002
   0.00000000  0.00000000  0.12500000       0.002
   0.12500000 -0.00000000  0.12500000       0.002
   0.25000000 -0.00000000  0.12500000       0.002
   0.37500000 -0.00000000  0.12500000       0.002
   0.50000000 -0.00000000  0.12500000       0.002
  -0.37500000 -0.00000000  0.12500000       0.002
  -0.25000000  0.00000000  0.12500000       0.002
  -0.12500000  0.00000000  0.12500000       0.002
   0.00000000  0.12500000  0.12500000       0.002
   0.12500000  0.12500000  0.12500000       0.002
   0.25000000  0.12500000  0.12500000       0.002
   0.37500000  0.12500000  0.12500000       0.002
   0.50000000  0.12500000  0.12500000       0.002
  -0.37500000  0.12500000  0.12500000       0.002
  -0.25000000  0.12500000  0.12500000       0.002
  -0.12500000  0.12500000  0.12500000       0.002
   0.00000000  0.25000000  0.12500000       0.002
   0.12500000  0.25000000  0.12500000       0.002
   0.25000000  0.25000000  0.12500000       0.002
   0.37500000  0.25000000  0.12500000       0.002
   0.50000000  0.25000000  0.12500000       0.002
  -0.37500000  0.25000000  0.12500000       0.002
  -0.25000000  0.25000000  0.12500000       0.002
  -0.12500000  0.25000000  0.12500000       0.002
   0.00000000  0.37500000  0.12500000       0.002
   0.12500000  0.37500000  0.12500000       0.002
   0.25000000  0.37500000  0.12500000       0.002
   0.37500000  0.37500000  0.12500000       0.002
   0.50000000  0.37500000  0.12500000       0.002
  -0.37500000  0.37500000  0.12500000       0.002
  -0.25000000  0.37500000  0.12500000       0.002
  -0.12500000  0.37500000  0.12500000       0.002
   0.00000000  0.50000000  0.12500000       0.002
   0.12500000  0.50000000  0.12500000       0.002
   0.25000000  0.50000000  0.12500000       0.002
   0.37500000  0.50000000  0.12500000       0.002
   0.50000000  0.50000000  0.12500000       0.002
  -0.37500000  0.50000000  0.12500000       0.002
  -0.25000000  0.50000000  0.12500000       0.002
  -0.12500000  0.50000000  0.12500000       0.002
   0.00000000 -0.37500000  0.12500000       0.002
   0.12500000 -0.37500000  0.12500000       0.002
   0.25000000 -0.37500000  0.12500000       0.002
   0.37500000 -0.37500000  0.12500000       0.002
   0.50000000 -0.37500000  0.12500000       0.002
  -0.37500000 -0.37500000  0.12500000       0.002
  -0.25000000 -0.37500000  0.12500000       0.002
  -0.12500000 -0.37500000  0.12500000       0.002
   0.00000000 -0.25000000  0.12500000       0.002
   0.12500000 -0.25000000  0.12500000       0.002
   0.25000000 -0.25000000  0.12500000       0.002
   0.37500000 -0.25000000  0.12500000       0.002
   0.50000000 -0.25000000  0.12500000       0.002
  -0.37500000 -0.25000000  0.12500000       0.002
  -0.25000000 -0.25000000  0.12500000       0.002
  -0.12500000 -0.25000000  0.12500000       0.002
   0.00000000 -0.12500000  0.12500000       0.002
   0.12500000 -0.12500000  0.12500000       0.002
   0.25000000 -0.12500000  0.12500000       0.002
   0.37500000 -0.12500000  0.12500000       0.002
   0.50000000 -0.12500000  0.12500000       0.002
  -0.37500000 -0.12500000  0.12500000       0.002
  -0.25000000 -0.12500000  0.12500000       0.002
  -0.12500000 -0.12500000  0.12500000       0.002
   0.00000000  0.00000000  0.25000000       0.002
   0.12500000 -0.00000000  0.25000000       0.002
   0.25000000 -0.00000000  0.25000000       0.002
   0.37500000  0.00000000  0.25000000       0.002
   0.50000000 -0.00000000  0.25000000       0.002
  -0.37500000  0.00000000  0.25000000       0.002
  -0.25000000  0.00000000  0.25000000       0.002
  -0.12500000  0.00000000  0.25000000       0.002
   0.00000000  0.12500000  0.25000000       0.002
   0.12500000  0.12500000  0.25000000       0.002
   0.25000000  0.12500000  0.25000000       0.002
   0.37500000  0.12500000  0.25000000       0.002
   0.50000000  0.12500000  0.25000000       0.002
  -0.37500000  0.12500000  0.25000000       0.002
  -0.25000000  0.12500000  0.25000000       0.002
  -0.12500000  0.12500000  0.25000000       0.002
   0.00000000  0.25000000  0.25000000       0.002
   0.12500000  0.25000000  0.25000000       0.002
   0.25000000  0.25000000  0.25000000       0.002
   0.37500000  0.25000000  0.25000000       0.002
   0.50000000  0.25000000  0.25000000       0.002
  -0.37500000  0.25000000  0.25000000       0.002
  -0.25000000  0.25000000  0.25000000       0.002
  -0.12500000  0.25000000  0.25000000       0.002
   0.00000000  0.37500000  0.25000000       0.002
   0.12500000  0.37500000  0.25000000       0.002
   0.25000000  0.37500000  0.25000000       0.002
   0.37500000  0.37500000  0.25000000       0.002
   0.50000000  0.37500000  0.25000000       0.002
  -0.37500000  0.37500000  0.25000000       0.002
  -0.25000000  0.37500000  0.25000000       0.002
  -0.12500000  0.37500000  0.25000000       0.002
   0.00000000  0.50000000  0.25000000       0.002
   0.12500000  0.50000000  0.25000000       0.002
   0.25000000  0.50000000  0.25000000       0.002
   0.37500000  0.50000000  0.25000000       0.002
   0.50000000  0.50000000  0.25000000       0.002
  -0.37500000  0.50000000  0.25000000       0.002
  -0.25000000  0.50000000  0.25000000       0.002
  -0.12500000  0.50000000  0.25000000       0.002
   0.00000000 -0.37500000  0.25000000       0.002
   0.12500000 -0.37500000  0.25000000       0.002
   0.25000000 -0.37500000  0.25000000       0.002
   0.37500000 -0.37500000  0.25000000       0.002
   0.50000000 -0.37500000  0.25000000       0.002
  -0.37500000 -0.37500000  0.25000000       0.002
  -0.25000000 -0.37500000  0.25000000       0.002
  -0.12500000 -0.37500000  0.25000000       0.002
   0.00000000 -0.25000000  0.25000000       0.002
   0.12500000 -0.25000000  0.25000000       0.002
   0.25000000 -0.25000000  0.25000000       0.002
   0.37500000 -0.25000000  0.25000000       0.002
   0.50000000 -0.25000000  0.25000000       0.002
  -0.37500000 -0.25000000  0.25000000       0.002
  -0.25000000 -0.25000000  0.25000000       0.002
  -0.12500000 -0.25000000  0.25000000       0.002
   0.00000000 -0.12500000  0.25000000       0.002
   0.12500000 -0.12500000  0.25000000       0.002
   0.25000000 -0.12500000  0.25000000       0.002
   0.37500000 -0.12500000  0.25000000       0.002
   0.50000000 -0.12500000  0.25000000       0.002
  -0.37500000 -0.12500000  0.25000000       0.002
  -0.25000000 -0.12500000  0.25000000       0.002
  -0.12500000 -0.12500000  0.25000000       0.002
  -0.00000000  0.00000000  0.37500000       0.002
   0.12500000  0.00000000  0.37500000       0.002
   0.25000000  0.00000000  0.37500000       0.002
   0.37500000 -0.00000000  0.37500000       0.002
   0.50000000  0.00000000  0.37500000       0.002
  -0.37500000 -0.00000000  0.37500000       0.002
  -0.25000000  0.00000000  0.37500000       0.002
  -0.12500000  0.00000000  0.37500000       0.002
  -0.00000000  0.12500000  0.37500000       0.002
   0.12500000  0.12500000  0.37500000       0.002
   0.25000000  0.12500000  0.37500000       0.002
   0.37500000  0.12500000  0.37500000       0.002
   0.50000000  0.12500000  0.37500000       0.002
  -0.37500000  0.12500000  0.37500000       0.002
  -0.25000000  0.12500000  0.37500000       0.002
  -0.12500000  0.12500000  0.37500000       0.002
  -0.00000000  0.25000000  0.37500000       0.002
   0.12500000  0.25000000  0.37500000       0.002
   0.25000000  0.25000000  0.37500000       0.002
   0.37500000  0.25000000  0.37500000       0.002
   0.50000000  0.25000000  0.37500000       0.002
  -0.37500000  0.25000000  0.37500000       0.002
  -0.25000000  0.25000000  0.37500000       0.002
  -0.12500000  0.25000000  0.37500000       0.002
  -0.00000000  0.37500000  0.37500000       0.002
   0.12500000  0.37500000  0.37500000       0.002
   0.25000000  0.37500000  0.37500000       0.002
   0.37500000  0.37500000  0.37500000       0.002
   0.50000000  0.37500000  0.37500000       0.002
  -0.37500000  0.37500000  0.37500000       0.002
  -0.25000000  0.37500000  0.37500000       0.002
  -0.12500000  0.37500000  0.37500000       0.002
  -0.00000000  0.50000000  0.37500000       0.002
   0.12500000  0.50000000  0.37500000       0.002
   0.25000000  0.50000000  0.37500000       0.002
   0.37500000  0.50000000  0.37500000       0.002
   0.50000000  0.50000000  0.37500000       0.002
  -0.37500000  0.50000000  0.37500000       0.002
  -0.25000000  0.50000000  0.37500000       0.002
  -0.12500000  0.50000000  0.37500000       0.002
  -0.00000000 -0.37500000  0.37500000       0.002
   0.12500000 -0.37500000  0.37500000       0.002
   0.25000000 -0.37500000  0.37500000       0.002
   0.37500000 -0.37500000  0.37500000       0.002
   0.50000000 -0.37500000  0.37500000       0.002
  -0.37500000 -0.37500000  0.37500000       0.002
  -0.25000000 -0.37500000  0.37500000       0.002
  -0.12500000 -0.37500000  0.37500000       0.002
  -0.00000000 -0.25000000  0.37500000       0.002
   0.12500000 -0.25000000  0.37500000       0.002
   0.25000000 -0.25000000  0.37500000       0.002
   0.37500000 -0.25000000  0.37500000       0.002
   0.50000000 -0.25000000  0.37500000       0.002
  -0.37500000 -0.25000000  0.37500000       0.002
  -0.25000000 -0.25000000  0.37500000       0.002
  -0.12500000 -0.25000000  0.37500000       0.002
  -0.00000000 -0.12500000  0.37500000       0.002
   0.12500000 -0.12500000  0.37500000       0.002
   0.25000000 -0.12500000  0.37500000       0.002
   0.37500000 -0.12500000  0.37500000       0.002
   0.50000000 -0.12500000  0.37500000       0.002
  -0.37500000 -0.12500000  0.37500000       0.002
  -0.25000000 -0.12500000  0.37500000       0.002
  -0.12500000 -0.12500000  0.37500000       0.002
   0.00000000  0.00000000  0.50000000       0.002
   0.12500000 -0.00000000  0.50000000       0.002
   0.25000000 -0.00000000  0.50000000       0.002
   0.37500000  0.00000000  0.50000000       0.002
   0.50000000 -0.00000000  0.50000000       0.002
  -0.37500000 -0.00000000  0.50000000       0.002
  -0.25000000  0.00000000  0.50000000       0.002
  -0.12500000 -0.00000000  0.50000000       0.002
   0.00000000  0.12500000  0.50000000       0.002
   0.12500000  0.12500000  0.50000000       0.002
   0.25000000  0.12500000  0.50000000       0.002
   0.37500000  0.12500000  0.50000000       0.002
   0.50000000  0.12500000  0.50000000       0.002
  -0.37500000  0.12500000  0.50000000       0.002
  -0.25000000  0.12500000  0.50000000       0.002
  -0.12500000  0.12500000  0.50000000       0.002
   0.00000000  0.25000000  0.50000000       0.002
   0.12500000  0.25000000  0.50000000       0.002
   0.25000000  0.25000000  0.50000000       0.002
   0.37500000  0.25000000  0.50000000       0.002
   0.50000000  0.25000000  0.50000000       0.002
  -0.37500000  0.25000000  0.50000000       0.002
  -0.25000000  0.25000000  0.50000000       0.002
  -0.12500000  0.25000000  0.50000000       0.002
   0.00000000  0.37500000  0.50000000       0.002
   0.12500000  0.37500000  0.50000000       0.002
   0.25000000  0.37500000  0.50000000       0.002
   0.37500000  0.37500000  0.50000000       0.002
   0.50000000  0.37500000  0.50000000       0.002
  -0.37500000  0.37500000  0.50000000       0.002
  -0.25000000  0.37500000  0.50000000       0.002
  -0.12500000  0.37500000  0.50000000       0.002
   0.00000000  0.50000000  0.50000000       0.002
   0.12500000  0.50000000  0.50000000       0.002
   0.25000000  0.50000000  0.50000000       0.002
   0.37500000  0.50000000  0.50000000       0.002
   0.50000000  0.50000000  0.50000000       0.002
  -0.37500000  0.50000000  0.50000000       0.002
  -0.25000000  0.50000000  0.50000000       0.002
  -0.12500000  0.50000000  0.50000000       0.002
   0.00000000 -0.37500000  0.50000000       0.002
   0.12500000 -0.37500000  0.50000000       0.002
   0.25000000 -0.37500000  0.50000000       0.002
   0.37500000 -0.37500000  0.50000000       0.002
   0.50000000 -0.37500000  0.50000000       0.002
  -0.37500000 -0.37500000  0.50000000       0.002
  -0.25000000 -0.37500000  0.50000000       0.002
  -0.12500000 -0.37500000  0.50000000       0.002
   0.00000000 -0.25000000  0.50000000       0.002
   0.12500000 -0.25000000  0.50000000       0.002
   0.25000000 -0.25000000  0.50000000       0.002
   0.37500000 -0.25000000  0.50000000       0.002
   0.50000000 -0.25000000  0.50000000       0.002
  -0.37500000 -0.25000000  0.50000000       0.002
  -0.25000000 -0.25000000  0.50000000       0.002
  -0.12500000 -0.25000000  0.50000000       0.002
   0.00000000 -0.12500000  0.50000000       0.002
   0.12500000 -0.12500000  0.50000000       0.002
   0.25000000 -0.12500000  0.50000000       0.002
   0.37500000 -0.12500000  0.50000000       0.002
   0.50000000 -0.12500000  0.50000000       0.002
  -0.37500000 -0.12500000  0.50000000       0.002
  -0.25000000 -0.12500000  0.50000000       0.002
  -0.12500000 -0.12500000  0.50000000       0.002
   0.00000000  0.00000000 -0.37500000       0.002
   0.12500000  0.00000000 -0.37500000       0.002
   0.25000000  0.00000000 -0.37500000       0.002
   0.37500000  0.00000000 -0.37500000       0.002
   0.50000000  0.00000000 -0.37500000       0.002
  -0.37500000  0.00000000 -0.37500000       0.002
  -0.25000000  0.00000000 -0.37500000       0.002
  -0.12500000  0.00000000 -0.37500000       0.002
   0.00000000  0.12500000 -0.37500000       0.002
   0.12500000  0.12500000 -0.37500000       0.002
   0.25000000  0.12500000 -0.37500000       0.002
   0.37500000  0.12500000 -0.37500000       0.002
   0.50000000  0.12500000 -0.37500000       0.002
  -0.37500000  0.12500000 -0.37500000       0.002
  -0.25000000  0.12500000 -0.37500000       0.002
  -0.12500000  0.12500000 -0.37500000       0.002
   0.00000000  0.25000000 -0.37500000       0.002
   0.12500000  0.25000000 -0.37500000       0.002
   0.25000000  0.25000000 -0.37500000       0.002
   0.37500000  0.25000000 -0.37500000       0.002
   0.50000000  0.25000000 -0.37500000       0.002
  -0.37500000  0.25000000 -0.37500000       0.002
  -0.25000000  0.25000000 -0.37500000       0.002
  -0.12500000  0.25000000 -0.37500000       0.002
   0.00000000  0.37500000 -0.37500000       0.002
   0.12500000  0.37500000 -0.37500000       0.002
   0.25000000  0.37500000 -0.37500000       0.002
   0.37500000  0.37500000 -0.37500000       0.002
   0.50000000  0.37500000 -0.37500000       0.002
  -0.37500000  0.37500000 -0.37500000       0.002
  -0.25000000  0.37500000 -0.37500000       0.002
  -0.12500000  0.37500000 -0.37500000       0.002
   0.00000000  0.50000000 -0.37500000       0.002
   0.12500000  0.50000000 -0.37500000       0.002
   0.25000000  0.50000000 -0.37500000       0.002
   0.37500000  0.50000000 -0.37500000       0.002
   0.50000000  0.50000000 -0.37500000       0.002
  -0.37500000  0.50000000 -0.37500000       0.002
  -0.25000000  0.50000000 -0.37500000       0.002
  -0.12500000  0.50000000 -0.37500000       0.002
   0.00000000 -0.37500000 -0.37500000       0.002
   0.12500000 -0.37500000 -0.37500000       0.002
   0.25000000 -0.37500000 -0.37500000       0.002
   0.37500000 -0.37500000 -0.37500000       0.002
   0.50000000 -0.37500000 -0.37500000       0.002
  -0.37500000 -0.37500000 -0.37500000       0.002
  -0.25000000 -0.37500000 -0.37500000       0.002
  -0.12500000 -0.37500000 -0.37500000       0.002
   0.00000000 -0.25000000 -0.37500000       0.002
   0.12500000 -0.25000000 -0.37500000       0.002
   0.25000000 -0.25000000 -0.37500000       0.002
   0.37500000 -0.25000000 -0.37500000       0.002
   0.50000000 -0.25000000 -0.37500000       0.002
  -0.37500000 -0.25000000 -0.37500000       0.002
  -0.25000000 -0.25000000 -0.37500000       0.002
  -0.12500000 -0.25000000 -0.37500000       0.002
   0.00000000 -0.12500000 -0.37500000       0.002
   0.12500000 -0.12500000 -0.37500000       0.002
   0.25000000 -0.12500000 -0.37500000       0.002
   0.37500000 -0.12500000 -0.37500000       0.002
   0.50000000 -0.12500000 -0.37500000       0.002
  -0.37500000 -0.12500000 -0.37500000       0.002
  -0.25000000 -0.12500000 -0.37500000       0.002
  -0.12500000 -0.12500000 -0.37500000       0.002
   0.00000000  0.00000000 -0.25000000       0.002
   0.12500000 -0.00000000 -0.25000000       0.002
   0.25000000  0.00000000 -0.25000000       0.002
   0.37500000 -0.00000000 -0.25000000       0.002
   0.50000000  0.00000000 -0.25000000       0.002
  -0.37500000 -0.00000000 -0.25000000       0.002
  -0.25000000  0.00000000 -0.25000000       0.002
  -0.12500000  0.00000000 -0.25000000       0.002
   0.00000000  0.12500000 -0.25000000       0.002
   0.12500000  0.12500000 -0.25000000       0.002
   0.25000000  0.12500000 -0.25000000       0.002
   0.37500000  0.12500000 -0.25000000       0.002
   0.50000000  0.12500000 -0.25000000       0.002
  -0.37500000  0.12500000 -0.25000000       0.002
  -0.25000000  0.12500000 -0.25000000       0.002
  -0.12500000  0.12500000 -0.25000000       0.002
   0.00000000  0.25000000 -0.25000000       0.002
   0.12500000  0.25000000 -0.25000000       0.002
   0.25000000  0.25000000 -0.25000000       0.002
   0.37500000  0.25000000 -0.25000000       0.002
   0.50000000  0.25000000 -0.25000000       0.002
  -0.37500000  0.25000000 -0.25000000       0.002
  -0.25000000  0.25000000 -0.25000000       0.002
  -0.12500000  0.25000000 -0.25000000       0.002
   0.00000000  0.37500000 -0.25000000       0.002
   0.12500000  0.37500000 -0.25000000       0.002
   0.25000000  0.37500000 -0.25000000       0.002
   0.37500000  0.37500000 -0.25000000       0.002
   0.50000000  0.37500000 -0.25000000       0.002
  -0.37500000  0.37500000 -0.25000000       0.002
  -0.25000000  0.37500000 -0.25000000       0.002
  -0.12500000  0.37500000 -0.25000000       0.002
   0.00000000  0.50000000 -0.25000000       0.002
   0.12500000  0.50000000 -0.25000000       0.002
   0.25000000  0.50000000 -0.25000000       0.002
   0.37500000  0.50000000 -0.25000000       0.002
   0.50000000  0.50000000 -0.25000000       0.002
  -0.37500000  0.50000000 -0.25000000       0.002
  -0.25000000  0.50000000 -0.25000000       0.002
  -0.12500000  0.50000000 -0.25000000       0.002
   0.00000000 -0.37500000 -0.25000000       0.002
   0.12500000 -0.37500000 -0.25000000       0.002
   0.25000000 -0.37500000 -0.25000000       0.002
   0.37500000 -0.37500000 -0.25000000       0.002
   0.50000000 -0.37500000 -0.25000000       0.002
  -0.37500000 -0.37500000 -0.25000000       0.002
  -0.25000000 -0.37500000 -0.25000000       0.002
  -0.12500000 -0.37500000 -0.25000000       0.002
   0.00000000 -0.25000000 -0.25000000       0.002
   0.12500000 -0.25000000 -0.25000000       0.002
   0.25000000 -0.25000000 -0.25000000       0.002
   0.37500000 -0.25000000 -0.25000000       0.002
   0.50000000 -0.25000000 -0.25000000       0.002
  -0.37500000 -0.25000000 -0.25000000       0.002
  -0.25000000 -0.25000000 -0.25000000       0.002
  -0.12500000 -0.25000000 -0.25000000       0.002
   0.00000000 -0.12500000 -0.25000000       0.002
   0.12500000 -0.12500000 -0.25000000       0.002
   0.25000000 -0.12500000 -0.25000000       0.002
   0.37500000 -0.12500000 -0.25000000       0.002
   0.50000000 -0.12500000 -0.25000000       0.002
  -0.37500000 -0.12500000 -0.25000000       0.002
  -0.25000000 -0.12500000 -0.25000000       0.002
  -0.12500000 -0.12500000 -0.25000000       0.002
   0.00000000  0.00000000 -0.12500000       0.002
   0.12500000  0.00000000 -0.12500000       0.002
   0.25000000  0.00000000 -0.12500000       0.002
   0.37500000  0.00000000 -0.12500000       0.002
   0.50000000  0.00000000 -0.12500000       0.002
  -0.37500000  0.00000000 -0.12500000       0.002
  -0.25000000  0.00000000 -0.12500000       0.002
  -0.12500000  0.00000000 -0.12500000       0.002
   0.00000000  0.12500000 -0.12500000       0.002
   0.12500000  0.12500000 -0.12500000       0.002
   0.25000000  0.12500000 -0.12500000       0.002
   0.37500000  0.12500000 -0.12500000       0.002
   0.50000000  0.12500000 -0.12500000       0.002
  -0.37500000  0.12500000 -0.12500000       0.002
  -0.25000000  0.12500000 -0.12500000       0.002
  -0.12500000  0.12500000 -0.12500000       0.002
   0.00000000  0.25000000 -0.12500000       0.002
   0.12500000  0.25000000 -0.12500000       0.002
   0.25000000  0.25000000 -0.12500000       0.002
   0.37500000  0.25000000 -0.12500000       0.002
   0.50000000  0.25000000 -0.12500000       0.002
  -0.37500000  0.25000000 -0.12500000       0.002
  -0.25000000  0.25000000 -0.12500000       0.002
  -0.12500000  0.25000000 -0.12500000       0.002
   0.00000000  0.37500000 -0.12500000       0.002
   0.12500000  0.37500000 -0.12500000       0.002
   0.25000000  0.37500000 -0.12500000       0.002
   0.37500000  0.37500000 -0.12500000       0.002
   0.50000000  0.37500000 -0.12500000       0.002
  -0.37500000  0.37500000 -0.12500000       0.002
  -0.25000000  0.37500000 -0.12500000       0.002
  -0.12500000  0.37500000 -0.12500000       0.002
   0.00000000  0.50000000 -0.12500000       0.002
   0.12500000  0.50000000 -0.12500000       0.002
   0.25000000  0.50000000 -0.12500000       0.002
   0.37500000  0.50000000 -0.12500000       0.002
   0.50000000  0.50000000 -0.12500000       0.002
  -0.37500000  0.50000000 -0.12500000       0.002
  -0.25000000  0.50000000 -0.12500000       0.002
  -0.12500000  0.50000000 -0.12500000       0.002
   0.00000000 -0.37500000 -0.12500000       0.002
   0.12500000 -0.37500000 -0.12500000       0.002
   0.25000000 -0.37500000 -0.12500000       0.002
   0.37500000 -0.37500000 -0.12500000       0.002
   0.50000000 -0.37500000 -0.12500000       0.002
  -0.37500000 -0.37500000 -0.12500000       0.002
  -0.25000000 -0.37500000 -0.12500000       0.002
  -0.12500000 -0.37500000 -0.12500000       0.002
   0.00000000 -0.25000000 -0.12500000       0.002
   0.12500000 -0.25000000 -0.12500000       0.002
   0.25000000 -0.25000000 -0.12500000       0.002
   0.37500000 -0.25000000 -0.12500000       0.002
   0.50000000 -0.25000000 -0.12500000       0.002
  -0.37500000 -0.25000000 -0.12500000       0.002
  -0.25000000 -0.25000000 -0.12500000       0.002
  -0.12500000 -0.25000000 -0.12500000       0.002
   0.00000000 -0.12500000 -0.12500000       0.002
   0.12500000 -0.12500000 -0.12500000       0.002
   0.25000000 -0.12500000 -0.12500000       0.002
   0.37500000 -0.12500000 -0.12500000       0.002
   0.50000000 -0.12500000 -0.12500000       0.002
  -0.37500000 -0.12500000 -0.12500000       0.002
  -0.25000000 -0.12500000 -0.12500000       0.002
  -0.12500000 -0.12500000 -0.12500000       0.002
 
 position of ions in fractional coordinates (direct lattice) 
   0.87500000  0.87500000  0.87500000
   0.12500000  0.12500000  0.12500000
 
 position of ions in cartesian coordinates  (Angst):
   3.88916850  2.75005850  6.73623650
   0.55559550  0.39286550  0.96231950
 


--------------------------------------------------------------------------------------------------------


 k-point     1 :   0.0000 0.0000 0.0000  plane waves:    1363
 k-point     2 :   0.1250 0.0000 0.0000  plane waves:    1357
 k-point     3 :   0.2500 0.0000 0.0000  plane waves:    1351
 k-point     4 :   0.3750 0.0000 0.0000  plane waves:    1350
 k-point     5 :   0.5000 0.0000 0.0000  plane waves:    1350
 k-point     6 :  -0.3750 0.0000 0.0000  plane waves:    1350
 k-point     7 :  -0.2500 0.0000 0.0000  plane waves:    1351
 k-point     8 :  -0.1250 0.0000 0.0000  plane waves:    1357
 k-point     9 :   0.0000 0.1250 0.0000  plane waves:    1357
 k-point    10 :   0.1250 0.1250 0.0000  plane waves:    1355
 k-point    11 :   0.2500 0.1250 0.0000  plane waves:    1346
 k-point    12 :   0.3750 0.1250 0.0000  plane waves:    1339
 k-point    13 :   0.5000 0.1250 0.0000  plane waves:    1350
 k-point    14 :  -0.3750 0.1250 0.0000  plane waves:    1359
 k-point    15 :  -0.2500 0.1250 0.0000  plane waves:    1348
 k-point    16 :  -0.1250 0.1250 0.0000  plane waves:    1365
 k-point    17 :   0.0000 0.2500 0.0000  plane waves:    1351
 k-point    18 :   0.1250 0.2500 0.0000  plane waves:    1346
 k-point    19 :   0.2500 0.2500 0.0000  plane waves:    1331
 k-point    20 :   0.3750 0.2500 0.0000  plane waves:    1345
 k-point    21 :   0.5000 0.2500 0.0000  plane waves:    1348
 k-point    22 :  -0.3750 0.2500 0.0000  plane waves:    1339
 k-point    23 :  -0.2500 0.2500 0.0000  plane waves:    1340
 k-point    24 :  -0.1250 0.2500 0.0000  plane waves:    1348
 k-point    25 :   0.0000 0.3750 0.0000  plane waves:    1350
 k-point    26 :   0.1250 0.3750 0.0000  plane waves:    1339
 k-point    27 :   0.2500 0.3750 0.0000  plane waves:    1345
 k-point    28 :   0.3750 0.3750 0.0000  plane waves:    1359
 k-point    29 :   0.5000 0.3750 0.0000  plane waves:    1343
 k-point    30 :  -0.3750 0.3750 0.0000  plane waves:    1350
 k-point    31 :  -0.2500 0.3750 0.0000  plane waves:    1339
 k-point    32 :  -0.1250 0.3750 0.0000  plane waves:    1359
 k-point    33 :   0.0000 0.5000 0.0000  plane waves:    1350
 k-point    34 :   0.1250 0.5000 0.0000  plane waves:    1350
 k-point    35 :   0.2500 0.5000 0.0000  plane waves:    1348
 k-point    36 :   0.3750 0.5000 0.0000  plane waves:    1343
 k-point    37 :   0.5000 0.5000 0.0000  plane waves:    1362
 k-point    38 :  -0.3750 0.5000 0.0000  plane waves:    1343
 k-point    39 :  -0.2500 0.5000 0.0000  plane waves:    1348
 k-point    40 :  -0.1250 0.5000 0.0000  plane waves:    1350
 k-point    41 :   0.0000-0.3750 0.0000  plane waves:    1350
 k-point    42 :   0.1250-0.3750 0.0000  plane waves:    1359
 k-point    43 :   0.2500-0.3750 0.0000  plane waves:    1339
 k-point    44 :   0.3750-0.3750 0.0000  plane waves:    1350
 k-point    45 :   0.5000-0.3750 0.0000  plane waves:    1343
 k-point    46 :  -0.3750-0.3750 0.0000  plane waves:    1359
 k-point    47 :  -0.2500-0.3750 0.0000  plane waves:    1345
 k-point    48 :  -0.1250-0.3750 0.0000  plane waves:    1339
 k-point    49 :   0.0000-0.2500 0.0000  plane waves:    1351
 k-point    50 :   0.1250-0.2500 0.0000  plane waves:    1348
 k-point    51 :   0.2500-0.2500 0.0000  plane waves:    1340
 k-point    52 :   0.3750-0.2500 0.0000  plane waves:    1339
 k-point    53 :   0.5000-0.2500 0.0000  plane waves:    1348
 k-point    54 :  -0.3750-0.2500 0.0000  plane waves:    1345
 k-point    55 :  -0.2500-0.2500 0.0000  plane waves:    1331
 k-point    56 :  -0.1250-0.2500 0.0000  plane waves:    1346
 k-point    57 :   0.0000-0.1250 0.0000  plane waves:    1357
 k-point    58 :   0.1250-0.1250 0.0000  plane waves:    1365
 k-point    59 :   0.2500-0.1250 0.0000  plane waves:    1348
 k-point    60 :   0.3750-0.1250 0.0000  plane waves:    1359
 k-point    61 :   0.5000-0.1250 0.0000  plane waves:    1350
 k-point    62 :  -0.3750-0.1250 0.0000  plane waves:    1339
 k-point    63 :  -0.2500-0.1250 0.0000  plane waves:    1346
 k-point    64 :  -0.1250-0.1250 0.0000  plane waves:    1355
 k-point    65 :   0.0000 0.0000 0.1250  plane waves:    1357
 k-point    66 :   0.1250-0.0000 0.1250  plane waves:    1355
 k-point    67 :   0.2500-0.0000 0.1250  plane waves:    1346
 k-point    68 :   0.3750-0.0000 0.1250  plane waves:    1339
 k-point    69 :   0.5000-0.0000 0.1250  plane waves:    1350
 k-point    70 :  -0.3750-0.0000 0.1250  plane waves:    1359
 k-point    71 :  -0.2500 0.0000 0.1250  plane waves:    1348
 k-point    72 :  -0.1250 0.0000 0.1250  plane waves:    1365
 k-point    73 :   0.0000 0.1250 0.1250  plane waves:    1355
 k-point    74 :   0.1250 0.1250 0.1250  plane waves:    1357
 k-point    75 :   0.2500 0.1250 0.1250  plane waves:    1365
 k-point    76 :   0.3750 0.1250 0.1250  plane waves:    1348
 k-point    77 :   0.5000 0.1250 0.1250  plane waves:    1359
 k-point    78 :  -0.3750 0.1250 0.1250  plane waves:    1350
 k-point    79 :  -0.2500 0.1250 0.1250  plane waves:    1339
 k-point    80 :  -0.1250 0.1250 0.1250  plane waves:    1346
 k-point    81 :   0.0000 0.2500 0.1250  plane waves:    1346
 k-point    82 :   0.1250 0.2500 0.1250  plane waves:    1365
 k-point    83 :   0.2500 0.2500 0.1250  plane waves:    1346
 k-point    84 :   0.3750 0.2500 0.1250  plane waves:    1343
 k-point    85 :   0.5000 0.2500 0.1250  plane waves:    1346
 k-point    86 :  -0.3750 0.2500 0.1250  plane waves:    1356
 k-point    87 :  -0.2500 0.2500 0.1250  plane waves:    1346
 k-point    88 :  -0.1250 0.2500 0.1250  plane waves:    1343
 k-point    89 :   0.0000 0.3750 0.1250  plane waves:    1339
 k-point    90 :   0.1250 0.3750 0.1250  plane waves:    1348
 k-point    91 :   0.2500 0.3750 0.1250  plane waves:    1343
 k-point    92 :   0.3750 0.3750 0.1250  plane waves:    1345
 k-point    93 :   0.5000 0.3750 0.1250  plane waves:    1339
 k-point    94 :  -0.3750 0.3750 0.1250  plane waves:    1347
 k-point    95 :  -0.2500 0.3750 0.1250  plane waves:    1342
 k-point    96 :  -0.1250 0.3750 0.1250  plane waves:    1346
 k-point    97 :   0.0000 0.5000 0.1250  plane waves:    1350
 k-point    98 :   0.1250 0.5000 0.1250  plane waves:    1359
 k-point    99 :   0.2500 0.5000 0.1250  plane waves:    1346
 k-point   100 :   0.3750 0.5000 0.1250  plane waves:    1339
 k-point   101 :   0.5000 0.5000 0.1250  plane waves:    1343
 k-point   102 :  -0.3750 0.5000 0.1250  plane waves:    1350
 k-point   103 :  -0.2500 0.5000 0.1250  plane waves:    1347
 k-point   104 :  -0.1250 0.5000 0.1250  plane waves:    1356
 k-point   105 :   0.0000-0.3750 0.1250  plane waves:    1359
 k-point   106 :   0.1250-0.3750 0.1250  plane waves:    1350
 k-point   107 :   0.2500-0.3750 0.1250  plane waves:    1356
 k-point   108 :   0.3750-0.3750 0.1250  plane waves:    1347
 k-point   109 :   0.5000-0.3750 0.1250  plane waves:    1350
 k-point   110 :  -0.3750-0.3750 0.1250  plane waves:    1343
 k-point   111 :  -0.2500-0.3750 0.1250  plane waves:    1339
 k-point   112 :  -0.1250-0.3750 0.1250  plane waves:    1346
 k-point   113 :   0.0000-0.2500 0.1250  plane waves:    1348
 k-point   114 :   0.1250-0.2500 0.1250  plane waves:    1339
 k-point   115 :   0.2500-0.2500 0.1250  plane waves:    1346
 k-point   116 :   0.3750-0.2500 0.1250  plane waves:    1342
 k-point   117 :   0.5000-0.2500 0.1250  plane waves:    1347
 k-point   118 :  -0.3750-0.2500 0.1250  plane waves:    1339
 k-point   119 :  -0.2500-0.2500 0.1250  plane waves:    1345
 k-point   120 :  -0.1250-0.2500 0.1250  plane waves:    1343
 k-point   121 :   0.0000-0.1250 0.1250  plane waves:    1365
 k-point   122 :   0.1250-0.1250 0.1250  plane waves:    1346
 k-point   123 :   0.2500-0.1250 0.1250  plane waves:    1343
 k-point   124 :   0.3750-0.1250 0.1250  plane waves:    1346
 k-point   125 :   0.5000-0.1250 0.1250  plane waves:    1356
 k-point   126 :  -0.3750-0.1250 0.1250  plane waves:    1346
 k-point   127 :  -0.2500-0.1250 0.1250  plane waves:    1343
 k-point   128 :  -0.1250-0.1250 0.1250  plane waves:    1346
 k-point   129 :   0.0000 0.0000 0.2500  plane waves:    1351
 k-point   130 :   0.1250-0.0000 0.2500  plane waves:    1346
 k-point   131 :   0.2500-0.0000 0.2500  plane waves:    1331
 k-point   132 :   0.3750 0.0000 0.2500  plane waves:    1345
 k-point   133 :   0.5000-0.0000 0.2500  plane waves:    1348
 k-point   134 :  -0.3750 0.0000 0.2500  plane waves:    1339
 k-point   135 :  -0.2500 0.0000 0.2500  plane waves:    1340
 k-point   136 :  -0.1250 0.0000 0.2500  plane waves:    1348
 k-point   137 :   0.0000 0.1250 0.2500  plane waves:    1346
 k-point   138 :   0.1250 0.1250 0.2500  plane waves:    1365
 k-point   139 :   0.2500 0.1250 0.2500  plane waves:    1346
 k-point   140 :   0.3750 0.1250 0.2500  plane waves:    1343
 k-point   141 :   0.5000 0.1250 0.2500  plane waves:    1346
 k-point   142 :  -0.3750 0.1250 0.2500  plane waves:    1356
 k-point   143 :  -0.2500 0.1250 0.2500  plane waves:    1346
 k-point   144 :  -0.1250 0.1250 0.2500  plane waves:    1343
 k-point   145 :   0.0000 0.2500 0.2500  plane waves:    1331
 k-point   146 :   0.1250 0.2500 0.2500  plane waves:    1346
 k-point   147 :   0.2500 0.2500 0.2500  plane waves:    1351
 k-point   148 :   0.3750 0.2500 0.2500  plane waves:    1348
 k-point   149 :   0.5000 0.2500 0.2500  plane waves:    1340
 k-point   150 :  -0.3750 0.2500 0.2500  plane waves:    1339
 k-point   151 :  -0.2500 0.2500 0.2500  plane waves:    1348
 k-point   152 :  -0.1250 0.2500 0.2500  plane waves:    1345
 k-point   153 :   0.0000 0.3750 0.2500  plane waves:    1345
 k-point   154 :   0.1250 0.3750 0.2500  plane waves:    1343
 k-point   155 :   0.2500 0.3750 0.2500  plane waves:    1348
 k-point   156 :   0.3750 0.3750 0.2500  plane waves:    1339
 k-point   157 :   0.5000 0.3750 0.2500  plane waves:    1346
 k-point   158 :  -0.3750 0.3750 0.2500  plane waves:    1342
 k-point   159 :  -0.2500 0.3750 0.2500  plane waves:    1347
 k-point   160 :  -0.1250 0.3750 0.2500  plane waves:    1339
 k-point   161 :   0.0000 0.5000 0.2500  plane waves:    1348
 k-point   162 :   0.1250 0.5000 0.2500  plane waves:    1346
 k-point   163 :   0.2500 0.5000 0.2500  plane waves:    1340
 k-point   164 :   0.3750 0.5000 0.2500  plane waves:    1346
 k-point   165 :   0.5000 0.5000 0.2500  plane waves:    1348
 k-point   166 :  -0.3750 0.5000 0.2500  plane waves:    1347
 k-point   167 :  -0.2500 0.5000 0.2500  plane waves:    1348
 k-point   168 :  -0.1250 0.5000 0.2500  plane waves:    1347
 k-point   169 :   0.0000-0.3750 0.2500  plane waves:    1339
 k-point   170 :   0.1250-0.3750 0.2500  plane waves:    1356
 k-point   171 :   0.2500-0.3750 0.2500  plane waves:    1339
 k-point   172 :   0.3750-0.3750 0.2500  plane waves:    1342
 k-point   173 :   0.5000-0.3750 0.2500  plane waves:    1347
 k-point   174 :  -0.3750-0.3750 0.2500  plane waves:    1350
 k-point   175 :  -0.2500-0.3750 0.2500  plane waves:    1347
 k-point   176 :  -0.1250-0.3750 0.2500  plane waves:    1342
 k-point   177 :   0.0000-0.2500 0.2500  plane waves:    1340
 k-point   178 :   0.1250-0.2500 0.2500  plane waves:    1346
 k-point   179 :   0.2500-0.2500 0.2500  plane waves:    1348
 k-point   180 :   0.3750-0.2500 0.2500  plane waves:    1347
 k-point   181 :   0.5000-0.2500 0.2500  plane waves:    1348
 k-point   182 :  -0.3750-0.2500 0.2500  plane waves:    1347
 k-point   183 :  -0.2500-0.2500 0.2500  plane waves:    1348
 k-point   184 :  -0.1250-0.2500 0.2500  plane waves:    1346
 k-point   185 :   0.0000-0.1250 0.2500  plane waves:    1348
 k-point   186 :   0.1250-0.1250 0.2500  plane waves:    1343
 k-point   187 :   0.2500-0.1250 0.2500  plane waves:    1345
 k-point   188 :   0.3750-0.1250 0.2500  plane waves:    1339
 k-point   189 :   0.5000-0.1250 0.2500  plane waves:    1347
 k-point   190 :  -0.3750-0.1250 0.2500  plane waves:    1342
 k-point   191 :  -0.2500-0.1250 0.2500  plane waves:    1346
 k-point   192 :  -0.1250-0.1250 0.2500  plane waves:    1339
 k-point   193 :  -0.0000 0.0000 0.3750  plane waves:    1350
 k-point   194 :   0.1250 0.0000 0.3750  plane waves:    1339
 k-point   195 :   0.2500 0.0000 0.3750  plane waves:    1345
 k-point   196 :   0.3750-0.0000 0.3750  plane waves:    1359
 k-point   197 :   0.5000 0.0000 0.3750  plane waves:    1343
 k-point   198 :  -0.3750-0.0000 0.3750  plane waves:    1350
 k-point   199 :  -0.2500 0.0000 0.3750  plane waves:    1339
 k-point   200 :  -0.1250 0.0000 0.3750  plane waves:    1359
 k-point   201 :  -0.0000 0.1250 0.3750  plane waves:    1339
 k-point   202 :   0.1250 0.1250 0.3750  plane waves:    1348
 k-point   203 :   0.2500 0.1250 0.3750  plane waves:    1343
 k-point   204 :   0.3750 0.1250 0.3750  plane waves:    1345
 k-point   205 :   0.5000 0.1250 0.3750  plane waves:    1339
 k-point   206 :  -0.3750 0.1250 0.3750  plane waves:    1347
 k-point   207 :  -0.2500 0.1250 0.3750  plane waves:    1342
 k-point   208 :  -0.1250 0.1250 0.3750  plane waves:    1346
 k-point   209 :  -0.0000 0.2500 0.3750  plane waves:    1345
 k-point   210 :   0.1250 0.2500 0.3750  plane waves:    1343
 k-point   211 :   0.2500 0.2500 0.3750  plane waves:    1348
 k-point   212 :   0.3750 0.2500 0.3750  plane waves:    1339
 k-point   213 :   0.5000 0.2500 0.3750  plane waves:    1346
 k-point   214 :  -0.3750 0.2500 0.3750  plane waves:    1342
 k-point   215 :  -0.2500 0.2500 0.3750  plane waves:    1347
 k-point   216 :  -0.1250 0.2500 0.3750  plane waves:    1339
 k-point   217 :  -0.0000 0.3750 0.3750  plane waves:    1359
 k-point   218 :   0.1250 0.3750 0.3750  plane waves:    1345
 k-point   219 :   0.2500 0.3750 0.3750  plane waves:    1339
 k-point   220 :   0.3750 0.3750 0.3750  plane waves:    1350
 k-point   221 :   0.5000 0.3750 0.3750  plane waves:    1359
 k-point   222 :  -0.3750 0.3750 0.3750  plane waves:    1339
 k-point   223 :  -0.2500 0.3750 0.3750  plane waves:    1350
 k-point   224 :  -0.1250 0.3750 0.3750  plane waves:    1343
 k-point   225 :  -0.0000 0.5000 0.3750  plane waves:    1343
 k-point   226 :   0.1250 0.5000 0.3750  plane waves:    1339
 k-point   227 :   0.2500 0.5000 0.3750  plane waves:    1346
 k-point   228 :   0.3750 0.5000 0.3750  plane waves:    1359
 k-point   229 :   0.5000 0.5000 0.3750  plane waves:    1350
 k-point   230 :  -0.3750 0.5000 0.3750  plane waves:    1356
 k-point   231 :  -0.2500 0.5000 0.3750  plane waves:    1347
 k-point   232 :  -0.1250 0.5000 0.3750  plane waves:    1350
 k-point   233 :  -0.0000-0.3750 0.3750  plane waves:    1350
 k-point   234 :   0.1250-0.3750 0.3750  plane waves:    1347
 k-point   235 :   0.2500-0.3750 0.3750  plane waves:    1342
 k-point   236 :   0.3750-0.3750 0.3750  plane waves:    1339
 k-point   237 :   0.5000-0.3750 0.3750  plane waves:    1356
 k-point   238 :  -0.3750-0.3750 0.3750  plane waves:    1339
 k-point   239 :  -0.2500-0.3750 0.3750  plane waves:    1342
 k-point   240 :  -0.1250-0.3750 0.3750  plane waves:    1347
 k-point   241 :  -0.0000-0.2500 0.3750  plane waves:    1339
 k-point   242 :   0.1250-0.2500 0.3750  plane waves:    1342
 k-point   243 :   0.2500-0.2500 0.3750  plane waves:    1347
 k-point   244 :   0.3750-0.2500 0.3750  plane waves:    1350
 k-point   245 :   0.5000-0.2500 0.3750  plane waves:    1347
 k-point   246 :  -0.3750-0.2500 0.3750  plane waves:    1342
 k-point   247 :  -0.2500-0.2500 0.3750  plane waves:    1339
 k-point   248 :  -0.1250-0.2500 0.3750  plane waves:    1356
 k-point   249 :  -0.0000-0.1250 0.3750  plane waves:    1359
 k-point   250 :   0.1250-0.1250 0.3750  plane waves:    1346
 k-point   251 :   0.2500-0.1250 0.3750  plane waves:    1339
 k-point   252 :   0.3750-0.1250 0.3750  plane waves:    1343
 k-point   253 :   0.5000-0.1250 0.3750  plane waves:    1350
 k-point   254 :  -0.3750-0.1250 0.3750  plane waves:    1347
 k-point   255 :  -0.2500-0.1250 0.3750  plane waves:    1356
 k-point   256 :  -0.1250-0.1250 0.3750  plane waves:    1350
 k-point   257 :   0.0000 0.0000 0.5000  plane waves:    1350
 k-point   258 :   0.1250-0.0000 0.5000  plane waves:    1350
 k-point   259 :   0.2500-0.0000 0.5000  plane waves:    1348
 k-point   260 :   0.3750 0.0000 0.5000  plane waves:    1343
 k-point   261 :   0.5000-0.0000 0.5000  plane waves:    1362
 k-point   262 :  -0.3750-0.0000 0.5000  plane waves:    1343
 k-point   263 :  -0.2500 0.0000 0.5000  plane waves:    1348
 k-point   264 :  -0.1250-0.0000 0.5000  plane waves:    1350
 k-point   265 :   0.0000 0.1250 0.5000  plane waves:    1350
 k-point   266 :   0.1250 0.1250 0.5000  plane waves:    1359
 k-point   267 :   0.2500 0.1250 0.5000  plane waves:    1346
 k-point   268 :   0.3750 0.1250 0.5000  plane waves:    1339
 k-point   269 :   0.5000 0.1250 0.5000  plane waves:    1343
 k-point   270 :  -0.3750 0.1250 0.5000  plane waves:    1350
 k-point   271 :  -0.2500 0.1250 0.5000  plane waves:    1347
 k-point   272 :  -0.1250 0.1250 0.5000  plane waves:    1356
 k-point   273 :   0.0000 0.2500 0.5000  plane waves:    1348
 k-point   274 :   0.1250 0.2500 0.5000  plane waves:    1346
 k-point   275 :   0.2500 0.2500 0.5000  plane waves:    1340
 k-point   276 :   0.3750 0.2500 0.5000  plane waves:    1346
 k-point   277 :   0.5000 0.2500 0.5000  plane waves:    1348
 k-point   278 :  -0.3750 0.2500 0.5000  plane waves:    1347
 k-point   279 :  -0.2500 0.2500 0.5000  plane waves:    1348
 k-point   280 :  -0.1250 0.2500 0.5000  plane waves:    1347
 k-point   281 :   0.0000 0.3750 0.5000  plane waves:    1343
 k-point   282 :   0.1250 0.3750 0.5000  plane waves:    1339
 k-point   283 :   0.2500 0.3750 0.5000  plane waves:    1346
 k-point   284 :   0.3750 0.3750 0.5000  plane waves:    1359
 k-point   285 :   0.5000 0.3750 0.5000  plane waves:    1350
 k-point   286 :  -0.3750 0.3750 0.5000  plane waves:    1356
 k-point   287 :  -0.2500 0.3750 0.5000  plane waves:    1347
 k-point   288 :  -0.1250 0.3750 0.5000  plane waves:    1350
 k-point   289 :   0.0000 0.5000 0.5000  plane waves:    1362
 k-point   290 :   0.1250 0.5000 0.5000  plane waves:    1343
 k-point   291 :   0.2500 0.5000 0.5000  plane waves:    1348
 k-point   292 :   0.3750 0.5000 0.5000  plane waves:    1350
 k-point   293 :   0.5000 0.5000 0.5000  plane waves:    1350
 k-point   294 :  -0.3750 0.5000 0.5000  plane waves:    1350
 k-point   295 :  -0.2500 0.5000 0.5000  plane waves:    1348
 k-point   296 :  -0.1250 0.5000 0.5000  plane waves:    1343
 k-point   297 :   0.0000-0.3750 0.5000  plane waves:    1343
 k-point   298 :   0.1250-0.3750 0.5000  plane waves:    1350
 k-point   299 :   0.2500-0.3750 0.5000  plane waves:    1347
 k-point   300 :   0.3750-0.3750 0.5000  plane waves:    1356
 k-point   301 :   0.5000-0.3750 0.5000  plane waves:    1350
 k-point   302 :  -0.3750-0.3750 0.5000  plane waves:    1359
 k-point   303 :  -0.2500-0.3750 0.5000  plane waves:    1346
 k-point   304 :  -0.1250-0.3750 0.5000  plane waves:    1339
 k-point   305 :   0.0000-0.2500 0.5000  plane waves:    1348
 k-point   306 :   0.1250-0.2500 0.5000  plane waves:    1347
 k-point   307 :   0.2500-0.2500 0.5000  plane waves:    1348
 k-point   308 :   0.3750-0.2500 0.5000  plane waves:    1347
 k-point   309 :   0.5000-0.2500 0.5000  plane waves:    1348
 k-point   310 :  -0.3750-0.2500 0.5000  plane waves:    1346
 k-point   311 :  -0.2500-0.2500 0.5000  plane waves:    1340
 k-point   312 :  -0.1250-0.2500 0.5000  plane waves:    1346
 k-point   313 :   0.0000-0.1250 0.5000  plane waves:    1350
 k-point   314 :   0.1250-0.1250 0.5000  plane waves:    1356
 k-point   315 :   0.2500-0.1250 0.5000  plane waves:    1347
 k-point   316 :   0.3750-0.1250 0.5000  plane waves:    1350
 k-point   317 :   0.5000-0.1250 0.5000  plane waves:    1343
 k-point   318 :  -0.3750-0.1250 0.5000  plane waves:    1339
 k-point   319 :  -0.2500-0.1250 0.5000  plane waves:    1346
 k-point   320 :  -0.1250-0.1250 0.5000  plane waves:    1359
 k-point   321 :   0.0000 0.0000-0.3750  plane waves:    1350
 k-point   322 :   0.1250 0.0000-0.3750  plane waves:    1359
 k-point   323 :   0.2500 0.0000-0.3750  plane waves:    1339
 k-point   324 :   0.3750 0.0000-0.3750  plane waves:    1350
 k-point   325 :   0.5000 0.0000-0.3750  plane waves:    1343
 k-point   326 :  -0.3750 0.0000-0.3750  plane waves:    1359
 k-point   327 :  -0.2500 0.0000-0.3750  plane waves:    1345
 k-point   328 :  -0.1250 0.0000-0.3750  plane waves:    1339
 k-point   329 :   0.0000 0.1250-0.3750  plane waves:    1359
 k-point   330 :   0.1250 0.1250-0.3750  plane waves:    1350
 k-point   331 :   0.2500 0.1250-0.3750  plane waves:    1356
 k-point   332 :   0.3750 0.1250-0.3750  plane waves:    1347
 k-point   333 :   0.5000 0.1250-0.3750  plane waves:    1350
 k-point   334 :  -0.3750 0.1250-0.3750  plane waves:    1343
 k-point   335 :  -0.2500 0.1250-0.3750  plane waves:    1339
 k-point   336 :  -0.1250 0.1250-0.3750  plane waves:    1346
 k-point   337 :   0.0000 0.2500-0.3750  plane waves:    1339
 k-point   338 :   0.1250 0.2500-0.3750  plane waves:    1356
 k-point   339 :   0.2500 0.2500-0.3750  plane waves:    1339
 k-point   340 :   0.3750 0.2500-0.3750  plane waves:    1342
 k-point   341 :   0.5000 0.2500-0.3750  plane waves:    1347
 k-point   342 :  -0.3750 0.2500-0.3750  plane waves:    1350
 k-point   343 :  -0.2500 0.2500-0.3750  plane waves:    1347
 k-point   344 :  -0.1250 0.2500-0.3750  plane waves:    1342
 k-point   345 :   0.0000 0.3750-0.3750  plane waves:    1350
 k-point   346 :   0.1250 0.3750-0.3750  plane waves:    1347
 k-point   347 :   0.2500 0.3750-0.3750  plane waves:    1342
 k-point   348 :   0.3750 0.3750-0.3750  plane waves:    1339
 k-point   349 :   0.5000 0.3750-0.3750  plane waves:    1356
 k-point   350 :  -0.3750 0.3750-0.3750  plane waves:    1339
 k-point   351 :  -0.2500 0.3750-0.3750  plane waves:    1342
 k-point   352 :  -0.1250 0.3750-0.3750  plane waves:    1347
 k-point   353 :   0.0000 0.5000-0.3750  plane waves:    1343
 k-point   354 :   0.1250 0.5000-0.3750  plane waves:    1350
 k-point   355 :   0.2500 0.5000-0.3750  plane waves:    1347
 k-point   356 :   0.3750 0.5000-0.3750  plane waves:    1356
 k-point   357 :   0.5000 0.5000-0.3750  plane waves:    1350
 k-point   358 :  -0.3750 0.5000-0.3750  plane waves:    1359
 k-point   359 :  -0.2500 0.5000-0.3750  plane waves:    1346
 k-point   360 :  -0.1250 0.5000-0.3750  plane waves:    1339
 k-point   361 :   0.0000-0.3750-0.3750  plane waves:    1359
 k-point   362 :   0.1250-0.3750-0.3750  plane waves:    1343
 k-point   363 :   0.2500-0.3750-0.3750  plane waves:    1350
 k-point   364 :   0.3750-0.3750-0.3750  plane waves:    1339
 k-point   365 :   0.5000-0.3750-0.3750  plane waves:    1359
 k-point   366 :  -0.3750-0.3750-0.3750  plane waves:    1350
 k-point   367 :  -0.2500-0.3750-0.3750  plane waves:    1339
 k-point   368 :  -0.1250-0.3750-0.3750  plane waves:    1345
 k-point   369 :   0.0000-0.2500-0.3750  plane waves:    1345
 k-point   370 :   0.1250-0.2500-0.3750  plane waves:    1339
 k-point   371 :   0.2500-0.2500-0.3750  plane waves:    1347
 k-point   372 :   0.3750-0.2500-0.3750  plane waves:    1342
 k-point   373 :   0.5000-0.2500-0.3750  plane waves:    1346
 k-point   374 :  -0.3750-0.2500-0.3750  plane waves:    1339
 k-point   375 :  -0.2500-0.2500-0.3750  plane waves:    1348
 k-point   376 :  -0.1250-0.2500-0.3750  plane waves:    1343
 k-point   377 :   0.0000-0.1250-0.3750  plane waves:    1339
 k-point   378 :   0.1250-0.1250-0.3750  plane waves:    1346
 k-point   379 :   0.2500-0.1250-0.3750  plane waves:    1342
 k-point   380 :   0.3750-0.1250-0.3750  plane waves:    1347
 k-point   381 :   0.5000-0.1250-0.3750  plane waves:    1339
 k-point   382 :  -0.3750-0.1250-0.3750  plane waves:    1345
 k-point   383 :  -0.2500-0.1250-0.3750  plane waves:    1343
 k-point   384 :  -0.1250-0.1250-0.3750  plane waves:    1348
 k-point   385 :   0.0000 0.0000-0.2500  plane waves:    1351
 k-point   386 :   0.1250-0.0000-0.2500  plane waves:    1348
 k-point   387 :   0.2500 0.0000-0.2500  plane waves:    1340
 k-point   388 :   0.3750-0.0000-0.2500  plane waves:    1339
 k-point   389 :   0.5000 0.0000-0.2500  plane waves:    1348
 k-point   390 :  -0.3750-0.0000-0.2500  plane waves:    1345
 k-point   391 :  -0.2500 0.0000-0.2500  plane waves:    1331
 k-point   392 :  -0.1250 0.0000-0.2500  plane waves:    1346
 k-point   393 :   0.0000 0.1250-0.2500  plane waves:    1348
 k-point   394 :   0.1250 0.1250-0.2500  plane waves:    1339
 k-point   395 :   0.2500 0.1250-0.2500  plane waves:    1346
 k-point   396 :   0.3750 0.1250-0.2500  plane waves:    1342
 k-point   397 :   0.5000 0.1250-0.2500  plane waves:    1347
 k-point   398 :  -0.3750 0.1250-0.2500  plane waves:    1339
 k-point   399 :  -0.2500 0.1250-0.2500  plane waves:    1345
 k-point   400 :  -0.1250 0.1250-0.2500  plane waves:    1343
 k-point   401 :   0.0000 0.2500-0.2500  plane waves:    1340
 k-point   402 :   0.1250 0.2500-0.2500  plane waves:    1346
 k-point   403 :   0.2500 0.2500-0.2500  plane waves:    1348
 k-point   404 :   0.3750 0.2500-0.2500  plane waves:    1347
 k-point   405 :   0.5000 0.2500-0.2500  plane waves:    1348
 k-point   406 :  -0.3750 0.2500-0.2500  plane waves:    1347
 k-point   407 :  -0.2500 0.2500-0.2500  plane waves:    1348
 k-point   408 :  -0.1250 0.2500-0.2500  plane waves:    1346
 k-point   409 :   0.0000 0.3750-0.2500  plane waves:    1339
 k-point   410 :   0.1250 0.3750-0.2500  plane waves:    1342
 k-point   411 :   0.2500 0.3750-0.2500  plane waves:    1347
 k-point   412 :   0.3750 0.3750-0.2500  plane waves:    1350
 k-point   413 :   0.5000 0.3750-0.2500  plane waves:    1347
 k-point   414 :  -0.3750 0.3750-0.2500  plane waves:    1342
 k-point   415 :  -0.2500 0.3750-0.2500  plane waves:    1339
 k-point   416 :  -0.1250 0.3750-0.2500  plane waves:    1356
 k-point   417 :   0.0000 0.5000-0.2500  plane waves:    1348
 k-point   418 :   0.1250 0.5000-0.2500  plane waves:    1347
 k-point   419 :   0.2500 0.5000-0.2500  plane waves:    1348
 k-point   420 :   0.3750 0.5000-0.2500  plane waves:    1347
 k-point   421 :   0.5000 0.5000-0.2500  plane waves:    1348
 k-point   422 :  -0.3750 0.5000-0.2500  plane waves:    1346
 k-point   423 :  -0.2500 0.5000-0.2500  plane waves:    1340
 k-point   424 :  -0.1250 0.5000-0.2500  plane waves:    1346
 k-point   425 :   0.0000-0.3750-0.2500  plane waves:    1345
 k-point   426 :   0.1250-0.3750-0.2500  plane waves:    1339
 k-point   427 :   0.2500-0.3750-0.2500  plane waves:    1347
 k-point   428 :   0.3750-0.3750-0.2500  plane waves:    1342
 k-point   429 :   0.5000-0.3750-0.2500  plane waves:    1346
 k-point   430 :  -0.3750-0.3750-0.2500  plane waves:    1339
 k-point   431 :  -0.2500-0.3750-0.2500  plane waves:    1348
 k-point   432 :  -0.1250-0.3750-0.2500  plane waves:    1343
 k-point   433 :   0.0000-0.2500-0.2500  plane waves:    1331
 k-point   434 :   0.1250-0.2500-0.2500  plane waves:    1345
 k-point   435 :   0.2500-0.2500-0.2500  plane waves:    1348
 k-point   436 :   0.3750-0.2500-0.2500  plane waves:    1339
 k-point   437 :   0.5000-0.2500-0.2500  plane waves:    1340
 k-point   438 :  -0.3750-0.2500-0.2500  plane waves:    1348
 k-point   439 :  -0.2500-0.2500-0.2500  plane waves:    1351
 k-point   440 :  -0.1250-0.2500-0.2500  plane waves:    1346
 k-point   441 :   0.0000-0.1250-0.2500  plane waves:    1346
 k-point   442 :   0.1250-0.1250-0.2500  plane waves:    1343
 k-point   443 :   0.2500-0.1250-0.2500  plane waves:    1346
 k-point   444 :   0.3750-0.1250-0.2500  plane waves:    1356
 k-point   445 :   0.5000-0.1250-0.2500  plane waves:    1346
 k-point   446 :  -0.3750-0.1250-0.2500  plane waves:    1343
 k-point   447 :  -0.2500-0.1250-0.2500  plane waves:    1346
 k-point   448 :  -0.1250-0.1250-0.2500  plane waves:    1365
 k-point   449 :   0.0000 0.0000-0.1250  plane waves:    1357
 k-point   450 :   0.1250 0.0000-0.1250  plane waves:    1365
 k-point   451 :   0.2500 0.0000-0.1250  plane waves:    1348
 k-point   452 :   0.3750 0.0000-0.1250  plane waves:    1359
 k-point   453 :   0.5000 0.0000-0.1250  plane waves:    1350
 k-point   454 :  -0.3750 0.0000-0.1250  plane waves:    1339
 k-point   455 :  -0.2500 0.0000-0.1250  plane waves:    1346
 k-point   456 :  -0.1250 0.0000-0.1250  plane waves:    1355
 k-point   457 :   0.0000 0.1250-0.1250  plane waves:    1365
 k-point   458 :   0.1250 0.1250-0.1250  plane waves:    1346
 k-point   459 :   0.2500 0.1250-0.1250  plane waves:    1343
 k-point   460 :   0.3750 0.1250-0.1250  plane waves:    1346
 k-point   461 :   0.5000 0.1250-0.1250  plane waves:    1356
 k-point   462 :  -0.3750 0.1250-0.1250  plane waves:    1346
 k-point   463 :  -0.2500 0.1250-0.1250  plane waves:    1343
 k-point   464 :  -0.1250 0.1250-0.1250  plane waves:    1346
 k-point   465 :   0.0000 0.2500-0.1250  plane waves:    1348
 k-point   466 :   0.1250 0.2500-0.1250  plane waves:    1343
 k-point   467 :   0.2500 0.2500-0.1250  plane waves:    1345
 k-point   468 :   0.3750 0.2500-0.1250  plane waves:    1339
 k-point   469 :   0.5000 0.2500-0.1250  plane waves:    1347
 k-point   470 :  -0.3750 0.2500-0.1250  plane waves:    1342
 k-point   471 :  -0.2500 0.2500-0.1250  plane waves:    1346
 k-point   472 :  -0.1250 0.2500-0.1250  plane waves:    1339
 k-point   473 :   0.0000 0.3750-0.1250  plane waves:    1359
 k-point   474 :   0.1250 0.3750-0.1250  plane waves:    1346
 k-point   475 :   0.2500 0.3750-0.1250  plane waves:    1339
 k-point   476 :   0.3750 0.3750-0.1250  plane waves:    1343
 k-point   477 :   0.5000 0.3750-0.1250  plane waves:    1350
 k-point   478 :  -0.3750 0.3750-0.1250  plane waves:    1347
 k-point   479 :  -0.2500 0.3750-0.1250  plane waves:    1356
 k-point   480 :  -0.1250 0.3750-0.1250  plane waves:    1350
 k-point   481 :   0.0000 0.5000-0.1250  plane waves:    1350
 k-point   482 :   0.1250 0.5000-0.1250  plane waves:    1356
 k-point   483 :   0.2500 0.5000-0.1250  plane waves:    1347
 k-point   484 :   0.3750 0.5000-0.1250  plane waves:    1350
 k-point   485 :   0.5000 0.5000-0.1250  plane waves:    1343
 k-point   486 :  -0.3750 0.5000-0.1250  plane waves:    1339
 k-point   487 :  -0.2500 0.5000-0.1250  plane waves:    1346
 k-point   488 :  -0.1250 0.5000-0.1250  plane waves:    1359
 k-point   489 :   0.0000-0.3750-0.1250  plane waves:    1339
 k-point   490 :   0.1250-0.3750-0.1250  plane waves:    1346
 k-point   491 :   0.2500-0.3750-0.1250  plane waves:    1342
 k-point   492 :   0.3750-0.3750-0.1250  plane waves:    1347
 k-point   493 :   0.5000-0.3750-0.1250  plane waves:    1339
 k-point   494 :  -0.3750-0.3750-0.1250  plane waves:    1345
 k-point   495 :  -0.2500-0.3750-0.1250  plane waves:    1343
 k-point   496 :  -0.1250-0.3750-0.1250  plane waves:    1348
 k-point   497 :   0.0000-0.2500-0.1250  plane waves:    1346
 k-point   498 :   0.1250-0.2500-0.1250  plane waves:    1343
 k-point   499 :   0.2500-0.2500-0.1250  plane waves:    1346
 k-point   500 :   0.3750-0.2500-0.1250  plane waves:    1356
 k-point   501 :   0.5000-0.2500-0.1250  plane waves:    1346
 k-point   502 :  -0.3750-0.2500-0.1250  plane waves:    1343
 k-point   503 :  -0.2500-0.2500-0.1250  plane waves:    1346
 k-point   504 :  -0.1250-0.2500-0.1250  plane waves:    1365
 k-point   505 :   0.0000-0.1250-0.1250  plane waves:    1355
 k-point   506 :   0.1250-0.1250-0.1250  plane waves:    1346
 k-point   507 :   0.2500-0.1250-0.1250  plane waves:    1339
 k-point   508 :   0.3750-0.1250-0.1250  plane waves:    1350
 k-point   509 :   0.5000-0.1250-0.1250  plane waves:    1359
 k-point   510 :  -0.3750-0.1250-0.1250  plane waves:    1348
 k-point   511 :  -0.2500-0.1250-0.1250  plane waves:    1365
 k-point   512 :  -0.1250-0.1250-0.1250  plane waves:    1357

 maximum and minimum number of plane-waves per node :       709      644

 maximum number of plane-waves:      1365
 maximum index in each direction: 
   IXMAX=    8   IYMAX=    8   IZMAX=    8
   IXMIN=   -8   IYMIN=   -8   IZMIN=   -8


 parallel 3D FFT for wavefunctions:
    minimum data exchange during FFTs selected (reduces bandwidth)
 parallel 3D FFT for charge:
    minimum data exchange during FFTs selected (reduces bandwidth)


 total amount of memory used by VASP MPI-rank0   204698. kBytes
=======================================================================

   base                                    :      30000. kBytes
   nonl-proj                               :      23353. kBytes
   fftplans                                :       1617. kBytes
   grid                                    :       2269. kBytes
   one-center                              :          3. kBytes
   wavefun                                 :     147456. kBytes
 
     INWAV:  cpu time      0.0000: real time      0.0000
 Broyden mixing: mesh for mixing (old mesh)
   NGX = 15   NGY = 15   NGZ = 15
  (NGX  = 64   NGY  = 64   NGZ  = 64)
  gives a total of   3375 points

 initial charge density was supplied:
 charge density of overlapping atoms calculated
 number of electron       8.0000000 magnetization 
 keeping initial charge density in first step


--------------------------------------------------------------------------------------------------------


 Maximum index for augmentation-charges         3331 (set IRDMAX)


--------------------------------------------------------------------------------------------------------


 First call to EWALD:  gamma=   0.517
 Maximum number of real-space cells   3x   3x   3
 Maximum number of reciprocal cells   3x   3x   3

    FEWALD:  cpu time      0.0126: real time      0.0126


--------------------------------------- Ionic step        1  -------------------------------------------




--------------------------------------- Iteration      1(   1)  ---------------------------------------


    POTLOK:  cpu time      0.0215: real time      0.0231
    SETDIJ:  cpu time      0.0336: real time      0.0341
     EDDAV:  cpu time     15.0485: real time     15.1709
       DOS:  cpu time      0.0049: real time      0.0054
    --------------------------------------------
      LOOP:  cpu time     15.1086: real time     15.2335

 eigenvalue-minimisations  :102400
 total energy-change (2. order) : 0.2587584E+02  (-0.2181047E+03)
 number of electron       8.0000000 magnetization 
 augmentation part        8.0000000 magnetization 

 Free energy of the ion-electron system (eV)
  ---------------------------------------------------
  alpha Z        PSCENC =         3.33880741
  Ewald energy   TEWEN  =      -227.98820643
  -Hartree energ DENC   =       -11.11484531
  -exchange      EXHF   =         0.00000000
  -V(xc)+E(xc)   XCENC  =       -18.63153721
  PAW double counting   =       176.24759923     -141.06103558
  entropy T*S    EENTRO =        -0.00037791
  eigenvalues    EBANDS =        38.95231568
  atomic energy  EATOM  =       206.13311910
  Solvation  Ediel_sol  =         0.00000000
  ---------------------------------------------------
  free energy    TOTEN  =        25.87583898 eV

  energy without entropy =       25.87621689  energy(sigma->0) =       25.87602794


--------------------------------------------------------------------------------------------------------




--------------------------------------- Iteration      1(   2)  ---------------------------------------


     EDDAV:  cpu time     17.3422: real time     17.4668
       DOS:  cpu time      0.0032: real time      0.0033
    --------------------------------------------
      LOOP:  cpu time     17.3454: real time     17.4701

 eigenvalue-minimisations  :125796
 total energy-change (2. order) :-0.3585467E+02  (-0.3293623E+02)
 number of electron       8.0000000 magnetization 
 augmentation part        8.0000000 magnetization 

 Free energy of the ion-electron system (eV)
  ---------------------------------------------------
  alpha Z        PSCENC =         3.33880741
  Ewald energy   TEWEN  =      -227.98820643
  -Hartree energ DENC   =       -11.11484531
  -exchange      EXHF   =         0.00000000
  -V(xc)+E(xc)   XCENC  =       -18.63153721
  PAW double counting   =       176.24759923     -141.06103558
  entropy T*S    EENTRO =        -0.00000000
  eigenvalues    EBANDS =         3.09726709
  atomic energy  EATOM  =       206.13311910
  Solvation  Ediel_sol  =         0.00000000
  ---------------------------------------------------
  free energy    TOTEN  =        -9.97883170 eV

  energy without entropy =       -9.97883170  energy(sigma->0) =       -9.97883170


--------------------------------------------------------------------------------------------------------




--------------------------------------- Iteration      1(   3)  ---------------------------------------


     EDDAV:  cpu time     16.8748: real time     16.9994
       DOS:  cpu time      0.0032: real time      0.0032
    --------------------------------------------
      LOOP:  cpu time     16.8780: real time     17.0026

 eigenvalue-minimisations  :121088
 total energy-change (2. order) :-0.1041047E+01  (-0.1030463E+01)
 number of electron       8.0000000 magnetization 
 augmentation part        8.0000000 magnetization 

 Free energy of the ion-electron system (eV)
  ---------------------------------------------------
  alpha Z        PSCENC =         3.33880741
  Ewald energy   TEWEN  =      -227.98820643
  -Hartree energ DENC   =       -11.11484531
  -exchange      EXHF   =         0.00000000
  -V(xc)+E(xc)   XCENC  =       -18.63153721
  PAW double counting   =       176.24759923     -141.06103558
  entropy T*S    EENTRO =        -0.00000000
  eigenvalues    EBANDS =         2.05621977
  atomic energy  EATOM  =       206.13311910
  Solvation  Ediel_sol  =         0.00000000
  ---------------------------------------------------
  free energy    TOTEN  =       -11.01987901 eV

  energy without entropy =      -11.01987901  energy(sigma->0) =      -11.01987901


--------------------------------------------------------------------------------------------------------




--------------------------------------- Iteration      1(   4)  ---------------------------------------


     EDDAV:  cpu time     16.7290: real time     16.8451
       DOS:  cpu time      0.0032: real time      0.0032
    --------------------------------------------
      LOOP:  cpu time     16.7322: real time     16.8483

 eigenvalue-minimisations  :119968
 total energy-change (2. order) :-0.8367886E-03  (-0.8366540E-03)
 number of electron       8.0000000 magnetization 
 augmentation part        8.0000000 magnetization 

 Free energy of the ion-electron system (eV)
  ---------------------------------------------------
  alpha Z        PSCENC =         3.33880741
  Ewald energy   TEWEN  =      -227.98820643
  -Hartree energ DENC   =       -11.11484531
  -exchange      EXHF   =         0.00000000
  -V(xc)+E(xc)   XCENC  =       -18.63153721
  PAW double counting   =       176.24759923     -141.06103558
  entropy T*S    EENTRO =        -0.00000000
  eigenvalues    EBANDS =         2.05538299
  atomic energy  EATOM  =       206.13311910
  Solvation  Ediel_sol  =         0.00000000
  ---------------------------------------------------
  free energy    TOTEN  =       -11.02071580 eV

  energy without entropy =      -11.02071580  energy(sigma->0) =      -11.02071580


--------------------------------------------------------------------------------------------------------




--------------------------------------- Iteration      1(   5)  ---------------------------------------


     EDDAV:  cpu time     16.7424: real time     16.8593
       DOS:  cpu time      0.0032: real time      0.0032
    CHARGE:  cpu time      0.0461: real time      0.0502
    MIXING:  cpu time      0.0016: real time      0.0021
    --------------------------------------------
      LOOP:  cpu time     16.7934: real time     16.9149

 eigenvalue-minimisations  :119948
 total energy-change (2. order) :-0.5209747E-06  (-0.5210987E-06)
 number of electron       8.0000000 magnetization 
 augmentation part       -0.4701706 magnetization 

 Broyden mixing:
  rms(total) = 0.48360E+00    rms(broyden)= 0.48360E+00
  rms(prec ) = 0.94707E+00
  weight for this iteration     100.00

 Free energy of the ion-electron system (eV)
  ---------------------------------------------------
  alpha Z        PSCENC =         3.33880741
  Ewald energy   TEWEN  =      -227.98820643
  -Hartree energ DENC   =       -11.11484531
  -exchange      EXHF   =         0.00000000
  -V(xc)+E(xc)   XCENC  =       -18.63153721
  PAW double counting   =       176.24759923     -141.06103558
  entropy T*S    EENTRO =        -0.00000000
  eigenvalues    EBANDS =         2.05538247
  atomic energy  EATOM  =       206.13311910
  Solvation  Ediel_sol  =         0.00000000
  ---------------------------------------------------
  free energy    TOTEN  =       -11.02071632 eV

  energy without entropy =      -11.02071632  energy(sigma->0) =      -11.02071632


--------------------------------------------------------------------------------------------------------




--------------------------------------- Iteration      1(   6)  ---------------------------------------


    POTLOK:  cpu time      0.0179: real time      0.0180
    SETDIJ:  cpu time      0.0318: real time      0.0319
     EDDAV:  cpu time     16.3872: real time     16.5092
       DOS:  cpu time      0.0036: real time      0.0036
    CHARGE:  cpu time      0.0450: real time      0.0452
    MIXING:  cpu time      0.0014: real time      0.0066
    --------------------------------------------
      LOOP:  cpu time     16.4869: real time     16.6144

 eigenvalue-minimisations  :117068
 total energy-change (2. order) : 0.1220488E+00  (-0.3025326E-02)
 number of electron       8.0000000 magnetization 
 augmentation part       -0.4643117 magnetization 

 Broyden mixing:
  rms(total) = 0.29692E+00    rms(broyden)= 0.29692E+00
  rms(prec ) = 0.56339E+00
  weight for this iteration     100.00

 eigenvalues of (default mixing * dielectric matrix)
  average eigenvalue GAMMA=   2.5798
  2.5798

 Free energy of the ion-electron system (eV)
  ---------------------------------------------------
  alpha Z        PSCENC =         3.33880741
  Ewald energy   TEWEN  =      -227.98820643
  -Hartree energ DENC   =       -12.60421701
  -exchange      EXHF   =         0.00000000
  -V(xc)+E(xc)   XCENC  =       -18.39735581
  PAW double counting   =       376.62061946     -341.54195190
  entropy T*S    EENTRO =        -0.00000000
  eigenvalues    EBANDS =         3.54051763
  atomic energy  EATOM  =       206.13311910
  Solvation  Ediel_sol  =         0.00000000
  ---------------------------------------------------
  free energy    TOTEN  =       -10.89866755 eV

  energy without entropy =      -10.89866755  energy(sigma->0) =      -10.89866755


--------------------------------------------------------------------------------------------------------




--------------------------------------- Iteration      1(   7)  ---------------------------------------


    POTLOK:  cpu time      0.0197: real time      0.0210
    SETDIJ:  cpu time      0.0324: real time      0.0325
     EDDAV:  cpu time     16.5166: real time     16.6309
       DOS:  cpu time      0.0032: real time      0.0032
    CHARGE:  cpu time      0.0452: real time      0.0454
    MIXING:  cpu time      0.0013: real time      0.0013
    --------------------------------------------
      LOOP:  cpu time     16.6184: real time     16.7343

 eigenvalue-minimisations  :118000
 total energy-change (2. order) : 0.5580888E-01  (-0.5545733E-02)
 number of electron       8.0000000 magnetization 
 augmentation part       -0.4574283 magnetization 

 Broyden mixing:
  rms(total) = 0.17874E-01    rms(broyden)= 0.17874E-01
  rms(prec ) = 0.40805E-01
  weight for this iteration     100.00

 eigenvalues of (default mixing * dielectric matrix)
  average eigenvalue GAMMA=   2.0147
  1.6804  2.3491

 Free energy of the ion-electron system (eV)
  ---------------------------------------------------
  alpha Z        PSCENC =         3.33880741
  Ewald energy   TEWEN  =      -227.98820643
  -Hartree energ DENC   =       -15.03531896
  -exchange      EXHF   =         0.00000000
  -V(xc)+E(xc)   XCENC  =       -18.00571658
  PAW double counting   =       858.06218988     -823.12264316
  entropy T*S    EENTRO =        -0.00000000
  eigenvalues    EBANDS =         5.77491006
  atomic energy  EATOM  =       206.13311910
  Solvation  Ediel_sol  =         0.00000000
  ---------------------------------------------------
  free energy    TOTEN  =       -10.84285867 eV

  energy without entropy =      -10.84285867  energy(sigma->0) =      -10.84285867


--------------------------------------------------------------------------------------------------------




--------------------------------------- Iteration      1(   8)  ---------------------------------------


    POTLOK:  cpu time      0.0176: real time      0.0177
    SETDIJ:  cpu time      0.0326: real time      0.0327
     EDDAV:  cpu time     16.0972: real time     16.2067
       DOS:  cpu time      0.0032: real time      0.0032
    CHARGE:  cpu time      0.0447: real time      0.0449
    MIXING:  cpu time      0.0014: real time      0.0110
    --------------------------------------------
      LOOP:  cpu time     16.1967: real time     16.3162

 eigenvalue-minimisations  :114232
 total energy-change (2. order) :-0.8922980E-03  (-0.8505942E-04)
 number of electron       8.0000000 magnetization 
 augmentation part       -0.4583081 magnetization 

 Broyden mixing:
  rms(total) = 0.67821E-02    rms(broyden)= 0.67821E-02
  rms(prec ) = 0.14039E-01
  weight for this iteration     100.00

 eigenvalues of (default mixing * dielectric matrix)
  average eigenvalue GAMMA=   2.2280
  2.9647  1.5958  2.1236

 Free energy of the ion-electron system (eV)
  ---------------------------------------------------
  alpha Z        PSCENC =         3.33880741
  Ewald energy   TEWEN  =      -227.98820643
  -Hartree energ DENC   =       -14.96823378
  -exchange      EXHF   =         0.00000000
  -V(xc)+E(xc)   XCENC  =       -18.00608360
  PAW double counting   =       864.13930076     -829.17496510
  entropy T*S    EENTRO =        -0.00000000
  eigenvalues    EBANDS =         5.68251066
  atomic energy  EATOM  =       206.13311910
  Solvation  Ediel_sol  =         0.00000000
  ---------------------------------------------------
  free energy    TOTEN  =       -10.84375097 eV

  energy without entropy =      -10.84375097  energy(sigma->0) =      -10.84375097


--------------------------------------------------------------------------------------------------------




--------------------------------------- Iteration      1(   9)  ---------------------------------------


    POTLOK:  cpu time      0.0178: real time      0.0179
    SETDIJ:  cpu time      0.0327: real time      0.0328
     EDDAV:  cpu time     16.7625: real time     16.8793
       DOS:  cpu time      0.0032: real time      0.0032
    CHARGE:  cpu time      0.0451: real time      0.0453
    MIXING:  cpu time      0.0013: real time      0.0013
    --------------------------------------------
      LOOP:  cpu time     16.8626: real time     16.9798

 eigenvalue-minimisations  :120504
 total energy-change (2. order) :-0.2475747E-03  (-0.5951692E-05)
 number of electron       8.0000000 magnetization 
 augmentation part       -0.4584278 magnetization 

 Broyden mixing:
  rms(total) = 0.53581E-02    rms(broyden)= 0.53581E-02
  rms(prec ) = 0.61131E-02
  weight for this iteration     100.00

 eigenvalues of (default mixing * dielectric matrix)
  average eigenvalue GAMMA=   1.9697
  2.8380  2.1629  2.0383  0.8395

 Free energy of the ion-electron system (eV)
  ---------------------------------------------------
  alpha Z        PSCENC =         3.33880741
  Ewald energy   TEWEN  =      -227.98820643
  -Hartree energ DENC   =       -15.01321463
  -exchange      EXHF   =         0.00000000
  -V(xc)+E(xc)   XCENC  =       -17.99660430
  PAW double counting   =       866.12371275     -831.15476631
  entropy T*S    EENTRO =        -0.00000000
  eigenvalues    EBANDS =         5.71315386
  atomic energy  EATOM  =       206.13311910
  Solvation  Ediel_sol  =         0.00000000
  ---------------------------------------------------
  free energy    TOTEN  =       -10.84399854 eV

  energy without entropy =      -10.84399854  energy(sigma->0) =      -10.84399854


--------------------------------------------------------------------------------------------------------




--------------------------------------- Iteration      1(  10)  ---------------------------------------


    POTLOK:  cpu time      0.0174: real time      0.0175
    SETDIJ:  cpu time      0.0326: real time      0.0327
