   4   4   0   0
  0.5926638E+02  0.6189033E-09  0.6189033E-09  0.6189033E-09  0.5000000E-15
  1.000000000000000E-004
  CAR 
 unknown system                          
      4.83474322    -29.00873398  301      1.22375802      1.00000000
    -29.009  0.0000E+00  0.0000E+00
    -28.896  0.0000E+00  0.0000E+00
    -28.783  0.0000E+00  0.0000E+00
    -28.670  0.0000E+00  0.0000E+00
    -28.557  0.0000E+00  0.0000E+00
    -28.445  0.0000E+00  0.0000E+00
    -28.332  0.0000E+00  0.0000E+00
    -28.219  0.0000E+00  0.0000E+00
    -28.106  0.0000E+00  0.0000E+00
    -27.993  0.0000E+00  0.0000E+00
    -27.881  0.0000E+00  0.0000E+00
    -27.768  0.0000E+00  0.0000E+00
    -27.655  0.7388E-06  0.8335E-07
    -27.542  0.4059E+00  0.4580E-01
    -27.429  0.4008E+02  0.4567E+01
    -27.317  0.1270E+02  0.6000E+01
    -27.204  0.3016E-02  0.6000E+01
    -27.091  0.5851E-10  0.6000E+01
    -26.978  0.0000E+00  0.6000E+01
    -26.865  0.0000E+00  0.6000E+01
    -26.753  0.0000E+00  0.6000E+01
    -26.640  0.0000E+00  0.6000E+01
    -26.527  0.0000E+00  0.6000E+01
    -26.414  0.0000E+00  0.6000E+01
    -26.301  0.0000E+00  0.6000E+01
    -26.188  0.0000E+00  0.6000E+01
    -26.076  0.0000E+00  0.6000E+01
    -25.963  0.0000E+00  0.6000E+01
    -25.850  0.0000E+00  0.6000E+01
    -25.737  0.0000E+00  0.6000E+01
    -25.624  0.0000E+00  0.6000E+01
    -25.512  0.0000E+00  0.6000E+01
    -25.399  0.0000E+00  0.6000E+01
    -25.286  0.0000E+00  0.6000E+01
    -25.173  0.0000E+00  0.6000E+01
    -25.060  0.0000E+00  0.6000E+01
    -24.948  0.0000E+00  0.6000E+01
    -24.835  0.0000E+00  0.6000E+01
    -24.722  0.0000E+00  0.6000E+01
    -24.609  0.0000E+00  0.6000E+01
    -24.496  0.0000E+00  0.6000E+01
    -24.383  0.0000E+00  0.6000E+01
    -24.271  0.0000E+00  0.6000E+01
    -24.158  0.0000E+00  0.6000E+01
    -24.045  0.0000E+00  0.6000E+01
    -23.932  0.0000E+00  0.6000E+01
    -23.819  0.0000E+00  0.6000E+01
    -23.707  0.0000E+00  0.6000E+01
    -23.594  0.0000E+00  0.6000E+01
    -23.481  0.0000E+00  0.6000E+01
    -23.368  0.0000E+00  0.6000E+01
    -23.255  0.0000E+00  0.6000E+01
    -23.143  0.0000E+00  0.6000E+01
    -23.030  0.0000E+00  0.6000E+01
    -22.917  0.0000E+00  0.6000E+01
    -22.804  0.0000E+00  0.6000E+01
    -22.691  0.0000E+00  0.6000E+01
    -22.578  0.0000E+00  0.6000E+01
    -22.466  0.0000E+00  0.6000E+01
    -22.353  0.0000E+00  0.6000E+01
    -22.240  0.0000E+00  0.6000E+01
    -22.127  0.0000E+00  0.6000E+01
    -22.014  0.0000E+00  0.6000E+01
    -21.902  0.0000E+00  0.6000E+01
    -21.789  0.0000E+00  0.6000E+01
    -21.676  0.0000E+00  0.6000E+01
    -21.563  0.0000E+00  0.6000E+01
    -21.450  0.0000E+00  0.6000E+01
    -21.338  0.0000E+00  0.6000E+01
    -21.225  0.0000E+00  0.6000E+01
    -21.112  0.0000E+00  0.6000E+01
    -20.999  0.0000E+00  0.6000E+01
    -20.886  0.0000E+00  0.6000E+01
    -20.773  0.0000E+00  0.6000E+01
    -20.661  0.0000E+00  0.6000E+01
    -20.548  0.0000E+00  0.6000E+01
    -20.435  0.0000E+00  0.6000E+01
    -20.322  0.0000E+00  0.6000E+01
    -20.209  0.0000E+00  0.6000E+01
    -20.097  0.0000E+00  0.6000E+01
    -19.984  0.0000E+00  0.6000E+01
    -19.871  0.0000E+00  0.6000E+01
    -19.758  0.0000E+00  0.6000E+01
    -19.645  0.0000E+00  0.6000E+01
    -19.533  0.0000E+00  0.6000E+01
    -19.420  0.0000E+00  0.6000E+01
    -19.307  0.0000E+00  0.6000E+01
    -19.194  0.0000E+00  0.6000E+01
    -19.081  0.0000E+00  0.6000E+01
    -18.969  0.0000E+00  0.6000E+01
    -18.856  0.0000E+00  0.6000E+01
    -18.743  0.0000E+00  0.6000E+01
    -18.630  0.0000E+00  0.6000E+01
    -18.517  0.0000E+00  0.6000E+01
    -18.404  0.0000E+00  0.6000E+01
    -18.292  0.0000E+00  0.6000E+01
    -18.179  0.0000E+00  0.6000E+01
    -18.066  0.0000E+00  0.6000E+01
    -17.953  0.0000E+00  0.6000E+01
    -17.840  0.0000E+00  0.6000E+01
    -17.728  0.0000E+00  0.6000E+01
    -17.615  0.0000E+00  0.6000E+01
    -17.502  0.0000E+00  0.6000E+01
    -17.389  0.0000E+00  0.6000E+01
    -17.276  0.0000E+00  0.6000E+01
    -17.164  0.0000E+00  0.6000E+01
    -17.051  0.0000E+00  0.6000E+01
    -16.938  0.0000E+00  0.6000E+01
    -16.825  0.0000E+00  0.6000E+01
    -16.712  0.0000E+00  0.6000E+01
    -16.599  0.0000E+00  0.6000E+01
    -16.487  0.0000E+00  0.6000E+01
    -16.374  0.0000E+00  0.6000E+01
    -16.261  0.0000E+00  0.6000E+01
    -16.148  0.0000E+00  0.6000E+01
    -16.035  0.0000E+00  0.6000E+01
    -15.923  0.0000E+00  0.6000E+01
    -15.810  0.0000E+00  0.6000E+01
    -15.697  0.0000E+00  0.6000E+01
    -15.584  0.0000E+00  0.6000E+01
    -15.471  0.0000E+00  0.6000E+01
    -15.359  0.0000E+00  0.6000E+01
    -15.246  0.0000E+00  0.6000E+01
    -15.133  0.0000E+00  0.6000E+01
    -15.020  0.0000E+00  0.6000E+01
    -14.907  0.0000E+00  0.6000E+01
    -14.794  0.0000E+00  0.6000E+01
    -14.682  0.0000E+00  0.6000E+01
    -14.569  0.0000E+00  0.6000E+01
    -14.456  0.0000E+00  0.6000E+01
    -14.343  0.0000E+00  0.6000E+01
    -14.230  0.0000E+00  0.6000E+01
    -14.118  0.0000E+00  0.6000E+01
    -14.005  0.0000E+00  0.6000E+01
    -13.892  0.0000E+00  0.6000E+01
    -13.779  0.0000E+00  0.6000E+01
    -13.666  0.6547E-08  0.6000E+01
    -13.554  0.5668E-01  0.6006E+01
    -13.441  0.4307E+02  0.1086E+02
    -13.328  0.4545E+02  0.1599E+02
    -13.215  0.7171E-01  0.1600E+02
    -13.102  0.1024E-07  0.1600E+02
    -12.989  0.0000E+00  0.1600E+02
    -12.877  0.0000E+00  0.1600E+02
    -12.764  0.0000E+00  0.1600E+02
    -12.651  0.0000E+00  0.1600E+02
    -12.538  0.0000E+00  0.1600E+02
    -12.425  0.0000E+00  0.1600E+02
    -12.313  0.0000E+00  0.1600E+02
    -12.200  0.0000E+00  0.1600E+02
    -12.087  0.8183E-12  0.1600E+02
    -11.974  0.7597E-04  0.1600E+02
    -11.861  0.5108E+00  0.1606E+02
    -11.749  0.9773E+01  0.1716E+02
    -11.636  0.2771E+02  0.2029E+02
    -11.523  0.5488E+02  0.2648E+02
    -11.410  0.6119E+02  0.3338E+02
    -11.297  0.5497E+01  0.3400E+02
    -11.185  0.1217E-02  0.3400E+02
    -11.072  0.2695E-10  0.3400E+02
    -10.959  0.0000E+00  0.3400E+02
    -10.846  0.0000E+00  0.3400E+02
    -10.733  0.0000E+00  0.3400E+02
    -10.620  0.0000E+00  0.3400E+02
    -10.508  0.0000E+00  0.3400E+02
    -10.395  0.0000E+00  0.3400E+02
    -10.282  0.0000E+00  0.3400E+02
    -10.169  0.0000E+00  0.3400E+02
    -10.056  0.0000E+00  0.3400E+02
     -9.944  0.0000E+00  0.3400E+02
     -9.831  0.0000E+00  0.3400E+02
     -9.718  0.0000E+00  0.3400E+02
     -9.605  0.0000E+00  0.3400E+02
     -9.492  0.0000E+00  0.3400E+02
     -9.380  0.0000E+00  0.3400E+02
     -9.267  0.0000E+00  0.3400E+02
     -9.154  0.0000E+00  0.3400E+02
     -9.041  0.0000E+00  0.3400E+02
     -8.928  0.0000E+00  0.3400E+02
     -8.815  0.0000E+00  0.3400E+02
     -8.703  0.0000E+00  0.3400E+02
     -8.590  0.0000E+00  0.3400E+02
     -8.477  0.0000E+00  0.3400E+02
     -8.364  0.0000E+00  0.3400E+02
     -8.251  0.0000E+00  0.3400E+02
     -8.139  0.0000E+00  0.3400E+02
     -8.026  0.0000E+00  0.3400E+02
     -7.913  0.0000E+00  0.3400E+02
     -7.800  0.0000E+00  0.3400E+02
     -7.687  0.0000E+00  0.3400E+02
     -7.575  0.0000E+00  0.3400E+02
     -7.462  0.0000E+00  0.3400E+02
     -7.349  0.0000E+00  0.3400E+02
     -7.236  0.0000E+00  0.3400E+02
     -7.123  0.0000E+00  0.3400E+02
     -7.010  0.0000E+00  0.3400E+02
     -6.898  0.0000E+00  0.3400E+02
     -6.785  0.0000E+00  0.3400E+02
     -6.672  0.0000E+00  0.3400E+02
     -6.559  0.0000E+00  0.3400E+02
     -6.446  0.0000E+00  0.3400E+02
     -6.334  0.0000E+00  0.3400E+02
     -6.221  0.0000E+00  0.3400E+02
     -6.108  0.0000E+00  0.3400E+02
     -5.995  0.0000E+00  0.3400E+02
     -5.882  0.0000E+00  0.3400E+02
     -5.770  0.0000E+00  0.3400E+02
     -5.657  0.0000E+00  0.3400E+02
     -5.544  0.0000E+00  0.3400E+02
     -5.431  0.0000E+00  0.3400E+02
     -5.318  0.0000E+00  0.3400E+02
     -5.205  0.0000E+00  0.3400E+02
     -5.093  0.0000E+00  0.3400E+02
     -4.980  0.0000E+00  0.3400E+02
     -4.867  0.0000E+00  0.3400E+02
     -4.754  0.0000E+00  0.3400E+02
     -4.641  0.0000E+00  0.3400E+02
     -4.529  0.0000E+00  0.3400E+02
     -4.416  0.0000E+00  0.3400E+02
     -4.303  0.0000E+00  0.3400E+02
     -4.190  0.0000E+00  0.3400E+02
     -4.077  0.0000E+00  0.3400E+02
     -3.965  0.1143E-08  0.3400E+02
     -3.852  0.3958E-02  0.3400E+02
     -3.739  0.1347E+01  0.3415E+02
     -3.626  0.3024E+01  0.3449E+02
     -3.513  0.1033E+02  0.3566E+02
     -3.401  0.3027E+01  0.3600E+02
     -3.288  0.2086E-02  0.3600E+02
     -3.175  0.1911E-09  0.3600E+02
     -3.062  0.0000E+00  0.3600E+02
     -2.949  0.0000E+00  0.3600E+02
     -2.836  0.0000E+00  0.3600E+02
     -2.724  0.0000E+00  0.3600E+02
     -2.611  0.0000E+00  0.3600E+02
     -2.498  0.0000E+00  0.3600E+02
     -2.385  0.0000E+00  0.3600E+02
     -2.272  0.0000E+00  0.3600E+02
     -2.160  0.0000E+00  0.3600E+02
     -2.047  0.0000E+00  0.3600E+02
     -1.934  0.0000E+00  0.3600E+02
     -1.821  0.0000E+00  0.3600E+02
     -1.708  0.0000E+00  0.3600E+02
     -1.596  0.0000E+00  0.3600E+02
     -1.483  0.0000E+00  0.3600E+02
     -1.370  0.0000E+00  0.3600E+02
     -1.257  0.0000E+00  0.3600E+02
     -1.144  0.0000E+00  0.3600E+02
     -1.031  0.0000E+00  0.3600E+02
     -0.919  0.0000E+00  0.3600E+02
     -0.806  0.0000E+00  0.3600E+02
     -0.693  0.0000E+00  0.3600E+02
     -0.580  0.0000E+00  0.3600E+02
     -0.467  0.0000E+00  0.3600E+02
     -0.355  0.6014E-11  0.3600E+02
     -0.242  0.3806E-03  0.3600E+02
     -0.129  0.1678E+01  0.3619E+02
     -0.016  0.4931E+01  0.3675E+02
      0.097  0.1042E+00  0.3676E+02
      0.209  0.3743E+01  0.3718E+02
      0.322  0.5023E+01  0.3775E+02
      0.435  0.3540E-01  0.3775E+02
      0.548  0.3577E+01  0.3815E+02
      0.661  0.5269E+01  0.3875E+02
      0.774  0.1568E-01  0.3875E+02
      0.886  0.3332E-01  0.3875E+02
      0.999  0.3434E+01  0.3914E+02
      1.112  0.5679E+01  0.3978E+02
      1.225  0.1934E+01  0.4000E+02
      1.338  0.1636E+01  0.4018E+02
      1.450  0.1220E+02  0.4156E+02
      1.563  0.3984E+01  0.4201E+02
      1.676  0.5817E+01  0.4267E+02
      1.789  0.8719E+01  0.4365E+02
      1.902  0.1864E+01  0.4386E+02
      2.014  0.1235E+01  0.4400E+02
      2.127  0.3629E-02  0.4400E+02
      2.240  0.1682E+01  0.4419E+02
      2.353  0.2741E+01  0.4450E+02
      2.466  0.8689E-02  0.4450E+02
      2.579  0.2744E-08  0.4450E+02
      2.691  0.3220E-08  0.4450E+02
      2.804  0.1150E-01  0.4450E+02
      2.917  0.4013E+01  0.4495E+02
      3.030  0.2938E+01  0.4529E+02
      3.143  0.8433E+01  0.4624E+02
      3.255  0.8571E+01  0.4720E+02
      3.368  0.6922E+01  0.4798E+02
      3.481  0.1379E+00  0.4800E+02
      3.594  0.5641E-06  0.4800E+02
      3.707  0.0000E+00  0.4800E+02
      3.819  0.0000E+00  0.4800E+02
      3.932  0.0000E+00  0.4800E+02
      4.045  0.0000E+00  0.4800E+02
      4.158  0.0000E+00  0.4800E+02
      4.271  0.0000E+00  0.4800E+02
      4.383  0.0000E+00  0.4800E+02
      4.496  0.0000E+00  0.4800E+02
      4.609  0.0000E+00  0.4800E+02
      4.722  0.0000E+00  0.4800E+02
      4.835  0.0000E+00  0.4800E+02
