       N       E                     dE             d eps       ncg     rms          rms(c)
DAV:   1     0.355694942277E+03    0.35569E+03   -0.18157E+04  3072   0.159E+03
DAV:   2     0.329426270734E+02   -0.32275E+03   -0.31896E+03  3832   0.354E+02
DAV:   3    -0.369500659235E+01   -0.36638E+02   -0.36498E+02  4336   0.118E+02
DAV:   4    -0.509591535660E+01   -0.14009E+01   -0.13960E+01  4256   0.273E+01
DAV:   5    -0.517752705497E+01   -0.81612E-01   -0.81609E-01  5176   0.411E+00    0.298E+00
DAV:   6    -0.500464575839E+01    0.17288E+00   -0.42583E-01  3976   0.172E+00    0.194E+00
DAV:   7    -0.496733348680E+01    0.37312E-01   -0.32612E-01  4128   0.178E+00    0.758E-01
DAV:   8    -0.497006498567E+01   -0.27315E-02   -0.27917E-02  3864   0.677E-01    0.155E-01
DAV:   9    -0.496983394765E+01    0.23104E-03   -0.43670E-03  4352   0.247E-01    0.816E-02
DAV:  10    -0.496987943946E+01   -0.45492E-04   -0.34977E-04  3792   0.121E-01    0.208E-02
DAV:  11    -0.496988446446E+01   -0.50250E-05   -0.24326E-05  3576   0.381E-02    0.104E-02
DAV:  12    -0.496988554169E+01   -0.10772E-05   -0.27655E-06  2864   0.849E-03    0.210E-03
DAV:  13    -0.496988551355E+01    0.28143E-07   -0.42179E-07  2872   0.592E-03
   1 F= -.49698855E+01 E0= -.49698749E+01  d E =-.212192E-04
