   2   2   0   0
  0.1442255E+02  0.2614360E-09  0.2614360E-09  0.4873161E-09  0.5000000E-15
  1.000000000000000E-004
  CAR 
 unknown system                          
     29.14542703     -9.06932477  301      3.35954639      1.00000000
     -9.069  0.0000E+00  0.0000E+00
     -8.942  0.0000E+00  0.0000E+00
     -8.815  0.0000E+00  0.0000E+00
     -8.687  0.0000E+00  0.0000E+00
     -8.560  0.0000E+00  0.0000E+00
     -8.432  0.0000E+00  0.0000E+00
     -8.305  0.0000E+00  0.0000E+00
     -8.178  0.0000E+00  0.0000E+00
     -8.050  0.0000E+00  0.0000E+00
     -7.923  0.0000E+00  0.0000E+00
     -7.795  0.0000E+00  0.0000E+00
     -7.668  0.0000E+00  0.0000E+00
     -7.541  0.4035E-10  0.5139E-11
     -7.413  0.2364E-03  0.3011E-04
     -7.286  0.1934E-01  0.2494E-02
     -7.159  0.2552E-01  0.5744E-02
     -7.031  0.1376E+00  0.2327E-01
     -6.904  0.1517E+00  0.4259E-01
     -6.776  0.1198E+00  0.5785E-01
     -6.649  0.3418E-01  0.6221E-01
     -6.522  0.1348E+00  0.7938E-01
     -6.394  0.4211E+00  0.1330E+00
     -6.267  0.2346E+00  0.1629E+00
     -6.140  0.2381E+00  0.1932E+00
     -6.012  0.5359E-01  0.2001E+00
     -5.885  0.2644E+00  0.2337E+00
     -5.757  0.3404E+00  0.2771E+00
     -5.630  0.4509E+00  0.3345E+00
     -5.503  0.5271E+00  0.4017E+00
     -5.375  0.5139E+00  0.4671E+00
     -5.248  0.1144E+01  0.6129E+00
     -5.120  0.1769E+01  0.8382E+00
     -4.993  0.7415E+01  0.1783E+01
     -4.866  0.6761E+01  0.2644E+01
     -4.738  0.1061E+02  0.3995E+01
     -4.611  0.1224E+02  0.5555E+01
     -4.484  0.1220E+02  0.7109E+01
     -4.356  0.1038E+02  0.8431E+01
     -4.229  0.1282E+02  0.1006E+02
     -4.101  0.1235E+02  0.1164E+02
     -3.974  0.1656E+02  0.1375E+02
     -3.847  0.1514E+02  0.1568E+02
     -3.719  0.1707E+02  0.1785E+02
     -3.592  0.1385E+02  0.1961E+02
     -3.464  0.7076E+01  0.2051E+02
     -3.337  0.8132E+00  0.2062E+02
     -3.210  0.1262E-01  0.2062E+02
     -3.082  0.5265E+00  0.2069E+02
     -2.955  0.1226E+01  0.2084E+02
     -2.828  0.1919E+00  0.2087E+02
     -2.700  0.2613E+00  0.2090E+02
     -2.573  0.1082E+01  0.2104E+02
     -2.445  0.5025E+00  0.2110E+02
     -2.318  0.1004E+00  0.2112E+02
     -2.191  0.5319E-05  0.2112E+02
     -2.063  0.4273E-01  0.2112E+02
     -1.936  0.3691E+00  0.2117E+02
     -1.809  0.6115E+00  0.2125E+02
     -1.681  0.9233E+00  0.2136E+02
     -1.554  0.4064E+00  0.2142E+02
     -1.426  0.4174E+00  0.2147E+02
     -1.299  0.3607E+00  0.2151E+02
     -1.172  0.6302E+00  0.2159E+02
     -1.044  0.9046E+00  0.2171E+02
     -0.917  0.2382E+00  0.2174E+02
     -0.789  0.1033E+00  0.2175E+02
     -0.662  0.6839E+00  0.2184E+02
     -0.535  0.1466E+00  0.2186E+02
     -0.407  0.5605E+00  0.2193E+02
     -0.280  0.3988E+00  0.2198E+02
     -0.153  0.9187E+00  0.2210E+02
     -0.025  0.4912E-01  0.2210E+02
      0.102  0.4195E+00  0.2216E+02
      0.230  0.9211E+00  0.2228E+02
      0.357  0.1723E+00  0.2230E+02
      0.484  0.4223E+00  0.2235E+02
      0.612  0.4181E+00  0.2240E+02
      0.739  0.4454E+00  0.2246E+02
      0.867  0.3571E+00  0.2251E+02
      0.994  0.1282E+01  0.2267E+02
      1.121  0.1137E+01  0.2281E+02
      1.249  0.3950E+00  0.2287E+02
      1.376  0.7009E+00  0.2295E+02
      1.503  0.1866E+00  0.2298E+02
      1.631  0.4946E+00  0.2304E+02
      1.758  0.5089E+00  0.2311E+02
      1.886  0.1237E+01  0.2326E+02
      2.013  0.3771E+00  0.2331E+02
      2.140  0.1053E+00  0.2333E+02
      2.268  0.5020E-01  0.2333E+02
      2.395  0.3292E+00  0.2337E+02
      2.522  0.2029E+00  0.2340E+02
      2.650  0.7718E+00  0.2350E+02
      2.777  0.8973E+00  0.2361E+02
      2.905  0.1029E+01  0.2374E+02
      3.032  0.4985E+00  0.2381E+02
      3.159  0.2754E+00  0.2384E+02
      3.287  0.9340E+00  0.2396E+02
      3.414  0.6757E+00  0.2405E+02
      3.542  0.2185E+00  0.2407E+02
      3.669  0.1820E+00  0.2410E+02
      3.796  0.5479E+00  0.2417E+02
      3.924  0.2994E+00  0.2421E+02
      4.051  0.5205E+00  0.2427E+02
      4.178  0.4750E+00  0.2433E+02
      4.306  0.5360E-01  0.2434E+02
      4.433  0.4997E+00  0.2440E+02
      4.561  0.1375E+01  0.2458E+02
      4.688  0.3259E+00  0.2462E+02
      4.815  0.1619E+00  0.2464E+02
      4.943  0.4615E+00  0.2470E+02
      5.070  0.2499E+00  0.2473E+02
      5.198  0.1180E+01  0.2488E+02
      5.325  0.1030E+01  0.2501E+02
      5.452  0.5215E+00  0.2508E+02
      5.580  0.1058E+01  0.2521E+02
      5.707  0.8682E+00  0.2532E+02
      5.834  0.5634E+00  0.2540E+02
      5.962  0.5946E+00  0.2547E+02
      6.089  0.1112E+01  0.2561E+02
      6.217  0.7826E+00  0.2571E+02
      6.344  0.3095E+00  0.2575E+02
      6.471  0.6317E+00  0.2583E+02
      6.599  0.7913E+00  0.2593E+02
      6.726  0.1207E+01  0.2609E+02
      6.853  0.6604E+00  0.2617E+02
      6.981  0.6027E-01  0.2618E+02
      7.108  0.7315E+00  0.2627E+02
      7.236  0.1382E+01  0.2645E+02
      7.363  0.1650E+01  0.2666E+02
      7.490  0.6636E+00  0.2674E+02
      7.618  0.4033E+00  0.2679E+02
      7.745  0.9961E-01  0.2681E+02
      7.873  0.8088E-01  0.2682E+02
      8.000  0.4392E+00  0.2687E+02
      8.127  0.1395E+01  0.2705E+02
      8.255  0.7201E+00  0.2714E+02
      8.382  0.1905E+00  0.2717E+02
      8.509  0.3482E+00  0.2721E+02
      8.637  0.1105E+01  0.2735E+02
      8.764  0.5579E+00  0.2742E+02
      8.892  0.7521E+00  0.2752E+02
      9.019  0.7967E+00  0.2762E+02
      9.146  0.3640E+00  0.2767E+02
      9.274  0.8317E+00  0.2777E+02
      9.401  0.1309E+01  0.2794E+02
      9.529  0.7536E+00  0.2804E+02
      9.656  0.5839E+00  0.2811E+02
      9.783  0.9777E+00  0.2823E+02
      9.911  0.8024E+00  0.2834E+02
     10.038  0.5623E+00  0.2841E+02
     10.165  0.5358E+00  0.2848E+02
     10.293  0.1244E+01  0.2864E+02
     10.420  0.1335E+01  0.2881E+02
     10.548  0.5137E+00  0.2887E+02
     10.675  0.6948E+00  0.2896E+02
     10.802  0.8987E+00  0.2907E+02
     10.930  0.7127E+00  0.2916E+02
     11.057  0.3559E+00  0.2921E+02
     11.184  0.5514E+00  0.2928E+02
     11.312  0.7820E+00  0.2938E+02
     11.439  0.8555E+00  0.2949E+02
     11.567  0.9478E+00  0.2961E+02
     11.694  0.9000E-01  0.2962E+02
     11.821  0.8447E+00  0.2973E+02
     11.949  0.1012E+01  0.2986E+02
     12.076  0.1089E+01  0.3000E+02
     12.204  0.1012E+01  0.3012E+02
     12.331  0.2170E+01  0.3040E+02
     12.458  0.1135E+01  0.3055E+02
     12.586  0.5499E+00  0.3062E+02
     12.713  0.3095E+00  0.3066E+02
     12.840  0.7904E+00  0.3076E+02
     12.968  0.1289E+01  0.3092E+02
     13.095  0.8619E+00  0.3103E+02
     13.223  0.6145E+00  0.3111E+02
     13.350  0.7883E+00  0.3121E+02
     13.477  0.1406E+01  0.3139E+02
     13.605  0.1187E+01  0.3154E+02
     13.732  0.1047E+01  0.3167E+02
     13.860  0.6644E+00  0.3176E+02
     13.987  0.5886E+00  0.3183E+02
     14.114  0.4413E+00  0.3189E+02
     14.242  0.4627E+00  0.3195E+02
     14.369  0.1658E+01  0.3216E+02
     14.496  0.2148E+01  0.3243E+02
     14.624  0.2012E+01  0.3269E+02
     14.751  0.9524E+00  0.3281E+02
     14.879  0.4252E+00  0.3286E+02
     15.006  0.6243E+00  0.3294E+02
     15.133  0.1628E+01  0.3315E+02
     15.261  0.7998E+00  0.3325E+02
     15.388  0.7467E+00  0.3335E+02
     15.515  0.1897E+00  0.3337E+02
     15.643  0.6676E+00  0.3346E+02
     15.770  0.3834E+00  0.3351E+02
     15.898  0.1055E+01  0.3364E+02
     16.025  0.1431E+01  0.3382E+02
     16.152  0.1022E+01  0.3395E+02
     16.280  0.7437E+00  0.3405E+02
     16.407  0.6129E+00  0.3413E+02
     16.535  0.8249E+00  0.3423E+02
     16.662  0.1157E+01  0.3438E+02
     16.789  0.5824E+00  0.3445E+02
     16.917  0.5379E+00  0.3452E+02
     17.044  0.1739E+00  0.3454E+02
     17.171  0.3761E+00  0.3459E+02
     17.299  0.1898E+00  0.3461E+02
     17.426  0.1200E+01  0.3477E+02
     17.554  0.6868E+00  0.3486E+02
     17.681  0.4682E+00  0.3491E+02
     17.808  0.1289E+01  0.3508E+02
     17.936  0.9004E+00  0.3519E+02
     18.063  0.1002E+01  0.3532E+02
     18.191  0.1005E+01  0.3545E+02
     18.318  0.3275E+00  0.3549E+02
     18.445  0.4743E+00  0.3555E+02
     18.573  0.9478E+00  0.3567E+02
     18.700  0.1613E+01  0.3588E+02
     18.827  0.1176E+01  0.3603E+02
     18.955  0.9796E+00  0.3615E+02
     19.082  0.7262E+00  0.3624E+02
     19.210  0.8917E+00  0.3636E+02
     19.337  0.4474E+00  0.3642E+02
     19.464  0.9389E+00  0.3653E+02
     19.592  0.7035E+00  0.3662E+02
     19.719  0.9797E+00  0.3675E+02
     19.847  0.1742E+01  0.3697E+02
     19.974  0.5672E+00  0.3704E+02
     20.101  0.8572E+00  0.3715E+02
     20.229  0.5918E+00  0.3723E+02
     20.356  0.8420E+00  0.3734E+02
     20.483  0.9497E+00  0.3746E+02
     20.611  0.2752E+00  0.3749E+02
     20.738  0.1207E+01  0.3764E+02
     20.866  0.1454E+01  0.3783E+02
     20.993  0.1058E+01  0.3796E+02
     21.120  0.1171E+01  0.3811E+02
     21.248  0.7776E+00  0.3821E+02
     21.375  0.2621E+00  0.3825E+02
     21.502  0.5275E+00  0.3831E+02
     21.630  0.1257E+01  0.3847E+02
     21.757  0.8986E+00  0.3859E+02
     21.885  0.4677E+00  0.3865E+02
     22.012  0.2548E+00  0.3868E+02
     22.139  0.2438E+00  0.3871E+02
     22.267  0.9681E+00  0.3883E+02
     22.394  0.9523E+00  0.3896E+02
     22.522  0.1012E+01  0.3909E+02
     22.649  0.2868E+00  0.3912E+02
     22.776  0.8282E+00  0.3923E+02
     22.904  0.3376E+00  0.3927E+02
     23.031  0.5265E+00  0.3934E+02
     23.158  0.1804E+00  0.3936E+02
     23.286  0.2627E+00  0.3939E+02
     23.413  0.8026E+00  0.3950E+02
     23.541  0.2047E+00  0.3952E+02
     23.668  0.2556E+00  0.3955E+02
     23.795  0.6173E+00  0.3963E+02
     23.923  0.1985E+00  0.3966E+02
     24.050  0.3335E-01  0.3966E+02
     24.178  0.6397E+00  0.3974E+02
     24.305  0.7497E+00  0.3984E+02
     24.432  0.2218E+00  0.3987E+02
     24.560  0.1396E+00  0.3989E+02
     24.687  0.2500E+00  0.3992E+02
     24.814  0.1264E+00  0.3993E+02
     24.942  0.5223E-01  0.3994E+02
     25.069  0.2086E+00  0.3997E+02
     25.197  0.3016E-02  0.3997E+02
     25.324  0.1186E+00  0.3998E+02
     25.451  0.8949E-02  0.3998E+02
     25.579  0.2367E-07  0.3998E+02
     25.706  0.0000E+00  0.3998E+02
     25.833  0.0000E+00  0.3998E+02
     25.961  0.0000E+00  0.3998E+02
     26.088  0.0000E+00  0.3998E+02
     26.216  0.0000E+00  0.3998E+02
     26.343  0.0000E+00  0.3998E+02
     26.470  0.0000E+00  0.3998E+02
     26.598  0.0000E+00  0.3998E+02
     26.725  0.0000E+00  0.3998E+02
     26.853  0.0000E+00  0.3998E+02
     26.980  0.0000E+00  0.3998E+02
     27.107  0.4802E-17  0.3998E+02
     27.235  0.1084E-06  0.3998E+02
     27.362  0.1511E-01  0.3999E+02
     27.489  0.1136E+00  0.4000E+02
     27.617  0.1055E-02  0.4000E+02
     27.744  0.1295E-09  0.4000E+02
     27.872  0.0000E+00  0.4000E+02
     27.999  0.0000E+00  0.4000E+02
     28.126  0.0000E+00  0.4000E+02
     28.254  0.0000E+00  0.4000E+02
     28.381  0.0000E+00  0.4000E+02
     28.509  0.0000E+00  0.4000E+02
     28.636  0.0000E+00  0.4000E+02
     28.763  0.0000E+00  0.4000E+02
     28.891  0.0000E+00  0.4000E+02
     29.018  0.0000E+00  0.4000E+02
     29.145  0.0000E+00  0.4000E+02
