       N       E                     dE             d eps       ncg     rms          rms(c)
DAV:   1     0.143591070869E+03    0.14359E+03   -0.11290E+04 32048   0.130E+03
DAV:   2    -0.158843634659E+02   -0.15948E+03   -0.15374E+03 38512   0.350E+02
DAV:   3    -0.189807545610E+02   -0.30964E+01   -0.30723E+01 35504   0.505E+01
DAV:   4    -0.189925800892E+02   -0.11826E-01   -0.11824E-01 40336   0.354E+00
DAV:   5    -0.189926399717E+02   -0.59882E-04   -0.59884E-04 35264   0.239E-01    0.246E+01
DAV:   6    -0.178792767026E+02    0.11134E+01   -0.91308E+00 38120   0.362E+01    0.941E+00
DAV:   7    -0.166774465625E+02    0.12018E+01   -0.23436E+00 35136   0.180E+01    0.688E+00
DAV:   8    -0.166774043372E+02    0.42225E-04   -0.10446E-01 32920   0.235E+00    0.161E+00
DAV:   9    -0.166744604355E+02    0.29439E-02   -0.40478E-03 34816   0.704E-01    0.187E-01
DAV:  10    -0.166743126307E+02    0.14780E-03   -0.15244E-03 33688   0.313E-01    0.606E-02
DAV:  11    -0.166743070069E+02    0.56238E-05   -0.29378E-05 34608   0.484E-02    0.283E-02
DAV:  12    -0.166742992514E+02    0.77555E-05   -0.14763E-05 34336   0.332E-02    0.117E-02
DAV:  13    -0.166742985281E+02    0.72334E-06   -0.58257E-07 21520   0.653E-03
   1 F= -.16674299E+02 E0= -.16673993E+02  d E =-.610754E-03
