   4   4   0   0
  0.1840780E+02  0.4393931E-09  0.4393931E-09  0.4776587E-09  0.5000000E-15
  1.000000000000000E-004
  CAR 
 unknown system                          
     10.41450562    -25.38056684  301     -0.39698219      1.00000000
    -25.381  0.0000E+00  0.0000E+00
    -25.261  0.0000E+00  0.0000E+00
    -25.142  0.0000E+00  0.0000E+00
    -25.023  0.0000E+00  0.0000E+00
    -24.903  0.0000E+00  0.0000E+00
    -24.784  0.0000E+00  0.0000E+00
    -24.665  0.0000E+00  0.0000E+00
    -24.545  0.0000E+00  0.0000E+00
    -24.426  0.0000E+00  0.0000E+00
    -24.307  0.0000E+00  0.0000E+00
    -24.187  0.0000E+00  0.0000E+00
    -24.068  0.0000E+00  0.0000E+00
    -23.949  0.6794E-07  0.8106E-08
    -23.829  0.1310E+00  0.1563E-01
    -23.710  0.1368E+02  0.1648E+01
    -23.591  0.2953E+01  0.2000E+01
    -23.471  0.1582E-03  0.2000E+01
    -23.352  0.3528E-10  0.2000E+01
    -23.233  0.3802E-02  0.2000E+01
    -23.114  0.1201E+02  0.3434E+01
    -22.994  0.2244E+02  0.6112E+01
    -22.875  0.1523E+02  0.7929E+01
    -22.756  0.5959E+00  0.8000E+01
    -22.636  0.1935E-05  0.8000E+01
    -22.517  0.0000E+00  0.8000E+01
    -22.398  0.0000E+00  0.8000E+01
    -22.278  0.0000E+00  0.8000E+01
    -22.159  0.0000E+00  0.8000E+01
    -22.040  0.0000E+00  0.8000E+01
    -21.920  0.0000E+00  0.8000E+01
    -21.801  0.0000E+00  0.8000E+01
    -21.682  0.0000E+00  0.8000E+01
    -21.562  0.0000E+00  0.8000E+01
    -21.443  0.0000E+00  0.8000E+01
    -21.324  0.0000E+00  0.8000E+01
    -21.204  0.0000E+00  0.8000E+01
    -21.085  0.0000E+00  0.8000E+01
    -20.966  0.0000E+00  0.8000E+01
    -20.847  0.0000E+00  0.8000E+01
    -20.727  0.0000E+00  0.8000E+01
    -20.608  0.0000E+00  0.8000E+01
    -20.489  0.0000E+00  0.8000E+01
    -20.369  0.0000E+00  0.8000E+01
    -20.250  0.0000E+00  0.8000E+01
    -20.131  0.0000E+00  0.8000E+01
    -20.011  0.0000E+00  0.8000E+01
    -19.892  0.0000E+00  0.8000E+01
    -19.773  0.0000E+00  0.8000E+01
    -19.653  0.0000E+00  0.8000E+01
    -19.534  0.0000E+00  0.8000E+01
    -19.415  0.0000E+00  0.8000E+01
    -19.295  0.0000E+00  0.8000E+01
    -19.176  0.0000E+00  0.8000E+01
    -19.057  0.0000E+00  0.8000E+01
    -18.937  0.0000E+00  0.8000E+01
    -18.818  0.0000E+00  0.8000E+01
    -18.699  0.0000E+00  0.8000E+01
    -18.580  0.0000E+00  0.8000E+01
    -18.460  0.0000E+00  0.8000E+01
    -18.341  0.0000E+00  0.8000E+01
    -18.222  0.0000E+00  0.8000E+01
    -18.102  0.0000E+00  0.8000E+01
    -17.983  0.0000E+00  0.8000E+01
    -17.864  0.0000E+00  0.8000E+01
    -17.744  0.0000E+00  0.8000E+01
    -17.625  0.0000E+00  0.8000E+01
    -17.506  0.0000E+00  0.8000E+01
    -17.386  0.0000E+00  0.8000E+01
    -17.267  0.0000E+00  0.8000E+01
    -17.148  0.0000E+00  0.8000E+01
    -17.028  0.0000E+00  0.8000E+01
    -16.909  0.0000E+00  0.8000E+01
    -16.790  0.0000E+00  0.8000E+01
    -16.670  0.0000E+00  0.8000E+01
    -16.551  0.0000E+00  0.8000E+01
    -16.432  0.0000E+00  0.8000E+01
    -16.312  0.0000E+00  0.8000E+01
    -16.193  0.0000E+00  0.8000E+01
    -16.074  0.0000E+00  0.8000E+01
    -15.955  0.0000E+00  0.8000E+01
    -15.835  0.0000E+00  0.8000E+01
    -15.716  0.0000E+00  0.8000E+01
    -15.597  0.0000E+00  0.8000E+01
    -15.477  0.0000E+00  0.8000E+01
    -15.358  0.0000E+00  0.8000E+01
    -15.239  0.0000E+00  0.8000E+01
    -15.119  0.0000E+00  0.8000E+01
    -15.000  0.0000E+00  0.8000E+01
    -14.881  0.0000E+00  0.8000E+01
    -14.761  0.0000E+00  0.8000E+01
    -14.642  0.0000E+00  0.8000E+01
    -14.523  0.0000E+00  0.8000E+01
    -14.403  0.0000E+00  0.8000E+01
    -14.284  0.0000E+00  0.8000E+01
    -14.165  0.0000E+00  0.8000E+01
    -14.045  0.0000E+00  0.8000E+01
    -13.926  0.0000E+00  0.8000E+01
    -13.807  0.0000E+00  0.8000E+01
    -13.688  0.0000E+00  0.8000E+01
    -13.568  0.0000E+00  0.8000E+01
    -13.449  0.0000E+00  0.8000E+01
    -13.330  0.0000E+00  0.8000E+01
    -13.210  0.0000E+00  0.8000E+01
    -13.091  0.0000E+00  0.8000E+01
    -12.972  0.0000E+00  0.8000E+01
    -12.852  0.0000E+00  0.8000E+01
    -12.733  0.0000E+00  0.8000E+01
    -12.614  0.0000E+00  0.8000E+01
    -12.494  0.0000E+00  0.8000E+01
    -12.375  0.0000E+00  0.8000E+01
    -12.256  0.1280E-08  0.8000E+01
    -12.136  0.5202E-02  0.8001E+01
    -12.017  0.2064E+01  0.8247E+01
    -11.898  0.6916E+01  0.9072E+01
    -11.778  0.6136E+01  0.9804E+01
    -11.659  0.1636E+01  0.9999E+01
    -11.540  0.4567E-02  0.1000E+02
    -11.420  0.1844E-08  0.1000E+02
    -11.301  0.0000E+00  0.1000E+02
    -11.182  0.0000E+00  0.1000E+02
    -11.063  0.0000E+00  0.1000E+02
    -10.943  0.0000E+00  0.1000E+02
    -10.824  0.0000E+00  0.1000E+02
    -10.705  0.0000E+00  0.1000E+02
    -10.585  0.0000E+00  0.1000E+02
    -10.466  0.0000E+00  0.1000E+02
    -10.347  0.0000E+00  0.1000E+02
    -10.227  0.0000E+00  0.1000E+02
    -10.108  0.0000E+00  0.1000E+02
     -9.989  0.6899E-15  0.1000E+02
     -9.869  0.6501E-06  0.1000E+02
     -9.750  0.2597E-01  0.1000E+02
     -9.631  0.1412E+01  0.1017E+02
     -9.511  0.7441E+01  0.1106E+02
     -9.392  0.7605E+01  0.1197E+02
     -9.273  0.2784E+00  0.1200E+02
     -9.153  0.1228E-04  0.1200E+02
     -9.034  0.3036E-13  0.1200E+02
     -8.915  0.0000E+00  0.1200E+02
     -8.796  0.0000E+00  0.1200E+02
     -8.676  0.0000E+00  0.1200E+02
     -8.557  0.0000E+00  0.1200E+02
     -8.438  0.0000E+00  0.1200E+02
     -8.318  0.0000E+00  0.1200E+02
     -8.199  0.0000E+00  0.1200E+02
     -8.080  0.0000E+00  0.1200E+02
     -7.960  0.0000E+00  0.1200E+02
     -7.841  0.4206E-13  0.1200E+02
     -7.722  0.1124E-04  0.1200E+02
     -7.602  0.1050E+00  0.1201E+02
     -7.483  0.1638E+01  0.1221E+02
     -7.364  0.5501E+01  0.1286E+02
     -7.244  0.1021E+02  0.1408E+02
     -7.125  0.6886E+01  0.1490E+02
     -7.006  0.4010E+01  0.1538E+02
     -6.886  0.4014E+00  0.1543E+02
     -6.767  0.3071E+01  0.1580E+02
     -6.648  0.1700E+01  0.1600E+02
     -6.528  0.8300E-03  0.1600E+02
     -6.409  0.3955E-04  0.1600E+02
     -6.290  0.2711E+00  0.1603E+02
     -6.171  0.3756E+01  0.1648E+02
     -6.051  0.6496E+01  0.1726E+02
     -5.932  0.5091E+01  0.1786E+02
     -5.813  0.1132E+01  0.1800E+02
     -5.693  0.1561E-01  0.1800E+02
     -5.574  0.2122E-06  0.1800E+02
     -5.455  0.1013E-15  0.1800E+02
     -5.335  0.0000E+00  0.1800E+02
     -5.216  0.0000E+00  0.1800E+02
     -5.097  0.0000E+00  0.1800E+02
     -4.977  0.0000E+00  0.1800E+02
     -4.858  0.0000E+00  0.1800E+02
     -4.739  0.0000E+00  0.1800E+02
     -4.619  0.0000E+00  0.1800E+02
     -4.500  0.0000E+00  0.1800E+02
     -4.381  0.0000E+00  0.1800E+02
     -4.261  0.0000E+00  0.1800E+02
     -4.142  0.0000E+00  0.1800E+02
     -4.023  0.0000E+00  0.1800E+02
     -3.904  0.0000E+00  0.1800E+02
     -3.784  0.0000E+00  0.1800E+02
     -3.665  0.0000E+00  0.1800E+02
     -3.546  0.0000E+00  0.1800E+02
     -3.426  0.0000E+00  0.1800E+02
     -3.307  0.0000E+00  0.1800E+02
     -3.188  0.0000E+00  0.1800E+02
     -3.068  0.0000E+00  0.1800E+02
     -2.949  0.0000E+00  0.1800E+02
     -2.830  0.0000E+00  0.1800E+02
     -2.710  0.0000E+00  0.1800E+02
     -2.591  0.0000E+00  0.1800E+02
     -2.472  0.0000E+00  0.1800E+02
     -2.352  0.0000E+00  0.1800E+02
     -2.233  0.0000E+00  0.1800E+02
     -2.114  0.0000E+00  0.1800E+02
     -1.994  0.0000E+00  0.1800E+02
     -1.875  0.0000E+00  0.1800E+02
     -1.756  0.0000E+00  0.1800E+02
     -1.637  0.0000E+00  0.1800E+02
     -1.517  0.1266E-16  0.1800E+02
     -1.398  0.1519E-06  0.1800E+02
     -1.279  0.2941E-01  0.1800E+02
     -1.159  0.9347E+00  0.1812E+02
     -1.040  0.2242E+01  0.1838E+02
     -0.921  0.2524E+01  0.1868E+02
     -0.801  0.3898E+01  0.1915E+02
     -0.682  0.3745E+01  0.1960E+02
     -0.563  0.6594E+01  0.2038E+02
     -0.443  0.9888E+01  0.2156E+02
     -0.324  0.6555E+01  0.2234E+02
     -0.205  0.6110E+01  0.2307E+02
     -0.085  0.5835E+00  0.2314E+02
      0.034  0.1384E+01  0.2331E+02
      0.153  0.3679E+01  0.2375E+02
      0.273  0.1969E+01  0.2398E+02
      0.392  0.1509E+00  0.2400E+02
      0.511  0.6680E-05  0.2400E+02
      0.631  0.1013E-13  0.2400E+02
      0.750  0.0000E+00  0.2400E+02
      0.869  0.0000E+00  0.2400E+02
      0.988  0.2348E-13  0.2400E+02
      1.108  0.7135E-05  0.2400E+02
      1.227  0.5713E-01  0.2401E+02
      1.346  0.2660E+00  0.2404E+02
      1.466  0.1128E+01  0.2417E+02
      1.585  0.1474E+01  0.2435E+02
      1.704  0.3516E+01  0.2477E+02
      1.824  0.5581E+01  0.2543E+02
      1.943  0.5564E+01  0.2610E+02
      2.062  0.4125E+01  0.2659E+02
      2.182  0.2429E+01  0.2688E+02
      2.301  0.2123E+01  0.2713E+02
      2.420  0.2034E+01  0.2738E+02
      2.540  0.3171E+01  0.2775E+02
      2.659  0.2026E+01  0.2800E+02
      2.778  0.3034E-01  0.2800E+02
      2.898  0.1350E-06  0.2800E+02
      3.017  0.0000E+00  0.2800E+02
      3.136  0.0000E+00  0.2800E+02
      3.255  0.0000E+00  0.2800E+02
      3.375  0.0000E+00  0.2800E+02
      3.494  0.0000E+00  0.2800E+02
      3.613  0.0000E+00  0.2800E+02
      3.733  0.0000E+00  0.2800E+02
      3.852  0.0000E+00  0.2800E+02
      3.971  0.0000E+00  0.2800E+02
      4.091  0.7608E-13  0.2800E+02
      4.210  0.8420E-05  0.2800E+02
      4.329  0.2299E-01  0.2800E+02
      4.449  0.4496E-01  0.2801E+02
      4.568  0.3531E+00  0.2805E+02
      4.687  0.3896E+00  0.2810E+02
      4.807  0.2883E+00  0.2813E+02
      4.926  0.4143E+00  0.2818E+02
      5.045  0.8468E+00  0.2828E+02
      5.165  0.6389E+00  0.2836E+02
      5.284  0.6363E+00  0.2843E+02
      5.403  0.9091E+00  0.2854E+02
      5.523  0.7563E+00  0.2863E+02
      5.642  0.8475E+00  0.2873E+02
      5.761  0.1423E+01  0.2890E+02
      5.880  0.1696E+01  0.2911E+02
      6.000  0.7516E+00  0.2920E+02
      6.119  0.5146E+00  0.2926E+02
      6.238  0.1214E+01  0.2940E+02
      6.358  0.1800E+01  0.2962E+02
      6.477  0.1032E+01  0.2974E+02
      6.596  0.8884E+00  0.2985E+02
      6.716  0.5643E+00  0.2991E+02
      6.835  0.4496E+00  0.2997E+02
      6.954  0.1237E+01  0.3011E+02
      7.074  0.1442E+01  0.3029E+02
      7.193  0.6179E+00  0.3036E+02
      7.312  0.1449E+01  0.3053E+02
      7.432  0.2318E+01  0.3081E+02
      7.551  0.1432E+01  0.3098E+02
      7.670  0.1631E+01  0.3118E+02
      7.790  0.1511E+01  0.3136E+02
      7.909  0.1161E+01  0.3149E+02
      8.028  0.1082E+01  0.3162E+02
      8.147  0.6458E+00  0.3170E+02
      8.267  0.4272E+00  0.3175E+02
      8.386  0.8995E+00  0.3186E+02
      8.505  0.3853E+00  0.3190E+02
      8.625  0.3681E+00  0.3195E+02
      8.744  0.2635E+00  0.3198E+02
      8.863  0.1695E+00  0.3200E+02
      8.983  0.1928E-02  0.3200E+02
      9.102  0.1914E-08  0.3200E+02
      9.221  0.0000E+00  0.3200E+02
      9.341  0.0000E+00  0.3200E+02
      9.460  0.0000E+00  0.3200E+02
      9.579  0.0000E+00  0.3200E+02
      9.699  0.0000E+00  0.3200E+02
      9.818  0.0000E+00  0.3200E+02
      9.937  0.0000E+00  0.3200E+02
     10.057  0.0000E+00  0.3200E+02
     10.176  0.0000E+00  0.3200E+02
     10.295  0.0000E+00  0.3200E+02
     10.415  0.0000E+00  0.3200E+02
