       N       E                     dE             d eps       ncg     rms          rms(c)
DAV:   1     0.181075861378E+03    0.18108E+03   -0.12065E+04  9448   0.147E+03
DAV:   2    -0.603667569075E+01   -0.18711E+03   -0.18228E+03 11440   0.367E+02
DAV:   3    -0.227885409273E+02   -0.16752E+02   -0.16534E+02 11904   0.111E+02
DAV:   4    -0.230690635850E+02   -0.28052E+00   -0.27925E+00 10728   0.176E+01
DAV:   5    -0.230746192601E+02   -0.55557E-02   -0.55547E-02 12360   0.221E+00    0.107E+01
DAV:   6    -0.217539944181E+02    0.13206E+01   -0.54130E+00 10528   0.942E+00    0.484E+00
DAV:   7    -0.216046804719E+02    0.14931E+00   -0.38629E-01 12000   0.434E+00    0.268E+00
DAV:   8    -0.215715770527E+02    0.33103E-01   -0.12627E-01  9720   0.233E+00    0.710E-01
DAV:   9    -0.215730815096E+02   -0.15045E-02   -0.77773E-03 11536   0.701E-01    0.222E-01
DAV:  10    -0.215742338487E+02   -0.11523E-02   -0.12576E-03  9648   0.276E-01    0.723E-02
DAV:  11    -0.215746223172E+02   -0.38847E-03   -0.35078E-04  9992   0.145E-01    0.257E-02
DAV:  12    -0.215746711369E+02   -0.48820E-04   -0.45810E-05 11888   0.527E-02    0.911E-03
DAV:  13    -0.215746744391E+02   -0.33022E-05   -0.47110E-06  9480   0.161E-02    0.201E-03
DAV:  14    -0.215746745365E+02   -0.97371E-07   -0.24925E-07 10328   0.448E-03
   1 F= -.21574675E+02 E0= -.21570316E+02  d E =-.871684E-02
