  14  14   0   0
  0.2615562E+02  0.5867187E-09  0.7739891E-09  0.9194306E-09  0.5000000E-15
  1.000000000000000E-004
  CAR 
 unknown system                          
     10.03509772    -33.23155344  301      3.85157215      1.00000000
    -33.232  0.0000E+00  0.0000E+00
    -33.087  0.0000E+00  0.0000E+00
    -32.943  0.0000E+00  0.0000E+00
    -32.799  0.0000E+00  0.0000E+00
    -32.655  0.0000E+00  0.0000E+00
    -32.510  0.0000E+00  0.0000E+00
    -32.366  0.0000E+00  0.0000E+00
    -32.222  0.0000E+00  0.0000E+00
    -32.078  0.0000E+00  0.0000E+00
    -31.934  0.0000E+00  0.0000E+00
    -31.789  0.0000E+00  0.0000E+00
    -31.645  0.0000E+00  0.0000E+00
    -31.501  0.2407E-09  0.3472E-10
    -31.357  0.1124E+00  0.1621E-01
    -31.212  0.4013E+02  0.5804E+01
    -31.068  0.4295E+02  0.1200E+02
    -30.924  0.1749E-01  0.1200E+02
    -30.780  0.0000E+00  0.1200E+02
    -30.636  0.0000E+00  0.1200E+02
    -30.491  0.0000E+00  0.1200E+02
    -30.347  0.0000E+00  0.1200E+02
    -30.203  0.0000E+00  0.1200E+02
    -30.059  0.0000E+00  0.1200E+02
    -29.914  0.0000E+00  0.1200E+02
    -29.770  0.0000E+00  0.1200E+02
    -29.626  0.0000E+00  0.1200E+02
    -29.482  0.0000E+00  0.1200E+02
    -29.338  0.0000E+00  0.1200E+02
    -29.193  0.0000E+00  0.1200E+02
    -29.049  0.0000E+00  0.1200E+02
    -28.905  0.0000E+00  0.1200E+02
    -28.761  0.0000E+00  0.1200E+02
    -28.616  0.0000E+00  0.1200E+02
    -28.472  0.0000E+00  0.1200E+02
    -28.328  0.0000E+00  0.1200E+02
    -28.184  0.0000E+00  0.1200E+02
    -28.040  0.0000E+00  0.1200E+02
    -27.895  0.0000E+00  0.1200E+02
    -27.751  0.0000E+00  0.1200E+02
    -27.607  0.0000E+00  0.1200E+02
    -27.463  0.0000E+00  0.1200E+02
    -27.318  0.0000E+00  0.1200E+02
    -27.174  0.0000E+00  0.1200E+02
    -27.030  0.0000E+00  0.1200E+02
    -26.886  0.0000E+00  0.1200E+02
    -26.742  0.0000E+00  0.1200E+02
    -26.597  0.0000E+00  0.1200E+02
    -26.453  0.0000E+00  0.1200E+02
    -26.309  0.0000E+00  0.1200E+02
    -26.165  0.0000E+00  0.1200E+02
    -26.020  0.0000E+00  0.1200E+02
    -25.876  0.0000E+00  0.1200E+02
    -25.732  0.0000E+00  0.1200E+02
    -25.588  0.0000E+00  0.1200E+02
    -25.444  0.0000E+00  0.1200E+02
    -25.299  0.0000E+00  0.1200E+02
    -25.155  0.0000E+00  0.1200E+02
    -25.011  0.0000E+00  0.1200E+02
    -24.867  0.0000E+00  0.1200E+02
    -24.722  0.0000E+00  0.1200E+02
    -24.578  0.0000E+00  0.1200E+02
    -24.434  0.0000E+00  0.1200E+02
    -24.290  0.0000E+00  0.1200E+02
    -24.146  0.0000E+00  0.1200E+02
    -24.001  0.0000E+00  0.1200E+02
    -23.857  0.0000E+00  0.1200E+02
    -23.713  0.0000E+00  0.1200E+02
    -23.569  0.0000E+00  0.1200E+02
    -23.424  0.0000E+00  0.1200E+02
    -23.280  0.0000E+00  0.1200E+02
    -23.136  0.0000E+00  0.1200E+02
    -22.992  0.0000E+00  0.1200E+02
    -22.848  0.0000E+00  0.1200E+02
    -22.703  0.0000E+00  0.1200E+02
    -22.559  0.0000E+00  0.1200E+02
    -22.415  0.0000E+00  0.1200E+02
    -22.271  0.0000E+00  0.1200E+02
    -22.126  0.0000E+00  0.1200E+02
    -21.982  0.0000E+00  0.1200E+02
    -21.838  0.0000E+00  0.1200E+02
    -21.694  0.0000E+00  0.1200E+02
    -21.550  0.0000E+00  0.1200E+02
    -21.405  0.0000E+00  0.1200E+02
    -21.261  0.0000E+00  0.1200E+02
    -21.117  0.0000E+00  0.1200E+02
    -20.973  0.0000E+00  0.1200E+02
    -20.828  0.0000E+00  0.1200E+02
    -20.684  0.0000E+00  0.1200E+02
    -20.540  0.0000E+00  0.1200E+02
    -20.396  0.0000E+00  0.1200E+02
    -20.252  0.0000E+00  0.1200E+02
    -20.107  0.0000E+00  0.1200E+02
    -19.963  0.0000E+00  0.1200E+02
    -19.819  0.0000E+00  0.1200E+02
    -19.675  0.0000E+00  0.1200E+02
    -19.530  0.0000E+00  0.1200E+02
    -19.386  0.0000E+00  0.1200E+02
    -19.242  0.0000E+00  0.1200E+02
    -19.098  0.0000E+00  0.1200E+02
    -18.954  0.0000E+00  0.1200E+02
    -18.809  0.0000E+00  0.1200E+02
    -18.665  0.0000E+00  0.1200E+02
    -18.521  0.0000E+00  0.1200E+02
    -18.377  0.0000E+00  0.1200E+02
    -18.232  0.0000E+00  0.1200E+02
    -18.088  0.0000E+00  0.1200E+02
    -17.944  0.0000E+00  0.1200E+02
    -17.800  0.0000E+00  0.1200E+02
    -17.656  0.0000E+00  0.1200E+02
    -17.511  0.0000E+00  0.1200E+02
    -17.367  0.0000E+00  0.1200E+02
    -17.223  0.0000E+00  0.1200E+02
    -17.079  0.0000E+00  0.1200E+02
    -16.934  0.0000E+00  0.1200E+02
    -16.790  0.0000E+00  0.1200E+02
    -16.646  0.0000E+00  0.1200E+02
    -16.502  0.0000E+00  0.1200E+02
    -16.358  0.0000E+00  0.1200E+02
    -16.213  0.0000E+00  0.1200E+02
    -16.069  0.0000E+00  0.1200E+02
    -15.925  0.0000E+00  0.1200E+02
    -15.781  0.0000E+00  0.1200E+02
    -15.636  0.0000E+00  0.1200E+02
    -15.492  0.0000E+00  0.1200E+02
    -15.348  0.0000E+00  0.1200E+02
    -15.204  0.0000E+00  0.1200E+02
    -15.060  0.0000E+00  0.1200E+02
    -14.915  0.0000E+00  0.1200E+02
    -14.771  0.0000E+00  0.1200E+02
    -14.627  0.0000E+00  0.1200E+02
    -14.483  0.0000E+00  0.1200E+02
    -14.338  0.0000E+00  0.1200E+02
    -14.194  0.0000E+00  0.1200E+02
    -14.050  0.0000E+00  0.1200E+02
    -13.906  0.0000E+00  0.1200E+02
    -13.762  0.1569E-06  0.1200E+02
    -13.617  0.4636E+00  0.1207E+02
    -13.473  0.2336E+02  0.1544E+02
    -13.329  0.8485E+02  0.2767E+02
    -13.185  0.1155E+03  0.4433E+02
    -13.040  0.2548E+02  0.4800E+02
    -12.896  0.7433E-03  0.4800E+02
    -12.752  0.0000E+00  0.4800E+02
    -12.608  0.0000E+00  0.4800E+02
    -12.464  0.0000E+00  0.4800E+02
    -12.319  0.0000E+00  0.4800E+02
    -12.175  0.0000E+00  0.4800E+02
    -12.031  0.0000E+00  0.4800E+02
    -11.887  0.0000E+00  0.4800E+02
    -11.742  0.0000E+00  0.4800E+02
    -11.598  0.0000E+00  0.4800E+02
    -11.454  0.0000E+00  0.4800E+02
    -11.310  0.0000E+00  0.4800E+02
    -11.166  0.0000E+00  0.4800E+02
    -11.021  0.0000E+00  0.4800E+02
    -10.877  0.0000E+00  0.4800E+02
    -10.733  0.0000E+00  0.4800E+02
    -10.589  0.0000E+00  0.4800E+02
    -10.444  0.0000E+00  0.4800E+02
    -10.300  0.0000E+00  0.4800E+02
    -10.156  0.0000E+00  0.4800E+02
    -10.012  0.0000E+00  0.4800E+02
     -9.868  0.0000E+00  0.4800E+02
     -9.723  0.0000E+00  0.4800E+02
     -9.579  0.0000E+00  0.4800E+02
     -9.435  0.0000E+00  0.4800E+02
     -9.291  0.0000E+00  0.4800E+02
     -9.146  0.0000E+00  0.4800E+02
     -9.002  0.0000E+00  0.4800E+02
     -8.858  0.1259E-05  0.4800E+02
     -8.714  0.1094E+00  0.4802E+02
     -8.570  0.1674E+01  0.4826E+02
     -8.425  0.6504E+01  0.4920E+02
     -8.281  0.1355E+02  0.5115E+02
     -8.137  0.5835E+01  0.5199E+02
     -7.993  0.6151E-01  0.5200E+02
     -7.848  0.1458E-08  0.5200E+02
     -7.704  0.0000E+00  0.5200E+02
     -7.560  0.0000E+00  0.5200E+02
     -7.416  0.3406E-11  0.5200E+02
     -7.272  0.5836E-02  0.5200E+02
     -7.127  0.1075E+02  0.5355E+02
     -6.983  0.1656E+02  0.5594E+02
     -6.839  0.4144E+00  0.5600E+02
     -6.695  0.4504E-05  0.5600E+02
     -6.550  0.0000E+00  0.5600E+02
     -6.406  0.0000E+00  0.5600E+02
     -6.262  0.0000E+00  0.5600E+02
     -6.118  0.0000E+00  0.5600E+02
     -5.974  0.0000E+00  0.5600E+02
     -5.829  0.0000E+00  0.5600E+02
     -5.685  0.0000E+00  0.5600E+02
     -5.541  0.0000E+00  0.5600E+02
     -5.397  0.1994E-09  0.5600E+02
     -5.252  0.1243E-01  0.5600E+02
     -5.108  0.1358E+02  0.5796E+02
     -4.964  0.1414E+02  0.6000E+02
     -4.820  0.4663E-02  0.6000E+02
     -4.676  0.6242E-12  0.6000E+02
     -4.531  0.0000E+00  0.6000E+02
     -4.387  0.0000E+00  0.6000E+02
     -4.243  0.0000E+00  0.6000E+02
     -4.099  0.0000E+00  0.6000E+02
     -3.954  0.0000E+00  0.6000E+02
     -3.810  0.5919E-13  0.6000E+02
     -3.666  0.2257E-03  0.6000E+02
     -3.522  0.4789E+00  0.6007E+02
     -3.378  0.5875E+01  0.6092E+02
     -3.233  0.1619E+02  0.6325E+02
     -3.089  0.5180E+01  0.6400E+02
     -2.945  0.1324E-01  0.6400E+02
     -2.801  0.2015E-09  0.6400E+02
     -2.656  0.0000E+00  0.6400E+02
     -2.512  0.0000E+00  0.6400E+02
     -2.368  0.0000E+00  0.6400E+02
     -2.224  0.0000E+00  0.6400E+02
     -2.080  0.0000E+00  0.6400E+02
     -1.935  0.0000E+00  0.6400E+02
     -1.791  0.0000E+00  0.6400E+02
     -1.647  0.0000E+00  0.6400E+02
     -1.503  0.0000E+00  0.6400E+02
     -1.358  0.0000E+00  0.6400E+02
     -1.214  0.0000E+00  0.6400E+02
     -1.070  0.0000E+00  0.6400E+02
     -0.926  0.3370E-09  0.6400E+02
     -0.782  0.2271E-01  0.6400E+02
     -0.637  0.4028E+01  0.6458E+02
     -0.493  0.1038E+02  0.6608E+02
     -0.349  0.1113E+02  0.6769E+02
     -0.205  0.5103E+01  0.6842E+02
     -0.060  0.5532E+01  0.6922E+02
      0.084  0.1277E+02  0.7106E+02
      0.228  0.1077E+02  0.7261E+02
      0.372  0.9385E+01  0.7397E+02
      0.516  0.1005E+02  0.7542E+02
      0.661  0.2443E+01  0.7577E+02
      0.805  0.1540E+01  0.7599E+02
      0.949  0.3046E+01  0.7643E+02
      1.093  0.8211E+01  0.7762E+02
      1.238  0.1468E+02  0.7973E+02
      1.382  0.1330E+02  0.8165E+02
      1.526  0.1153E+02  0.8331E+02
      1.670  0.4716E+01  0.8399E+02
      1.814  0.3303E+00  0.8404E+02
      1.959  0.4533E+01  0.8470E+02
      2.103  0.1181E+02  0.8640E+02
      2.247  0.7632E+01  0.8750E+02
      2.391  0.4961E+01  0.8822E+02
      2.536  0.4533E+01  0.8887E+02
      2.680  0.7399E+01  0.8994E+02
      2.824  0.9192E+01  0.9126E+02
      2.968  0.1557E+02  0.9351E+02
      3.112  0.1183E+02  0.9521E+02
      3.257  0.1561E+02  0.9746E+02
      3.401  0.9903E+01  0.9889E+02
      3.545  0.6522E+01  0.9983E+02
      3.689  0.1156E+01  0.1000E+03
      3.834  0.2673E-04  0.1000E+03
      3.978  0.0000E+00  0.1000E+03
      4.122  0.0000E+00  0.1000E+03
      4.266  0.1630E-08  0.1000E+03
      4.410  0.1551E-01  0.1000E+03
      4.555  0.6663E+00  0.1001E+03
      4.699  0.2501E+01  0.1005E+03
      4.843  0.2633E+01  0.1008E+03
      4.987  0.5714E+01  0.1017E+03
      5.132  0.8270E+01  0.1029E+03
      5.276  0.2030E+01  0.1031E+03
      5.420  0.4507E+01  0.1038E+03
      5.564  0.1110E+02  0.1054E+03
      5.708  0.1113E+02  0.1070E+03
      5.853  0.8489E+01  0.1082E+03
      5.997  0.1230E+02  0.1100E+03
      6.141  0.7491E+01  0.1111E+03
      6.285  0.8592E+01  0.1123E+03
      6.430  0.7607E+01  0.1134E+03
      6.574  0.1043E+02  0.1149E+03
      6.718  0.9024E+01  0.1162E+03
      6.862  0.1112E+02  0.1178E+03
      7.006  0.1263E+02  0.1196E+03
      7.151  0.9036E+01  0.1210E+03
      7.295  0.8854E+01  0.1222E+03
      7.439  0.1189E+02  0.1239E+03
      7.583  0.1153E+02  0.1256E+03
      7.728  0.1017E+02  0.1271E+03
      7.872  0.4748E+01  0.1278E+03
      8.016  0.1096E+01  0.1279E+03
      8.160  0.5720E+00  0.1280E+03
      8.304  0.2442E-02  0.1280E+03
      8.449  0.5363E-11  0.1280E+03
      8.593  0.0000E+00  0.1280E+03
      8.737  0.0000E+00  0.1280E+03
      8.881  0.0000E+00  0.1280E+03
      9.026  0.0000E+00  0.1280E+03
      9.170  0.0000E+00  0.1280E+03
      9.314  0.0000E+00  0.1280E+03
      9.458  0.0000E+00  0.1280E+03
      9.602  0.0000E+00  0.1280E+03
      9.747  0.0000E+00  0.1280E+03
      9.891  0.0000E+00  0.1280E+03
     10.035  0.0000E+00  0.1280E+03
