       N       E                     dE             d eps       ncg     rms          rms(c)
DAV:   1     0.637503918904E+03    0.63750E+03   -0.49221E+04  5760   0.155E+03
DAV:   2    -0.915815217347E+01   -0.64666E+03   -0.62756E+03  6880   0.322E+02
DAV:   3    -0.651301480714E+02   -0.55972E+02   -0.55524E+02  7616   0.762E+01
DAV:   4    -0.682168442618E+02   -0.30867E+01   -0.30783E+01  9320   0.176E+01
DAV:   5    -0.683853741383E+02   -0.16853E+00   -0.16850E+00  7848   0.295E+00    0.403E+01
DAV:   6    -0.666156241161E+02    0.17698E+01   -0.40208E+00  6768   0.505E+00    0.257E+01
DAV:   7    -0.665962307941E+02    0.19393E-01   -0.33801E+00  7200   0.513E+00    0.243E+00
DAV:   8    -0.665139035686E+02    0.82327E-01   -0.85059E-01  6896   0.211E+00    0.135E+00
DAV:   9    -0.665206837260E+02   -0.67802E-02   -0.60742E-02  6752   0.693E-01    0.383E-01
DAV:  10    -0.665212200098E+02   -0.53628E-03   -0.14495E-02  7616   0.282E-01    0.171E-01
DAV:  11    -0.665216043043E+02   -0.38429E-03   -0.13668E-03  7424   0.111E-01    0.771E-02
DAV:  12    -0.665217244961E+02   -0.12019E-03   -0.42028E-04  7528   0.562E-02    0.320E-02
DAV:  13    -0.665217354105E+02   -0.10914E-04   -0.47558E-05  7384   0.191E-02    0.130E-02
DAV:  14    -0.665217373669E+02   -0.19565E-05   -0.62136E-06  6272   0.762E-03    0.620E-03
DAV:  15    -0.665217384931E+02   -0.11262E-05   -0.14514E-06  4448   0.418E-03    0.224E-03
DAV:  16    -0.665217383855E+02    0.10758E-06   -0.44136E-07  3960   0.225E-03
   1 F= -.66521738E+02 E0= -.66521738E+02  d E =-.159616E-18
