       N       E                     dE             d eps       ncg     rms          rms(c)
DAV:   1     0.445338809883E+03    0.44534E+03   -0.26756E+04 40296   0.202E+03
DAV:   2    -0.108721111630E+02   -0.45621E+03   -0.44079E+03 39476   0.560E+02
DAV:   3    -0.313108518213E+02   -0.20439E+02   -0.19894E+02 44184   0.137E+02
DAV:   4    -0.316389404499E+02   -0.32809E+00   -0.32717E+00 43996   0.170E+01
DAV:   5    -0.316449132381E+02   -0.59728E-02   -0.59724E-02 43096   0.244E+00    0.251E+01
DAV:   6    -0.336352633324E+02   -0.19904E+01   -0.52944E+01 47376   0.125E+02    0.365E+01
DAV:   7    -0.253148104098E+02    0.83205E+01   -0.22403E+01 43572   0.805E+01    0.272E+00
DAV:   8    -0.253560987188E+02   -0.41288E-01   -0.92065E-01 43528   0.856E+00    0.149E+00
DAV:   9    -0.253460830256E+02    0.10016E-01   -0.21391E-02 56568   0.235E+00    0.358E-01
DAV:  10    -0.253453319407E+02    0.75108E-03   -0.29350E-03 48264   0.910E-01    0.159E-01
DAV:  11    -0.253453333895E+02   -0.14488E-05   -0.36041E-04 54400   0.406E-01    0.134E-01
DAV:  12    -0.253453152031E+02    0.18186E-04   -0.10371E-04 53284   0.217E-01    0.335E-02
DAV:  13    -0.253453139085E+02    0.12946E-05   -0.14073E-05 43764   0.507E-02    0.131E-02
DAV:  14    -0.253453127706E+02    0.11379E-05   -0.45128E-06 41792   0.304E-02    0.351E-03
DAV:  15    -0.253453126849E+02    0.85724E-07   -0.17296E-07 21064   0.706E-03
   1 F= -.25345313E+02 E0= -.25344848E+02  d E =-.928423E-03
