Be8 V4                                  
   1.00000000000000     
     4.3615382599999997    0.0000061100000000    0.0000000000000000
    -2.1807635300000001    3.7771937900000001    0.0000000000000000
     0.0000000000000000    0.0000000000000000    7.0332094100000004
   Be   V 
     8     4
Direct
     0.0000000000000000    0.0000000000000000    0.0000000000000000
     0.0000000000000000    0.0000000000000000    0.5000000000000000
     0.8286054300000032    0.6572108599999993    0.2499964499999976
     0.1713945699999968    0.8286064300000007    0.7500035500000024
     0.6572098600000018    0.8286064300000007    0.7500035500000024
     0.3427901399999982    0.1713935699999993    0.2499964499999976
     0.8286054300000032    0.1713935699999993    0.2499964499999976
     0.1713945699999968    0.3427891400000007    0.7500035500000024
     0.3333330000000032    0.6666669999999968    0.0671112599999972
     0.6666669999999968    0.3333330000000032    0.5671617400000031
     0.6666669999999968    0.3333330000000032    0.9328887400000028
     0.3333330000000032    0.6666669999999968    0.4328382599999969
 
  0.00000000E+00  0.00000000E+00  0.00000000E+00
  0.00000000E+00  0.00000000E+00  0.00000000E+00
  0.00000000E+00  0.00000000E+00  0.00000000E+00
  0.00000000E+00  0.00000000E+00  0.00000000E+00
  0.00000000E+00  0.00000000E+00  0.00000000E+00
  0.00000000E+00  0.00000000E+00  0.00000000E+00
  0.00000000E+00  0.00000000E+00  0.00000000E+00
  0.00000000E+00  0.00000000E+00  0.00000000E+00
  0.00000000E+00  0.00000000E+00  0.00000000E+00
  0.00000000E+00  0.00000000E+00  0.00000000E+00
  0.00000000E+00  0.00000000E+00  0.00000000E+00
  0.00000000E+00  0.00000000E+00  0.00000000E+00
