Be8 V4
1.0
   4.3615382599999997    0.0000061100000000   -0.0000000000000000
  -2.1807635300000001    3.7771937900000001   -0.0000000000000000
   0.0000000000000000    0.0000000000000000    7.0332094100000004
Be V
8 4
direct
  -0.0000000000000000    0.0000000000000000   -0.0000000000000000 Be
  -0.0000000000000000    0.0000000000000000    0.5000000000000000 Be
   0.8286054300000000    0.6572108600000000    0.2499964500000000 Be
   0.1713945700000000    0.8286064300000000    0.7500035500000000 Be
   0.6572098600000000    0.8286064300000000    0.7500035500000000 Be
   0.3427901400000000    0.1713935700000000    0.2499964500000000 Be
   0.8286054300000000    0.1713935700000000    0.2499964500000000 Be
   0.1713945700000000    0.3427891400000000    0.7500035500000000 Be
   0.3333330000000000    0.6666670000000000    0.0671112600000000 V
   0.6666670000000000    0.3333330000000000    0.5671617400000000 V
   0.6666670000000000    0.3333330000000000    0.9328887400000000 V
   0.3333330000000000    0.6666670000000000    0.4328382600000000 V
