unknown system                          
           1
     4.361538    0.000006    0.000000
    -2.180764    3.777194    0.000000
     0.000000    0.000000    7.033209
   Be   V 
     8     4
Direct configuration=     1
   0.00000000  0.00000000  0.00000000
   0.00000000  0.00000000  0.50000000
   0.82860543  0.65721086  0.24999645
   0.17139457  0.82860643  0.75000355
   0.65720986  0.82860643  0.75000355
   0.34279014  0.17139357  0.24999645
   0.82860543  0.17139357  0.24999645
   0.17139457  0.34278914  0.75000355
   0.33333300  0.66666700  0.06711126
   0.66666700  0.33333300  0.56716174
   0.66666700  0.33333300  0.93288874
   0.33333300  0.66666700  0.43283826
