H1 Cl1                                  
   1.00000000000000     
    -2.1253690000000001    2.1719040000000001    2.8741810000000001
     2.1253690000000001   -2.1719040000000001    2.8741810000000001
     2.1253690000000001    2.1719040000000001   -2.8741810000000001
   H    Cl
     1     1
Direct
     0.3134760000000014    0.0000000000000000    0.3134760000000014
     0.0185239999999993    0.0000000000000000    0.0185239999999993
 
  0.00000000E+00  0.00000000E+00  0.00000000E+00
  0.00000000E+00  0.00000000E+00  0.00000000E+00
