   2   2   0   0
  0.2653500E+02  0.4182736E-09  0.4182736E-09  0.4182736E-09  0.5000000E-15
  1.000000000000000E-004
  CAR 
 unknown system                          
     11.75340340    -19.01370344  301     -3.62374021      1.00000000
    -19.014  0.0000E+00  0.0000E+00
    -18.911  0.0000E+00  0.0000E+00
    -18.809  0.0000E+00  0.0000E+00
    -18.706  0.0000E+00  0.0000E+00
    -18.603  0.0000E+00  0.0000E+00
    -18.501  0.0000E+00  0.0000E+00
    -18.398  0.0000E+00  0.0000E+00
    -18.296  0.0000E+00  0.0000E+00
    -18.193  0.0000E+00  0.0000E+00
    -18.091  0.0000E+00  0.0000E+00
    -17.988  0.0000E+00  0.0000E+00
    -17.886  0.5965E-15  0.6118E-16
    -17.783  0.7376E-07  0.7565E-08
    -17.680  0.5483E-02  0.5623E-03
    -17.578  0.9758E+00  0.1006E+00
    -17.475  0.8819E+01  0.1005E+01
    -17.373  0.9520E+01  0.1981E+01
    -17.270  0.1819E+00  0.2000E+01
    -17.168  0.4388E-05  0.2000E+01
    -17.065  0.4167E-13  0.2000E+01
    -16.963  0.0000E+00  0.2000E+01
    -16.860  0.0000E+00  0.2000E+01
    -16.757  0.0000E+00  0.2000E+01
    -16.655  0.0000E+00  0.2000E+01
    -16.552  0.0000E+00  0.2000E+01
    -16.450  0.0000E+00  0.2000E+01
    -16.347  0.0000E+00  0.2000E+01
    -16.245  0.0000E+00  0.2000E+01
    -16.142  0.0000E+00  0.2000E+01
    -16.040  0.0000E+00  0.2000E+01
    -15.937  0.0000E+00  0.2000E+01
    -15.834  0.0000E+00  0.2000E+01
    -15.732  0.0000E+00  0.2000E+01
    -15.629  0.0000E+00  0.2000E+01
    -15.527  0.0000E+00  0.2000E+01
    -15.424  0.0000E+00  0.2000E+01
    -15.322  0.0000E+00  0.2000E+01
    -15.219  0.0000E+00  0.2000E+01
    -15.117  0.0000E+00  0.2000E+01
    -15.014  0.0000E+00  0.2000E+01
    -14.911  0.0000E+00  0.2000E+01
    -14.809  0.0000E+00  0.2000E+01
    -14.706  0.0000E+00  0.2000E+01
    -14.604  0.0000E+00  0.2000E+01
    -14.501  0.0000E+00  0.2000E+01
    -14.399  0.0000E+00  0.2000E+01
    -14.296  0.0000E+00  0.2000E+01
    -14.194  0.0000E+00  0.2000E+01
    -14.091  0.0000E+00  0.2000E+01
    -13.988  0.0000E+00  0.2000E+01
    -13.886  0.0000E+00  0.2000E+01
    -13.783  0.0000E+00  0.2000E+01
    -13.681  0.0000E+00  0.2000E+01
    -13.578  0.0000E+00  0.2000E+01
    -13.476  0.0000E+00  0.2000E+01
    -13.373  0.0000E+00  0.2000E+01
    -13.271  0.0000E+00  0.2000E+01
    -13.168  0.0000E+00  0.2000E+01
    -13.065  0.0000E+00  0.2000E+01
    -12.963  0.0000E+00  0.2000E+01
    -12.860  0.0000E+00  0.2000E+01
    -12.758  0.0000E+00  0.2000E+01
    -12.655  0.0000E+00  0.2000E+01
    -12.553  0.0000E+00  0.2000E+01
    -12.450  0.0000E+00  0.2000E+01
    -12.347  0.0000E+00  0.2000E+01
    -12.245  0.0000E+00  0.2000E+01
    -12.142  0.0000E+00  0.2000E+01
    -12.040  0.0000E+00  0.2000E+01
    -11.937  0.0000E+00  0.2000E+01
    -11.835  0.0000E+00  0.2000E+01
    -11.732  0.0000E+00  0.2000E+01
    -11.630  0.0000E+00  0.2000E+01
    -11.527  0.0000E+00  0.2000E+01
    -11.424  0.0000E+00  0.2000E+01
    -11.322  0.0000E+00  0.2000E+01
    -11.219  0.0000E+00  0.2000E+01
    -11.117  0.0000E+00  0.2000E+01
    -11.014  0.0000E+00  0.2000E+01
    -10.912  0.0000E+00  0.2000E+01
    -10.809  0.0000E+00  0.2000E+01
    -10.707  0.0000E+00  0.2000E+01
    -10.604  0.0000E+00  0.2000E+01
    -10.501  0.0000E+00  0.2000E+01
    -10.399  0.0000E+00  0.2000E+01
    -10.296  0.0000E+00  0.2000E+01
    -10.194  0.0000E+00  0.2000E+01
    -10.091  0.0000E+00  0.2000E+01
     -9.989  0.0000E+00  0.2000E+01
     -9.886  0.0000E+00  0.2000E+01
     -9.784  0.0000E+00  0.2000E+01
     -9.681  0.0000E+00  0.2000E+01
     -9.578  0.0000E+00  0.2000E+01
     -9.476  0.0000E+00  0.2000E+01
     -9.373  0.0000E+00  0.2000E+01
     -9.271  0.0000E+00  0.2000E+01
     -9.168  0.0000E+00  0.2000E+01
     -9.066  0.0000E+00  0.2000E+01
     -8.963  0.0000E+00  0.2000E+01
     -8.861  0.0000E+00  0.2000E+01
     -8.758  0.0000E+00  0.2000E+01
     -8.655  0.0000E+00  0.2000E+01
     -8.553  0.4625E-09  0.2000E+01
     -8.450  0.6415E-03  0.2000E+01
     -8.348  0.6403E+00  0.2066E+01
     -8.245  0.4343E+01  0.2511E+01
     -8.143  0.2390E+01  0.2756E+01
     -8.040  0.3491E+01  0.3114E+01
     -7.938  0.1559E+01  0.3274E+01
     -7.835  0.3480E+01  0.3631E+01
     -7.732  0.2698E+01  0.3908E+01
     -7.630  0.8624E+00  0.3996E+01
     -7.527  0.3601E-01  0.4000E+01
     -7.425  0.5976E-05  0.4000E+01
     -7.322  0.6143E-12  0.4000E+01
     -7.220  0.0000E+00  0.4000E+01
     -7.117  0.0000E+00  0.4000E+01
     -7.015  0.0000E+00  0.4000E+01
     -6.912  0.0000E+00  0.4000E+01
     -6.809  0.0000E+00  0.4000E+01
     -6.707  0.0000E+00  0.4000E+01
     -6.604  0.0000E+00  0.4000E+01
     -6.502  0.0000E+00  0.4000E+01
     -6.399  0.0000E+00  0.4000E+01
     -6.297  0.0000E+00  0.4000E+01
     -6.194  0.0000E+00  0.4000E+01
     -6.092  0.0000E+00  0.4000E+01
     -5.989  0.0000E+00  0.4000E+01
     -5.886  0.0000E+00  0.4000E+01
     -5.784  0.0000E+00  0.4000E+01
     -5.681  0.0000E+00  0.4000E+01
     -5.579  0.0000E+00  0.4000E+01
     -5.476  0.0000E+00  0.4000E+01
     -5.374  0.0000E+00  0.4000E+01
     -5.271  0.0000E+00  0.4000E+01
     -5.169  0.2474E-14  0.4000E+01
     -5.066  0.2530E-06  0.4000E+01
     -4.963  0.1007E-01  0.4001E+01
     -4.861  0.6068E+00  0.4063E+01
     -4.758  0.1417E+01  0.4209E+01
     -4.656  0.3166E+01  0.4533E+01
     -4.553  0.3270E+01  0.4869E+01
     -4.451  0.3426E+01  0.5220E+01
     -4.348  0.4131E+01  0.5644E+01
     -4.245  0.5978E+01  0.6257E+01
     -4.143  0.6056E+01  0.6878E+01
     -4.040  0.5843E+01  0.7477E+01
     -3.938  0.4167E+01  0.7905E+01
     -3.835  0.9173E+00  0.7999E+01
     -3.733  0.1260E-01  0.8000E+01
     -3.630  0.4342E-06  0.8000E+01
     -3.528  0.8200E-14  0.8000E+01
     -3.425  0.0000E+00  0.8000E+01
     -3.322  0.0000E+00  0.8000E+01
     -3.220  0.0000E+00  0.8000E+01
     -3.117  0.0000E+00  0.8000E+01
     -3.015  0.0000E+00  0.8000E+01
     -2.912  0.0000E+00  0.8000E+01
     -2.810  0.0000E+00  0.8000E+01
     -2.707  0.0000E+00  0.8000E+01
     -2.605  0.0000E+00  0.8000E+01
     -2.502  0.0000E+00  0.8000E+01
     -2.399  0.0000E+00  0.8000E+01
     -2.297  0.0000E+00  0.8000E+01
     -2.194  0.0000E+00  0.8000E+01
     -2.092  0.0000E+00  0.8000E+01
     -1.989  0.0000E+00  0.8000E+01
     -1.887  0.0000E+00  0.8000E+01
     -1.784  0.0000E+00  0.8000E+01
     -1.682  0.0000E+00  0.8000E+01
     -1.579  0.0000E+00  0.8000E+01
     -1.476  0.0000E+00  0.8000E+01
     -1.374  0.0000E+00  0.8000E+01
     -1.271  0.0000E+00  0.8000E+01
     -1.169  0.0000E+00  0.8000E+01
     -1.066  0.0000E+00  0.8000E+01
     -0.964  0.0000E+00  0.8000E+01
     -0.861  0.0000E+00  0.8000E+01
     -0.759  0.0000E+00  0.8000E+01
     -0.656  0.0000E+00  0.8000E+01
     -0.553  0.0000E+00  0.8000E+01
     -0.451  0.0000E+00  0.8000E+01
     -0.348  0.0000E+00  0.8000E+01
     -0.246  0.0000E+00  0.8000E+01
     -0.143  0.0000E+00  0.8000E+01
     -0.041  0.0000E+00  0.8000E+01
      0.062  0.0000E+00  0.8000E+01
      0.164  0.0000E+00  0.8000E+01
      0.267  0.0000E+00  0.8000E+01
      0.370  0.0000E+00  0.8000E+01
      0.472  0.0000E+00  0.8000E+01
      0.575  0.0000E+00  0.8000E+01
      0.677  0.0000E+00  0.8000E+01
      0.780  0.0000E+00  0.8000E+01
      0.882  0.0000E+00  0.8000E+01
      0.985  0.0000E+00  0.8000E+01
      1.087  0.1946E-09  0.8000E+01
      1.190  0.1082E-03  0.8000E+01
      1.293  0.2847E-01  0.8003E+01
      1.395  0.2817E-01  0.8006E+01
      1.498  0.1740E-01  0.8008E+01
      1.600  0.2056E+00  0.8029E+01
      1.703  0.1167E+00  0.8041E+01
      1.805  0.3283E+00  0.8074E+01
      1.908  0.7875E+00  0.8155E+01
      2.010  0.8162E+00  0.8239E+01
      2.113  0.8657E+00  0.8328E+01
      2.216  0.8065E+00  0.8410E+01
      2.318  0.1212E+01  0.8535E+01
      2.421  0.1435E+01  0.8682E+01
      2.523  0.1233E+01  0.8808E+01
      2.626  0.4760E+00  0.8857E+01
      2.728  0.9787E-01  0.8867E+01
      2.831  0.1798E-01  0.8869E+01
      2.933  0.2423E+00  0.8894E+01
      3.036  0.3617E+00  0.8931E+01
      3.139  0.9218E-01  0.8940E+01
      3.241  0.5150E+00  0.8993E+01
      3.344  0.6907E+00  0.9064E+01
      3.446  0.1412E+01  0.9209E+01
      3.549  0.1209E+01  0.9333E+01
      3.651  0.8640E+00  0.9421E+01
      3.754  0.7002E-01  0.9429E+01
      3.857  0.5608E-04  0.9429E+01
      3.959  0.1440E-01  0.9430E+01
      4.062  0.2952E+00  0.9460E+01
      4.164  0.1465E+00  0.9475E+01
      4.267  0.1146E+00  0.9487E+01
      4.369  0.9247E+00  0.9582E+01
      4.472  0.1105E+01  0.9695E+01
      4.574  0.2448E+00  0.9720E+01
      4.677  0.5553E+00  0.9777E+01
      4.780  0.1397E+01  0.9921E+01
      4.882  0.9808E+00  0.1002E+02
      4.985  0.1410E+01  0.1017E+02
      5.087  0.2565E+01  0.1043E+02
      5.190  0.1151E+01  0.1055E+02
      5.292  0.1748E+01  0.1073E+02
      5.395  0.1480E+01  0.1088E+02
      5.497  0.2169E+01  0.1110E+02
      5.600  0.1479E+01  0.1125E+02
      5.703  0.1773E+01  0.1143E+02
      5.805  0.1505E+01  0.1159E+02
      5.908  0.1488E+01  0.1174E+02
      6.010  0.5698E+00  0.1180E+02
      6.113  0.1280E+01  0.1193E+02
      6.215  0.1391E+01  0.1207E+02
      6.318  0.2017E+01  0.1228E+02
      6.420  0.1640E+01  0.1245E+02
      6.523  0.1161E+01  0.1257E+02
      6.626  0.1704E+01  0.1274E+02
      6.728  0.1195E+01  0.1286E+02
      6.831  0.1349E+01  0.1300E+02
      6.933  0.9170E+00  0.1310E+02
      7.036  0.9315E+00  0.1319E+02
      7.138  0.1240E+01  0.1332E+02
      7.241  0.1919E+01  0.1352E+02
      7.343  0.3388E+01  0.1386E+02
      7.446  0.1351E+01  0.1400E+02
      7.549  0.1886E+01  0.1420E+02
      7.651  0.1527E+01  0.1435E+02
      7.754  0.1966E+01  0.1455E+02
      7.856  0.1528E+01  0.1471E+02
      7.959  0.8416E+00  0.1480E+02
      8.061  0.1993E+01  0.1500E+02
      8.164  0.2077E+01  0.1521E+02
      8.266  0.1326E+01  0.1535E+02
      8.369  0.7869E+00  0.1543E+02
      8.472  0.1774E+01  0.1561E+02
      8.574  0.6355E+00  0.1568E+02
      8.677  0.5652E+00  0.1574E+02
      8.779  0.3667E+00  0.1577E+02
      8.882  0.8422E+00  0.1586E+02
      8.984  0.3461E+00  0.1590E+02
      9.087  0.2414E+00  0.1592E+02
      9.189  0.1979E+00  0.1594E+02
      9.292  0.5864E-01  0.1595E+02
      9.395  0.1699E+00  0.1596E+02
      9.497  0.5915E-02  0.1597E+02
      9.600  0.9056E-01  0.1597E+02
      9.702  0.2047E-01  0.1598E+02
      9.805  0.1070E-02  0.1598E+02
      9.907  0.7950E-01  0.1598E+02
     10.010  0.3312E-01  0.1599E+02
     10.112  0.3191E-04  0.1599E+02
     10.215  0.4408E-05  0.1599E+02
     10.318  0.1666E-01  0.1599E+02
     10.420  0.9338E-01  0.1600E+02
     10.523  0.3660E-02  0.1600E+02
     10.625  0.1155E-06  0.1600E+02
     10.728  0.1136E-14  0.1600E+02
     10.830  0.0000E+00  0.1600E+02
     10.933  0.0000E+00  0.1600E+02
     11.036  0.0000E+00  0.1600E+02
     11.138  0.0000E+00  0.1600E+02
     11.241  0.0000E+00  0.1600E+02
     11.343  0.0000E+00  0.1600E+02
     11.446  0.0000E+00  0.1600E+02
     11.548  0.0000E+00  0.1600E+02
     11.651  0.0000E+00  0.1600E+02
     11.753  0.0000E+00  0.1600E+02
