  15  15   0   0
  0.4426065E+02  0.1007140E-08  0.1007140E-08  0.1007140E-08  0.5000000E-15
  1.000000000000000E-004
  CAR 
 unknown system                          
      9.94225333    -13.02137837  301      2.71574078      1.00000000
    -13.021  0.0000E+00  0.0000E+00
    -12.945  0.0000E+00  0.0000E+00
    -12.868  0.0000E+00  0.0000E+00
    -12.792  0.0000E+00  0.0000E+00
    -12.715  0.0000E+00  0.0000E+00
    -12.639  0.0000E+00  0.0000E+00
    -12.562  0.0000E+00  0.0000E+00
    -12.486  0.0000E+00  0.0000E+00
    -12.409  0.0000E+00  0.0000E+00
    -12.332  0.0000E+00  0.0000E+00
    -12.256  0.2396E-13  0.1834E-14
    -12.179  0.9786E-07  0.7490E-08
    -12.103  0.4513E-02  0.3455E-03
    -12.026  0.2911E+01  0.2231E+00
    -11.950  0.5382E+02  0.4343E+01
    -11.873  0.1575E+03  0.1640E+02
    -11.797  0.2585E+03  0.3619E+02
    -11.720  0.1650E+03  0.4881E+02
    -11.644  0.1097E+03  0.5722E+02
    -11.567  0.3542E+02  0.5993E+02
    -11.490  0.9652E+00  0.6000E+02
    -11.414  0.6986E-03  0.6000E+02
    -11.337  0.6779E-08  0.6000E+02
    -11.261  0.0000E+00  0.6000E+02
    -11.184  0.0000E+00  0.6000E+02
    -11.108  0.0000E+00  0.6000E+02
    -11.031  0.0000E+00  0.6000E+02
    -10.955  0.0000E+00  0.6000E+02
    -10.878  0.0000E+00  0.6000E+02
    -10.802  0.0000E+00  0.6000E+02
    -10.725  0.0000E+00  0.6000E+02
    -10.648  0.0000E+00  0.6000E+02
    -10.572  0.0000E+00  0.6000E+02
    -10.495  0.0000E+00  0.6000E+02
    -10.419  0.0000E+00  0.6000E+02
    -10.342  0.0000E+00  0.6000E+02
    -10.266  0.0000E+00  0.6000E+02
    -10.189  0.0000E+00  0.6000E+02
    -10.113  0.0000E+00  0.6000E+02
    -10.036  0.0000E+00  0.6000E+02
     -9.960  0.0000E+00  0.6000E+02
     -9.883  0.0000E+00  0.6000E+02
     -9.806  0.0000E+00  0.6000E+02
     -9.730  0.0000E+00  0.6000E+02
     -9.653  0.3169E-14  0.6000E+02
     -9.577  0.1839E-07  0.6000E+02
     -9.500  0.1234E-02  0.6000E+02
     -9.424  0.1042E+01  0.6008E+02
     -9.347  0.1611E+02  0.6131E+02
     -9.271  0.8834E+01  0.6199E+02
     -9.194  0.1368E+00  0.6200E+02
     -9.118  0.3117E-04  0.6200E+02
     -9.041  0.8022E-10  0.6200E+02
     -8.964  0.0000E+00  0.6200E+02
     -8.888  0.0000E+00  0.6200E+02
     -8.811  0.0000E+00  0.6200E+02
     -8.735  0.0000E+00  0.6200E+02
     -8.658  0.0000E+00  0.6200E+02
     -8.582  0.4994E-09  0.6200E+02
     -8.505  0.6667E-04  0.6200E+02
     -8.429  0.1135E+00  0.6201E+02
     -8.352  0.3738E+01  0.6229E+02
     -8.276  0.5530E+01  0.6272E+02
     -8.199  0.1118E+02  0.6357E+02
     -8.122  0.5453E+01  0.6399E+02
     -8.046  0.1394E+00  0.6400E+02
     -7.969  0.4274E+01  0.6433E+02
     -7.893  0.2697E+02  0.6639E+02
     -7.816  0.3198E+02  0.6884E+02
     -7.740  0.9865E+01  0.6960E+02
     -7.663  0.6891E+01  0.7012E+02
     -7.587  0.2297E+02  0.7188E+02
     -7.510  0.2586E+02  0.7386E+02
     -7.434  0.1556E+02  0.7505E+02
     -7.357  0.1196E+02  0.7597E+02
     -7.280  0.4166E+00  0.7600E+02
     -7.204  0.2727E-03  0.7600E+02
     -7.127  0.2262E-08  0.7600E+02
     -7.051  0.4088E-05  0.7600E+02
     -6.974  0.3848E-01  0.7600E+02
     -6.898  0.5242E+01  0.7640E+02
     -6.821  0.1833E+02  0.7781E+02
     -6.745  0.2509E+01  0.7800E+02
     -6.668  0.7613E-02  0.7800E+02
     -6.592  0.3174E-06  0.7800E+02
     -6.515  0.1515E-12  0.7800E+02
     -6.438  0.0000E+00  0.7800E+02
     -6.362  0.0000E+00  0.7800E+02
     -6.285  0.0000E+00  0.7800E+02
     -6.209  0.0000E+00  0.7800E+02
     -6.132  0.0000E+00  0.7800E+02
     -6.056  0.0000E+00  0.7800E+02
     -5.979  0.0000E+00  0.7800E+02
     -5.903  0.0000E+00  0.7800E+02
     -5.826  0.0000E+00  0.7800E+02
     -5.750  0.0000E+00  0.7800E+02
     -5.673  0.0000E+00  0.7800E+02
     -5.596  0.0000E+00  0.7800E+02
     -5.520  0.0000E+00  0.7800E+02
     -5.443  0.0000E+00  0.7800E+02
     -5.367  0.0000E+00  0.7800E+02
     -5.290  0.0000E+00  0.7800E+02
     -5.214  0.0000E+00  0.7800E+02
     -5.137  0.0000E+00  0.7800E+02
     -5.061  0.0000E+00  0.7800E+02
     -4.984  0.0000E+00  0.7800E+02
     -4.908  0.0000E+00  0.7800E+02
     -4.831  0.0000E+00  0.7800E+02
     -4.754  0.0000E+00  0.7800E+02
     -4.678  0.0000E+00  0.7800E+02
     -4.601  0.0000E+00  0.7800E+02
     -4.525  0.0000E+00  0.7800E+02
     -4.448  0.0000E+00  0.7800E+02
     -4.372  0.0000E+00  0.7800E+02
     -4.295  0.0000E+00  0.7800E+02
     -4.219  0.0000E+00  0.7800E+02
     -4.142  0.0000E+00  0.7800E+02
     -4.066  0.0000E+00  0.7800E+02
     -3.989  0.0000E+00  0.7800E+02
     -3.912  0.0000E+00  0.7800E+02
     -3.836  0.0000E+00  0.7800E+02
     -3.759  0.0000E+00  0.7800E+02
     -3.683  0.0000E+00  0.7800E+02
     -3.606  0.0000E+00  0.7800E+02
     -3.530  0.2908E-10  0.7800E+02
     -3.453  0.9876E-05  0.7800E+02
     -3.377  0.4373E-01  0.7800E+02
     -3.300  0.3293E+01  0.7826E+02
     -3.224  0.1042E+02  0.7905E+02
     -3.147  0.1046E+02  0.7985E+02
     -3.070  0.1904E+01  0.8000E+02
     -2.994  0.1071E-01  0.8000E+02
     -2.917  0.1764E+00  0.8001E+02
     -2.841  0.7628E+01  0.8060E+02
     -2.764  0.1746E+02  0.8193E+02
     -2.688  0.9803E+01  0.8268E+02
     -2.611  0.2911E+01  0.8291E+02
     -2.535  0.3745E+01  0.8319E+02
     -2.458  0.6878E+01  0.8372E+02
     -2.382  0.2574E+01  0.8392E+02
     -2.305  0.5253E+01  0.8432E+02
     -2.228  0.1194E+02  0.8523E+02
     -2.152  0.4546E+01  0.8558E+02
     -2.075  0.5526E+01  0.8600E+02
     -1.999  0.1227E+02  0.8694E+02
     -1.922  0.6978E+01  0.8748E+02
     -1.846  0.6716E+01  0.8799E+02
     -1.769  0.4251E+01  0.8832E+02
     -1.693  0.3284E+01  0.8857E+02
     -1.616  0.9919E+01  0.8933E+02
     -1.540  0.3094E+01  0.8956E+02
     -1.463  0.2664E+01  0.8977E+02
     -1.386  0.2719E+01  0.8998E+02
     -1.310  0.3103E+00  0.9000E+02
     -1.233  0.1337E-02  0.9000E+02
     -1.157  0.7861E-07  0.9000E+02
     -1.080  0.1522E-04  0.9000E+02
     -1.004  0.8213E-01  0.9001E+02
     -0.927  0.7485E+01  0.9058E+02
     -0.851  0.2412E+02  0.9243E+02
     -0.774  0.1041E+02  0.9322E+02
     -0.698  0.8377E+01  0.9386E+02
     -0.621  0.3527E+01  0.9413E+02
     -0.544  0.2468E+01  0.9432E+02
     -0.468  0.5827E+01  0.9477E+02
     -0.391  0.3408E+01  0.9503E+02
     -0.315  0.2742E+00  0.9505E+02
     -0.238  0.4262E+01  0.9538E+02
     -0.162  0.9912E+01  0.9614E+02
     -0.085  0.2688E+01  0.9634E+02
     -0.009  0.1118E+02  0.9720E+02
      0.068  0.9847E+01  0.9795E+02
      0.144  0.1319E+02  0.9896E+02
      0.221  0.1013E+02  0.9974E+02
      0.298  0.1289E+02  0.1007E+03
      0.374  0.1755E+02  0.1021E+03
      0.451  0.1039E+02  0.1029E+03
      0.527  0.1138E+02  0.1037E+03
      0.604  0.1754E+02  0.1051E+03
      0.680  0.1543E+02  0.1063E+03
      0.757  0.1890E+02  0.1077E+03
      0.833  0.1021E+02  0.1085E+03
      0.910  0.9974E+01  0.1092E+03
      0.986  0.1291E+02  0.1102E+03
      1.063  0.1884E+02  0.1117E+03
      1.140  0.1017E+02  0.1125E+03
      1.216  0.9273E+01  0.1132E+03
      1.293  0.5438E+01  0.1136E+03
      1.369  0.7763E+01  0.1142E+03
      1.446  0.1746E+02  0.1155E+03
      1.522  0.1642E+02  0.1168E+03
      1.599  0.1587E+02  0.1180E+03
      1.675  0.2176E+02  0.1196E+03
      1.752  0.1022E+02  0.1204E+03
      1.828  0.8154E+01  0.1211E+03
      1.905  0.1822E+02  0.1225E+03
      1.982  0.1847E+02  0.1239E+03
      2.058  0.2218E+02  0.1256E+03
      2.135  0.1856E+02  0.1270E+03
      2.211  0.1476E+02  0.1281E+03
      2.288  0.1389E+02  0.1292E+03
      2.364  0.7053E+01  0.1297E+03
      2.441  0.4618E+01  0.1301E+03
      2.517  0.4343E+01  0.1304E+03
      2.594  0.4114E+01  0.1307E+03
      2.670  0.8088E+01  0.1313E+03
      2.747  0.1398E+02  0.1324E+03
      2.824  0.5267E+01  0.1328E+03
      2.900  0.1032E+01  0.1329E+03
      2.977  0.1783E+00  0.1329E+03
      3.053  0.4843E+01  0.1333E+03
      3.130  0.8320E+01  0.1339E+03
      3.206  0.7163E+01  0.1345E+03
      3.283  0.9624E+01  0.1352E+03
      3.359  0.4872E+01  0.1356E+03
      3.436  0.5777E+01  0.1360E+03
      3.512  0.1797E+01  0.1361E+03
      3.589  0.1487E-01  0.1361E+03
      3.666  0.8807E-01  0.1362E+03
      3.742  0.4445E+01  0.1365E+03
      3.819  0.7680E+01  0.1371E+03
      3.895  0.5930E+01  0.1375E+03
      3.972  0.2796E+01  0.1378E+03
      4.048  0.5220E+01  0.1382E+03
      4.125  0.7634E+01  0.1387E+03
      4.201  0.6704E+01  0.1392E+03
      4.278  0.1500E+02  0.1404E+03
      4.354  0.1923E+02  0.1419E+03
      4.431  0.1787E+02  0.1432E+03
      4.508  0.5530E+01  0.1437E+03
      4.584  0.1536E+01  0.1438E+03
      4.661  0.4872E+00  0.1438E+03
      4.737  0.4830E+00  0.1439E+03
      4.814  0.1289E+01  0.1439E+03
      4.890  0.9586E+01  0.1447E+03
      4.967  0.5295E+01  0.1451E+03
      5.043  0.4376E+01  0.1454E+03
      5.120  0.2963E+01  0.1457E+03
      5.196  0.1390E+02  0.1467E+03
      5.273  0.4100E+01  0.1470E+03
      5.350  0.1183E+01  0.1471E+03
      5.426  0.3712E+01  0.1474E+03
      5.503  0.1007E+02  0.1482E+03
      5.579  0.2107E+02  0.1498E+03
      5.656  0.9458E+01  0.1505E+03
      5.732  0.1454E+02  0.1516E+03
      5.809  0.1639E+02  0.1529E+03
      5.885  0.2068E+01  0.1530E+03
      5.962  0.5045E+00  0.1531E+03
      6.038  0.1068E+02  0.1539E+03
      6.115  0.1393E+02  0.1550E+03
      6.192  0.9190E+01  0.1557E+03
      6.268  0.1100E+02  0.1565E+03
      6.345  0.8867E+01  0.1572E+03
      6.421  0.1170E+02  0.1581E+03
      6.498  0.1437E+02  0.1592E+03
      6.574  0.1119E+02  0.1600E+03
      6.651  0.2232E+02  0.1617E+03
      6.727  0.1376E+02  0.1628E+03
      6.804  0.9044E+01  0.1635E+03
      6.880  0.6128E+01  0.1640E+03
      6.957  0.1895E+01  0.1641E+03
      7.034  0.9145E+01  0.1648E+03
      7.110  0.1452E+02  0.1659E+03
      7.187  0.8063E+01  0.1665E+03
      7.263  0.1256E+02  0.1675E+03
      7.340  0.7176E+01  0.1680E+03
      7.416  0.1275E+02  0.1690E+03
      7.493  0.9245E+01  0.1697E+03
      7.569  0.1819E+02  0.1711E+03
      7.646  0.1636E+02  0.1724E+03
      7.722  0.6172E+01  0.1728E+03
      7.799  0.1050E+02  0.1736E+03
      7.876  0.1345E+02  0.1747E+03
      7.952  0.5200E+01  0.1751E+03
      8.029  0.1035E+02  0.1759E+03
      8.105  0.1739E+02  0.1772E+03
      8.182  0.8336E+01  0.1778E+03
      8.258  0.3164E+01  0.1781E+03
      8.335  0.1039E+02  0.1789E+03
      8.411  0.8404E+01  0.1795E+03
      8.488  0.1587E+02  0.1807E+03
      8.564  0.1313E+02  0.1817E+03
      8.641  0.4785E+01  0.1821E+03
      8.718  0.4538E+01  0.1824E+03
      8.794  0.9949E+01  0.1832E+03
      8.871  0.8867E+01  0.1839E+03
      8.947  0.1350E+01  0.1840E+03
      9.024  0.8308E-01  0.1840E+03
      9.100  0.1917E-03  0.1840E+03
      9.177  0.5537E-08  0.1840E+03
      9.253  0.1719E-14  0.1840E+03
      9.330  0.0000E+00  0.1840E+03
      9.406  0.0000E+00  0.1840E+03
      9.483  0.0000E+00  0.1840E+03
      9.560  0.0000E+00  0.1840E+03
      9.636  0.0000E+00  0.1840E+03
      9.713  0.0000E+00  0.1840E+03
      9.789  0.0000E+00  0.1840E+03
      9.866  0.0000E+00  0.1840E+03
      9.942  0.0000E+00  0.1840E+03
