       N       E                     dE             d eps       ncg     rms          rms(c)
DAV:   1     0.120155178042E+04    0.12016E+04   -0.56733E+04  4968   0.148E+03
DAV:   2     0.134329446092E+03   -0.10672E+04   -0.10166E+04  5136   0.351E+02
DAV:   3    -0.320777271243E+02   -0.16641E+03   -0.16050E+03  5900   0.163E+02
DAV:   4    -0.440447772779E+02   -0.11967E+02   -0.11822E+02  6024   0.416E+01
DAV:   5    -0.447061640583E+02   -0.66139E+00   -0.66071E+00  7008   0.984E+00    0.164E+01
DAV:   6    -0.438046598229E+02    0.90150E+00   -0.12646E+00  6800   0.809E+00    0.102E+01
DAV:   7    -0.437526947900E+02    0.51965E-01   -0.11816E+00  6752   0.397E+00    0.223E+00
DAV:   8    -0.437421320826E+02    0.10563E-01   -0.15026E-01  6096   0.221E+00    0.196E+00
DAV:   9    -0.437441872541E+02   -0.20552E-02   -0.19906E-02  6336   0.445E-01    0.800E-01
DAV:  10    -0.437452486764E+02   -0.10614E-02   -0.23479E-03  7132   0.198E-01    0.314E-01
DAV:  11    -0.437459179168E+02   -0.66924E-03   -0.10628E-03  5712   0.122E-01    0.133E-01
DAV:  12    -0.437458660237E+02    0.51893E-04   -0.13149E-04  6364   0.779E-02    0.649E-02
DAV:  13    -0.437458865758E+02   -0.20552E-04   -0.42535E-05  5816   0.207E-02    0.127E-02
DAV:  14    -0.437459002657E+02   -0.13690E-04   -0.10126E-05  4860   0.127E-02    0.126E-02
DAV:  15    -0.437459020510E+02   -0.17853E-05   -0.23369E-06  4800   0.788E-03    0.486E-03
DAV:  16    -0.437459023439E+02   -0.29289E-06   -0.76194E-07  3704   0.525E-03
   1 F= -.43745902E+02 E0= -.43736174E+02  d E =-.194575E-01
