In6Te9
1.0
     -6.5882900       6.5882900       3.8238750
      6.5882900      -6.5882900       3.8238750
      6.5882900       6.5882900      -3.8238750
  In    Te  
  6     9   
Direct
      0.4771200       0.9771200       0.5000000
      0.9771200       0.4771200       0.5000000
      0.5014090       0.6781860       0.1767770
      0.5014090       0.3246330       0.8232230
      0.6781860       0.5014090       0.1767770
      0.3246330       0.5014090       0.8232230
      0.8244350       0.8244350       0.0000000
      0.5884500       0.9168020       0.0000000
      0.9168020       0.5884500       0.0000000
      0.5884500       0.5884500       0.6716480
      0.9168020       0.9168020       0.3283520
      0.2387960       0.5748310       0.3360350
      0.2387960       0.9027610       0.6639650
      0.5748310       0.2387960       0.3360350
      0.9027610       0.2387960       0.6639650
