unknown system                          
           1
    -6.588290    6.588290    3.823875
     6.588290   -6.588290    3.823875
     6.588290    6.588290   -3.823875
   In   Te
     6     9
Direct configuration=     1
   0.47712000  0.97712000  0.50000000
   0.97712000  0.47712000  0.50000000
   0.50140900  0.67818600  0.17677700
   0.50140900  0.32463300  0.82322300
   0.67818600  0.50140900  0.17677700
   0.32463300  0.50140900  0.82322300
   0.82443500  0.82443500  0.00000000
   0.58845000  0.91680200  0.00000000
   0.91680200  0.58845000  0.00000000
   0.58845000  0.58845000  0.67164800
   0.91680200  0.91680200  0.32835200
   0.23879600  0.57483100  0.33603500
   0.23879600  0.90276100  0.66396500
   0.57483100  0.23879600  0.33603500
   0.90276100  0.23879600  0.66396500
