   8   8   0   0
  0.1859225E+02  0.3841746E-09  0.3841725E-09  0.1163690E-08  0.5000000E-15
  1.000000000000000E-004
  CAR 
 unknown system                          
     14.58441728     -8.73391976  301      4.25147918      1.00000000
     -8.734  0.0000E+00  0.0000E+00
     -8.656  0.0000E+00  0.0000E+00
     -8.578  0.0000E+00  0.0000E+00
     -8.501  0.0000E+00  0.0000E+00
     -8.423  0.0000E+00  0.0000E+00
     -8.345  0.0000E+00  0.0000E+00
     -8.268  0.0000E+00  0.0000E+00
     -8.190  0.0000E+00  0.0000E+00
     -8.112  0.0000E+00  0.0000E+00
     -8.034  0.0000E+00  0.0000E+00
     -7.957  0.1749E-15  0.1359E-16
     -7.879  0.9201E-09  0.7151E-10
     -7.801  0.4652E-04  0.3616E-05
     -7.723  0.2787E-01  0.2170E-02
     -7.646  0.3358E+00  0.2827E-01
     -7.568  0.1594E+00  0.4066E-01
     -7.490  0.1617E+00  0.5323E-01
     -7.413  0.1996E+01  0.2084E+00
     -7.335  0.9805E+00  0.2846E+00
     -7.257  0.1457E-01  0.2857E+00
     -7.179  0.2311E-03  0.2857E+00
     -7.102  0.4705E-01  0.2894E+00
     -7.024  0.5057E+00  0.3287E+00
     -6.946  0.2346E+01  0.5110E+00
     -6.868  0.1076E+01  0.5947E+00
     -6.791  0.2029E+01  0.7524E+00
     -6.713  0.3421E+01  0.1018E+01
     -6.635  0.5494E+00  0.1061E+01
     -6.558  0.2549E-02  0.1061E+01
     -6.480  0.6313E-02  0.1062E+01
     -6.402  0.5218E+00  0.1102E+01
     -6.324  0.1692E+01  0.1234E+01
     -6.247  0.9300E+00  0.1306E+01
     -6.169  0.1420E+01  0.1416E+01
     -6.091  0.6141E+01  0.1894E+01
     -6.013  0.2428E+01  0.2083E+01
     -5.936  0.9790E+00  0.2159E+01
     -5.858  0.1563E+01  0.2280E+01
     -5.780  0.2358E+01  0.2463E+01
     -5.703  0.1354E+01  0.2569E+01
     -5.625  0.8531E-01  0.2575E+01
     -5.547  0.1820E+01  0.2717E+01
     -5.469  0.4635E+01  0.3077E+01
     -5.392  0.2773E+01  0.3293E+01
     -5.314  0.2914E+01  0.3519E+01
     -5.236  0.3081E+01  0.3759E+01
     -5.158  0.5098E+01  0.4155E+01
     -5.081  0.1665E+01  0.4284E+01
     -5.003  0.1896E-01  0.4286E+01
     -4.925  0.6473E-02  0.4286E+01
     -4.848  0.5473E+00  0.4329E+01
     -4.770  0.1902E+01  0.4477E+01
     -4.692  0.2339E+01  0.4658E+01
     -4.614  0.4746E+01  0.5027E+01
     -4.537  0.2836E+01  0.5248E+01
     -4.459  0.2659E+00  0.5268E+01
     -4.381  0.9295E+00  0.5341E+01
     -4.303  0.1432E+01  0.5452E+01
     -4.226  0.7310E+00  0.5509E+01
     -4.148  0.4789E-01  0.5513E+01
     -4.070  0.9046E+00  0.5583E+01
     -3.993  0.2274E+01  0.5760E+01
     -3.915  0.5690E+01  0.6202E+01
     -3.837  0.3602E+01  0.6482E+01
     -3.759  0.1028E+00  0.6490E+01
     -3.682  0.2839E-01  0.6492E+01
     -3.604  0.1245E+01  0.6589E+01
     -3.526  0.1782E+01  0.6727E+01
     -3.448  0.9502E-01  0.6735E+01
     -3.371  0.9311E-04  0.6735E+01
     -3.293  0.4413E-05  0.6735E+01
     -3.215  0.2037E-01  0.6736E+01
     -3.138  0.1272E+01  0.6835E+01
     -3.060  0.3611E+01  0.7116E+01
     -2.982  0.1683E+01  0.7247E+01
     -2.904  0.2256E+01  0.7422E+01
     -2.827  0.2855E+01  0.7644E+01
     -2.749  0.3777E+01  0.7938E+01
     -2.671  0.4245E+01  0.8267E+01
     -2.593  0.1079E+01  0.8351E+01
     -2.516  0.1056E+01  0.8433E+01
     -2.438  0.9800E+00  0.8510E+01
     -2.360  0.2328E+01  0.8691E+01
     -2.283  0.1049E+01  0.8772E+01
     -2.205  0.6244E+01  0.9257E+01
     -2.127  0.5040E+01  0.9649E+01
     -2.049  0.8237E+00  0.9713E+01
     -1.972  0.2433E-01  0.9715E+01
     -1.894  0.9037E+00  0.9785E+01
     -1.816  0.2930E+01  0.1001E+02
     -1.738  0.2795E+01  0.1023E+02
     -1.661  0.1377E+01  0.1034E+02
     -1.583  0.3643E+00  0.1037E+02
     -1.505  0.1145E+01  0.1045E+02
     -1.428  0.1885E+00  0.1047E+02
     -1.350  0.3400E+00  0.1050E+02
     -1.272  0.4232E+01  0.1082E+02
     -1.194  0.3158E+01  0.1107E+02
     -1.117  0.5843E+00  0.1112E+02
     -1.039  0.1274E+01  0.1121E+02
     -0.961  0.1258E+00  0.1122E+02
     -0.883  0.2102E-03  0.1122E+02
     -0.806  0.1954E-02  0.1122E+02
     -0.728  0.3195E+00  0.1125E+02
     -0.650  0.1130E+01  0.1134E+02
     -0.573  0.7491E+00  0.1140E+02
     -0.495  0.1975E+01  0.1155E+02
     -0.417  0.4570E+01  0.1190E+02
     -0.339  0.2271E+01  0.1208E+02
     -0.262  0.3008E+01  0.1231E+02
     -0.184  0.3259E+01  0.1257E+02
     -0.106  0.4259E+01  0.1290E+02
     -0.028  0.3756E+01  0.1319E+02
      0.049  0.4556E+01  0.1355E+02
      0.127  0.3769E+01  0.1384E+02
      0.205  0.5598E+01  0.1427E+02
      0.283  0.4833E+01  0.1465E+02
      0.360  0.2898E+01  0.1487E+02
      0.438  0.3450E+01  0.1514E+02
      0.516  0.2295E+01  0.1532E+02
      0.593  0.3774E+01  0.1561E+02
      0.671  0.3689E+01  0.1590E+02
      0.749  0.5606E+01  0.1634E+02
      0.827  0.2278E+01  0.1651E+02
      0.904  0.1926E+01  0.1666E+02
      0.982  0.2383E+01  0.1685E+02
      1.060  0.3263E+01  0.1710E+02
      1.138  0.1033E+01  0.1718E+02
      1.215  0.4414E+01  0.1753E+02
      1.293  0.2583E+01  0.1773E+02
      1.371  0.2137E+01  0.1789E+02
      1.448  0.5417E+01  0.1831E+02
      1.526  0.1072E+02  0.1915E+02
      1.604  0.6417E+01  0.1965E+02
      1.682  0.3232E+01  0.1990E+02
      1.759  0.2067E+01  0.2006E+02
      1.837  0.7230E+01  0.2062E+02
      1.915  0.9157E+01  0.2133E+02
      1.993  0.6460E+01  0.2183E+02
      2.070  0.5739E+01  0.2228E+02
      2.148  0.4134E+01  0.2260E+02
      2.226  0.3454E+01  0.2287E+02
      2.303  0.1992E+01  0.2302E+02
      2.381  0.2452E+01  0.2321E+02
      2.459  0.3609E+01  0.2349E+02
      2.537  0.2897E+01  0.2372E+02
      2.614  0.4139E+01  0.2404E+02
      2.692  0.5080E+01  0.2444E+02
      2.770  0.3042E+01  0.2467E+02
      2.848  0.3530E+01  0.2495E+02
      2.925  0.1177E+01  0.2504E+02
      3.003  0.2610E+01  0.2524E+02
      3.081  0.4141E+01  0.2556E+02
      3.158  0.3637E+00  0.2559E+02
      3.236  0.7036E-03  0.2559E+02
      3.314  0.4056E-03  0.2559E+02
      3.392  0.1210E+00  0.2560E+02
      3.469  0.7532E+00  0.2566E+02
      3.547  0.1915E+00  0.2567E+02
      3.625  0.1082E+01  0.2576E+02
      3.703  0.1933E+01  0.2591E+02
      3.780  0.1195E+00  0.2592E+02
      3.858  0.1276E-03  0.2592E+02
      3.936  0.4380E-02  0.2592E+02
      4.013  0.3328E+00  0.2594E+02
      4.091  0.6670E+00  0.2600E+02
      4.169  0.4598E-01  0.2600E+02
      4.247  0.5430E-04  0.2600E+02
      4.324  0.7107E-09  0.2600E+02
      4.402  0.1166E-15  0.2600E+02
      4.480  0.0000E+00  0.2600E+02
      4.558  0.0000E+00  0.2600E+02
      4.635  0.0000E+00  0.2600E+02
      4.713  0.1427E-09  0.2600E+02
      4.791  0.2889E-04  0.2600E+02
      4.868  0.5815E-01  0.2600E+02
      4.946  0.1657E+01  0.2613E+02
      5.024  0.1403E+01  0.2624E+02
      5.102  0.4020E-01  0.2625E+02
      5.179  0.5428E+00  0.2629E+02
      5.257  0.1613E+01  0.2641E+02
      5.335  0.9519E+00  0.2649E+02
      5.413  0.3980E+00  0.2652E+02
      5.490  0.2531E+01  0.2671E+02
      5.568  0.7769E+00  0.2678E+02
      5.646  0.1205E-01  0.2678E+02
      5.723  0.5930E+00  0.2682E+02
      5.801  0.2913E+01  0.2705E+02
      5.879  0.2381E+01  0.2723E+02
      5.957  0.1850E+01  0.2738E+02
      6.034  0.2087E+01  0.2754E+02
      6.112  0.3274E+01  0.2779E+02
      6.190  0.7578E+01  0.2838E+02
      6.268  0.3547E+01  0.2866E+02
      6.345  0.1427E+01  0.2877E+02
      6.423  0.4991E+01  0.2916E+02
      6.501  0.1081E+02  0.3000E+02
      6.578  0.4970E+01  0.3038E+02
      6.656  0.3986E+01  0.3069E+02
      6.734  0.4639E+01  0.3105E+02
      6.812  0.3996E+01  0.3137E+02
      6.889  0.8870E+01  0.3205E+02
      6.967  0.6575E+01  0.3257E+02
      7.045  0.5587E+01  0.3300E+02
      7.123  0.4992E+01  0.3339E+02
      7.200  0.1374E+01  0.3350E+02
      7.278  0.5279E+01  0.3391E+02
      7.356  0.8940E+01  0.3460E+02
      7.433  0.8802E+01  0.3528E+02
      7.511  0.8550E+00  0.3535E+02
      7.589  0.1115E+01  0.3544E+02
      7.667  0.2847E+01  0.3566E+02
      7.744  0.6849E+01  0.3619E+02
      7.822  0.4739E+01  0.3656E+02
      7.900  0.2090E+01  0.3672E+02
      7.978  0.4869E+01  0.3710E+02
      8.055  0.1678E+01  0.3723E+02
      8.133  0.4794E+01  0.3760E+02
      8.211  0.7814E+01  0.3821E+02
      8.288  0.4434E+01  0.3856E+02
      8.366  0.2595E+01  0.3876E+02
      8.444  0.3149E+01  0.3900E+02
      8.522  0.6023E+01  0.3947E+02
      8.599  0.5115E+01  0.3987E+02
      8.677  0.3859E+01  0.4017E+02
      8.755  0.2953E+01  0.4040E+02
      8.833  0.3771E+01  0.4069E+02
      8.910  0.3330E+01  0.4095E+02
      8.988  0.9959E+01  0.4172E+02
      9.066  0.8663E+01  0.4240E+02
      9.143  0.2226E+01  0.4257E+02
      9.221  0.1893E+01  0.4272E+02
      9.299  0.6899E+01  0.4325E+02
      9.377  0.2659E+01  0.4346E+02
      9.454  0.3623E+01  0.4374E+02
      9.532  0.3895E+01  0.4404E+02
      9.610  0.2202E+01  0.4422E+02
      9.688  0.5727E+01  0.4466E+02
      9.765  0.4836E+01  0.4504E+02
      9.843  0.4598E+01  0.4539E+02
      9.921  0.3665E+01  0.4568E+02
      9.998  0.1881E+01  0.4582E+02
     10.076  0.2573E+01  0.4602E+02
     10.154  0.4606E+01  0.4638E+02
     10.232  0.3801E+01  0.4668E+02
     10.309  0.3835E+01  0.4698E+02
     10.387  0.4265E+01  0.4731E+02
     10.465  0.6213E+01  0.4779E+02
     10.543  0.5781E+01  0.4824E+02
     10.620  0.3247E+01  0.4849E+02
     10.698  0.2282E+01  0.4867E+02
     10.776  0.6844E+01  0.4920E+02
     10.853  0.4182E+01  0.4953E+02
     10.931  0.9252E+00  0.4960E+02
     11.009  0.4051E+01  0.4991E+02
     11.087  0.6357E+01  0.5041E+02
     11.164  0.5962E+01  0.5087E+02
     11.242  0.2307E+01  0.5105E+02
     11.320  0.3100E+01  0.5129E+02
     11.398  0.4650E+01  0.5165E+02
     11.475  0.4382E+01  0.5199E+02
     11.553  0.2778E+01  0.5221E+02
     11.631  0.2400E+01  0.5240E+02
     11.708  0.4174E+01  0.5272E+02
     11.786  0.2662E+01  0.5293E+02
     11.864  0.5192E+01  0.5333E+02
     11.942  0.3876E+01  0.5363E+02
     12.019  0.1977E+01  0.5379E+02
     12.097  0.2817E+01  0.5400E+02
     12.175  0.1702E+01  0.5414E+02
     12.253  0.2294E+01  0.5432E+02
     12.330  0.2038E+01  0.5447E+02
     12.408  0.2238E+01  0.5465E+02
     12.486  0.2364E+01  0.5483E+02
     12.563  0.2345E+01  0.5501E+02
     12.641  0.1349E+01  0.5512E+02
     12.719  0.3117E+00  0.5514E+02
     12.797  0.4255E-01  0.5515E+02
     12.874  0.1271E+01  0.5524E+02
     12.952  0.1748E+01  0.5538E+02
     13.030  0.1283E+01  0.5548E+02
     13.108  0.1932E+01  0.5563E+02
     13.185  0.1787E+01  0.5577E+02
     13.263  0.1353E+01  0.5587E+02
     13.341  0.3926E-01  0.5588E+02
     13.419  0.2840E-02  0.5588E+02
     13.496  0.3706E+00  0.5591E+02
     13.574  0.1093E+01  0.5599E+02
     13.652  0.1090E+00  0.5600E+02
     13.729  0.1852E-03  0.5600E+02
     13.807  0.3341E-08  0.5600E+02
     13.885  0.4664E-15  0.5600E+02
     13.963  0.0000E+00  0.5600E+02
     14.040  0.0000E+00  0.5600E+02
     14.118  0.0000E+00  0.5600E+02
     14.196  0.0000E+00  0.5600E+02
     14.274  0.0000E+00  0.5600E+02
     14.351  0.0000E+00  0.5600E+02
     14.429  0.0000E+00  0.5600E+02
     14.507  0.0000E+00  0.5600E+02
     14.584  0.0000E+00  0.5600E+02
