Si6H2
1.0
     -1.9208733      -3.3270495       0.0000000
     -1.9208521       3.3270378      -0.0000066
     -0.0000130       0.0000083     -11.6368978
  Si    H   
  6     2   
Direct
      0.6666670       0.3333350       0.4658232
      0.3333330       0.6666650       0.5341768
      0.6666505       0.3333021       0.2622600
      0.3333495       0.6666979       0.7377400
      0.3333191       0.6666401       0.1965737
      0.6666809       0.3333599       0.8034263
      0.3333316       0.6666652       0.0682897
      0.6666684       0.3333349       0.9317103
