Si6 H2
1.0
  -1.9208732500000001   -3.3270494700000000    0.0000000100000000
  -1.9208521100000000    3.3270378500000000   -0.0000066500000000
  -0.0000129900000000    0.0000083400000000  -11.6368978100000007
Si H
6 2
direct
   0.6666669900000000    0.3333349800000000    0.4658232500000000 Si
   0.3333330100000000    0.6666650200000001    0.5341767500000000 Si
   0.6666505300000000    0.3333020600000000    0.2622599600000000 Si
   0.3333494700000000    0.6666979400000000    0.7377400400000000 Si
   0.3333190700000000    0.6666401500000000    0.1965736700000000 Si
   0.6666809299999999    0.3333598500000000    0.8034263300000000 Si
   0.3333315800000000    0.6666651500000000    0.0682897500000000 H
   0.6666684200000000    0.3333348500000000    0.9317102500000000 H
