       N       E                     dE             d eps       ncg     rms          rms(c)
DAV:   1     0.115373409790E+04    0.11537E+04   -0.55603E+04  9072   0.142E+03
DAV:   2     0.852361962826E+02   -0.10685E+04   -0.98579E+03  9256   0.311E+02
DAV:   3    -0.634495314804E+02   -0.14869E+03   -0.14350E+03 11608   0.130E+02
DAV:   4    -0.688565235759E+02   -0.54070E+01   -0.53689E+01 11472   0.288E+01
DAV:   5    -0.690227565002E+02   -0.16623E+00   -0.16607E+00 11640   0.486E+00    0.352E+01
DAV:   6    -0.654107831646E+02    0.36120E+01   -0.14209E+01 13640   0.222E+01    0.201E+01
DAV:   7    -0.652240435497E+02    0.18674E+00   -0.28704E+00 13080   0.128E+01    0.932E+00
DAV:   8    -0.650974076223E+02    0.12664E+00   -0.35418E-01 13728   0.396E+00    0.127E+00
DAV:   9    -0.650921672839E+02    0.52403E-02   -0.82805E-02 13552   0.135E+00    0.586E-01
DAV:  10    -0.650925914181E+02   -0.42413E-03   -0.53418E-03 11872   0.360E-01    0.370E-01
DAV:  11    -0.650927473438E+02   -0.15593E-03   -0.10728E-03 12792   0.174E-01    0.159E-01
DAV:  12    -0.650926907763E+02    0.56568E-04   -0.23595E-04 13432   0.123E-01    0.589E-02
DAV:  13    -0.650927095199E+02   -0.18744E-04   -0.63374E-05 12112   0.492E-02    0.166E-02
DAV:  14    -0.650927138274E+02   -0.43075E-05   -0.11237E-05 11808   0.204E-02    0.990E-03
DAV:  15    -0.650927148905E+02   -0.10631E-05   -0.13776E-06  6824   0.795E-03    0.592E-03
DAV:  16    -0.650927155620E+02   -0.67146E-06   -0.13177E-06  6864   0.603E-03
   1 F= -.65092716E+02 E0= -.65092716E+02  d E =-.901538E-11
