Ir4Cl12
1.0
      0.0000000       5.0617880      10.5809990
      3.6211330       0.0000000      10.5809990
      3.6211330       5.0617880       0.0000000
  Ir    Cl  
  4     12  
Direct
      0.9560430       0.9568030       0.7912860
      0.0365470       0.0490790       0.2072590
      0.2082960       0.2128650       0.0359340
      0.7976980       0.7889120       0.9566890
      0.6516440       0.0973620       0.1011070
      0.4545600       0.9702350       0.2578000
      0.5327390       0.0416950       0.7536070
      0.9583380       0.4653900       0.8155570
      0.7516010       0.1722020       0.5338140
      0.0938450       0.6566340       0.6487710
      0.3466510       0.9002440       0.9102220
      0.9086960       0.3376400       0.3475380
      0.2631420       0.8123890       0.4600110
      0.0305360       0.5393810       0.1839810
      0.1847630       0.7404780       0.0426650
      0.8144020       0.2604370       0.9582670
