unknown system                          
           1
     0.000000    5.061788   10.580999
     3.621133    0.000000   10.580999
     3.621133    5.061788    0.000000
   Ir   Cl
     4    12
Direct configuration=     1
   0.95604300  0.95680300  0.79128600
   0.03654700  0.04907900  0.20725900
   0.20829600  0.21286500  0.03593400
   0.79769800  0.78891200  0.95668900
   0.65164400  0.09736200  0.10110700
   0.45456000  0.97023500  0.25780000
   0.53273900  0.04169500  0.75360700
   0.95833800  0.46539000  0.81555700
   0.75160100  0.17220200  0.53381400
   0.09384500  0.65663400  0.64877100
   0.34665100  0.90024400  0.91022200
   0.90869600  0.33764000  0.34753800
   0.26314200  0.81238900  0.46001100
   0.03053600  0.53938100  0.18398100
   0.18476300  0.74047800  0.04266500
   0.81440200  0.26043700  0.95826700
