Cr2                                     
   1.00000000000000     
    -1.2120298899999999    2.0992982599999999    1.7141448399999999
    -1.2120981000000000   -2.0992983000000001    1.7140968900000000
     2.4240943100000001    0.0000580600000000    1.7140978499999999
   Cr
     2
Direct
     0.4999999500000030    0.4999999500000030    0.5000000100000008
     0.0000000499999970    0.0000000499999970    0.9999999899999992
 
  0.00000000E+00  0.00000000E+00  0.00000000E+00
  0.00000000E+00  0.00000000E+00  0.00000000E+00
