   2   2   0   0
  0.1308448E+02  0.2968899E-09  0.2968899E-09  0.2968900E-09  0.5000000E-15
  1.000000000000000E-004
  CAR 
 unknown system                          
     21.49163399    -36.85593351  301      9.28044140      1.00000000
    -36.856  0.0000E+00  0.0000E+00  0.0000E+00  0.0000E+00
    -36.661  0.0000E+00  0.0000E+00  0.0000E+00  0.0000E+00
    -36.467  0.0000E+00  0.0000E+00  0.0000E+00  0.0000E+00
    -36.272  0.0000E+00  0.0000E+00  0.0000E+00  0.0000E+00
    -36.078  0.0000E+00  0.0000E+00  0.0000E+00  0.0000E+00
    -35.883  0.0000E+00  0.0000E+00  0.0000E+00  0.0000E+00
    -35.689  0.0000E+00  0.0000E+00  0.0000E+00  0.0000E+00
    -35.494  0.0000E+00  0.0000E+00  0.0000E+00  0.0000E+00
    -35.300  0.0000E+00  0.0000E+00  0.0000E+00  0.0000E+00
    -35.106  0.0000E+00  0.0000E+00  0.0000E+00  0.0000E+00
    -34.911  0.0000E+00  0.0000E+00  0.0000E+00  0.0000E+00
    -34.717  0.0000E+00  0.0000E+00  0.0000E+00  0.0000E+00
    -34.522  0.0000E+00  0.0000E+00  0.0000E+00  0.0000E+00
    -34.328  0.3068E-04  0.3174E-04  0.5967E-05  0.6173E-05
    -34.133  0.1986E+01  0.1999E+01  0.3863E+00  0.3887E+00
    -33.939  0.8540E+01  0.8539E+01  0.2047E+01  0.2049E+01
    -33.744  0.9889E+01  0.9894E+01  0.3971E+01  0.3974E+01
    -33.550  0.1033E+02  0.1032E+02  0.5980E+01  0.5980E+01
    -33.355  0.1041E+00  0.1022E+00  0.6000E+01  0.6000E+01
    -33.161  0.0000E+00  0.0000E+00  0.6000E+01  0.6000E+01
    -32.966  0.0000E+00  0.0000E+00  0.6000E+01  0.6000E+01
    -32.772  0.0000E+00  0.0000E+00  0.6000E+01  0.6000E+01
    -32.577  0.0000E+00  0.0000E+00  0.6000E+01  0.6000E+01
    -32.383  0.0000E+00  0.0000E+00  0.6000E+01  0.6000E+01
    -32.188  0.0000E+00  0.0000E+00  0.6000E+01  0.6000E+01
    -31.994  0.0000E+00  0.0000E+00  0.6000E+01  0.6000E+01
    -31.799  0.0000E+00  0.0000E+00  0.6000E+01  0.6000E+01
    -31.605  0.0000E+00  0.0000E+00  0.6000E+01  0.6000E+01
    -31.410  0.0000E+00  0.0000E+00  0.6000E+01  0.6000E+01
    -31.216  0.0000E+00  0.0000E+00  0.6000E+01  0.6000E+01
    -31.021  0.0000E+00  0.0000E+00  0.6000E+01  0.6000E+01
    -30.827  0.0000E+00  0.0000E+00  0.6000E+01  0.6000E+01
    -30.632  0.0000E+00  0.0000E+00  0.6000E+01  0.6000E+01
    -30.438  0.0000E+00  0.0000E+00  0.6000E+01  0.6000E+01
    -30.243  0.0000E+00  0.0000E+00  0.6000E+01  0.6000E+01
    -30.049  0.0000E+00  0.0000E+00  0.6000E+01  0.6000E+01
    -29.854  0.0000E+00  0.0000E+00  0.6000E+01  0.6000E+01
    -29.660  0.0000E+00  0.0000E+00  0.6000E+01  0.6000E+01
    -29.465  0.0000E+00  0.0000E+00  0.6000E+01  0.6000E+01
    -29.271  0.0000E+00  0.0000E+00  0.6000E+01  0.6000E+01
    -29.076  0.0000E+00  0.0000E+00  0.6000E+01  0.6000E+01
    -28.882  0.0000E+00  0.0000E+00  0.6000E+01  0.6000E+01
    -28.687  0.0000E+00  0.0000E+00  0.6000E+01  0.6000E+01
    -28.493  0.0000E+00  0.0000E+00  0.6000E+01  0.6000E+01
    -28.298  0.0000E+00  0.0000E+00  0.6000E+01  0.6000E+01
    -28.104  0.0000E+00  0.0000E+00  0.6000E+01  0.6000E+01
    -27.909  0.0000E+00  0.0000E+00  0.6000E+01  0.6000E+01
    -27.715  0.0000E+00  0.0000E+00  0.6000E+01  0.6000E+01
    -27.520  0.0000E+00  0.0000E+00  0.6000E+01  0.6000E+01
    -27.326  0.0000E+00  0.0000E+00  0.6000E+01  0.6000E+01
    -27.131  0.0000E+00  0.0000E+00  0.6000E+01  0.6000E+01
    -26.937  0.0000E+00  0.0000E+00  0.6000E+01  0.6000E+01
    -26.742  0.0000E+00  0.0000E+00  0.6000E+01  0.6000E+01
    -26.548  0.0000E+00  0.0000E+00  0.6000E+01  0.6000E+01
    -26.353  0.0000E+00  0.0000E+00  0.6000E+01  0.6000E+01
    -26.159  0.0000E+00  0.0000E+00  0.6000E+01  0.6000E+01
    -25.964  0.0000E+00  0.0000E+00  0.6000E+01  0.6000E+01
    -25.770  0.0000E+00  0.0000E+00  0.6000E+01  0.6000E+01
    -25.575  0.0000E+00  0.0000E+00  0.6000E+01  0.6000E+01
    -25.381  0.0000E+00  0.0000E+00  0.6000E+01  0.6000E+01
    -25.186  0.0000E+00  0.0000E+00  0.6000E+01  0.6000E+01
    -24.992  0.0000E+00  0.0000E+00  0.6000E+01  0.6000E+01
    -24.797  0.0000E+00  0.0000E+00  0.6000E+01  0.6000E+01
    -24.603  0.0000E+00  0.0000E+00  0.6000E+01  0.6000E+01
    -24.408  0.0000E+00  0.0000E+00  0.6000E+01  0.6000E+01
    -24.214  0.0000E+00  0.0000E+00  0.6000E+01  0.6000E+01
    -24.019  0.0000E+00  0.0000E+00  0.6000E+01  0.6000E+01
    -23.825  0.0000E+00  0.0000E+00  0.6000E+01  0.6000E+01
    -23.630  0.0000E+00  0.0000E+00  0.6000E+01  0.6000E+01
    -23.436  0.0000E+00  0.0000E+00  0.6000E+01  0.6000E+01
    -23.242  0.0000E+00  0.0000E+00  0.6000E+01  0.6000E+01
    -23.047  0.0000E+00  0.0000E+00  0.6000E+01  0.6000E+01
    -22.853  0.0000E+00  0.0000E+00  0.6000E+01  0.6000E+01
    -22.658  0.0000E+00  0.0000E+00  0.6000E+01  0.6000E+01
    -22.464  0.0000E+00  0.0000E+00  0.6000E+01  0.6000E+01
    -22.269  0.0000E+00  0.0000E+00  0.6000E+01  0.6000E+01
    -22.075  0.0000E+00  0.0000E+00  0.6000E+01  0.6000E+01
    -21.880  0.0000E+00  0.0000E+00  0.6000E+01  0.6000E+01
    -21.686  0.0000E+00  0.0000E+00  0.6000E+01  0.6000E+01
    -21.491  0.0000E+00  0.0000E+00  0.6000E+01  0.6000E+01
    -21.297  0.0000E+00  0.0000E+00  0.6000E+01  0.6000E+01
    -21.102  0.0000E+00  0.0000E+00  0.6000E+01  0.6000E+01
    -20.908  0.0000E+00  0.0000E+00  0.6000E+01  0.6000E+01
    -20.713  0.0000E+00  0.0000E+00  0.6000E+01  0.6000E+01
    -20.519  0.0000E+00  0.0000E+00  0.6000E+01  0.6000E+01
    -20.324  0.0000E+00  0.0000E+00  0.6000E+01  0.6000E+01
    -20.130  0.0000E+00  0.0000E+00  0.6000E+01  0.6000E+01
    -19.935  0.0000E+00  0.0000E+00  0.6000E+01  0.6000E+01
    -19.741  0.0000E+00  0.0000E+00  0.6000E+01  0.6000E+01
    -19.546  0.0000E+00  0.0000E+00  0.6000E+01  0.6000E+01
    -19.352  0.0000E+00  0.0000E+00  0.6000E+01  0.6000E+01
    -19.157  0.0000E+00  0.0000E+00  0.6000E+01  0.6000E+01
    -18.963  0.0000E+00  0.0000E+00  0.6000E+01  0.6000E+01
    -18.768  0.0000E+00  0.0000E+00  0.6000E+01  0.6000E+01
    -18.574  0.0000E+00  0.0000E+00  0.6000E+01  0.6000E+01
    -18.379  0.0000E+00  0.0000E+00  0.6000E+01  0.6000E+01
    -18.185  0.0000E+00  0.0000E+00  0.6000E+01  0.6000E+01
    -17.990  0.0000E+00  0.0000E+00  0.6000E+01  0.6000E+01
    -17.796  0.0000E+00  0.0000E+00  0.6000E+01  0.6000E+01
    -17.601  0.0000E+00  0.0000E+00  0.6000E+01  0.6000E+01
    -17.407  0.0000E+00  0.0000E+00  0.6000E+01  0.6000E+01
    -17.212  0.0000E+00  0.0000E+00  0.6000E+01  0.6000E+01
    -17.018  0.0000E+00  0.0000E+00  0.6000E+01  0.6000E+01
    -16.823  0.0000E+00  0.0000E+00  0.6000E+01  0.6000E+01
    -16.629  0.0000E+00  0.0000E+00  0.6000E+01  0.6000E+01
    -16.434  0.0000E+00  0.0000E+00  0.6000E+01  0.6000E+01
    -16.240  0.0000E+00  0.0000E+00  0.6000E+01  0.6000E+01
    -16.045  0.0000E+00  0.0000E+00  0.6000E+01  0.6000E+01
    -15.851  0.0000E+00  0.0000E+00  0.6000E+01  0.6000E+01
    -15.656  0.0000E+00  0.0000E+00  0.6000E+01  0.6000E+01
    -15.462  0.0000E+00  0.0000E+00  0.6000E+01  0.6000E+01
    -15.267  0.0000E+00  0.0000E+00  0.6000E+01  0.6000E+01
    -15.073  0.0000E+00  0.0000E+00  0.6000E+01  0.6000E+01
    -14.878  0.0000E+00  0.0000E+00  0.6000E+01  0.6000E+01
    -14.684  0.0000E+00  0.0000E+00  0.6000E+01  0.6000E+01
    -14.489  0.0000E+00  0.0000E+00  0.6000E+01  0.6000E+01
    -14.295  0.0000E+00  0.0000E+00  0.6000E+01  0.6000E+01
    -14.100  0.0000E+00  0.0000E+00  0.6000E+01  0.6000E+01
    -13.906  0.0000E+00  0.0000E+00  0.6000E+01  0.6000E+01
    -13.711  0.0000E+00  0.0000E+00  0.6000E+01  0.6000E+01
    -13.517  0.0000E+00  0.0000E+00  0.6000E+01  0.6000E+01
    -13.322  0.0000E+00  0.0000E+00  0.6000E+01  0.6000E+01
    -13.128  0.0000E+00  0.0000E+00  0.6000E+01  0.6000E+01
    -12.933  0.0000E+00  0.0000E+00  0.6000E+01  0.6000E+01
    -12.739  0.0000E+00  0.0000E+00  0.6000E+01  0.6000E+01
    -12.544  0.0000E+00  0.0000E+00  0.6000E+01  0.6000E+01
    -12.350  0.0000E+00  0.0000E+00  0.6000E+01  0.6000E+01
    -12.155  0.0000E+00  0.0000E+00  0.6000E+01  0.6000E+01
    -11.961  0.0000E+00  0.0000E+00  0.6000E+01  0.6000E+01
    -11.766  0.0000E+00  0.0000E+00  0.6000E+01  0.6000E+01
    -11.572  0.0000E+00  0.0000E+00  0.6000E+01  0.6000E+01
    -11.377  0.0000E+00  0.0000E+00  0.6000E+01  0.6000E+01
    -11.183  0.0000E+00  0.0000E+00  0.6000E+01  0.6000E+01
    -10.989  0.0000E+00  0.0000E+00  0.6000E+01  0.6000E+01
    -10.794  0.0000E+00  0.0000E+00  0.6000E+01  0.6000E+01
    -10.600  0.0000E+00  0.0000E+00  0.6000E+01  0.6000E+01
    -10.405  0.0000E+00  0.0000E+00  0.6000E+01  0.6000E+01
    -10.211  0.0000E+00  0.0000E+00  0.6000E+01  0.6000E+01
    -10.016  0.0000E+00  0.0000E+00  0.6000E+01  0.6000E+01
     -9.822  0.0000E+00  0.0000E+00  0.6000E+01  0.6000E+01
     -9.627  0.0000E+00  0.0000E+00  0.6000E+01  0.6000E+01
     -9.433  0.0000E+00  0.0000E+00  0.6000E+01  0.6000E+01
     -9.238  0.0000E+00  0.0000E+00  0.6000E+01  0.6000E+01
     -9.044  0.0000E+00  0.0000E+00  0.6000E+01  0.6000E+01
     -8.849  0.0000E+00  0.0000E+00  0.6000E+01  0.6000E+01
     -8.655  0.0000E+00  0.0000E+00  0.6000E+01  0.6000E+01
     -8.460  0.0000E+00  0.0000E+00  0.6000E+01  0.6000E+01
     -8.266  0.0000E+00  0.0000E+00  0.6000E+01  0.6000E+01
     -8.071  0.0000E+00  0.0000E+00  0.6000E+01  0.6000E+01
     -7.877  0.0000E+00  0.0000E+00  0.6000E+01  0.6000E+01
     -7.682  0.0000E+00  0.0000E+00  0.6000E+01  0.6000E+01
     -7.488  0.0000E+00  0.0000E+00  0.6000E+01  0.6000E+01
     -7.293  0.0000E+00  0.0000E+00  0.6000E+01  0.6000E+01
     -7.099  0.0000E+00  0.0000E+00  0.6000E+01  0.6000E+01
     -6.904  0.0000E+00  0.0000E+00  0.6000E+01  0.6000E+01
     -6.710  0.0000E+00  0.0000E+00  0.6000E+01  0.6000E+01
     -6.515  0.0000E+00  0.0000E+00  0.6000E+01  0.6000E+01
     -6.321  0.0000E+00  0.0000E+00  0.6000E+01  0.6000E+01
     -6.126  0.0000E+00  0.0000E+00  0.6000E+01  0.6000E+01
     -5.932  0.0000E+00  0.0000E+00  0.6000E+01  0.6000E+01
     -5.737  0.0000E+00  0.0000E+00  0.6000E+01  0.6000E+01
     -5.543  0.0000E+00  0.0000E+00  0.6000E+01  0.6000E+01
     -5.348  0.0000E+00  0.0000E+00  0.6000E+01  0.6000E+01
     -5.154  0.0000E+00  0.0000E+00  0.6000E+01  0.6000E+01
     -4.959  0.0000E+00  0.0000E+00  0.6000E+01  0.6000E+01
     -4.765  0.0000E+00  0.0000E+00  0.6000E+01  0.6000E+01
     -4.570  0.0000E+00  0.0000E+00  0.6000E+01  0.6000E+01
     -4.376  0.0000E+00  0.0000E+00  0.6000E+01  0.6000E+01
     -4.181  0.0000E+00  0.0000E+00  0.6000E+01  0.6000E+01
     -3.987  0.0000E+00  0.0000E+00  0.6000E+01  0.6000E+01
     -3.792  0.0000E+00  0.0000E+00  0.6000E+01  0.6000E+01
     -3.598  0.0000E+00  0.0000E+00  0.6000E+01  0.6000E+01
     -3.403  0.0000E+00  0.0000E+00  0.6000E+01  0.6000E+01
     -3.209  0.0000E+00  0.0000E+00  0.6000E+01  0.6000E+01
     -3.014  0.0000E+00  0.0000E+00  0.6000E+01  0.6000E+01
     -2.820  0.0000E+00  0.0000E+00  0.6000E+01  0.6000E+01
     -2.625  0.0000E+00  0.0000E+00  0.6000E+01  0.6000E+01
     -2.431  0.0000E+00  0.0000E+00  0.6000E+01  0.6000E+01
     -2.236  0.0000E+00  0.0000E+00  0.6000E+01  0.6000E+01
     -2.042  0.0000E+00  0.0000E+00  0.6000E+01  0.6000E+01
     -1.847  0.0000E+00  0.0000E+00  0.6000E+01  0.6000E+01
     -1.653  0.0000E+00  0.0000E+00  0.6000E+01  0.6000E+01
     -1.458  0.0000E+00  0.0000E+00  0.6000E+01  0.6000E+01
     -1.264  0.0000E+00  0.0000E+00  0.6000E+01  0.6000E+01
     -1.069  0.0000E+00  0.0000E+00  0.6000E+01  0.6000E+01
     -0.875  0.0000E+00  0.0000E+00  0.6000E+01  0.6000E+01
     -0.680  0.0000E+00  0.0000E+00  0.6000E+01  0.6000E+01
     -0.486  0.0000E+00  0.0000E+00  0.6000E+01  0.6000E+01
     -0.291  0.0000E+00  0.0000E+00  0.6000E+01  0.6000E+01
     -0.097  0.0000E+00  0.0000E+00  0.6000E+01  0.6000E+01
      0.098  0.0000E+00  0.0000E+00  0.6000E+01  0.6000E+01
      0.292  0.0000E+00  0.0000E+00  0.6000E+01  0.6000E+01
      0.487  0.0000E+00  0.0000E+00  0.6000E+01  0.6000E+01
      0.681  0.0000E+00  0.0000E+00  0.6000E+01  0.6000E+01
      0.875  0.0000E+00  0.0000E+00  0.6000E+01  0.6000E+01
      1.070  0.0000E+00  0.0000E+00  0.6000E+01  0.6000E+01
      1.264  0.0000E+00  0.0000E+00  0.6000E+01  0.6000E+01
      1.459  0.0000E+00  0.0000E+00  0.6000E+01  0.6000E+01
      1.653  0.4964E-14  0.5044E-14  0.6000E+01  0.6000E+01
      1.848  0.4006E-03  0.4024E-03  0.6000E+01  0.6000E+01
      2.042  0.6722E-02  0.6720E-02  0.6001E+01  0.6001E+01
      2.237  0.4203E-01  0.4203E-01  0.6010E+01  0.6010E+01
      2.431  0.7777E-01  0.7779E-01  0.6025E+01  0.6025E+01
      2.626  0.4276E-01  0.4278E-01  0.6033E+01  0.6033E+01
      2.820  0.3183E-01  0.3181E-01  0.6039E+01  0.6039E+01
      3.015  0.4984E-01  0.4988E-01  0.6049E+01  0.6049E+01
      3.209  0.1568E+00  0.1567E+00  0.6079E+01  0.6079E+01
      3.404  0.1631E+00  0.1631E+00  0.6111E+01  0.6111E+01
      3.598  0.3347E-02  0.3364E-02  0.6112E+01  0.6112E+01
      3.793  0.8358E-01  0.8358E-01  0.6128E+01  0.6128E+01
      3.987  0.2117E+00  0.2117E+00  0.6169E+01  0.6169E+01
      4.182  0.1735E+00  0.1735E+00  0.6203E+01  0.6203E+01
      4.376  0.1635E+00  0.1635E+00  0.6235E+01  0.6235E+01
      4.571  0.2184E+00  0.2184E+00  0.6277E+01  0.6277E+01
      4.765  0.3278E+00  0.3279E+00  0.6341E+01  0.6341E+01
      4.960  0.2182E-01  0.2175E-01  0.6345E+01  0.6345E+01
      5.154  0.1712E+00  0.1714E+00  0.6378E+01  0.6379E+01
      5.349  0.6755E+00  0.6757E+00  0.6510E+01  0.6510E+01
      5.543  0.6423E+00  0.6427E+00  0.6635E+01  0.6635E+01
      5.738  0.8913E+00  0.8912E+00  0.6808E+01  0.6808E+01
      5.932  0.8005E+00  0.8013E+00  0.6964E+01  0.6964E+01
      6.127  0.1254E+01  0.1255E+01  0.7208E+01  0.7208E+01
      6.321  0.1821E+01  0.1821E+01  0.7562E+01  0.7562E+01
      6.516  0.1459E+01  0.1458E+01  0.7846E+01  0.7846E+01
      6.710  0.8398E+00  0.8408E+00  0.8009E+01  0.8009E+01
      6.905  0.1003E+01  0.1002E+01  0.8204E+01  0.8204E+01
      7.099  0.5331E+00  0.5341E+00  0.8308E+01  0.8308E+01
      7.294  0.2658E+01  0.2659E+01  0.8825E+01  0.8825E+01
      7.488  0.2543E+01  0.2543E+01  0.9319E+01  0.9320E+01
      7.683  0.1807E+01  0.1807E+01  0.9671E+01  0.9671E+01
      7.877  0.2320E+01  0.2319E+01  0.1012E+02  0.1012E+02
      8.072  0.2410E+01  0.2412E+01  0.1059E+02  0.1059E+02
      8.266  0.2203E+01  0.2202E+01  0.1102E+02  0.1102E+02
      8.461  0.1814E+01  0.1814E+01  0.1137E+02  0.1137E+02
      8.655  0.1255E+01  0.1253E+01  0.1162E+02  0.1162E+02
      8.850  0.7440E+00  0.7438E+00  0.1176E+02  0.1176E+02
      9.044  0.9969E-01  0.9964E-01  0.1178E+02  0.1178E+02
      9.239  0.8857E+00  0.8866E+00  0.1195E+02  0.1195E+02
      9.433  0.1094E+01  0.1094E+01  0.1217E+02  0.1217E+02
      9.628  0.1031E+01  0.1032E+01  0.1237E+02  0.1237E+02
      9.822  0.1751E+01  0.1752E+01  0.1271E+02  0.1271E+02
     10.017  0.2619E+01  0.2619E+01  0.1322E+02  0.1322E+02
     10.211  0.2874E+01  0.2877E+01  0.1377E+02  0.1378E+02
     10.406  0.2725E+01  0.2724E+01  0.1430E+02  0.1431E+02
     10.600  0.4302E+01  0.4304E+01  0.1514E+02  0.1514E+02
     10.795  0.2803E+01  0.2797E+01  0.1569E+02  0.1569E+02
     10.989  0.1178E+01  0.1178E+01  0.1592E+02  0.1592E+02
     11.184  0.1927E+01  0.1927E+01  0.1629E+02  0.1629E+02
     11.378  0.1188E+01  0.1187E+01  0.1652E+02  0.1652E+02
     11.573  0.6153E+00  0.6139E+00  0.1664E+02  0.1664E+02
     11.767  0.1404E+00  0.1402E+00  0.1667E+02  0.1667E+02
     11.962  0.5315E+00  0.5317E+00  0.1677E+02  0.1677E+02
     12.156  0.7746E+00  0.7749E+00  0.1692E+02  0.1692E+02
     12.351  0.2420E+00  0.2413E+00  0.1697E+02  0.1697E+02
     12.545  0.6854E-01  0.6912E-01  0.1698E+02  0.1698E+02
     12.739  0.4330E+00  0.4325E+00  0.1707E+02  0.1707E+02
     12.934  0.7006E+00  0.7008E+00  0.1720E+02  0.1720E+02
     13.128  0.4082E-01  0.4042E-01  0.1721E+02  0.1721E+02
     13.323  0.3774E-01  0.3792E-01  0.1722E+02  0.1722E+02
     13.517  0.2801E+00  0.2804E+00  0.1727E+02  0.1727E+02
     13.712  0.3169E+00  0.3164E+00  0.1733E+02  0.1733E+02
     13.906  0.2327E+00  0.2333E+00  0.1738E+02  0.1738E+02
     14.101  0.6511E+00  0.6513E+00  0.1751E+02  0.1751E+02
     14.295  0.3080E+00  0.3072E+00  0.1757E+02  0.1757E+02
     14.490  0.3316E+00  0.3315E+00  0.1763E+02  0.1763E+02
     14.684  0.9367E-04  0.9196E-04  0.1763E+02  0.1763E+02
     14.879  0.1936E-03  0.1970E-03  0.1763E+02  0.1763E+02
     15.073  0.1679E+00  0.1679E+00  0.1766E+02  0.1766E+02
     15.268  0.2627E+00  0.2632E+00  0.1771E+02  0.1771E+02
     15.462  0.2856E+00  0.2852E+00  0.1777E+02  0.1777E+02
     15.657  0.1065E-01  0.1069E-01  0.1777E+02  0.1777E+02
     15.851  0.3966E+00  0.3967E+00  0.1785E+02  0.1785E+02
     16.046  0.8307E-01  0.8321E-01  0.1787E+02  0.1787E+02
     16.240  0.3880E+00  0.3910E+00  0.1794E+02  0.1794E+02
     16.435  0.1021E+02  0.1021E+02  0.1993E+02  0.1993E+02
     16.629  0.1370E-01  0.1343E-01  0.1993E+02  0.1993E+02
     16.824  0.3324E-02  0.3352E-02  0.1993E+02  0.1993E+02
     17.018  0.5310E-01  0.5307E-01  0.1994E+02  0.1994E+02
     17.213  0.6644E-04  0.6721E-04  0.1994E+02  0.1994E+02
     17.407  0.5596E-01  0.5596E-01  0.1995E+02  0.1995E+02
     17.602  0.3038E-01  0.3049E-01  0.1996E+02  0.1996E+02
     17.796  0.1095E+00  0.1095E+00  0.1998E+02  0.1998E+02
     17.991  0.4394E-01  0.4382E-01  0.1999E+02  0.1999E+02
     18.185  0.3121E-03  0.3151E-03  0.1999E+02  0.1999E+02
     18.380  0.5602E-01  0.5602E-01  0.2000E+02  0.2000E+02
     18.574  0.8668E-04  0.8574E-04  0.2000E+02  0.2000E+02
     18.769  0.1603E-03  0.1613E-03  0.2000E+02  0.2000E+02
     18.963  0.6891E-02  0.6890E-02  0.2000E+02  0.2000E+02
     19.158  0.1637E-05  0.1621E-05  0.2000E+02  0.2000E+02
     19.352  0.0000E+00  0.0000E+00  0.2000E+02  0.2000E+02
     19.547  0.0000E+00  0.0000E+00  0.2000E+02  0.2000E+02
     19.741  0.0000E+00  0.0000E+00  0.2000E+02  0.2000E+02
     19.936  0.0000E+00  0.0000E+00  0.2000E+02  0.2000E+02
     20.130  0.0000E+00  0.0000E+00  0.2000E+02  0.2000E+02
     20.325  0.0000E+00  0.0000E+00  0.2000E+02  0.2000E+02
     20.519  0.0000E+00  0.0000E+00  0.2000E+02  0.2000E+02
     20.714  0.0000E+00  0.0000E+00  0.2000E+02  0.2000E+02
     20.908  0.0000E+00  0.0000E+00  0.2000E+02  0.2000E+02
     21.103  0.0000E+00  0.0000E+00  0.2000E+02  0.2000E+02
     21.297  0.0000E+00  0.0000E+00  0.2000E+02  0.2000E+02
     21.492  0.0000E+00  0.0000E+00  0.2000E+02  0.2000E+02
