       N       E                     dE             d eps       ncg     rms          rms(c)
DAV:   1     0.258019014078E+03    0.25802E+03   -0.14551E+04 58336   0.155E+03
DAV:   2    -0.133643556743E+02   -0.27138E+03   -0.26459E+03 58736   0.440E+02
DAV:   3    -0.220028647175E+02   -0.86385E+01   -0.85318E+01 63696   0.928E+01
DAV:   4    -0.221249979962E+02   -0.12213E+00   -0.12194E+00 75780   0.104E+01
DAV:   5    -0.221272329301E+02   -0.22349E-02   -0.22271E-02 66060   0.133E+00    0.177E+01
DAV:   6    -0.187613876913E+02    0.33658E+01   -0.17288E+01 61676   0.458E+01    0.372E+00
DAV:   7    -0.187678641205E+02   -0.64764E-02   -0.66030E-01 65412   0.676E+00    0.198E+00
DAV:   8    -0.187558472760E+02    0.12017E-01   -0.16710E-02 66796   0.105E+00    0.120E+00
DAV:   9    -0.187528319282E+02    0.30153E-02   -0.50564E-03 64332   0.701E-01    0.237E-01
DAV:  10    -0.187534206661E+02   -0.58874E-03   -0.10969E-02 73020   0.933E-01    0.426E-01
DAV:  11    -0.187526615022E+02    0.75916E-03   -0.52232E-03 70792   0.626E-01    0.546E-02
DAV:  12    -0.187526591184E+02    0.23838E-05   -0.29513E-05 64568   0.600E-02    0.301E-02
DAV:  13    -0.187526543755E+02    0.47429E-05   -0.40660E-06 54888   0.174E-02    0.635E-03
DAV:  14    -0.187526536961E+02    0.67935E-06   -0.60882E-07 31088   0.832E-03
   1 F= -.18752654E+02 E0= -.18751133E+02  d E =-.304221E-02  mag=    -0.0002
