Ca1 F2                                  
   1.00000000000000     
     3.7495729999999998    0.0000000000000000    0.0000000000000000
     0.0000000000000000    3.7495729999999998    0.0000000000000000
     0.0000000000000000    0.0000000000000000    3.0228940000000000
   Ca   F 
     1     2
Direct
     0.0000000000000000    0.0000000000000000    0.5000000000000000
     0.0000000000000000    0.5000000000000000    0.0000000000000000
     0.5000000000000000    0.0000000000000000    0.0000000000000000
 
  0.00000000E+00  0.00000000E+00  0.00000000E+00
  0.00000000E+00  0.00000000E+00  0.00000000E+00
  0.00000000E+00  0.00000000E+00  0.00000000E+00
