   3   3   0   0
  0.1416659E+02  0.3749573E-09  0.3749573E-09  0.3022894E-09  0.5000000E-15
  1.000000000000000E-004
  CAR 
 unknown system                          
     11.92180813    -40.35937717  301     -0.25535128      1.00000000
    -40.359  0.0000E+00  0.0000E+00
    -40.185  0.0000E+00  0.0000E+00
    -40.011  0.0000E+00  0.0000E+00
    -39.837  0.0000E+00  0.0000E+00
    -39.662  0.0000E+00  0.0000E+00
    -39.488  0.0000E+00  0.0000E+00
    -39.314  0.0000E+00  0.0000E+00
    -39.139  0.0000E+00  0.0000E+00
    -38.965  0.0000E+00  0.0000E+00
    -38.791  0.0000E+00  0.0000E+00
    -38.617  0.0000E+00  0.0000E+00
    -38.442  0.0000E+00  0.0000E+00
    -38.268  0.4478E-16  0.7804E-17
    -38.094  0.4872E-03  0.8491E-04
    -37.920  0.5285E+01  0.9212E+00
    -37.745  0.6189E+01  0.2000E+01
    -37.571  0.1457E-02  0.2000E+01
    -37.397  0.0000E+00  0.2000E+01
    -37.223  0.0000E+00  0.2000E+01
    -37.048  0.0000E+00  0.2000E+01
    -36.874  0.0000E+00  0.2000E+01
    -36.700  0.0000E+00  0.2000E+01
    -36.525  0.0000E+00  0.2000E+01
    -36.351  0.0000E+00  0.2000E+01
    -36.177  0.0000E+00  0.2000E+01
    -36.003  0.0000E+00  0.2000E+01
    -35.828  0.0000E+00  0.2000E+01
    -35.654  0.0000E+00  0.2000E+01
    -35.480  0.0000E+00  0.2000E+01
    -35.306  0.0000E+00  0.2000E+01
    -35.131  0.0000E+00  0.2000E+01
    -34.957  0.0000E+00  0.2000E+01
    -34.783  0.0000E+00  0.2000E+01
    -34.608  0.0000E+00  0.2000E+01
    -34.434  0.0000E+00  0.2000E+01
    -34.260  0.0000E+00  0.2000E+01
    -34.086  0.0000E+00  0.2000E+01
    -33.911  0.0000E+00  0.2000E+01
    -33.737  0.0000E+00  0.2000E+01
    -33.563  0.0000E+00  0.2000E+01
    -33.389  0.0000E+00  0.2000E+01
    -33.214  0.0000E+00  0.2000E+01
    -33.040  0.0000E+00  0.2000E+01
    -32.866  0.0000E+00  0.2000E+01
    -32.691  0.0000E+00  0.2000E+01
    -32.517  0.0000E+00  0.2000E+01
    -32.343  0.0000E+00  0.2000E+01
    -32.169  0.0000E+00  0.2000E+01
    -31.994  0.0000E+00  0.2000E+01
    -31.820  0.0000E+00  0.2000E+01
    -31.646  0.0000E+00  0.2000E+01
    -31.472  0.0000E+00  0.2000E+01
    -31.297  0.0000E+00  0.2000E+01
    -31.123  0.0000E+00  0.2000E+01
    -30.949  0.0000E+00  0.2000E+01
    -30.774  0.0000E+00  0.2000E+01
    -30.600  0.0000E+00  0.2000E+01
    -30.426  0.0000E+00  0.2000E+01
    -30.252  0.0000E+00  0.2000E+01
    -30.077  0.0000E+00  0.2000E+01
    -29.903  0.0000E+00  0.2000E+01
    -29.729  0.0000E+00  0.2000E+01
    -29.555  0.0000E+00  0.2000E+01
    -29.380  0.0000E+00  0.2000E+01
    -29.206  0.0000E+00  0.2000E+01
    -29.032  0.0000E+00  0.2000E+01
    -28.858  0.0000E+00  0.2000E+01
    -28.683  0.0000E+00  0.2000E+01
    -28.509  0.0000E+00  0.2000E+01
    -28.335  0.0000E+00  0.2000E+01
    -28.160  0.0000E+00  0.2000E+01
    -27.986  0.0000E+00  0.2000E+01
    -27.812  0.0000E+00  0.2000E+01
    -27.638  0.0000E+00  0.2000E+01
    -27.463  0.0000E+00  0.2000E+01
    -27.289  0.0000E+00  0.2000E+01
    -27.115  0.0000E+00  0.2000E+01
    -26.941  0.0000E+00  0.2000E+01
    -26.766  0.0000E+00  0.2000E+01
    -26.592  0.0000E+00  0.2000E+01
    -26.418  0.0000E+00  0.2000E+01
    -26.243  0.0000E+00  0.2000E+01
    -26.069  0.0000E+00  0.2000E+01
    -25.895  0.0000E+00  0.2000E+01
    -25.721  0.0000E+00  0.2000E+01
    -25.546  0.0000E+00  0.2000E+01
    -25.372  0.0000E+00  0.2000E+01
    -25.198  0.0000E+00  0.2000E+01
    -25.024  0.0000E+00  0.2000E+01
    -24.849  0.0000E+00  0.2000E+01
    -24.675  0.0000E+00  0.2000E+01
    -24.501  0.0000E+00  0.2000E+01
    -24.326  0.0000E+00  0.2000E+01
    -24.152  0.0000E+00  0.2000E+01
    -23.978  0.0000E+00  0.2000E+01
    -23.804  0.0000E+00  0.2000E+01
    -23.629  0.0000E+00  0.2000E+01
    -23.455  0.0000E+00  0.2000E+01
    -23.281  0.0000E+00  0.2000E+01
    -23.107  0.0000E+00  0.2000E+01
    -22.932  0.0000E+00  0.2000E+01
    -22.758  0.0000E+00  0.2000E+01
    -22.584  0.0000E+00  0.2000E+01
    -22.410  0.0000E+00  0.2000E+01
    -22.235  0.0000E+00  0.2000E+01
    -22.061  0.0000E+00  0.2000E+01
    -21.887  0.1466E-12  0.2000E+01
    -21.712  0.1312E-02  0.2000E+01
    -21.538  0.2710E+00  0.2047E+01
    -21.364  0.8149E+00  0.2189E+01
    -21.190  0.3630E+01  0.2822E+01
    -21.015  0.6102E+01  0.3886E+01
    -20.841  0.2651E+01  0.4348E+01
    -20.667  0.3655E+01  0.4985E+01
    -20.493  0.3231E+01  0.5548E+01
    -20.318  0.1995E+01  0.5895E+01
    -20.144  0.5993E+00  0.6000E+01
    -19.970  0.7240E-03  0.6000E+01
    -19.795  0.0000E+00  0.6000E+01
    -19.621  0.3269E-13  0.6000E+01
    -19.447  0.1907E-02  0.6000E+01
    -19.273  0.2424E+00  0.6043E+01
    -19.098  0.9100E+00  0.6201E+01
    -18.924  0.3605E+01  0.6829E+01
    -18.750  0.1184E+02  0.8892E+01
    -18.576  0.8705E+01  0.1041E+02
    -18.401  0.6650E+01  0.1157E+02
    -18.227  0.2235E+01  0.1196E+02
    -18.053  0.2424E+00  0.1200E+02
    -17.878  0.2122E-07  0.1200E+02
    -17.704  0.0000E+00  0.1200E+02
    -17.530  0.0000E+00  0.1200E+02
    -17.356  0.0000E+00  0.1200E+02
    -17.181  0.0000E+00  0.1200E+02
    -17.007  0.0000E+00  0.1200E+02
    -16.833  0.0000E+00  0.1200E+02
    -16.659  0.0000E+00  0.1200E+02
    -16.484  0.0000E+00  0.1200E+02
    -16.310  0.0000E+00  0.1200E+02
    -16.136  0.0000E+00  0.1200E+02
    -15.961  0.0000E+00  0.1200E+02
    -15.787  0.0000E+00  0.1200E+02
    -15.613  0.0000E+00  0.1200E+02
    -15.439  0.0000E+00  0.1200E+02
    -15.264  0.0000E+00  0.1200E+02
    -15.090  0.0000E+00  0.1200E+02
    -14.916  0.0000E+00  0.1200E+02
    -14.742  0.0000E+00  0.1200E+02
    -14.567  0.0000E+00  0.1200E+02
    -14.393  0.0000E+00  0.1200E+02
    -14.219  0.0000E+00  0.1200E+02
    -14.045  0.0000E+00  0.1200E+02
    -13.870  0.0000E+00  0.1200E+02
    -13.696  0.0000E+00  0.1200E+02
    -13.522  0.0000E+00  0.1200E+02
    -13.347  0.0000E+00  0.1200E+02
    -13.173  0.0000E+00  0.1200E+02
    -12.999  0.0000E+00  0.1200E+02
    -12.825  0.0000E+00  0.1200E+02
    -12.650  0.0000E+00  0.1200E+02
    -12.476  0.0000E+00  0.1200E+02
    -12.302  0.0000E+00  0.1200E+02
    -12.128  0.0000E+00  0.1200E+02
    -11.953  0.0000E+00  0.1200E+02
    -11.779  0.0000E+00  0.1200E+02
    -11.605  0.0000E+00  0.1200E+02
    -11.430  0.0000E+00  0.1200E+02
    -11.256  0.0000E+00  0.1200E+02
    -11.082  0.0000E+00  0.1200E+02
    -10.908  0.0000E+00  0.1200E+02
    -10.733  0.0000E+00  0.1200E+02
    -10.559  0.0000E+00  0.1200E+02
    -10.385  0.0000E+00  0.1200E+02
    -10.211  0.0000E+00  0.1200E+02
    -10.036  0.0000E+00  0.1200E+02
     -9.862  0.0000E+00  0.1200E+02
     -9.688  0.0000E+00  0.1200E+02
     -9.513  0.0000E+00  0.1200E+02
     -9.339  0.0000E+00  0.1200E+02
     -9.165  0.0000E+00  0.1200E+02
     -8.991  0.0000E+00  0.1200E+02
     -8.816  0.0000E+00  0.1200E+02
     -8.642  0.0000E+00  0.1200E+02
     -8.468  0.0000E+00  0.1200E+02
     -8.294  0.0000E+00  0.1200E+02
     -8.119  0.0000E+00  0.1200E+02
     -7.945  0.0000E+00  0.1200E+02
     -7.771  0.0000E+00  0.1200E+02
     -7.597  0.0000E+00  0.1200E+02
     -7.422  0.0000E+00  0.1200E+02
     -7.248  0.0000E+00  0.1200E+02
     -7.074  0.0000E+00  0.1200E+02
     -6.899  0.0000E+00  0.1200E+02
     -6.725  0.0000E+00  0.1200E+02
     -6.551  0.0000E+00  0.1200E+02
     -6.377  0.0000E+00  0.1200E+02
     -6.202  0.0000E+00  0.1200E+02
     -6.028  0.0000E+00  0.1200E+02
     -5.854  0.0000E+00  0.1200E+02
     -5.680  0.0000E+00  0.1200E+02
     -5.505  0.0000E+00  0.1200E+02
     -5.331  0.0000E+00  0.1200E+02
     -5.157  0.0000E+00  0.1200E+02
     -4.982  0.0000E+00  0.1200E+02
     -4.808  0.0000E+00  0.1200E+02
     -4.634  0.0000E+00  0.1200E+02
     -4.460  0.0000E+00  0.1200E+02
     -4.285  0.9302E-10  0.1200E+02
     -4.111  0.1442E-01  0.1200E+02
     -3.937  0.2204E+00  0.1204E+02
     -3.763  0.2251E+00  0.1208E+02
     -3.588  0.7578E+00  0.1221E+02
     -3.414  0.1309E+01  0.1244E+02
     -3.240  0.4143E+01  0.1316E+02
     -3.065  0.5231E+01  0.1407E+02
     -2.891  0.4472E+01  0.1485E+02
     -2.717  0.5006E+01  0.1573E+02
     -2.543  0.6050E+01  0.1678E+02
     -2.368  0.5181E+01  0.1768E+02
     -2.194  0.4882E+01  0.1853E+02
     -2.020  0.7050E+01  0.1976E+02
     -1.846  0.3821E+01  0.2043E+02
     -1.671  0.4744E+01  0.2125E+02
     -1.497  0.2434E+01  0.2168E+02
     -1.323  0.2249E+01  0.2207E+02
     -1.148  0.2212E+01  0.2246E+02
     -0.974  0.4006E+01  0.2315E+02
     -0.800  0.2022E+01  0.2351E+02
     -0.626  0.1926E+01  0.2384E+02
     -0.451  0.8861E+00  0.2400E+02
     -0.277  0.1634E-01  0.2400E+02
     -0.103  0.0000E+00  0.2400E+02
      0.071  0.0000E+00  0.2400E+02
      0.246  0.0000E+00  0.2400E+02
      0.420  0.0000E+00  0.2400E+02
      0.594  0.0000E+00  0.2400E+02
      0.768  0.0000E+00  0.2400E+02
      0.943  0.0000E+00  0.2400E+02
      1.117  0.0000E+00  0.2400E+02
      1.291  0.0000E+00  0.2400E+02
      1.466  0.0000E+00  0.2400E+02
      1.640  0.0000E+00  0.2400E+02
      1.814  0.0000E+00  0.2400E+02
      1.988  0.0000E+00  0.2400E+02
      2.163  0.0000E+00  0.2400E+02
      2.337  0.0000E+00  0.2400E+02
      2.511  0.0000E+00  0.2400E+02
      2.685  0.0000E+00  0.2400E+02
      2.860  0.0000E+00  0.2400E+02
      3.034  0.0000E+00  0.2400E+02
      3.208  0.0000E+00  0.2400E+02
      3.383  0.0000E+00  0.2400E+02
      3.557  0.0000E+00  0.2400E+02
      3.731  0.0000E+00  0.2400E+02
      3.905  0.0000E+00  0.2400E+02
      4.080  0.0000E+00  0.2400E+02
      4.254  0.0000E+00  0.2400E+02
      4.428  0.3034E-15  0.2400E+02
      4.602  0.8967E-04  0.2400E+02
      4.777  0.2567E-01  0.2400E+02
      4.951  0.1001E+00  0.2402E+02
      5.125  0.1510E+00  0.2405E+02
      5.300  0.2120E+00  0.2409E+02
      5.474  0.3240E+00  0.2414E+02
      5.648  0.2299E+00  0.2418E+02
      5.822  0.3884E+00  0.2425E+02
      5.997  0.6423E+00  0.2436E+02
      6.171  0.5865E+00  0.2446E+02
      6.345  0.1115E+01  0.2466E+02
      6.519  0.5577E+00  0.2476E+02
      6.694  0.1292E+01  0.2498E+02
      6.868  0.1166E+01  0.2518E+02
      7.042  0.1402E+01  0.2543E+02
      7.217  0.1209E+01  0.2564E+02
      7.391  0.2479E+01  0.2607E+02
      7.565  0.3778E+01  0.2673E+02
      7.739  0.3862E+01  0.2740E+02
      7.914  0.4916E+01  0.2826E+02
      8.088  0.6541E+01  0.2940E+02
      8.262  0.3087E+01  0.2994E+02
      8.436  0.4041E+01  0.3064E+02
      8.611  0.1269E+01  0.3086E+02
      8.785  0.3362E+01  0.3145E+02
      8.959  0.1846E+01  0.3177E+02
      9.133  0.8341E+00  0.3192E+02
      9.308  0.3790E+00  0.3198E+02
      9.482  0.8403E-02  0.3198E+02
      9.656  0.9982E-01  0.3200E+02
      9.831  0.7670E-04  0.3200E+02
     10.005  0.0000E+00  0.3200E+02
     10.179  0.0000E+00  0.3200E+02
     10.353  0.0000E+00  0.3200E+02
     10.528  0.0000E+00  0.3200E+02
     10.702  0.0000E+00  0.3200E+02
     10.876  0.0000E+00  0.3200E+02
     11.050  0.0000E+00  0.3200E+02
     11.225  0.0000E+00  0.3200E+02
     11.399  0.0000E+00  0.3200E+02
     11.573  0.0000E+00  0.3200E+02
     11.748  0.0000E+00  0.3200E+02
     11.922  0.0000E+00  0.3200E+02
