   2   2   0   0
  0.2411957E+02  0.4206322E-09  0.4206322E-09  0.4206322E-09  0.5000000E-15
  1.000000000000000E-004
  CAR 
 unknown system                          
     20.71078484     -9.80090149  301      6.52599548      1.00000000
     -9.801  0.0000E+00  0.0000E+00
     -9.699  0.0000E+00  0.0000E+00
     -9.597  0.0000E+00  0.0000E+00
     -9.496  0.0000E+00  0.0000E+00
     -9.394  0.0000E+00  0.0000E+00
     -9.292  0.0000E+00  0.0000E+00
     -9.191  0.0000E+00  0.0000E+00
     -9.089  0.0000E+00  0.0000E+00
     -8.987  0.0000E+00  0.0000E+00
     -8.886  0.0000E+00  0.0000E+00
     -8.784  0.0000E+00  0.0000E+00
     -8.682  0.1537E-13  0.1563E-14
     -8.580  0.1839E-05  0.1870E-06
     -8.479  0.1098E+00  0.1117E-01
     -8.377  0.1654E+02  0.1694E+01
     -8.275  0.7058E+02  0.8872E+01
     -8.174  0.1108E+02  0.9999E+01
     -8.072  0.8928E-02  0.1000E+02
     -7.970  0.6313E-08  0.1000E+02
     -7.868  0.0000E+00  0.1000E+02
     -7.767  0.0000E+00  0.1000E+02
     -7.665  0.0000E+00  0.1000E+02
     -7.563  0.0000E+00  0.1000E+02
     -7.462  0.0000E+00  0.1000E+02
     -7.360  0.0000E+00  0.1000E+02
     -7.258  0.0000E+00  0.1000E+02
     -7.157  0.0000E+00  0.1000E+02
     -7.055  0.0000E+00  0.1000E+02
     -6.953  0.0000E+00  0.1000E+02
     -6.851  0.0000E+00  0.1000E+02
     -6.750  0.0000E+00  0.1000E+02
     -6.648  0.0000E+00  0.1000E+02
     -6.546  0.0000E+00  0.1000E+02
     -6.445  0.0000E+00  0.1000E+02
     -6.343  0.0000E+00  0.1000E+02
     -6.241  0.0000E+00  0.1000E+02
     -6.139  0.0000E+00  0.1000E+02
     -6.038  0.0000E+00  0.1000E+02
     -5.936  0.0000E+00  0.1000E+02
     -5.834  0.0000E+00  0.1000E+02
     -5.733  0.0000E+00  0.1000E+02
     -5.631  0.0000E+00  0.1000E+02
     -5.529  0.1908E-10  0.1000E+02
     -5.428  0.4285E-04  0.1000E+02
     -5.326  0.4340E-01  0.1000E+02
     -5.224  0.1096E+00  0.1002E+02
     -5.122  0.5995E-01  0.1002E+02
     -5.021  0.3325E+00  0.1006E+02
     -4.919  0.3260E+00  0.1009E+02
     -4.817  0.2719E+00  0.1012E+02
     -4.716  0.1495E+00  0.1013E+02
     -4.614  0.1695E+00  0.1015E+02
     -4.512  0.4645E+00  0.1020E+02
     -4.411  0.7065E+00  0.1027E+02
     -4.309  0.2362E+00  0.1029E+02
     -4.207  0.2733E+00  0.1032E+02
     -4.105  0.5940E+00  0.1038E+02
     -4.004  0.6594E+00  0.1045E+02
     -3.902  0.6977E+00  0.1052E+02
     -3.800  0.5509E+00  0.1057E+02
     -3.699  0.4041E+00  0.1062E+02
     -3.597  0.7743E+00  0.1069E+02
     -3.495  0.8482E+00  0.1078E+02
     -3.393  0.3795E+00  0.1082E+02
     -3.292  0.5706E+00  0.1088E+02
     -3.190  0.6515E+00  0.1094E+02
     -3.088  0.8169E+00  0.1103E+02
     -2.987  0.5204E+00  0.1108E+02
     -2.885  0.7410E+00  0.1115E+02
     -2.783  0.1002E+01  0.1126E+02
     -2.682  0.5475E+00  0.1131E+02
     -2.580  0.2037E-01  0.1131E+02
     -2.478  0.4654E+00  0.1136E+02
     -2.376  0.7046E+00  0.1143E+02
     -2.275  0.5175E+00  0.1149E+02
     -2.173  0.2533E+00  0.1151E+02
     -2.071  0.5363E+00  0.1157E+02
     -1.970  0.1046E+01  0.1167E+02
     -1.868  0.6148E+00  0.1174E+02
     -1.766  0.6673E+00  0.1180E+02
     -1.664  0.9508E+00  0.1190E+02
     -1.563  0.5642E+00  0.1196E+02
     -1.461  0.3795E+00  0.1200E+02
     -1.359  0.4393E-01  0.1200E+02
     -1.258  0.1933E+00  0.1202E+02
     -1.156  0.2774E+00  0.1205E+02
     -1.054  0.2570E+00  0.1207E+02
     -0.953  0.1939E+00  0.1209E+02
     -0.851  0.1527E+00  0.1211E+02
     -0.749  0.7211E-03  0.1211E+02
     -0.647  0.1155E+00  0.1212E+02
     -0.546  0.4788E+00  0.1217E+02
     -0.444  0.4953E+00  0.1222E+02
     -0.342  0.9362E+00  0.1232E+02
     -0.241  0.1255E+00  0.1233E+02
     -0.139  0.3373E+00  0.1236E+02
     -0.037  0.1154E+01  0.1248E+02
      0.065  0.3069E+00  0.1251E+02
      0.166  0.5571E+00  0.1257E+02
      0.268  0.3718E+00  0.1261E+02
      0.370  0.5555E-01  0.1261E+02
      0.471  0.6061E+00  0.1267E+02
      0.573  0.3140E+00  0.1270E+02
      0.675  0.4681E+00  0.1275E+02
      0.776  0.7087E+00  0.1282E+02
      0.878  0.1585E+01  0.1299E+02
      0.980  0.9389E+00  0.1308E+02
      1.082  0.1203E+01  0.1320E+02
      1.183  0.9730E+00  0.1330E+02
      1.285  0.1029E+01  0.1341E+02
      1.387  0.3741E+00  0.1345E+02
      1.488  0.5050E+00  0.1350E+02
      1.590  0.6959E+00  0.1357E+02
      1.692  0.3215E+00  0.1360E+02
      1.794  0.1676E+00  0.1362E+02
      1.895  0.6208E+00  0.1368E+02
      1.997  0.4684E+00  0.1373E+02
      2.099  0.6745E+00  0.1380E+02
      2.200  0.9391E+00  0.1389E+02
      2.302  0.3271E+00  0.1393E+02
      2.404  0.6851E+00  0.1399E+02
      2.505  0.4927E+00  0.1404E+02
      2.607  0.6374E+00  0.1411E+02
      2.709  0.3678E+00  0.1415E+02
      2.811  0.1018E+01  0.1425E+02
      2.912  0.6735E+00  0.1432E+02
      3.014  0.1001E+01  0.1442E+02
      3.116  0.1058E+01  0.1453E+02
      3.217  0.1378E+01  0.1467E+02
      3.319  0.7826E+00  0.1475E+02
      3.421  0.1035E+01  0.1485E+02
      3.523  0.5413E+00  0.1491E+02
      3.624  0.7065E+00  0.1498E+02
      3.726  0.5882E+00  0.1504E+02
      3.828  0.9544E+00  0.1514E+02
      3.929  0.1167E+01  0.1526E+02
      4.031  0.7270E+00  0.1533E+02
      4.133  0.1287E+01  0.1546E+02
      4.234  0.1597E+01  0.1562E+02
      4.336  0.6301E+00  0.1569E+02
      4.438  0.6415E+00  0.1575E+02
      4.540  0.9733E+00  0.1585E+02
      4.641  0.6140E+00  0.1591E+02
      4.743  0.9403E+00  0.1601E+02
      4.845  0.2041E+01  0.1622E+02
      4.946  0.6888E+00  0.1629E+02
      5.048  0.3797E+00  0.1633E+02
      5.150  0.9028E+00  0.1642E+02
      5.252  0.2232E+01  0.1664E+02
      5.353  0.2323E+01  0.1688E+02
      5.455  0.1835E+01  0.1707E+02
      5.557  0.1748E+01  0.1725E+02
      5.658  0.1096E+01  0.1736E+02
      5.760  0.6066E+00  0.1742E+02
      5.862  0.2701E+00  0.1745E+02
      5.963  0.7617E+00  0.1752E+02
      6.065  0.7905E-01  0.1753E+02
      6.167  0.3267E+00  0.1756E+02
      6.269  0.9298E+00  0.1766E+02
      6.370  0.1327E+01  0.1779E+02
      6.472  0.1311E+01  0.1793E+02
      6.574  0.1178E+01  0.1805E+02
      6.675  0.3014E+00  0.1808E+02
      6.777  0.6677E+00  0.1815E+02
      6.879  0.1381E+01  0.1829E+02
      6.981  0.1105E+01  0.1840E+02
      7.082  0.2273E+00  0.1842E+02
      7.184  0.5304E+00  0.1848E+02
      7.286  0.1073E+01  0.1858E+02
      7.387  0.8465E+00  0.1867E+02
      7.489  0.3835E+00  0.1871E+02
      7.591  0.1398E+01  0.1885E+02
      7.692  0.9026E+00  0.1894E+02
      7.794  0.5680E+00  0.1900E+02
      7.896  0.1674E+01  0.1917E+02
      7.998  0.4735E+00  0.1922E+02
      8.099  0.1133E+01  0.1934E+02
      8.201  0.1598E+01  0.1950E+02
      8.303  0.9684E+00  0.1960E+02
      8.404  0.4148E+00  0.1964E+02
      8.506  0.5409E+00  0.1969E+02
      8.608  0.5861E+00  0.1975E+02
      8.710  0.1027E+01  0.1986E+02
      8.811  0.8171E+00  0.1994E+02
      8.913  0.9168E+00  0.2003E+02
      9.015  0.1085E+01  0.2014E+02
      9.116  0.1626E+01  0.2031E+02
      9.218  0.1710E+01  0.2048E+02
      9.320  0.1728E+01  0.2066E+02
      9.421  0.1228E+01  0.2078E+02
      9.523  0.6059E+00  0.2085E+02
      9.625  0.8186E+00  0.2093E+02
      9.727  0.2135E+00  0.2095E+02
      9.828  0.2009E+00  0.2097E+02
      9.930  0.1189E+01  0.2109E+02
     10.032  0.2201E+01  0.2132E+02
     10.133  0.2093E+01  0.2153E+02
     10.235  0.1353E+01  0.2167E+02
     10.337  0.9083E+00  0.2176E+02
     10.439  0.1312E+01  0.2189E+02
     10.540  0.1244E+01  0.2202E+02
     10.642  0.1072E+01  0.2213E+02
     10.744  0.5134E+00  0.2218E+02
     10.845  0.8559E+00  0.2227E+02
     10.947  0.1207E+01  0.2239E+02
     11.049  0.9642E+00  0.2249E+02
     11.150  0.9353E+00  0.2258E+02
     11.252  0.2025E+01  0.2279E+02
     11.354  0.2433E+01  0.2304E+02
     11.456  0.2498E+01  0.2329E+02
     11.557  0.1635E+01  0.2346E+02
     11.659  0.1791E+01  0.2364E+02
     11.761  0.1518E+01  0.2379E+02
     11.862  0.1586E+01  0.2395E+02
     11.964  0.1276E+01  0.2408E+02
     12.066  0.1018E+01  0.2419E+02
     12.168  0.1021E+01  0.2429E+02
     12.269  0.1088E+01  0.2440E+02
     12.371  0.1006E+01  0.2450E+02
     12.473  0.1379E+01  0.2465E+02
     12.574  0.4977E+00  0.2470E+02
     12.676  0.7242E+00  0.2477E+02
     12.778  0.1009E+01  0.2487E+02
     12.879  0.1289E+01  0.2500E+02
     12.981  0.1550E+01  0.2516E+02
     13.083  0.1612E+01  0.2532E+02
     13.185  0.1282E+01  0.2546E+02
     13.286  0.4410E+00  0.2550E+02
     13.388  0.1167E+01  0.2562E+02
     13.490  0.3928E+00  0.2566E+02
     13.591  0.1006E+01  0.2576E+02
     13.693  0.1244E+01  0.2589E+02
     13.795  0.1722E+01  0.2606E+02
     13.897  0.1206E+01  0.2619E+02
     13.998  0.7356E+00  0.2626E+02
     14.100  0.8572E+00  0.2635E+02
     14.202  0.6068E+00  0.2641E+02
     14.303  0.1207E+01  0.2653E+02
     14.405  0.1427E+01  0.2668E+02
     14.507  0.1395E+01  0.2682E+02
     14.608  0.4293E+00  0.2686E+02
     14.710  0.8533E+00  0.2695E+02
     14.812  0.7817E+00  0.2703E+02
     14.914  0.5516E+00  0.2708E+02
     15.015  0.9443E+00  0.2718E+02
     15.117  0.6125E+00  0.2724E+02
     15.219  0.1952E+01  0.2744E+02
     15.320  0.1937E+01  0.2764E+02
     15.422  0.1099E+01  0.2775E+02
     15.524  0.1911E+01  0.2794E+02
     15.626  0.1852E+01  0.2813E+02
     15.727  0.1388E+01  0.2827E+02
     15.829  0.5980E+00  0.2834E+02
     15.931  0.9220E+00  0.2843E+02
     16.032  0.6224E+00  0.2849E+02
     16.134  0.1579E+01  0.2865E+02
     16.236  0.2676E+01  0.2892E+02
     16.337  0.1225E+01  0.2905E+02
     16.439  0.1486E+01  0.2920E+02
     16.541  0.1794E+01  0.2938E+02
     16.643  0.1471E+01  0.2953E+02
     16.744  0.2237E+01  0.2976E+02
     16.846  0.2281E+01  0.2999E+02
     16.948  0.1070E+01  0.3010E+02
     17.049  0.1204E+01  0.3022E+02
     17.151  0.1713E+01  0.3040E+02
     17.253  0.1481E+01  0.3055E+02
     17.354  0.1209E+01  0.3067E+02
     17.456  0.1284E+01  0.3080E+02
     17.558  0.4756E+00  0.3085E+02
     17.660  0.4232E+00  0.3089E+02
     17.761  0.1066E+01  0.3100E+02
     17.863  0.1942E+01  0.3120E+02
     17.965  0.1434E+01  0.3135E+02
     18.066  0.1223E+01  0.3147E+02
     18.168  0.7811E+00  0.3155E+02
     18.270  0.4451E+00  0.3159E+02
     18.372  0.4502E+00  0.3164E+02
     18.473  0.2251E+00  0.3166E+02
     18.575  0.8841E-01  0.3167E+02
     18.677  0.8163E-01  0.3168E+02
     18.778  0.3288E+00  0.3171E+02
     18.880  0.5520E+00  0.3177E+02
     18.982  0.6193E+00  0.3183E+02
     19.083  0.3736E+00  0.3187E+02
     19.185  0.9299E+00  0.3197E+02
     19.287  0.8096E-01  0.3197E+02
     19.389  0.2500E+00  0.3200E+02
     19.490  0.9668E-02  0.3200E+02
     19.592  0.3365E-06  0.3200E+02
     19.694  0.4196E-14  0.3200E+02
     19.795  0.0000E+00  0.3200E+02
     19.897  0.0000E+00  0.3200E+02
     19.999  0.0000E+00  0.3200E+02
     20.101  0.0000E+00  0.3200E+02
     20.202  0.0000E+00  0.3200E+02
     20.304  0.0000E+00  0.3200E+02
     20.406  0.0000E+00  0.3200E+02
     20.507  0.0000E+00  0.3200E+02
     20.609  0.0000E+00  0.3200E+02
     20.711  0.0000E+00  0.3200E+02
