       N       E                     dE             d eps       ncg     rms          rms(c)
DAV:   1     0.887516810730E+02    0.88752E+02   -0.89728E+03 16408   0.162E+03
DAV:   2    -0.312547156733E+00   -0.89064E+02   -0.86030E+02 19392   0.345E+02
DAV:   3    -0.689217400598E+01   -0.65796E+01   -0.65513E+01 19632   0.666E+01
DAV:   4    -0.700747407876E+01   -0.11530E+00   -0.11528E+00 19960   0.969E+00
DAV:   5    -0.701006538648E+01   -0.25913E-02   -0.25912E-02 20824   0.133E+00    0.242E+00
DAV:   6    -0.699222220677E+01    0.17843E-01   -0.41258E-02 21304   0.328E+00    0.136E+00
DAV:   7    -0.698978278081E+01    0.24394E-02   -0.11068E-02 23904   0.109E+00    0.290E-01
DAV:   8    -0.698974713718E+01    0.35644E-04   -0.14095E-03 21200   0.447E-01    0.387E-02
DAV:   9    -0.698976235026E+01   -0.15213E-04   -0.10359E-04 19680   0.841E-02    0.185E-02
DAV:  10    -0.698976148990E+01    0.86035E-06   -0.92365E-06 21680   0.379E-02
   1 F= -.69897615E+01 E0= -.69889929E+01  d E =-.153720E-02
