Sr1 N1                                  
   1.00000000000000     
     0.0000000000000000    2.6943419999999998    2.6943419999999998
     2.6943419999999998    0.0000000000000000    2.6943419999999998
     2.6943419999999998    2.6943419999999998    0.0000000000000000
   Sr   N 
     1     1
Direct
     0.0000000000000000    0.0000000000000000    0.0000000000000000
     0.5000000000000000    0.5000000000000000    0.5000000000000000
 
  0.00000000E+00  0.00000000E+00  0.00000000E+00
  0.00000000E+00  0.00000000E+00  0.00000000E+00
