   2   2   0   0
  0.1955952E+02  0.3810375E-09  0.3810375E-09  0.3810375E-09  0.5000000E-15
  1.000000000000000E-004
  CAR 
 unknown system                          
     13.66863515    -33.52163707  301      1.54273103      1.00000000
    -33.522  0.0000E+00  0.0000E+00
    -33.364  0.0000E+00  0.0000E+00
    -33.207  0.0000E+00  0.0000E+00
    -33.050  0.0000E+00  0.0000E+00
    -32.892  0.0000E+00  0.0000E+00
    -32.735  0.0000E+00  0.0000E+00
    -32.578  0.0000E+00  0.0000E+00
    -32.421  0.0000E+00  0.0000E+00
    -32.263  0.0000E+00  0.0000E+00
    -32.106  0.0000E+00  0.0000E+00
    -31.949  0.0000E+00  0.0000E+00
    -31.791  0.0000E+00  0.0000E+00
    -31.634  0.8569E-14  0.1348E-14
    -31.477  0.4184E-03  0.6582E-04
    -31.319  0.4152E+01  0.6532E+00
    -31.162  0.8560E+01  0.2000E+01
    -31.005  0.1840E-02  0.2000E+01
    -30.848  0.0000E+00  0.2000E+01
    -30.690  0.0000E+00  0.2000E+01
    -30.533  0.0000E+00  0.2000E+01
    -30.376  0.0000E+00  0.2000E+01
    -30.218  0.0000E+00  0.2000E+01
    -30.061  0.0000E+00  0.2000E+01
    -29.904  0.0000E+00  0.2000E+01
    -29.746  0.0000E+00  0.2000E+01
    -29.589  0.0000E+00  0.2000E+01
    -29.432  0.0000E+00  0.2000E+01
    -29.275  0.0000E+00  0.2000E+01
    -29.117  0.0000E+00  0.2000E+01
    -28.960  0.0000E+00  0.2000E+01
    -28.803  0.0000E+00  0.2000E+01
    -28.645  0.0000E+00  0.2000E+01
    -28.488  0.0000E+00  0.2000E+01
    -28.331  0.0000E+00  0.2000E+01
    -28.173  0.0000E+00  0.2000E+01
    -28.016  0.0000E+00  0.2000E+01
    -27.859  0.0000E+00  0.2000E+01
    -27.702  0.0000E+00  0.2000E+01
    -27.544  0.0000E+00  0.2000E+01
    -27.387  0.0000E+00  0.2000E+01
    -27.230  0.0000E+00  0.2000E+01
    -27.072  0.0000E+00  0.2000E+01
    -26.915  0.0000E+00  0.2000E+01
    -26.758  0.0000E+00  0.2000E+01
    -26.600  0.0000E+00  0.2000E+01
    -26.443  0.0000E+00  0.2000E+01
    -26.286  0.0000E+00  0.2000E+01
    -26.128  0.0000E+00  0.2000E+01
    -25.971  0.0000E+00  0.2000E+01
    -25.814  0.0000E+00  0.2000E+01
    -25.657  0.0000E+00  0.2000E+01
    -25.499  0.0000E+00  0.2000E+01
    -25.342  0.0000E+00  0.2000E+01
    -25.185  0.0000E+00  0.2000E+01
    -25.027  0.0000E+00  0.2000E+01
    -24.870  0.0000E+00  0.2000E+01
    -24.713  0.0000E+00  0.2000E+01
    -24.555  0.0000E+00  0.2000E+01
    -24.398  0.0000E+00  0.2000E+01
    -24.241  0.0000E+00  0.2000E+01
    -24.084  0.0000E+00  0.2000E+01
    -23.926  0.0000E+00  0.2000E+01
    -23.769  0.0000E+00  0.2000E+01
    -23.612  0.0000E+00  0.2000E+01
    -23.454  0.0000E+00  0.2000E+01
    -23.297  0.0000E+00  0.2000E+01
    -23.140  0.0000E+00  0.2000E+01
    -22.982  0.0000E+00  0.2000E+01
    -22.825  0.0000E+00  0.2000E+01
    -22.668  0.0000E+00  0.2000E+01
    -22.511  0.0000E+00  0.2000E+01
    -22.353  0.0000E+00  0.2000E+01
    -22.196  0.0000E+00  0.2000E+01
    -22.039  0.0000E+00  0.2000E+01
    -21.881  0.0000E+00  0.2000E+01
    -21.724  0.0000E+00  0.2000E+01
    -21.567  0.0000E+00  0.2000E+01
    -21.409  0.0000E+00  0.2000E+01
    -21.252  0.0000E+00  0.2000E+01
    -21.095  0.0000E+00  0.2000E+01
    -20.938  0.0000E+00  0.2000E+01
    -20.780  0.0000E+00  0.2000E+01
    -20.623  0.0000E+00  0.2000E+01
    -20.466  0.0000E+00  0.2000E+01
    -20.308  0.0000E+00  0.2000E+01
    -20.151  0.0000E+00  0.2000E+01
    -19.994  0.0000E+00  0.2000E+01
    -19.836  0.0000E+00  0.2000E+01
    -19.679  0.0000E+00  0.2000E+01
    -19.522  0.0000E+00  0.2000E+01
    -19.365  0.0000E+00  0.2000E+01
    -19.207  0.0000E+00  0.2000E+01
    -19.050  0.0000E+00  0.2000E+01
    -18.893  0.0000E+00  0.2000E+01
    -18.735  0.0000E+00  0.2000E+01
    -18.578  0.0000E+00  0.2000E+01
    -18.421  0.0000E+00  0.2000E+01
    -18.263  0.0000E+00  0.2000E+01
    -18.106  0.0000E+00  0.2000E+01
    -17.949  0.0000E+00  0.2000E+01
    -17.792  0.0000E+00  0.2000E+01
    -17.634  0.0000E+00  0.2000E+01
    -17.477  0.0000E+00  0.2000E+01
    -17.320  0.0000E+00  0.2000E+01
    -17.162  0.0000E+00  0.2000E+01
    -17.005  0.0000E+00  0.2000E+01
    -16.848  0.0000E+00  0.2000E+01
    -16.690  0.0000E+00  0.2000E+01
    -16.533  0.0000E+00  0.2000E+01
    -16.376  0.0000E+00  0.2000E+01
    -16.219  0.0000E+00  0.2000E+01
    -16.061  0.0000E+00  0.2000E+01
    -15.904  0.0000E+00  0.2000E+01
    -15.747  0.0000E+00  0.2000E+01
    -15.589  0.0000E+00  0.2000E+01
    -15.432  0.0000E+00  0.2000E+01
    -15.275  0.0000E+00  0.2000E+01
    -15.117  0.0000E+00  0.2000E+01
    -14.960  0.0000E+00  0.2000E+01
    -14.803  0.0000E+00  0.2000E+01
    -14.646  0.0000E+00  0.2000E+01
    -14.488  0.1103E-15  0.2000E+01
    -14.331  0.2515E-04  0.2000E+01
    -14.174  0.1418E+00  0.2022E+01
    -14.016  0.1654E+01  0.2283E+01
    -13.859  0.4358E+01  0.2968E+01
    -13.702  0.4999E+01  0.3754E+01
    -13.544  0.3016E+01  0.4229E+01
    -13.387  0.6932E+01  0.5319E+01
    -13.230  0.1265E+02  0.7309E+01
    -13.073  0.4391E+01  0.8000E+01
    -12.915  0.2620E-02  0.8000E+01
    -12.758  0.0000E+00  0.8000E+01
    -12.601  0.0000E+00  0.8000E+01
    -12.443  0.0000E+00  0.8000E+01
    -12.286  0.0000E+00  0.8000E+01
    -12.129  0.0000E+00  0.8000E+01
    -11.971  0.0000E+00  0.8000E+01
    -11.814  0.0000E+00  0.8000E+01
    -11.657  0.0000E+00  0.8000E+01
    -11.500  0.0000E+00  0.8000E+01
    -11.342  0.0000E+00  0.8000E+01
    -11.185  0.0000E+00  0.8000E+01
    -11.028  0.0000E+00  0.8000E+01
    -10.870  0.0000E+00  0.8000E+01
    -10.713  0.0000E+00  0.8000E+01
    -10.556  0.0000E+00  0.8000E+01
    -10.398  0.0000E+00  0.8000E+01
    -10.241  0.5248E-12  0.8000E+01
    -10.084  0.3950E-03  0.8000E+01
     -9.927  0.2420E-01  0.8004E+01
     -9.769  0.2608E+00  0.8045E+01
     -9.612  0.7830E+00  0.8168E+01
     -9.455  0.1660E+01  0.8429E+01
     -9.297  0.3471E+01  0.8975E+01
     -9.140  0.3634E+01  0.9547E+01
     -8.983  0.1833E+01  0.9835E+01
     -8.825  0.9967E+00  0.9992E+01
     -8.668  0.5158E-01  0.1000E+02
     -8.511  0.5308E-06  0.1000E+02
     -8.353  0.0000E+00  0.1000E+02
     -8.196  0.0000E+00  0.1000E+02
     -8.039  0.0000E+00  0.1000E+02
     -7.882  0.0000E+00  0.1000E+02
     -7.724  0.0000E+00  0.1000E+02
     -7.567  0.0000E+00  0.1000E+02
     -7.410  0.0000E+00  0.1000E+02
     -7.252  0.0000E+00  0.1000E+02
     -7.095  0.0000E+00  0.1000E+02
     -6.938  0.0000E+00  0.1000E+02
     -6.780  0.0000E+00  0.1000E+02
     -6.623  0.0000E+00  0.1000E+02
     -6.466  0.0000E+00  0.1000E+02
     -6.309  0.0000E+00  0.1000E+02
     -6.151  0.0000E+00  0.1000E+02
     -5.994  0.0000E+00  0.1000E+02
     -5.837  0.0000E+00  0.1000E+02
     -5.679  0.0000E+00  0.1000E+02
     -5.522  0.0000E+00  0.1000E+02
     -5.365  0.0000E+00  0.1000E+02
     -5.207  0.0000E+00  0.1000E+02
     -5.050  0.0000E+00  0.1000E+02
     -4.893  0.0000E+00  0.1000E+02
     -4.736  0.0000E+00  0.1000E+02
     -4.578  0.0000E+00  0.1000E+02
     -4.421  0.0000E+00  0.1000E+02
     -4.264  0.0000E+00  0.1000E+02
     -4.106  0.0000E+00  0.1000E+02
     -3.949  0.0000E+00  0.1000E+02
     -3.792  0.0000E+00  0.1000E+02
     -3.634  0.0000E+00  0.1000E+02
     -3.477  0.0000E+00  0.1000E+02
     -3.320  0.0000E+00  0.1000E+02
     -3.163  0.0000E+00  0.1000E+02
     -3.005  0.0000E+00  0.1000E+02
     -2.848  0.0000E+00  0.1000E+02
     -2.691  0.0000E+00  0.1000E+02
     -2.533  0.0000E+00  0.1000E+02
     -2.376  0.0000E+00  0.1000E+02
     -2.219  0.0000E+00  0.1000E+02
     -2.061  0.0000E+00  0.1000E+02
     -1.904  0.0000E+00  0.1000E+02
     -1.747  0.0000E+00  0.1000E+02
     -1.590  0.0000E+00  0.1000E+02
     -1.432  0.0000E+00  0.1000E+02
     -1.275  0.0000E+00  0.1000E+02
     -1.118  0.0000E+00  0.1000E+02
     -0.960  0.0000E+00  0.1000E+02
     -0.803  0.0000E+00  0.1000E+02
     -0.646  0.2435E-09  0.1000E+02
     -0.488  0.8002E-02  0.1000E+02
     -0.331  0.9122E-01  0.1002E+02
     -0.174  0.4923E+00  0.1009E+02
     -0.017  0.8984E+00  0.1023E+02
      0.141  0.6432E+00  0.1034E+02
      0.298  0.3126E+01  0.1083E+02
      0.455  0.1132E+01  0.1101E+02
      0.613  0.1712E+01  0.1127E+02
      0.770  0.2127E+01  0.1161E+02
      0.927  0.1506E+01  0.1185E+02
      1.085  0.4634E+01  0.1258E+02
      1.242  0.6595E+01  0.1361E+02
      1.399  0.6164E+01  0.1458E+02
      1.556  0.2982E+01  0.1505E+02
      1.714  0.3345E+01  0.1558E+02
      1.871  0.1753E+01  0.1585E+02
      2.028  0.8107E+00  0.1598E+02
      2.186  0.1234E+00  0.1600E+02
      2.343  0.6525E-03  0.1600E+02
      2.500  0.3279E-12  0.1600E+02
      2.658  0.0000E+00  0.1600E+02
      2.815  0.0000E+00  0.1600E+02
      2.972  0.0000E+00  0.1600E+02
      3.129  0.0000E+00  0.1600E+02
      3.287  0.0000E+00  0.1600E+02
      3.444  0.0000E+00  0.1600E+02
      3.601  0.0000E+00  0.1600E+02
      3.759  0.0000E+00  0.1600E+02
      3.916  0.0000E+00  0.1600E+02
      4.073  0.0000E+00  0.1600E+02
      4.231  0.1247E-07  0.1600E+02
      4.388  0.1912E-01  0.1600E+02
      4.545  0.5539E-01  0.1601E+02
      4.702  0.1179E+00  0.1603E+02
      4.860  0.6566E-01  0.1604E+02
      5.017  0.5602E+00  0.1613E+02
      5.174  0.4281E-02  0.1613E+02
      5.332  0.3178E+00  0.1618E+02
      5.489  0.1067E+01  0.1635E+02
      5.646  0.2761E+00  0.1639E+02
      5.804  0.1694E-03  0.1639E+02
      5.961  0.2631E+00  0.1643E+02
      6.118  0.6983E+00  0.1654E+02
      6.275  0.1708E+01  0.1681E+02
      6.433  0.1000E+01  0.1697E+02
      6.590  0.1607E+00  0.1699E+02
      6.747  0.1787E+01  0.1727E+02
      6.905  0.5696E+00  0.1736E+02
      7.062  0.1193E+01  0.1755E+02
      7.219  0.9723E+00  0.1770E+02
      7.377  0.1716E+01  0.1797E+02
      7.534  0.1183E+01  0.1816E+02
      7.691  0.2696E+01  0.1858E+02
      7.849  0.8482E+00  0.1872E+02
      8.006  0.7510E+00  0.1884E+02
      8.163  0.1684E+01  0.1910E+02
      8.320  0.3603E+01  0.1967E+02
      8.478  0.2526E+01  0.2007E+02
      8.635  0.7777E+00  0.2019E+02
      8.792  0.9826E+00  0.2034E+02
      8.950  0.9404E+00  0.2049E+02
      9.107  0.4706E+00  0.2056E+02
      9.264  0.2779E+01  0.2100E+02
      9.422  0.1232E+01  0.2119E+02
      9.579  0.8796E+00  0.2133E+02
      9.736  0.1414E+01  0.2156E+02
      9.893  0.3924E+01  0.2217E+02
     10.051  0.3332E+01  0.2270E+02
     10.208  0.2682E+01  0.2312E+02
     10.365  0.1473E+01  0.2335E+02
     10.523  0.7798E+00  0.2347E+02
     10.680  0.1123E+01  0.2365E+02
     10.837  0.5192E+00  0.2373E+02
     10.995  0.1165E+01  0.2391E+02
     11.152  0.3266E+00  0.2397E+02
     11.309  0.6612E-01  0.2398E+02
     11.466  0.9817E-01  0.2399E+02
     11.624  0.5075E-01  0.2400E+02
     11.781  0.5760E-04  0.2400E+02
     11.938  0.0000E+00  0.2400E+02
     12.096  0.0000E+00  0.2400E+02
     12.253  0.0000E+00  0.2400E+02
     12.410  0.0000E+00  0.2400E+02
     12.568  0.0000E+00  0.2400E+02
     12.725  0.0000E+00  0.2400E+02
     12.882  0.0000E+00  0.2400E+02
     13.039  0.0000E+00  0.2400E+02
     13.197  0.0000E+00  0.2400E+02
     13.354  0.0000E+00  0.2400E+02
     13.511  0.0000E+00  0.2400E+02
     13.669  0.0000E+00  0.2400E+02
