   3   3   0   0
  0.2290743E+02  0.4238859E-09  0.4238858E-09  0.4416409E-09  0.5000000E-15
  1.000000000000000E-004
  CAR 
 unknown system                          
     12.22177023    -39.37060592  301      4.05738779      1.00000000
    -39.371  0.0000E+00  0.0000E+00
    -39.199  0.0000E+00  0.0000E+00
    -39.027  0.0000E+00  0.0000E+00
    -38.855  0.0000E+00  0.0000E+00
    -38.683  0.0000E+00  0.0000E+00
    -38.511  0.0000E+00  0.0000E+00
    -38.339  0.0000E+00  0.0000E+00
    -38.167  0.0000E+00  0.0000E+00
    -37.995  0.0000E+00  0.0000E+00
    -37.823  0.0000E+00  0.0000E+00
    -37.651  0.0000E+00  0.0000E+00
    -37.479  0.0000E+00  0.0000E+00
    -37.307  0.5310E-14  0.9131E-15
    -37.135  0.8665E-02  0.1490E-02
    -36.963  0.1109E+02  0.1908E+01
    -36.791  0.5344E+00  0.2000E+01
    -36.619  0.0000E+00  0.2000E+01
    -36.447  0.0000E+00  0.2000E+01
    -36.275  0.0000E+00  0.2000E+01
    -36.103  0.0000E+00  0.2000E+01
    -35.931  0.0000E+00  0.2000E+01
    -35.759  0.0000E+00  0.2000E+01
    -35.587  0.0000E+00  0.2000E+01
    -35.415  0.0000E+00  0.2000E+01
    -35.243  0.0000E+00  0.2000E+01
    -35.071  0.0000E+00  0.2000E+01
    -34.899  0.0000E+00  0.2000E+01
    -34.727  0.0000E+00  0.2000E+01
    -34.555  0.0000E+00  0.2000E+01
    -34.383  0.0000E+00  0.2000E+01
    -34.211  0.0000E+00  0.2000E+01
    -34.039  0.0000E+00  0.2000E+01
    -33.867  0.0000E+00  0.2000E+01
    -33.695  0.0000E+00  0.2000E+01
    -33.523  0.0000E+00  0.2000E+01
    -33.351  0.0000E+00  0.2000E+01
    -33.180  0.0000E+00  0.2000E+01
    -33.008  0.0000E+00  0.2000E+01
    -32.836  0.0000E+00  0.2000E+01
    -32.664  0.0000E+00  0.2000E+01
    -32.492  0.0000E+00  0.2000E+01
    -32.320  0.0000E+00  0.2000E+01
    -32.148  0.0000E+00  0.2000E+01
    -31.976  0.0000E+00  0.2000E+01
    -31.804  0.0000E+00  0.2000E+01
    -31.632  0.0000E+00  0.2000E+01
    -31.460  0.0000E+00  0.2000E+01
    -31.288  0.0000E+00  0.2000E+01
    -31.116  0.0000E+00  0.2000E+01
    -30.944  0.0000E+00  0.2000E+01
    -30.772  0.0000E+00  0.2000E+01
    -30.600  0.0000E+00  0.2000E+01
    -30.428  0.0000E+00  0.2000E+01
    -30.256  0.0000E+00  0.2000E+01
    -30.084  0.0000E+00  0.2000E+01
    -29.912  0.0000E+00  0.2000E+01
    -29.740  0.0000E+00  0.2000E+01
    -29.568  0.0000E+00  0.2000E+01
    -29.396  0.0000E+00  0.2000E+01
    -29.224  0.0000E+00  0.2000E+01
    -29.052  0.0000E+00  0.2000E+01
    -28.880  0.0000E+00  0.2000E+01
    -28.708  0.0000E+00  0.2000E+01
    -28.536  0.0000E+00  0.2000E+01
    -28.364  0.0000E+00  0.2000E+01
    -28.192  0.0000E+00  0.2000E+01
    -28.020  0.0000E+00  0.2000E+01
    -27.848  0.0000E+00  0.2000E+01
    -27.676  0.0000E+00  0.2000E+01
    -27.504  0.0000E+00  0.2000E+01
    -27.332  0.0000E+00  0.2000E+01
    -27.160  0.0000E+00  0.2000E+01
    -26.988  0.0000E+00  0.2000E+01
    -26.816  0.0000E+00  0.2000E+01
    -26.644  0.0000E+00  0.2000E+01
    -26.473  0.0000E+00  0.2000E+01
    -26.301  0.0000E+00  0.2000E+01
    -26.129  0.0000E+00  0.2000E+01
    -25.957  0.0000E+00  0.2000E+01
    -25.785  0.0000E+00  0.2000E+01
    -25.613  0.0000E+00  0.2000E+01
    -25.441  0.0000E+00  0.2000E+01
    -25.269  0.0000E+00  0.2000E+01
    -25.097  0.0000E+00  0.2000E+01
    -24.925  0.0000E+00  0.2000E+01
    -24.753  0.0000E+00  0.2000E+01
    -24.581  0.0000E+00  0.2000E+01
    -24.409  0.0000E+00  0.2000E+01
    -24.237  0.0000E+00  0.2000E+01
    -24.065  0.0000E+00  0.2000E+01
    -23.893  0.0000E+00  0.2000E+01
    -23.721  0.0000E+00  0.2000E+01
    -23.549  0.0000E+00  0.2000E+01
    -23.377  0.0000E+00  0.2000E+01
    -23.205  0.0000E+00  0.2000E+01
    -23.033  0.0000E+00  0.2000E+01
    -22.861  0.0000E+00  0.2000E+01
    -22.689  0.0000E+00  0.2000E+01
    -22.517  0.0000E+00  0.2000E+01
    -22.345  0.0000E+00  0.2000E+01
    -22.173  0.0000E+00  0.2000E+01
    -22.001  0.0000E+00  0.2000E+01
    -21.829  0.0000E+00  0.2000E+01
    -21.657  0.0000E+00  0.2000E+01
    -21.485  0.0000E+00  0.2000E+01
    -21.313  0.0000E+00  0.2000E+01
    -21.141  0.0000E+00  0.2000E+01
    -20.969  0.0000E+00  0.2000E+01
    -20.797  0.0000E+00  0.2000E+01
    -20.625  0.0000E+00  0.2000E+01
    -20.453  0.0000E+00  0.2000E+01
    -20.281  0.0000E+00  0.2000E+01
    -20.109  0.0000E+00  0.2000E+01
    -19.937  0.0000E+00  0.2000E+01
    -19.766  0.0000E+00  0.2000E+01
    -19.594  0.0000E+00  0.2000E+01
    -19.422  0.0000E+00  0.2000E+01
    -19.250  0.0000E+00  0.2000E+01
    -19.078  0.0000E+00  0.2000E+01
    -18.906  0.0000E+00  0.2000E+01
    -18.734  0.0000E+00  0.2000E+01
    -18.562  0.0000E+00  0.2000E+01
    -18.390  0.0000E+00  0.2000E+01
    -18.218  0.1374E-03  0.2000E+01
    -18.046  0.1764E+02  0.5033E+01
    -17.874  0.1725E+02  0.8000E+01
    -17.702  0.1391E-03  0.8000E+01
    -17.530  0.0000E+00  0.8000E+01
    -17.358  0.0000E+00  0.8000E+01
    -17.186  0.0000E+00  0.8000E+01
    -17.014  0.0000E+00  0.8000E+01
    -16.842  0.0000E+00  0.8000E+01
    -16.670  0.0000E+00  0.8000E+01
    -16.498  0.0000E+00  0.8000E+01
    -16.326  0.0000E+00  0.8000E+01
    -16.154  0.0000E+00  0.8000E+01
    -15.982  0.0000E+00  0.8000E+01
    -15.810  0.0000E+00  0.8000E+01
    -15.638  0.0000E+00  0.8000E+01
    -15.466  0.0000E+00  0.8000E+01
    -15.294  0.0000E+00  0.8000E+01
    -15.122  0.0000E+00  0.8000E+01
    -14.950  0.0000E+00  0.8000E+01
    -14.778  0.0000E+00  0.8000E+01
    -14.606  0.0000E+00  0.8000E+01
    -14.434  0.0000E+00  0.8000E+01
    -14.262  0.0000E+00  0.8000E+01
    -14.090  0.0000E+00  0.8000E+01
    -13.918  0.0000E+00  0.8000E+01
    -13.746  0.0000E+00  0.8000E+01
    -13.574  0.0000E+00  0.8000E+01
    -13.402  0.0000E+00  0.8000E+01
    -13.230  0.0000E+00  0.8000E+01
    -13.058  0.0000E+00  0.8000E+01
    -12.887  0.0000E+00  0.8000E+01
    -12.715  0.0000E+00  0.8000E+01
    -12.543  0.0000E+00  0.8000E+01
    -12.371  0.0000E+00  0.8000E+01
    -12.199  0.0000E+00  0.8000E+01
    -12.027  0.0000E+00  0.8000E+01
    -11.855  0.0000E+00  0.8000E+01
    -11.683  0.0000E+00  0.8000E+01
    -11.511  0.0000E+00  0.8000E+01
    -11.339  0.0000E+00  0.8000E+01
    -11.167  0.0000E+00  0.8000E+01
    -10.995  0.3428E-04  0.8000E+01
    -10.823  0.3045E+01  0.8524E+01
    -10.651  0.2362E+02  0.1259E+02
    -10.479  0.3020E+02  0.1778E+02
    -10.307  0.2840E+02  0.2266E+02
    -10.135  0.2791E+02  0.2746E+02
     -9.963  0.3124E+01  0.2800E+02
     -9.791  0.1254E-03  0.2800E+02
     -9.619  0.0000E+00  0.2800E+02
     -9.447  0.0000E+00  0.2800E+02
     -9.275  0.0000E+00  0.2800E+02
     -9.103  0.0000E+00  0.2800E+02
     -8.931  0.0000E+00  0.2800E+02
     -8.759  0.0000E+00  0.2800E+02
     -8.587  0.0000E+00  0.2800E+02
     -8.415  0.0000E+00  0.2800E+02
     -8.243  0.0000E+00  0.2800E+02
     -8.071  0.0000E+00  0.2800E+02
     -7.899  0.0000E+00  0.2800E+02
     -7.727  0.0000E+00  0.2800E+02
     -7.555  0.0000E+00  0.2800E+02
     -7.383  0.0000E+00  0.2800E+02
     -7.211  0.0000E+00  0.2800E+02
     -7.039  0.0000E+00  0.2800E+02
     -6.867  0.0000E+00  0.2800E+02
     -6.695  0.0000E+00  0.2800E+02
     -6.523  0.0000E+00  0.2800E+02
     -6.351  0.0000E+00  0.2800E+02
     -6.180  0.0000E+00  0.2800E+02
     -6.008  0.0000E+00  0.2800E+02
     -5.836  0.0000E+00  0.2800E+02
     -5.664  0.0000E+00  0.2800E+02
     -5.492  0.2777E-13  0.2800E+02
     -5.320  0.5232E-03  0.2800E+02
     -5.148  0.4718E-01  0.2801E+02
     -4.976  0.2828E+00  0.2806E+02
     -4.804  0.5196E+00  0.2815E+02
     -4.632  0.1308E+00  0.2817E+02
     -4.460  0.9336E+00  0.2833E+02
     -4.288  0.7549E+00  0.2846E+02
     -4.116  0.8921E+00  0.2861E+02
     -3.944  0.6951E+00  0.2873E+02
     -3.772  0.2897E+00  0.2878E+02
     -3.600  0.1232E+01  0.2899E+02
     -3.428  0.8025E+00  0.2913E+02
     -3.256  0.1384E+01  0.2937E+02
     -3.084  0.6489E+00  0.2948E+02
     -2.912  0.1858E+00  0.2951E+02
     -2.740  0.1164E+01  0.2971E+02
     -2.568  0.1269E+01  0.2993E+02
     -2.396  0.3968E+00  0.3000E+02
     -2.224  0.1138E-03  0.3000E+02
     -2.052  0.2437E-12  0.3000E+02
     -1.880  0.3591E-02  0.3000E+02
     -1.708  0.3517E+00  0.3006E+02
     -1.536  0.6960E+00  0.3018E+02
     -1.364  0.1469E+01  0.3043E+02
     -1.192  0.1033E+01  0.3061E+02
     -1.020  0.2653E+00  0.3066E+02
     -0.848  0.3338E+00  0.3071E+02
     -0.676  0.1624E+00  0.3074E+02
     -0.504  0.1267E+01  0.3096E+02
     -0.332  0.8196E+00  0.3110E+02
     -0.160  0.7131E+00  0.3122E+02
      0.012  0.5025E-02  0.3122E+02
      0.184  0.4841E-02  0.3123E+02
      0.356  0.2003E+00  0.3126E+02
      0.527  0.7526E+00  0.3139E+02
      0.699  0.4650E+00  0.3147E+02
      0.871  0.5547E+00  0.3156E+02
      1.043  0.1214E+01  0.3177E+02
      1.215  0.8114E+00  0.3191E+02
      1.387  0.1055E+01  0.3209E+02
      1.559  0.9151E+00  0.3225E+02
      1.731  0.4530E+00  0.3233E+02
      1.903  0.1111E+01  0.3252E+02
      2.075  0.1359E+01  0.3275E+02
      2.247  0.2009E+01  0.3310E+02
      2.419  0.1527E+01  0.3336E+02
      2.591  0.1218E+01  0.3357E+02
      2.763  0.1235E+01  0.3378E+02
      2.935  0.2017E+01  0.3413E+02
      3.107  0.2308E+01  0.3453E+02
      3.279  0.1195E+01  0.3473E+02
      3.451  0.2354E+01  0.3514E+02
      3.623  0.9520E+00  0.3530E+02
      3.795  0.1107E+01  0.3549E+02
      3.967  0.1796E+01  0.3580E+02
      4.139  0.2012E+01  0.3615E+02
      4.311  0.1181E+01  0.3635E+02
      4.483  0.3844E+00  0.3642E+02
      4.655  0.1609E+01  0.3669E+02
      4.827  0.8303E+00  0.3684E+02
      4.999  0.1191E+01  0.3704E+02
      5.171  0.8873E+00  0.3719E+02
      5.343  0.5333E+00  0.3729E+02
      5.515  0.1182E+01  0.3749E+02
      5.687  0.1541E+01  0.3775E+02
      5.859  0.9619E+00  0.3792E+02
      6.031  0.8639E+00  0.3807E+02
      6.203  0.2167E+01  0.3844E+02
      6.375  0.6306E+00  0.3855E+02
      6.547  0.9040E+00  0.3870E+02
      6.719  0.2338E+01  0.3911E+02
      6.891  0.3125E+01  0.3964E+02
      7.063  0.2263E+01  0.4003E+02
      7.235  0.1790E+01  0.4034E+02
      7.406  0.2398E+01  0.4075E+02
      7.578  0.3165E+01  0.4130E+02
      7.750  0.3663E+01  0.4193E+02
      7.922  0.3071E+01  0.4246E+02
      8.094  0.5359E+01  0.4338E+02
      8.266  0.5485E+01  0.4432E+02
      8.438  0.4339E+01  0.4507E+02
      8.610  0.5509E+01  0.4601E+02
      8.782  0.4188E+01  0.4673E+02
      8.954  0.3463E+01  0.4733E+02
      9.126  0.2510E+01  0.4776E+02
      9.298  0.4443E+00  0.4784E+02
      9.470  0.4427E+00  0.4791E+02
      9.642  0.6606E-01  0.4793E+02
      9.814  0.2058E+00  0.4796E+02
      9.986  0.2280E+00  0.4800E+02
     10.158  0.2332E-03  0.4800E+02
     10.330  0.0000E+00  0.4800E+02
     10.502  0.0000E+00  0.4800E+02
     10.674  0.0000E+00  0.4800E+02
     10.846  0.0000E+00  0.4800E+02
     11.018  0.0000E+00  0.4800E+02
     11.190  0.0000E+00  0.4800E+02
     11.362  0.0000E+00  0.4800E+02
     11.534  0.0000E+00  0.4800E+02
     11.706  0.0000E+00  0.4800E+02
     11.878  0.0000E+00  0.4800E+02
     12.050  0.0000E+00  0.4800E+02
     12.222  0.0000E+00  0.4800E+02
