       N       E                     dE             d eps       ncg     rms          rms(c)
DAV:   1     0.121172146507E+04    0.12117E+04   -0.53197E+04  5808   0.281E+03
DAV:   2     0.855899458085E+02   -0.11261E+04   -0.10643E+04  5368   0.583E+02
DAV:   3    -0.595085539273E+02   -0.14510E+03   -0.14375E+03  5344   0.145E+02
DAV:   4    -0.681350784320E+02   -0.86265E+01   -0.85962E+01  6016   0.355E+01
DAV:   5    -0.699205762094E+02   -0.17855E+01   -0.17847E+01  7120   0.123E+01    0.146E+01
DAV:   6    -0.697945941470E+02    0.12598E+00   -0.65007E+00  5768   0.762E+00    0.909E+00
DAV:   7    -0.699051700489E+02   -0.11058E+00   -0.22265E+00  5912   0.444E+00    0.313E+00
DAV:   8    -0.699587461329E+02   -0.53576E-01   -0.43174E-01  6136   0.218E+00    0.841E-01
DAV:   9    -0.699668658109E+02   -0.81197E-02   -0.89409E-02  5648   0.752E-01    0.536E-01
DAV:  10    -0.699694076147E+02   -0.25418E-02   -0.20505E-02  5264   0.423E-01    0.162E-01
DAV:  11    -0.699697787413E+02   -0.37113E-03   -0.41733E-03  5408   0.171E-01    0.108E-01
DAV:  12    -0.699698523175E+02   -0.73576E-04   -0.89521E-04  5472   0.917E-02    0.527E-02
DAV:  13    -0.699698366891E+02    0.15628E-04   -0.22705E-04  5192   0.516E-02    0.326E-02
DAV:  14    -0.699698446189E+02   -0.79298E-05   -0.45443E-05  5936   0.288E-02    0.140E-02
DAV:  15    -0.699698393554E+02    0.52635E-05   -0.11260E-05  4696   0.107E-02    0.104E-02
DAV:  16    -0.699698392904E+02    0.65040E-07   -0.24004E-06  4232   0.576E-03
   1 F= -.69969839E+02 E0= -.69969839E+02  d E =-.644765E-13
