Be6Cl12
1.0
     -4.8976075       4.8976075       4.8976075
      4.8976075      -4.8976075       4.8976075
      4.8976075       4.8976075      -4.8976075
  Be    Cl  
  6     12  
Direct
      0.5000000       0.2500000       0.7500000
      0.2500000       0.5000000       0.7500000
      0.2500000       0.7500000       0.5000000
      0.7500000       0.5000000       0.2500000
      0.7500000       0.2500000       0.5000000
      0.5000000       0.7500000       0.2500000
      0.2575116       0.5262519       0.0000000
      0.0000000       0.5262519       0.2575116
      0.7424884       0.2687393       0.7424884
      0.7424884       0.7424884       0.2687393
      0.0000000       0.2575116       0.5262519
      0.2575116       0.0000000       0.5262519
      0.5262519       0.2575116       0.0000000
      0.2687393       0.7424884       0.7424884
      0.5262519       0.0000000       0.2575116
      0.4737481       0.4737481       0.7312607
      0.7312607       0.4737481       0.4737481
      0.4737481       0.7312607       0.4737481
