Be6 Cl12
1.0
  -4.8976074799999996    4.8976074799999996    4.8976074799999996
   4.8976074799999996   -4.8976074799999996    4.8976074799999996
   4.8976074799999996    4.8976074799999996   -4.8976074799999996
Be Cl
6 12
direct
   0.5000000000000000    0.2500000000000000    0.7500000000000000 Be
   0.2500000000000000    0.5000000000000000    0.7500000000000000 Be
   0.2500000000000000    0.7500000000000000    0.5000000000000000 Be
   0.7500000000000000    0.5000000000000000    0.2500000000000000 Be
   0.7500000000000000    0.2500000000000000    0.5000000000000000 Be
   0.5000000000000000    0.7500000000000000    0.2500000000000000 Be
   0.2575115900000000    0.5262519200000000    0.0000000000000000 Cl
   0.0000000000000000    0.5262519200000000    0.2575115900000000 Cl
   0.7424884100000000    0.2687393200000000    0.7424884100000000 Cl
   0.7424884100000000    0.7424884100000000    0.2687393200000000 Cl
   0.0000000000000000    0.2575115900000000    0.5262519200000000 Cl
   0.2575115900000000    0.0000000000000000    0.5262519200000000 Cl
   0.5262519200000000    0.2575115900000000    0.0000000000000000 Cl
   0.2687393200000000    0.7424884100000000    0.7424884100000000 Cl
   0.5262519200000000    0.0000000000000000    0.2575115900000000 Cl
   0.4737480800000000    0.4737480800000000    0.7312606800000000 Cl
   0.7312606800000000    0.4737480800000000    0.4737480800000000 Cl
   0.4737480800000000    0.7312606800000000    0.4737480800000000 Cl
