unknown system                          
           1
    -4.897607    4.897607    4.897607
     4.897607   -4.897607    4.897607
     4.897607    4.897607   -4.897607
   Be   Cl
     6    12
Direct configuration=     1
   0.50000000  0.25000000  0.75000000
   0.25000000  0.50000000  0.75000000
   0.25000000  0.75000000  0.50000000
   0.75000000  0.50000000  0.25000000
   0.75000000  0.25000000  0.50000000
   0.50000000  0.75000000  0.25000000
   0.25751159  0.52625192  0.00000000
   0.00000000  0.52625192  0.25751159
   0.74248841  0.26873932  0.74248841
   0.74248841  0.74248841  0.26873932
   0.00000000  0.25751159  0.52625192
   0.25751159  0.00000000  0.52625192
   0.52625192  0.25751159  0.00000000
   0.26873932  0.74248841  0.74248841
   0.52625192  0.00000000  0.25751159
   0.47374808  0.47374808  0.73126068
   0.73126068  0.47374808  0.47374808
   0.47374808  0.73126068  0.47374808
