Ni6 Mo2                                 
   1.00000000000000     
     4.2016817900000003    0.0000000000000000    0.0000000000000000
     0.0000000000000000    4.4277414799999999    0.0000000000000000
     0.0000000000000000    0.0000000000000000    4.9704697800000002
   Ni   Mo
     6     2
Direct
     0.7500000000000000    0.8406731899999969    0.0014735399999992
     0.2500000000000000    0.1593268100000031    0.9985264600000008
     0.7500000000000000    0.3337082700000025    0.2500000000000000
     0.2500000000000000    0.6662917299999975    0.7500000000000000
     0.2500000000000000    0.1593268100000031    0.5014735399999992
     0.7500000000000000    0.8406731899999969    0.4985264600000008
     0.7500000000000000    0.3455578200000033    0.7500000000000000
     0.2500000000000000    0.6544421799999967    0.2500000000000000
 
  0.00000000E+00  0.00000000E+00  0.00000000E+00
  0.00000000E+00  0.00000000E+00  0.00000000E+00
  0.00000000E+00  0.00000000E+00  0.00000000E+00
  0.00000000E+00  0.00000000E+00  0.00000000E+00
  0.00000000E+00  0.00000000E+00  0.00000000E+00
  0.00000000E+00  0.00000000E+00  0.00000000E+00
  0.00000000E+00  0.00000000E+00  0.00000000E+00
  0.00000000E+00  0.00000000E+00  0.00000000E+00
