   8   8   0   0
  0.1155880E+02  0.4201682E-09  0.4427742E-09  0.4970470E-09  0.5000000E-15
  1.000000000000000E-004
  CAR 
 unknown system                          
     21.72692728    -57.66563509  301      9.97808470      1.00000000
    -57.666  0.0000E+00  0.0000E+00
    -57.401  0.0000E+00  0.0000E+00
    -57.136  0.0000E+00  0.0000E+00
    -56.872  0.0000E+00  0.0000E+00
    -56.607  0.0000E+00  0.0000E+00
    -56.342  0.0000E+00  0.0000E+00
    -56.078  0.0000E+00  0.0000E+00
    -55.813  0.0000E+00  0.0000E+00
    -55.549  0.0000E+00  0.0000E+00
    -55.284  0.0000E+00  0.0000E+00
    -55.019  0.0000E+00  0.0000E+00
    -54.755  0.0000E+00  0.0000E+00
    -54.490  0.0000E+00  0.0000E+00
    -54.225  0.5673E-05  0.1501E-05
    -53.961  0.3644E+02  0.9643E+01
    -53.696  0.9959E+02  0.3600E+02
    -53.431  0.1979E-02  0.3600E+02
    -53.167  0.0000E+00  0.3600E+02
    -52.902  0.0000E+00  0.3600E+02
    -52.637  0.0000E+00  0.3600E+02
    -52.373  0.0000E+00  0.3600E+02
    -52.108  0.0000E+00  0.3600E+02
    -51.844  0.0000E+00  0.3600E+02
    -51.579  0.0000E+00  0.3600E+02
    -51.314  0.0000E+00  0.3600E+02
    -51.050  0.0000E+00  0.3600E+02
    -50.785  0.0000E+00  0.3600E+02
    -50.520  0.0000E+00  0.3600E+02
    -50.256  0.0000E+00  0.3600E+02
    -49.991  0.0000E+00  0.3600E+02
    -49.726  0.0000E+00  0.3600E+02
    -49.462  0.0000E+00  0.3600E+02
    -49.197  0.0000E+00  0.3600E+02
    -48.932  0.0000E+00  0.3600E+02
    -48.668  0.0000E+00  0.3600E+02
    -48.403  0.0000E+00  0.3600E+02
    -48.139  0.0000E+00  0.3600E+02
    -47.874  0.0000E+00  0.3600E+02
    -47.609  0.0000E+00  0.3600E+02
    -47.345  0.0000E+00  0.3600E+02
    -47.080  0.0000E+00  0.3600E+02
    -46.815  0.0000E+00  0.3600E+02
    -46.551  0.0000E+00  0.3600E+02
    -46.286  0.0000E+00  0.3600E+02
    -46.021  0.0000E+00  0.3600E+02
    -45.757  0.0000E+00  0.3600E+02
    -45.492  0.0000E+00  0.3600E+02
    -45.227  0.0000E+00  0.3600E+02
    -44.963  0.0000E+00  0.3600E+02
    -44.698  0.0000E+00  0.3600E+02
    -44.434  0.0000E+00  0.3600E+02
    -44.169  0.0000E+00  0.3600E+02
    -43.904  0.0000E+00  0.3600E+02
    -43.640  0.0000E+00  0.3600E+02
    -43.375  0.0000E+00  0.3600E+02
    -43.110  0.0000E+00  0.3600E+02
    -42.846  0.0000E+00  0.3600E+02
    -42.581  0.0000E+00  0.3600E+02
    -42.316  0.0000E+00  0.3600E+02
    -42.052  0.0000E+00  0.3600E+02
    -41.787  0.0000E+00  0.3600E+02
    -41.522  0.0000E+00  0.3600E+02
    -41.258  0.0000E+00  0.3600E+02
    -40.993  0.0000E+00  0.3600E+02
    -40.729  0.0000E+00  0.3600E+02
    -40.464  0.0000E+00  0.3600E+02
    -40.199  0.0000E+00  0.3600E+02
    -39.935  0.0000E+00  0.3600E+02
    -39.670  0.0000E+00  0.3600E+02
    -39.405  0.0000E+00  0.3600E+02
    -39.141  0.0000E+00  0.3600E+02
    -38.876  0.0000E+00  0.3600E+02
    -38.611  0.0000E+00  0.3600E+02
    -38.347  0.0000E+00  0.3600E+02
    -38.082  0.0000E+00  0.3600E+02
    -37.817  0.0000E+00  0.3600E+02
    -37.553  0.0000E+00  0.3600E+02
    -37.288  0.0000E+00  0.3600E+02
    -37.024  0.0000E+00  0.3600E+02
    -36.759  0.0000E+00  0.3600E+02
    -36.494  0.0000E+00  0.3600E+02
    -36.230  0.0000E+00  0.3600E+02
    -35.965  0.0000E+00  0.3600E+02
    -35.700  0.0000E+00  0.3600E+02
    -35.436  0.0000E+00  0.3600E+02
    -35.171  0.0000E+00  0.3600E+02
    -34.906  0.0000E+00  0.3600E+02
    -34.642  0.0000E+00  0.3600E+02
    -34.377  0.0000E+00  0.3600E+02
    -34.113  0.0000E+00  0.3600E+02
    -33.848  0.0000E+00  0.3600E+02
    -33.583  0.0000E+00  0.3600E+02
    -33.319  0.0000E+00  0.3600E+02
    -33.054  0.0000E+00  0.3600E+02
    -32.789  0.0000E+00  0.3600E+02
    -32.525  0.0000E+00  0.3600E+02
    -32.260  0.0000E+00  0.3600E+02
    -31.995  0.0000E+00  0.3600E+02
    -31.731  0.0000E+00  0.3600E+02
    -31.466  0.0000E+00  0.3600E+02
    -31.201  0.0000E+00  0.3600E+02
    -30.937  0.0000E+00  0.3600E+02
    -30.672  0.0000E+00  0.3600E+02
    -30.408  0.0000E+00  0.3600E+02
    -30.143  0.0000E+00  0.3600E+02
    -29.878  0.0000E+00  0.3600E+02
    -29.614  0.0000E+00  0.3600E+02
    -29.349  0.0000E+00  0.3600E+02
    -29.084  0.0000E+00  0.3600E+02
    -28.820  0.0000E+00  0.3600E+02
    -28.555  0.0000E+00  0.3600E+02
    -28.290  0.0000E+00  0.3600E+02
    -28.026  0.0000E+00  0.3600E+02
    -27.761  0.0000E+00  0.3600E+02
    -27.496  0.0000E+00  0.3600E+02
    -27.232  0.0000E+00  0.3600E+02
    -26.967  0.0000E+00  0.3600E+02
    -26.703  0.0000E+00  0.3600E+02
    -26.438  0.0000E+00  0.3600E+02
    -26.173  0.0000E+00  0.3600E+02
    -25.909  0.0000E+00  0.3600E+02
    -25.644  0.1366E-01  0.3600E+02
    -25.379  0.4517E+02  0.4796E+02
    -25.115  0.1602E+00  0.4800E+02
    -24.850  0.0000E+00  0.4800E+02
    -24.585  0.0000E+00  0.4800E+02
    -24.321  0.0000E+00  0.4800E+02
    -24.056  0.0000E+00  0.4800E+02
    -23.791  0.0000E+00  0.4800E+02
    -23.527  0.0000E+00  0.4800E+02
    -23.262  0.0000E+00  0.4800E+02
    -22.998  0.0000E+00  0.4800E+02
    -22.733  0.0000E+00  0.4800E+02
    -22.468  0.0000E+00  0.4800E+02
    -22.204  0.0000E+00  0.4800E+02
    -21.939  0.0000E+00  0.4800E+02
    -21.674  0.0000E+00  0.4800E+02
    -21.410  0.0000E+00  0.4800E+02
    -21.145  0.0000E+00  0.4800E+02
    -20.880  0.0000E+00  0.4800E+02
    -20.616  0.0000E+00  0.4800E+02
    -20.351  0.0000E+00  0.4800E+02
    -20.086  0.0000E+00  0.4800E+02
    -19.822  0.0000E+00  0.4800E+02
    -19.557  0.0000E+00  0.4800E+02
    -19.293  0.0000E+00  0.4800E+02
    -19.028  0.0000E+00  0.4800E+02
    -18.763  0.0000E+00  0.4800E+02
    -18.499  0.0000E+00  0.4800E+02
    -18.234  0.0000E+00  0.4800E+02
    -17.969  0.0000E+00  0.4800E+02
    -17.705  0.0000E+00  0.4800E+02
    -17.440  0.0000E+00  0.4800E+02
    -17.175  0.0000E+00  0.4800E+02
    -16.911  0.0000E+00  0.4800E+02
    -16.646  0.0000E+00  0.4800E+02
    -16.382  0.0000E+00  0.4800E+02
    -16.117  0.0000E+00  0.4800E+02
    -15.852  0.0000E+00  0.4800E+02
    -15.588  0.0000E+00  0.4800E+02
    -15.323  0.0000E+00  0.4800E+02
    -15.058  0.0000E+00  0.4800E+02
    -14.794  0.0000E+00  0.4800E+02
    -14.529  0.0000E+00  0.4800E+02
    -14.264  0.0000E+00  0.4800E+02
    -14.000  0.0000E+00  0.4800E+02
    -13.735  0.0000E+00  0.4800E+02
    -13.470  0.0000E+00  0.4800E+02
    -13.206  0.0000E+00  0.4800E+02
    -12.941  0.0000E+00  0.4800E+02
    -12.677  0.0000E+00  0.4800E+02
    -12.412  0.0000E+00  0.4800E+02
    -12.147  0.0000E+00  0.4800E+02
    -11.883  0.0000E+00  0.4800E+02
    -11.618  0.0000E+00  0.4800E+02
    -11.353  0.0000E+00  0.4800E+02
    -11.089  0.0000E+00  0.4800E+02
    -10.824  0.0000E+00  0.4800E+02
    -10.559  0.0000E+00  0.4800E+02
    -10.295  0.0000E+00  0.4800E+02
    -10.030  0.0000E+00  0.4800E+02
     -9.765  0.0000E+00  0.4800E+02
     -9.501  0.0000E+00  0.4800E+02
     -9.236  0.0000E+00  0.4800E+02
     -8.972  0.0000E+00  0.4800E+02
     -8.707  0.0000E+00  0.4800E+02
     -8.442  0.0000E+00  0.4800E+02
     -8.178  0.0000E+00  0.4800E+02
     -7.913  0.0000E+00  0.4800E+02
     -7.648  0.0000E+00  0.4800E+02
     -7.384  0.0000E+00  0.4800E+02
     -7.119  0.0000E+00  0.4800E+02
     -6.854  0.0000E+00  0.4800E+02
     -6.590  0.0000E+00  0.4800E+02
     -6.325  0.0000E+00  0.4800E+02
     -6.060  0.0000E+00  0.4800E+02
     -5.796  0.0000E+00  0.4800E+02
     -5.531  0.0000E+00  0.4800E+02
     -5.267  0.0000E+00  0.4800E+02
     -5.002  0.0000E+00  0.4800E+02
     -4.737  0.0000E+00  0.4800E+02
     -4.473  0.0000E+00  0.4800E+02
     -4.208  0.0000E+00  0.4800E+02
     -3.943  0.0000E+00  0.4800E+02
     -3.679  0.0000E+00  0.4800E+02
     -3.414  0.0000E+00  0.4800E+02
     -3.149  0.0000E+00  0.4800E+02
     -2.885  0.0000E+00  0.4800E+02
     -2.620  0.0000E+00  0.4800E+02
     -2.355  0.0000E+00  0.4800E+02
     -2.091  0.0000E+00  0.4800E+02
     -1.826  0.0000E+00  0.4800E+02
     -1.562  0.0000E+00  0.4800E+02
     -1.297  0.0000E+00  0.4800E+02
     -1.032  0.0000E+00  0.4800E+02
     -0.768  0.0000E+00  0.4800E+02
     -0.503  0.0000E+00  0.4800E+02
     -0.238  0.0000E+00  0.4800E+02
      0.026  0.0000E+00  0.4800E+02
      0.291  0.0000E+00  0.4800E+02
      0.556  0.0000E+00  0.4800E+02
      0.820  0.2369E-10  0.4800E+02
      1.085  0.3856E-01  0.4801E+02
      1.350  0.2167E+00  0.4807E+02
      1.614  0.4565E+00  0.4819E+02
      1.879  0.3810E+00  0.4829E+02
      2.143  0.2419E+00  0.4835E+02
      2.408  0.9737E+00  0.4861E+02
      2.673  0.1084E+01  0.4890E+02
      2.937  0.1032E+00  0.4893E+02
      3.202  0.1144E+01  0.4923E+02
      3.467  0.1425E+01  0.4960E+02
      3.731  0.1339E+01  0.4996E+02
      3.996  0.1217E+01  0.5028E+02
      4.261  0.2660E+01  0.5099E+02
      4.525  0.3940E+01  0.5203E+02
      4.790  0.5799E+01  0.5356E+02
      5.054  0.5873E+01  0.5512E+02
      5.319  0.7530E+01  0.5711E+02
      5.584  0.6842E+01  0.5892E+02
      5.848  0.9317E+01  0.6139E+02
      6.113  0.1144E+02  0.6442E+02
      6.378  0.1182E+02  0.6754E+02
      6.642  0.1310E+02  0.7101E+02
      6.907  0.1560E+02  0.7514E+02
      7.172  0.1188E+02  0.7828E+02
      7.436  0.1336E+02  0.8182E+02
      7.701  0.2042E+02  0.8722E+02
      7.966  0.2100E+02  0.9278E+02
      8.230  0.2175E+02  0.9854E+02
      8.495  0.1950E+02  0.1037E+03
      8.759  0.1803E+02  0.1085E+03
      9.024  0.1157E+02  0.1115E+03
      9.289  0.1345E+02  0.1151E+03
      9.553  0.8734E+01  0.1174E+03
      9.818  0.6136E+01  0.1190E+03
     10.083  0.6457E+01  0.1207E+03
     10.347  0.6184E+01  0.1224E+03
     10.612  0.5461E+01  0.1238E+03
     10.877  0.9821E+01  0.1264E+03
     11.141  0.1208E+02  0.1296E+03
     11.406  0.8077E+01  0.1317E+03
     11.671  0.4817E+01  0.1330E+03
     11.935  0.4914E+01  0.1343E+03
     12.200  0.1948E+01  0.1348E+03
     12.464  0.1771E+01  0.1353E+03
     12.729  0.2168E+01  0.1359E+03
     12.994  0.2673E+01  0.1366E+03
     13.258  0.2204E+01  0.1372E+03
     13.523  0.1504E+01  0.1376E+03
     13.788  0.1851E+01  0.1381E+03
     14.052  0.3139E+01  0.1389E+03
     14.317  0.2197E+01  0.1395E+03
     14.582  0.1562E+01  0.1399E+03
     14.846  0.1499E+01  0.1403E+03
     15.111  0.1841E+01  0.1408E+03
     15.376  0.1625E+01  0.1412E+03
     15.640  0.2349E+01  0.1418E+03
     15.905  0.1729E+01  0.1423E+03
     16.169  0.5962E+00  0.1424E+03
     16.434  0.2058E+01  0.1430E+03
     16.699  0.2065E+01  0.1435E+03
     16.963  0.4384E+00  0.1436E+03
     17.228  0.6510E+00  0.1438E+03
     17.493  0.3923E+00  0.1439E+03
     17.757  0.2619E+00  0.1440E+03
     18.022  0.1363E-03  0.1440E+03
     18.287  0.4185E-01  0.1440E+03
     18.551  0.0000E+00  0.1440E+03
     18.816  0.0000E+00  0.1440E+03
     19.081  0.0000E+00  0.1440E+03
     19.345  0.0000E+00  0.1440E+03
     19.610  0.0000E+00  0.1440E+03
     19.874  0.0000E+00  0.1440E+03
     20.139  0.0000E+00  0.1440E+03
     20.404  0.0000E+00  0.1440E+03
     20.668  0.0000E+00  0.1440E+03
     20.933  0.0000E+00  0.1440E+03
     21.198  0.0000E+00  0.1440E+03
     21.462  0.0000E+00  0.1440E+03
     21.727  0.0000E+00  0.1440E+03
