Ni6Mo2
1.0
      4.2016818       0.0000000       0.0000000
      0.0000000       4.4277415       0.0000000
      0.0000000       0.0000000       4.9704698
  Ni    Mo  
  6     2   
Direct
      0.7500000       0.8406732       0.0014735
      0.2500000       0.1593268       0.9985265
      0.7500000       0.3337083       0.2500000
      0.2500000       0.6662917       0.7500000
      0.2500000       0.1593268       0.5014735
      0.7500000       0.8406732       0.4985265
      0.7500000       0.3455578       0.7500000
      0.2500000       0.6544422       0.2500000
