Ni6 Mo2
1.0
   4.2016817900000003    0.0000000000000000    0.0000000000000000
  -0.0000000000000000    4.4277414799999999    0.0000000000000000
   0.0000000000000000    0.0000000000000000    4.9704697800000002
Ni Mo
6 2
direct
   0.7500000000000000    0.8406731900000000    0.0014735400000000 Ni
   0.2500000000000000    0.1593268100000000    0.9985264600000000 Ni
   0.7500000000000000    0.3337082700000000    0.2500000000000000 Ni
   0.2500000000000000    0.6662917300000000    0.7500000000000000 Ni
   0.2500000000000000    0.1593268100000000    0.5014735400000000 Ni
   0.7500000000000000    0.8406731900000000    0.4985264600000000 Ni
   0.7500000000000000    0.3455578200000000    0.7500000000000000 Mo
   0.2500000000000000    0.6544421800000000    0.2500000000000000 Mo
