unknown system                          
           1
     4.201682    0.000000    0.000000
     0.000000    4.427741    0.000000
     0.000000    0.000000    4.970470
   Ni   Mo
     6     2
Direct configuration=     1
   0.75000000  0.84067319  0.00147354
   0.25000000  0.15932681  0.99852646
   0.75000000  0.33370827  0.25000000
   0.25000000  0.66629173  0.75000000
   0.25000000  0.15932681  0.50147354
   0.75000000  0.84067319  0.49852646
   0.75000000  0.34555782  0.75000000
   0.25000000  0.65444218  0.25000000
