  16  16   0   0
  0.2642309E+02  0.6334671E-09  0.6990887E-09  0.9546568E-09  0.5000000E-15
  1.000000000000000E-004
  CAR 
 unknown system                          
     16.03645573    -41.28880849  301      3.86081454      1.00000000
    -41.289  0.0000E+00  0.0000E+00
    -41.098  0.0000E+00  0.0000E+00
    -40.907  0.0000E+00  0.0000E+00
    -40.716  0.0000E+00  0.0000E+00
    -40.524  0.0000E+00  0.0000E+00
    -40.333  0.0000E+00  0.0000E+00
    -40.142  0.0000E+00  0.0000E+00
    -39.951  0.0000E+00  0.0000E+00
    -39.760  0.0000E+00  0.0000E+00
    -39.569  0.0000E+00  0.0000E+00
    -39.378  0.0000E+00  0.0000E+00
    -39.187  0.0000E+00  0.0000E+00
    -38.996  0.0000E+00  0.0000E+00
    -38.805  0.8553E-03  0.1634E-03
    -38.614  0.7457E+02  0.1425E+02
    -38.423  0.5102E+02  0.2400E+02
    -38.231  0.1756E-04  0.2400E+02
    -38.040  0.0000E+00  0.2400E+02
    -37.849  0.0000E+00  0.2400E+02
    -37.658  0.0000E+00  0.2400E+02
    -37.467  0.0000E+00  0.2400E+02
    -37.276  0.0000E+00  0.2400E+02
    -37.085  0.0000E+00  0.2400E+02
    -36.894  0.0000E+00  0.2400E+02
    -36.703  0.0000E+00  0.2400E+02
    -36.512  0.0000E+00  0.2400E+02
    -36.321  0.0000E+00  0.2400E+02
    -36.130  0.0000E+00  0.2400E+02
    -35.938  0.0000E+00  0.2400E+02
    -35.747  0.0000E+00  0.2400E+02
    -35.556  0.0000E+00  0.2400E+02
    -35.365  0.0000E+00  0.2400E+02
    -35.174  0.0000E+00  0.2400E+02
    -34.983  0.0000E+00  0.2400E+02
    -34.792  0.0000E+00  0.2400E+02
    -34.601  0.0000E+00  0.2400E+02
    -34.410  0.0000E+00  0.2400E+02
    -34.219  0.0000E+00  0.2400E+02
    -34.028  0.0000E+00  0.2400E+02
    -33.837  0.0000E+00  0.2400E+02
    -33.645  0.0000E+00  0.2400E+02
    -33.454  0.0000E+00  0.2400E+02
    -33.263  0.0000E+00  0.2400E+02
    -33.072  0.0000E+00  0.2400E+02
    -32.881  0.0000E+00  0.2400E+02
    -32.690  0.0000E+00  0.2400E+02
    -32.499  0.0000E+00  0.2400E+02
    -32.308  0.0000E+00  0.2400E+02
    -32.117  0.0000E+00  0.2400E+02
    -31.926  0.0000E+00  0.2400E+02
    -31.735  0.0000E+00  0.2400E+02
    -31.544  0.0000E+00  0.2400E+02
    -31.352  0.0000E+00  0.2400E+02
    -31.161  0.0000E+00  0.2400E+02
    -30.970  0.0000E+00  0.2400E+02
    -30.779  0.0000E+00  0.2400E+02
    -30.588  0.0000E+00  0.2400E+02
    -30.397  0.0000E+00  0.2400E+02
    -30.206  0.0000E+00  0.2400E+02
    -30.015  0.0000E+00  0.2400E+02
    -29.824  0.0000E+00  0.2400E+02
    -29.633  0.0000E+00  0.2400E+02
    -29.442  0.0000E+00  0.2400E+02
    -29.251  0.0000E+00  0.2400E+02
    -29.059  0.0000E+00  0.2400E+02
    -28.868  0.0000E+00  0.2400E+02
    -28.677  0.0000E+00  0.2400E+02
    -28.486  0.0000E+00  0.2400E+02
    -28.295  0.0000E+00  0.2400E+02
    -28.104  0.0000E+00  0.2400E+02
    -27.913  0.0000E+00  0.2400E+02
    -27.722  0.0000E+00  0.2400E+02
    -27.531  0.0000E+00  0.2400E+02
    -27.340  0.0000E+00  0.2400E+02
    -27.149  0.0000E+00  0.2400E+02
    -26.957  0.0000E+00  0.2400E+02
    -26.766  0.0000E+00  0.2400E+02
    -26.575  0.0000E+00  0.2400E+02
    -26.384  0.0000E+00  0.2400E+02
    -26.193  0.0000E+00  0.2400E+02
    -26.002  0.0000E+00  0.2400E+02
    -25.811  0.0000E+00  0.2400E+02
    -25.620  0.0000E+00  0.2400E+02
    -25.429  0.0000E+00  0.2400E+02
    -25.238  0.0000E+00  0.2400E+02
    -25.047  0.0000E+00  0.2400E+02
    -24.856  0.0000E+00  0.2400E+02
    -24.664  0.0000E+00  0.2400E+02
    -24.473  0.0000E+00  0.2400E+02
    -24.282  0.0000E+00  0.2400E+02
    -24.091  0.0000E+00  0.2400E+02
    -23.900  0.0000E+00  0.2400E+02
    -23.709  0.0000E+00  0.2400E+02
    -23.518  0.0000E+00  0.2400E+02
    -23.327  0.0000E+00  0.2400E+02
    -23.136  0.0000E+00  0.2400E+02
    -22.945  0.0000E+00  0.2400E+02
    -22.754  0.0000E+00  0.2400E+02
    -22.563  0.0000E+00  0.2400E+02
    -22.371  0.0000E+00  0.2400E+02
    -22.180  0.0000E+00  0.2400E+02
    -21.989  0.0000E+00  0.2400E+02
    -21.798  0.0000E+00  0.2400E+02
    -21.607  0.0000E+00  0.2400E+02
    -21.416  0.0000E+00  0.2400E+02
    -21.225  0.0000E+00  0.2400E+02
    -21.034  0.0000E+00  0.2400E+02
    -20.843  0.0000E+00  0.2400E+02
    -20.652  0.0000E+00  0.2400E+02
    -20.461  0.0000E+00  0.2400E+02
    -20.270  0.0000E+00  0.2400E+02
    -20.078  0.0000E+00  0.2400E+02
    -19.887  0.0000E+00  0.2400E+02
    -19.696  0.0000E+00  0.2400E+02
    -19.505  0.0000E+00  0.2400E+02
    -19.314  0.0000E+00  0.2400E+02
    -19.123  0.8347E-08  0.2400E+02
    -18.932  0.3873E+01  0.2474E+02
    -18.741  0.1052E+03  0.4484E+02
    -18.550  0.1403E+03  0.7164E+02
    -18.359  0.1272E+03  0.9595E+02
    -18.168  0.2521E+00  0.9600E+02
    -17.977  0.0000E+00  0.9600E+02
    -17.785  0.0000E+00  0.9600E+02
    -17.594  0.0000E+00  0.9600E+02
    -17.403  0.0000E+00  0.9600E+02
    -17.212  0.0000E+00  0.9600E+02
    -17.021  0.0000E+00  0.9600E+02
    -16.830  0.0000E+00  0.9600E+02
    -16.639  0.0000E+00  0.9600E+02
    -16.448  0.0000E+00  0.9600E+02
    -16.257  0.0000E+00  0.9600E+02
    -16.066  0.0000E+00  0.9600E+02
    -15.875  0.0000E+00  0.9600E+02
    -15.684  0.0000E+00  0.9600E+02
    -15.492  0.0000E+00  0.9600E+02
    -15.301  0.0000E+00  0.9600E+02
    -15.110  0.0000E+00  0.9600E+02
    -14.919  0.0000E+00  0.9600E+02
    -14.728  0.0000E+00  0.9600E+02
    -14.537  0.0000E+00  0.9600E+02
    -14.346  0.0000E+00  0.9600E+02
    -14.155  0.0000E+00  0.9600E+02
    -13.964  0.0000E+00  0.9600E+02
    -13.773  0.0000E+00  0.9600E+02
    -13.582  0.0000E+00  0.9600E+02
    -13.391  0.0000E+00  0.9600E+02
    -13.199  0.0000E+00  0.9600E+02
    -13.008  0.0000E+00  0.9600E+02
    -12.817  0.0000E+00  0.9600E+02
    -12.626  0.0000E+00  0.9600E+02
    -12.435  0.0000E+00  0.9600E+02
    -12.244  0.0000E+00  0.9600E+02
    -12.053  0.0000E+00  0.9600E+02
    -11.862  0.0000E+00  0.9600E+02
    -11.671  0.0000E+00  0.9600E+02
    -11.480  0.0000E+00  0.9600E+02
    -11.289  0.0000E+00  0.9600E+02
    -11.098  0.0000E+00  0.9600E+02
    -10.906  0.0000E+00  0.9600E+02
    -10.715  0.0000E+00  0.9600E+02
    -10.524  0.0000E+00  0.9600E+02
    -10.333  0.0000E+00  0.9600E+02
    -10.142  0.0000E+00  0.9600E+02
     -9.951  0.0000E+00  0.9600E+02
     -9.760  0.0000E+00  0.9600E+02
     -9.569  0.0000E+00  0.9600E+02
     -9.378  0.0000E+00  0.9600E+02
     -9.187  0.0000E+00  0.9600E+02
     -8.996  0.0000E+00  0.9600E+02
     -8.804  0.0000E+00  0.9600E+02
     -8.613  0.0000E+00  0.9600E+02
     -8.422  0.0000E+00  0.9600E+02
     -8.231  0.0000E+00  0.9600E+02
     -8.040  0.0000E+00  0.9600E+02
     -7.849  0.0000E+00  0.9600E+02
     -7.658  0.0000E+00  0.9600E+02
     -7.467  0.0000E+00  0.9600E+02
     -7.276  0.0000E+00  0.9600E+02
     -7.085  0.0000E+00  0.9600E+02
     -6.894  0.0000E+00  0.9600E+02
     -6.703  0.0000E+00  0.9600E+02
     -6.511  0.0000E+00  0.9600E+02
     -6.320  0.0000E+00  0.9600E+02
     -6.129  0.0000E+00  0.9600E+02
     -5.938  0.0000E+00  0.9600E+02
     -5.747  0.0000E+00  0.9600E+02
     -5.556  0.0000E+00  0.9600E+02
     -5.365  0.0000E+00  0.9600E+02
     -5.174  0.0000E+00  0.9600E+02
     -4.983  0.0000E+00  0.9600E+02
     -4.792  0.0000E+00  0.9600E+02
     -4.601  0.0000E+00  0.9600E+02
     -4.410  0.0000E+00  0.9600E+02
     -4.218  0.0000E+00  0.9600E+02
     -4.027  0.0000E+00  0.9600E+02
     -3.836  0.0000E+00  0.9600E+02
     -3.645  0.0000E+00  0.9600E+02
     -3.454  0.0000E+00  0.9600E+02
     -3.263  0.0000E+00  0.9600E+02
     -3.072  0.0000E+00  0.9600E+02
     -2.881  0.0000E+00  0.9600E+02
     -2.690  0.0000E+00  0.9600E+02
     -2.499  0.0000E+00  0.9600E+02
     -2.308  0.0000E+00  0.9600E+02
     -2.117  0.0000E+00  0.9600E+02
     -1.925  0.0000E+00  0.9600E+02
     -1.734  0.0000E+00  0.9600E+02
     -1.543  0.1975E-05  0.9600E+02
     -1.352  0.1893E+00  0.9604E+02
     -1.161  0.2472E+00  0.9608E+02
     -0.970  0.1101E+01  0.9629E+02
     -0.779  0.2491E+01  0.9677E+02
     -0.588  0.1261E+01  0.9701E+02
     -0.397  0.1296E+01  0.9726E+02
     -0.206  0.2132E+01  0.9767E+02
     -0.015  0.3829E+01  0.9840E+02
      0.176  0.4698E+01  0.9929E+02
      0.368  0.1742E+01  0.9963E+02
      0.559  0.4755E+01  0.1005E+03
      0.750  0.5648E+01  0.1016E+03
      0.941  0.4929E+01  0.1026E+03
      1.132  0.5639E+01  0.1036E+03
      1.323  0.3424E+01  0.1043E+03
      1.514  0.7977E+01  0.1058E+03
      1.705  0.1266E+02  0.1082E+03
      1.896  0.2496E+02  0.1130E+03
      2.087  0.2762E+02  0.1183E+03
      2.278  0.2961E+02  0.1239E+03
      2.469  0.4157E+02  0.1319E+03
      2.661  0.6138E+02  0.1436E+03
      2.852  0.4059E+02  0.1514E+03
      3.043  0.1640E+02  0.1545E+03
      3.234  0.1366E+02  0.1571E+03
      3.425  0.1579E+02  0.1601E+03
      3.616  0.1640E+02  0.1633E+03
      3.807  0.1810E+02  0.1667E+03
      3.998  0.2277E+02  0.1711E+03
      4.189  0.1652E+02  0.1742E+03
      4.380  0.2254E+02  0.1785E+03
      4.571  0.2045E+02  0.1824E+03
      4.762  0.1762E+02  0.1858E+03
      4.954  0.2352E+02  0.1903E+03
      5.145  0.2656E+02  0.1954E+03
      5.336  0.2432E+02  0.2000E+03
      5.527  0.1625E+02  0.2031E+03
      5.718  0.1870E+02  0.2067E+03
      5.909  0.2106E+02  0.2107E+03
      6.100  0.2655E+02  0.2158E+03
      6.291  0.1624E+02  0.2189E+03
      6.482  0.1737E+02  0.2222E+03
      6.673  0.6568E+01  0.2235E+03
      6.864  0.8379E+01  0.2251E+03
      7.055  0.1149E+02  0.2273E+03
      7.247  0.1134E+02  0.2294E+03
      7.438  0.1860E+02  0.2330E+03
      7.629  0.1978E+02  0.2368E+03
      7.820  0.1864E+02  0.2403E+03
      8.011  0.2399E+02  0.2449E+03
      8.202  0.1373E+02  0.2475E+03
      8.393  0.1911E+02  0.2512E+03
      8.584  0.2120E+02  0.2553E+03
      8.775  0.2406E+02  0.2598E+03
      8.966  0.2064E+02  0.2638E+03
      9.157  0.2014E+02  0.2676E+03
      9.349  0.2011E+02  0.2715E+03
      9.540  0.1129E+02  0.2736E+03
      9.731  0.1027E+02  0.2756E+03
      9.922  0.7514E+01  0.2770E+03
     10.113  0.6668E+01  0.2783E+03
     10.304  0.9407E+01  0.2801E+03
     10.495  0.9585E+01  0.2819E+03
     10.686  0.9796E+01  0.2838E+03
     10.877  0.1165E+02  0.2860E+03
     11.068  0.1314E+02  0.2885E+03
     11.259  0.1022E+02  0.2905E+03
     11.450  0.9094E+01  0.2922E+03
     11.642  0.9800E+01  0.2941E+03
     11.833  0.1345E+02  0.2967E+03
     12.024  0.1188E+02  0.2990E+03
     12.215  0.9207E+01  0.3007E+03
     12.406  0.1091E+02  0.3028E+03
     12.597  0.1159E+02  0.3050E+03
     12.788  0.1241E+02  0.3074E+03
     12.979  0.1071E+02  0.3094E+03
     13.170  0.1039E+02  0.3114E+03
     13.361  0.1955E+01  0.3118E+03
     13.552  0.1111E+01  0.3120E+03
     13.743  0.2289E-03  0.3120E+03
     13.935  0.0000E+00  0.3120E+03
     14.126  0.0000E+00  0.3120E+03
     14.317  0.0000E+00  0.3120E+03
     14.508  0.0000E+00  0.3120E+03
     14.699  0.0000E+00  0.3120E+03
     14.890  0.0000E+00  0.3120E+03
     15.081  0.0000E+00  0.3120E+03
     15.272  0.0000E+00  0.3120E+03
     15.463  0.0000E+00  0.3120E+03
     15.654  0.0000E+00  0.3120E+03
     15.845  0.0000E+00  0.3120E+03
     16.036  0.0000E+00  0.3120E+03
