Y12 Co4
1.0
  -0.0000446100000000    0.0000000000000000    6.3346708700000001
   6.9908871200000000    0.0000000000000000   -0.0000488500000000
   0.0000000000000000    9.5465675200000000    0.0000000000000000
Y Co
12 4
direct
   0.3213755800000000    0.6741366800000000    0.0690811600000000 Y
   0.1785509200000000    0.1740559000000000    0.4309332200000000 Y
   0.6786251200000000    0.3258828800000000    0.5691034000000000 Y
   0.8213936100000000    0.8259041600000000    0.9309084300000000 Y
   0.6786251200000000    0.3258828800000000    0.9308966000000000 Y
   0.8213936100000000    0.8259041600000000    0.5690915700000000 Y
   0.3213755800000000    0.6741366800000000    0.4309188400000000 Y
   0.1785509200000000    0.1740559000000000    0.0690667800000000 Y
   0.8595398000000000    0.5447319100000000    0.2500000000000000 Y
   0.6405555600000000    0.0446234800000000    0.2500000000000000 Y
   0.1404499100000000    0.4553373200000000    0.7500000000000000 Y
   0.3595487700000000    0.9553178200000000    0.7500000000000000 Y
   0.0445086200000000    0.8872328800000000    0.2500000000000000 Co
   0.4555012800000000    0.3871898000000000    0.2500000000000000 Co
   0.9554813900000000    0.1128206800000000    0.7500000000000000 Co
   0.5445252200000000    0.6127868700000000    0.7500000000000000 Co
