       N       E                     dE             d eps       ncg     rms          rms(c)
DAV:   1     0.153240261163E+02    0.15324E+02   -0.56999E+03 10976   0.811E+02
DAV:   2    -0.142694198610E+02   -0.29593E+02   -0.27339E+02 14632   0.105E+02
DAV:   3    -0.154670304142E+02   -0.11976E+01   -0.11870E+01 14056   0.169E+01
DAV:   4    -0.154748843682E+02   -0.78540E-02   -0.78503E-02 14184   0.174E+00
DAV:   5    -0.154749876486E+02   -0.10328E-03   -0.10328E-03 14800   0.209E-01    0.317E+00
DAV:   6    -0.154113803402E+02    0.63607E-01   -0.23702E-02 14432   0.699E-01    0.186E+00
DAV:   7    -0.153777365793E+02    0.33644E-01   -0.34202E-02 14544   0.865E-01    0.197E-01
DAV:   8    -0.153771991084E+02    0.53747E-03   -0.17668E-03 13960   0.216E-01    0.107E-01
DAV:   9    -0.153771309130E+02    0.68195E-04   -0.12546E-04 15384   0.622E-02    0.317E-02
DAV:  10    -0.153771262548E+02    0.46583E-05   -0.27031E-05 14664   0.269E-02    0.781E-03
DAV:  11    -0.153771256435E+02    0.61129E-06   -0.36474E-06 14664   0.968E-03
   1 F= -.15377126E+02 E0= -.15373499E+02  d E =-.725353E-02
