   5   5   0   0
  0.6418211E+01  0.2817778E-09  0.2817778E-09  0.4667022E-09  0.5000000E-15
  1.000000000000000E-004
  CAR 
 unknown system                          
     36.54269553   -101.14650583  301      5.90684823      1.00000000
   -101.147  0.0000E+00  0.0000E+00
   -100.688  0.0000E+00  0.0000E+00
   -100.229  0.0000E+00  0.0000E+00
    -99.770  0.0000E+00  0.0000E+00
    -99.311  0.0000E+00  0.0000E+00
    -98.852  0.0000E+00  0.0000E+00
    -98.393  0.0000E+00  0.0000E+00
    -97.934  0.0000E+00  0.0000E+00
    -97.475  0.0000E+00  0.0000E+00
    -97.016  0.0000E+00  0.0000E+00
    -96.557  0.0000E+00  0.0000E+00
    -96.098  0.0000E+00  0.0000E+00
    -95.639  0.0000E+00  0.0000E+00
    -95.180  0.2419E-15  0.1110E-15
    -94.721  0.4358E+01  0.2000E+01
    -94.262  0.0000E+00  0.2000E+01
    -93.803  0.0000E+00  0.2000E+01
    -93.344  0.0000E+00  0.2000E+01
    -92.885  0.1610E-04  0.2000E+01
    -92.426  0.8715E+01  0.6000E+01
    -91.967  0.0000E+00  0.6000E+01
    -91.508  0.0000E+00  0.6000E+01
    -91.049  0.0000E+00  0.6000E+01
    -90.590  0.0000E+00  0.6000E+01
    -90.131  0.0000E+00  0.6000E+01
    -89.672  0.0000E+00  0.6000E+01
    -89.213  0.0000E+00  0.6000E+01
    -88.754  0.0000E+00  0.6000E+01
    -88.296  0.0000E+00  0.6000E+01
    -87.837  0.0000E+00  0.6000E+01
    -87.378  0.0000E+00  0.6000E+01
    -86.919  0.0000E+00  0.6000E+01
    -86.460  0.0000E+00  0.6000E+01
    -86.001  0.0000E+00  0.6000E+01
    -85.542  0.0000E+00  0.6000E+01
    -85.083  0.0000E+00  0.6000E+01
    -84.624  0.0000E+00  0.6000E+01
    -84.165  0.0000E+00  0.6000E+01
    -83.706  0.0000E+00  0.6000E+01
    -83.247  0.0000E+00  0.6000E+01
    -82.788  0.0000E+00  0.6000E+01
    -82.329  0.0000E+00  0.6000E+01
    -81.870  0.0000E+00  0.6000E+01
    -81.411  0.0000E+00  0.6000E+01
    -80.952  0.0000E+00  0.6000E+01
    -80.493  0.0000E+00  0.6000E+01
    -80.034  0.0000E+00  0.6000E+01
    -79.575  0.0000E+00  0.6000E+01
    -79.116  0.0000E+00  0.6000E+01
    -78.657  0.0000E+00  0.6000E+01
    -78.198  0.0000E+00  0.6000E+01
    -77.739  0.0000E+00  0.6000E+01
    -77.280  0.0000E+00  0.6000E+01
    -76.821  0.0000E+00  0.6000E+01
    -76.362  0.0000E+00  0.6000E+01
    -75.903  0.0000E+00  0.6000E+01
    -75.445  0.0000E+00  0.6000E+01
    -74.986  0.0000E+00  0.6000E+01
    -74.527  0.0000E+00  0.6000E+01
    -74.068  0.0000E+00  0.6000E+01
    -73.609  0.0000E+00  0.6000E+01
    -73.150  0.0000E+00  0.6000E+01
    -72.691  0.0000E+00  0.6000E+01
    -72.232  0.0000E+00  0.6000E+01
    -71.773  0.0000E+00  0.6000E+01
    -71.314  0.0000E+00  0.6000E+01
    -70.855  0.0000E+00  0.6000E+01
    -70.396  0.0000E+00  0.6000E+01
    -69.937  0.0000E+00  0.6000E+01
    -69.478  0.0000E+00  0.6000E+01
    -69.019  0.0000E+00  0.6000E+01
    -68.560  0.0000E+00  0.6000E+01
    -68.101  0.0000E+00  0.6000E+01
    -67.642  0.0000E+00  0.6000E+01
    -67.183  0.0000E+00  0.6000E+01
    -66.724  0.0000E+00  0.6000E+01
    -66.265  0.0000E+00  0.6000E+01
    -65.806  0.0000E+00  0.6000E+01
    -65.347  0.0000E+00  0.6000E+01
    -64.888  0.0000E+00  0.6000E+01
    -64.429  0.0000E+00  0.6000E+01
    -63.970  0.0000E+00  0.6000E+01
    -63.511  0.0000E+00  0.6000E+01
    -63.052  0.0000E+00  0.6000E+01
    -62.594  0.0000E+00  0.6000E+01
    -62.135  0.0000E+00  0.6000E+01
    -61.676  0.0000E+00  0.6000E+01
    -61.217  0.0000E+00  0.6000E+01
    -60.758  0.0000E+00  0.6000E+01
    -60.299  0.0000E+00  0.6000E+01
    -59.840  0.0000E+00  0.6000E+01
    -59.381  0.0000E+00  0.6000E+01
    -58.922  0.0000E+00  0.6000E+01
    -58.463  0.0000E+00  0.6000E+01
    -58.004  0.0000E+00  0.6000E+01
    -57.545  0.0000E+00  0.6000E+01
    -57.086  0.0000E+00  0.6000E+01
    -56.627  0.0000E+00  0.6000E+01
    -56.168  0.0000E+00  0.6000E+01
    -55.709  0.0000E+00  0.6000E+01
    -55.250  0.0000E+00  0.6000E+01
    -54.791  0.0000E+00  0.6000E+01
    -54.332  0.0000E+00  0.6000E+01
    -53.873  0.0000E+00  0.6000E+01
    -53.414  0.0000E+00  0.6000E+01
    -52.955  0.0000E+00  0.6000E+01
    -52.496  0.0000E+00  0.6000E+01
    -52.037  0.0000E+00  0.6000E+01
    -51.578  0.0000E+00  0.6000E+01
    -51.119  0.0000E+00  0.6000E+01
    -50.660  0.0000E+00  0.6000E+01
    -50.202  0.0000E+00  0.6000E+01
    -49.743  0.0000E+00  0.6000E+01
    -49.284  0.0000E+00  0.6000E+01
    -48.825  0.0000E+00  0.6000E+01
    -48.366  0.0000E+00  0.6000E+01
    -47.907  0.0000E+00  0.6000E+01
    -47.448  0.0000E+00  0.6000E+01
    -46.989  0.0000E+00  0.6000E+01
    -46.530  0.0000E+00  0.6000E+01
    -46.071  0.0000E+00  0.6000E+01
    -45.612  0.0000E+00  0.6000E+01
    -45.153  0.0000E+00  0.6000E+01
    -44.694  0.0000E+00  0.6000E+01
    -44.235  0.0000E+00  0.6000E+01
    -43.776  0.0000E+00  0.6000E+01
    -43.317  0.0000E+00  0.6000E+01
    -42.858  0.0000E+00  0.6000E+01
    -42.399  0.0000E+00  0.6000E+01
    -41.940  0.0000E+00  0.6000E+01
    -41.481  0.0000E+00  0.6000E+01
    -41.022  0.0000E+00  0.6000E+01
    -40.563  0.0000E+00  0.6000E+01
    -40.104  0.0000E+00  0.6000E+01
    -39.645  0.0000E+00  0.6000E+01
    -39.186  0.0000E+00  0.6000E+01
    -38.727  0.0000E+00  0.6000E+01
    -38.268  0.0000E+00  0.6000E+01
    -37.809  0.0000E+00  0.6000E+01
    -37.351  0.0000E+00  0.6000E+01
    -36.892  0.0000E+00  0.6000E+01
    -36.433  0.0000E+00  0.6000E+01
    -35.974  0.0000E+00  0.6000E+01
    -35.515  0.0000E+00  0.6000E+01
    -35.056  0.0000E+00  0.6000E+01
    -34.597  0.0000E+00  0.6000E+01
    -34.138  0.0000E+00  0.6000E+01
    -33.679  0.0000E+00  0.6000E+01
    -33.220  0.0000E+00  0.6000E+01
    -32.761  0.0000E+00  0.6000E+01
    -32.302  0.0000E+00  0.6000E+01
    -31.843  0.0000E+00  0.6000E+01
    -31.384  0.0000E+00  0.6000E+01
    -30.925  0.0000E+00  0.6000E+01
    -30.466  0.0000E+00  0.6000E+01
    -30.007  0.0000E+00  0.6000E+01
    -29.548  0.0000E+00  0.6000E+01
    -29.089  0.0000E+00  0.6000E+01
    -28.630  0.0000E+00  0.6000E+01
    -28.171  0.0000E+00  0.6000E+01
    -27.712  0.0000E+00  0.6000E+01
    -27.253  0.0000E+00  0.6000E+01
    -26.794  0.0000E+00  0.6000E+01
    -26.335  0.0000E+00  0.6000E+01
    -25.876  0.0000E+00  0.6000E+01
    -25.417  0.0000E+00  0.6000E+01
    -24.958  0.0000E+00  0.6000E+01
    -24.500  0.0000E+00  0.6000E+01
    -24.041  0.0000E+00  0.6000E+01
    -23.582  0.0000E+00  0.6000E+01
    -23.123  0.0000E+00  0.6000E+01
    -22.664  0.0000E+00  0.6000E+01
    -22.205  0.0000E+00  0.6000E+01
    -21.746  0.0000E+00  0.6000E+01
    -21.287  0.0000E+00  0.6000E+01
    -20.828  0.0000E+00  0.6000E+01
    -20.369  0.0000E+00  0.6000E+01
    -19.910  0.0000E+00  0.6000E+01
    -19.451  0.0000E+00  0.6000E+01
    -18.992  0.0000E+00  0.6000E+01
    -18.533  0.0000E+00  0.6000E+01
    -18.074  0.0000E+00  0.6000E+01
    -17.615  0.0000E+00  0.6000E+01
    -17.156  0.0000E+00  0.6000E+01
    -16.697  0.0000E+00  0.6000E+01
    -16.238  0.0000E+00  0.6000E+01
    -15.779  0.0000E+00  0.6000E+01
    -15.320  0.0000E+00  0.6000E+01
    -14.861  0.0000E+00  0.6000E+01
    -14.402  0.0000E+00  0.6000E+01
    -13.943  0.0000E+00  0.6000E+01
    -13.484  0.0000E+00  0.6000E+01
    -13.025  0.0000E+00  0.6000E+01
    -12.566  0.0000E+00  0.6000E+01
    -12.107  0.0000E+00  0.6000E+01
    -11.649  0.4798E-08  0.6000E+01
    -11.190  0.1352E+00  0.6062E+01
    -10.731  0.3609E+00  0.6236E+01
    -10.272  0.5208E+00  0.6476E+01
     -9.813  0.5926E+00  0.6776E+01
     -9.354  0.9861E+00  0.7303E+01
     -8.895  0.1377E+01  0.7982E+01
     -8.436  0.1669E+01  0.8896E+01
     -7.977  0.2182E+01  0.9974E+01
     -7.518  0.0000E+00  0.1000E+02
     -7.059  0.0000E+00  0.1000E+02
     -6.600  0.0000E+00  0.1000E+02
     -6.141  0.0000E+00  0.1000E+02
     -5.682  0.0000E+00  0.1000E+02
     -5.223  0.0000E+00  0.1000E+02
     -4.764  0.0000E+00  0.1000E+02
     -4.305  0.0000E+00  0.1000E+02
     -3.846  0.0000E+00  0.1000E+02
     -3.387  0.0000E+00  0.1000E+02
     -2.928  0.0000E+00  0.1000E+02
     -2.469  0.1872E-01  0.1001E+02
     -2.010  0.2549E+00  0.1014E+02
     -1.551  0.1073E+01  0.1067E+02
     -1.092  0.1415E+01  0.1139E+02
     -0.633  0.1511E+01  0.1213E+02
     -0.174  0.1072E+01  0.1287E+02
      0.285  0.1296E+01  0.1347E+02
      0.744  0.9940E+00  0.1399E+02
      1.202  0.1101E+01  0.1466E+02
      1.661  0.1748E+01  0.1557E+02
      2.120  0.1305E+01  0.1624E+02
      2.579  0.1364E+01  0.1699E+02
      3.038  0.1822E+01  0.1797E+02
      3.497  0.1749E+01  0.1892E+02
      3.956  0.1913E+01  0.1984E+02
      4.415  0.2104E+01  0.2101E+02
      4.874  0.1118E+01  0.2160E+02
      5.333  0.6616E+00  0.2194E+02
      5.792  0.9442E-01  0.2200E+02
      6.251  0.0000E+00  0.2200E+02
      6.710  0.0000E+00  0.2200E+02
      7.169  0.0000E+00  0.2200E+02
      7.628  0.0000E+00  0.2200E+02
      8.087  0.0000E+00  0.2200E+02
      8.546  0.0000E+00  0.2200E+02
      9.005  0.0000E+00  0.2200E+02
      9.464  0.0000E+00  0.2200E+02
      9.923  0.1822E-01  0.2201E+02
     10.382  0.2112E+00  0.2211E+02
     10.841  0.2498E+00  0.2226E+02
     11.300  0.4371E+00  0.2251E+02
     11.759  0.6928E+00  0.2291E+02
     12.218  0.9029E+00  0.2335E+02
     12.677  0.1016E+01  0.2389E+02
     13.136  0.1680E+01  0.2478E+02
     13.594  0.2028E+01  0.2594E+02
     14.053  0.2216E+01  0.2709E+02
     14.512  0.1530E+01  0.2788E+02
     14.971  0.2104E+01  0.2895E+02
     15.430  0.2172E+01  0.3010E+02
     15.889  0.2093E+01  0.3116E+02
     16.348  0.1460E+01  0.3185E+02
     16.807  0.1003E+01  0.3240E+02
     17.266  0.1168E+01  0.3295E+02
     17.725  0.1582E+01  0.3374E+02
     18.184  0.1414E+01  0.3455E+02
     18.643  0.1245E+01  0.3521E+02
     19.102  0.1569E+01  0.3610E+02
     19.561  0.1653E+01  0.3696E+02
     20.020  0.2231E+01  0.3806E+02
     20.479  0.1059E+01  0.3870E+02
     20.938  0.9567E+00  0.3919E+02
     21.397  0.8786E+00  0.3964E+02
     21.856  0.1709E+01  0.4051E+02
     22.315  0.1829E+01  0.4141E+02
     22.774  0.1835E+01  0.4237E+02
     23.233  0.1659E+01  0.4327E+02
     23.692  0.1326E+01  0.4393E+02
     24.151  0.1469E+01  0.4474E+02
     24.610  0.1740E+01  0.4555E+02
     25.069  0.8928E+00  0.4604E+02
     25.528  0.4339E-01  0.4607E+02
     25.987  0.4357E-01  0.4609E+02
     26.445  0.1440E+00  0.4616E+02
     26.904  0.1728E+00  0.4624E+02
     27.363  0.3725E+00  0.4641E+02
     27.822  0.2735E+00  0.4657E+02
     28.281  0.4703E+00  0.4682E+02
     28.740  0.7845E+00  0.4718E+02
     29.199  0.8146E+00  0.4764E+02
     29.658  0.3726E+00  0.4790E+02
     30.117  0.1306E+00  0.4797E+02
     30.576  0.6498E-01  0.4800E+02
     31.035  0.0000E+00  0.4800E+02
     31.494  0.0000E+00  0.4800E+02
     31.953  0.0000E+00  0.4800E+02
     32.412  0.0000E+00  0.4800E+02
     32.871  0.0000E+00  0.4800E+02
     33.330  0.0000E+00  0.4800E+02
     33.789  0.0000E+00  0.4800E+02
     34.248  0.0000E+00  0.4800E+02
     34.707  0.0000E+00  0.4800E+02
     35.166  0.0000E+00  0.4800E+02
     35.625  0.0000E+00  0.4800E+02
     36.084  0.0000E+00  0.4800E+02
     36.543  0.0000E+00  0.4800E+02
