  10  10   0   0
  0.9943077E+01  0.7806736E-09  0.7250620E-09  0.4068686E-09  0.5000000E-15
  1.000000000000000E-004
  CAR 
 unknown system                          
     24.13777186    -41.55659335  301      9.93433311      1.00000000
    -41.557  0.0000E+00  0.0000E+00
    -41.338  0.0000E+00  0.0000E+00
    -41.119  0.0000E+00  0.0000E+00
    -40.900  0.0000E+00  0.0000E+00
    -40.681  0.0000E+00  0.0000E+00
    -40.462  0.0000E+00  0.0000E+00
    -40.243  0.0000E+00  0.0000E+00
    -40.024  0.0000E+00  0.0000E+00
    -39.805  0.0000E+00  0.0000E+00
    -39.586  0.0000E+00  0.0000E+00
    -39.367  0.0000E+00  0.0000E+00
    -39.148  0.0000E+00  0.0000E+00
    -38.929  0.0000E+00  0.0000E+00
    -38.710  0.3098E-04  0.6784E-05
    -38.491  0.1172E+02  0.2566E+01
    -38.272  0.4582E+02  0.1260E+02
    -38.053  0.6735E+02  0.2735E+02
    -37.834  0.6890E+02  0.4244E+02
    -37.615  0.2541E+02  0.4800E+02
    -37.396  0.2624E-04  0.4800E+02
    -37.177  0.0000E+00  0.4800E+02
    -36.958  0.0000E+00  0.4800E+02
    -36.739  0.0000E+00  0.4800E+02
    -36.520  0.0000E+00  0.4800E+02
    -36.301  0.0000E+00  0.4800E+02
    -36.082  0.0000E+00  0.4800E+02
    -35.863  0.0000E+00  0.4800E+02
    -35.644  0.0000E+00  0.4800E+02
    -35.425  0.0000E+00  0.4800E+02
    -35.206  0.0000E+00  0.4800E+02
    -34.987  0.0000E+00  0.4800E+02
    -34.768  0.0000E+00  0.4800E+02
    -34.549  0.0000E+00  0.4800E+02
    -34.330  0.0000E+00  0.4800E+02
    -34.111  0.0000E+00  0.4800E+02
    -33.892  0.0000E+00  0.4800E+02
    -33.673  0.0000E+00  0.4800E+02
    -33.454  0.0000E+00  0.4800E+02
    -33.235  0.0000E+00  0.4800E+02
    -33.016  0.0000E+00  0.4800E+02
    -32.797  0.0000E+00  0.4800E+02
    -32.578  0.0000E+00  0.4800E+02
    -32.359  0.0000E+00  0.4800E+02
    -32.140  0.0000E+00  0.4800E+02
    -31.921  0.0000E+00  0.4800E+02
    -31.702  0.0000E+00  0.4800E+02
    -31.483  0.0000E+00  0.4800E+02
    -31.264  0.0000E+00  0.4800E+02
    -31.045  0.0000E+00  0.4800E+02
    -30.827  0.0000E+00  0.4800E+02
    -30.608  0.0000E+00  0.4800E+02
    -30.389  0.0000E+00  0.4800E+02
    -30.170  0.0000E+00  0.4800E+02
    -29.951  0.0000E+00  0.4800E+02
    -29.732  0.0000E+00  0.4800E+02
    -29.513  0.0000E+00  0.4800E+02
    -29.294  0.0000E+00  0.4800E+02
    -29.075  0.0000E+00  0.4800E+02
    -28.856  0.0000E+00  0.4800E+02
    -28.637  0.0000E+00  0.4800E+02
    -28.418  0.0000E+00  0.4800E+02
    -28.199  0.0000E+00  0.4800E+02
    -27.980  0.0000E+00  0.4800E+02
    -27.761  0.0000E+00  0.4800E+02
    -27.542  0.0000E+00  0.4800E+02
    -27.323  0.0000E+00  0.4800E+02
    -27.104  0.0000E+00  0.4800E+02
    -26.885  0.0000E+00  0.4800E+02
    -26.666  0.0000E+00  0.4800E+02
    -26.447  0.0000E+00  0.4800E+02
    -26.228  0.0000E+00  0.4800E+02
    -26.009  0.0000E+00  0.4800E+02
    -25.790  0.0000E+00  0.4800E+02
    -25.571  0.0000E+00  0.4800E+02
    -25.352  0.0000E+00  0.4800E+02
    -25.133  0.0000E+00  0.4800E+02
    -24.914  0.0000E+00  0.4800E+02
    -24.695  0.0000E+00  0.4800E+02
    -24.476  0.0000E+00  0.4800E+02
    -24.257  0.0000E+00  0.4800E+02
    -24.038  0.0000E+00  0.4800E+02
    -23.819  0.0000E+00  0.4800E+02
    -23.600  0.0000E+00  0.4800E+02
    -23.381  0.0000E+00  0.4800E+02
    -23.162  0.0000E+00  0.4800E+02
    -22.943  0.0000E+00  0.4800E+02
    -22.724  0.0000E+00  0.4800E+02
    -22.505  0.0000E+00  0.4800E+02
    -22.286  0.0000E+00  0.4800E+02
    -22.067  0.0000E+00  0.4800E+02
    -21.848  0.0000E+00  0.4800E+02
    -21.629  0.0000E+00  0.4800E+02
    -21.410  0.0000E+00  0.4800E+02
    -21.191  0.0000E+00  0.4800E+02
    -20.972  0.0000E+00  0.4800E+02
    -20.753  0.0000E+00  0.4800E+02
    -20.534  0.0000E+00  0.4800E+02
    -20.315  0.0000E+00  0.4800E+02
    -20.096  0.0000E+00  0.4800E+02
    -19.877  0.0000E+00  0.4800E+02
    -19.658  0.0000E+00  0.4800E+02
    -19.439  0.0000E+00  0.4800E+02
    -19.221  0.0000E+00  0.4800E+02
    -19.002  0.0000E+00  0.4800E+02
    -18.783  0.0000E+00  0.4800E+02
    -18.564  0.0000E+00  0.4800E+02
    -18.345  0.0000E+00  0.4800E+02
    -18.126  0.0000E+00  0.4800E+02
    -17.907  0.0000E+00  0.4800E+02
    -17.688  0.0000E+00  0.4800E+02
    -17.469  0.0000E+00  0.4800E+02
    -17.250  0.0000E+00  0.4800E+02
    -17.031  0.0000E+00  0.4800E+02
    -16.812  0.0000E+00  0.4800E+02
    -16.593  0.0000E+00  0.4800E+02
    -16.374  0.0000E+00  0.4800E+02
    -16.155  0.0000E+00  0.4800E+02
    -15.936  0.0000E+00  0.4800E+02
    -15.717  0.0000E+00  0.4800E+02
    -15.498  0.0000E+00  0.4800E+02
    -15.279  0.0000E+00  0.4800E+02
    -15.060  0.0000E+00  0.4800E+02
    -14.841  0.0000E+00  0.4800E+02
    -14.622  0.0000E+00  0.4800E+02
    -14.403  0.0000E+00  0.4800E+02
    -14.184  0.0000E+00  0.4800E+02
    -13.965  0.0000E+00  0.4800E+02
    -13.746  0.0000E+00  0.4800E+02
    -13.527  0.0000E+00  0.4800E+02
    -13.308  0.0000E+00  0.4800E+02
    -13.089  0.0000E+00  0.4800E+02
    -12.870  0.0000E+00  0.4800E+02
    -12.651  0.0000E+00  0.4800E+02
    -12.432  0.0000E+00  0.4800E+02
    -12.213  0.0000E+00  0.4800E+02
    -11.994  0.0000E+00  0.4800E+02
    -11.775  0.0000E+00  0.4800E+02
    -11.556  0.0000E+00  0.4800E+02
    -11.337  0.0000E+00  0.4800E+02
    -11.118  0.0000E+00  0.4800E+02
    -10.899  0.0000E+00  0.4800E+02
    -10.680  0.0000E+00  0.4800E+02
    -10.461  0.0000E+00  0.4800E+02
    -10.242  0.0000E+00  0.4800E+02
    -10.023  0.0000E+00  0.4800E+02
     -9.804  0.0000E+00  0.4800E+02
     -9.585  0.0000E+00  0.4800E+02
     -9.366  0.0000E+00  0.4800E+02
     -9.147  0.0000E+00  0.4800E+02
     -8.928  0.0000E+00  0.4800E+02
     -8.709  0.0000E+00  0.4800E+02
     -8.490  0.0000E+00  0.4800E+02
     -8.271  0.0000E+00  0.4800E+02
     -8.052  0.0000E+00  0.4800E+02
     -7.833  0.0000E+00  0.4800E+02
     -7.615  0.0000E+00  0.4800E+02
     -7.396  0.0000E+00  0.4800E+02
     -7.177  0.0000E+00  0.4800E+02
     -6.958  0.0000E+00  0.4800E+02
     -6.739  0.0000E+00  0.4800E+02
     -6.520  0.0000E+00  0.4800E+02
     -6.301  0.0000E+00  0.4800E+02
     -6.082  0.0000E+00  0.4800E+02
     -5.863  0.0000E+00  0.4800E+02
     -5.644  0.0000E+00  0.4800E+02
     -5.425  0.0000E+00  0.4800E+02
     -5.206  0.0000E+00  0.4800E+02
     -4.987  0.0000E+00  0.4800E+02
     -4.768  0.0000E+00  0.4800E+02
     -4.549  0.0000E+00  0.4800E+02
     -4.330  0.0000E+00  0.4800E+02
     -4.111  0.0000E+00  0.4800E+02
     -3.892  0.0000E+00  0.4800E+02
     -3.673  0.0000E+00  0.4800E+02
     -3.454  0.0000E+00  0.4800E+02
     -3.235  0.0000E+00  0.4800E+02
     -3.016  0.0000E+00  0.4800E+02
     -2.797  0.0000E+00  0.4800E+02
     -2.578  0.0000E+00  0.4800E+02
     -2.359  0.0000E+00  0.4800E+02
     -2.140  0.0000E+00  0.4800E+02
     -1.921  0.0000E+00  0.4800E+02
     -1.702  0.0000E+00  0.4800E+02
     -1.483  0.0000E+00  0.4800E+02
     -1.264  0.0000E+00  0.4800E+02
     -1.045  0.0000E+00  0.4800E+02
     -0.826  0.0000E+00  0.4800E+02
     -0.607  0.0000E+00  0.4800E+02
     -0.388  0.4496E-03  0.4800E+02
     -0.169  0.1105E+00  0.4802E+02
      0.050  0.2653E+00  0.4808E+02
      0.269  0.8613E+00  0.4827E+02
      0.488  0.6415E+00  0.4841E+02
      0.707  0.9791E+00  0.4863E+02
      0.926  0.9441E+00  0.4883E+02
      1.145  0.1630E+01  0.4919E+02
      1.364  0.2036E+01  0.4964E+02
      1.583  0.2567E+01  0.5020E+02
      1.802  0.3138E+01  0.5088E+02
      2.021  0.1634E+01  0.5124E+02
      2.240  0.3085E+01  0.5192E+02
      2.459  0.3758E+00  0.5200E+02
      2.678  0.1332E-05  0.5200E+02
      2.897  0.0000E+00  0.5200E+02
      3.116  0.0000E+00  0.5200E+02
      3.335  0.6901E-08  0.5200E+02
      3.554  0.4409E-01  0.5201E+02
      3.773  0.1346E+00  0.5204E+02
      3.991  0.1607E+01  0.5239E+02
      4.210  0.3044E+01  0.5306E+02
      4.429  0.3768E+01  0.5388E+02
      4.648  0.5314E+01  0.5505E+02
      4.867  0.4434E+01  0.5602E+02
      5.086  0.5366E+01  0.5719E+02
      5.305  0.4692E+01  0.5822E+02
      5.524  0.3727E+01  0.5904E+02
      5.743  0.5409E+01  0.6022E+02
      5.962  0.7670E+01  0.6190E+02
      6.181  0.7773E+01  0.6360E+02
      6.400  0.7254E+01  0.6519E+02
      6.619  0.9634E+01  0.6730E+02
      6.838  0.1247E+02  0.7003E+02
      7.057  0.1620E+02  0.7358E+02
      7.276  0.1468E+02  0.7679E+02
      7.495  0.1264E+02  0.7956E+02
      7.714  0.1270E+02  0.8234E+02
      7.933  0.1238E+02  0.8505E+02
      8.152  0.1257E+02  0.8781E+02
      8.371  0.1035E+02  0.9007E+02
      8.590  0.1435E+02  0.9321E+02
      8.809  0.1348E+02  0.9617E+02
      9.028  0.1346E+02  0.9911E+02
      9.247  0.1379E+02  0.1021E+03
      9.466  0.1238E+02  0.1048E+03
      9.685  0.1379E+02  0.1079E+03
      9.904  0.8804E+01  0.1098E+03
     10.123  0.9280E+01  0.1118E+03
     10.342  0.1031E+02  0.1141E+03
     10.561  0.1193E+02  0.1167E+03
     10.780  0.1566E+02  0.1201E+03
     10.999  0.1761E+02  0.1240E+03
     11.218  0.1985E+02  0.1283E+03
     11.437  0.1623E+02  0.1319E+03
     11.656  0.1093E+02  0.1343E+03
     11.875  0.7680E+01  0.1360E+03
     12.094  0.5705E+01  0.1372E+03
     12.313  0.3590E+01  0.1380E+03
     12.532  0.4898E+01  0.1391E+03
     12.751  0.5281E+01  0.1402E+03
     12.970  0.3182E+01  0.1409E+03
     13.189  0.3754E+01  0.1417E+03
     13.408  0.2464E+01  0.1423E+03
     13.627  0.2951E+01  0.1429E+03
     13.846  0.2801E+01  0.1435E+03
     14.065  0.2529E+01  0.1441E+03
     14.284  0.3035E+01  0.1448E+03
     14.503  0.2638E+01  0.1453E+03
     14.722  0.2140E+01  0.1458E+03
     14.941  0.2487E+01  0.1463E+03
     15.160  0.2074E+01  0.1468E+03
     15.379  0.1523E+01  0.1471E+03
     15.598  0.1267E+01  0.1474E+03
     15.816  0.1644E+01  0.1478E+03
     16.035  0.2517E+01  0.1483E+03
     16.254  0.1848E+01  0.1487E+03
     16.473  0.1935E+01  0.1492E+03
     16.692  0.2195E+01  0.1496E+03
     16.911  0.3540E+01  0.1504E+03
     17.130  0.3244E+01  0.1511E+03
     17.349  0.2466E+01  0.1517E+03
     17.568  0.1656E+01  0.1520E+03
     17.787  0.1108E+01  0.1523E+03
     18.006  0.2247E+01  0.1528E+03
     18.225  0.2670E+01  0.1533E+03
     18.444  0.2795E+01  0.1540E+03
     18.663  0.1617E+01  0.1543E+03
     18.882  0.3093E+01  0.1550E+03
     19.101  0.3311E+01  0.1557E+03
     19.320  0.1386E+01  0.1560E+03
     19.539  0.1806E+01  0.1564E+03
     19.758  0.1555E+01  0.1567E+03
     19.977  0.3523E+01  0.1575E+03
     20.196  0.3819E+01  0.1584E+03
     20.415  0.3357E+01  0.1591E+03
     20.634  0.2089E+01  0.1595E+03
     20.853  0.1584E+01  0.1599E+03
     21.072  0.4208E+00  0.1600E+03
     21.291  0.5712E-01  0.1600E+03
     21.510  0.2055E-05  0.1600E+03
     21.729  0.0000E+00  0.1600E+03
     21.948  0.0000E+00  0.1600E+03
     22.167  0.0000E+00  0.1600E+03
     22.386  0.0000E+00  0.1600E+03
     22.605  0.0000E+00  0.1600E+03
     22.824  0.0000E+00  0.1600E+03
     23.043  0.0000E+00  0.1600E+03
     23.262  0.0000E+00  0.1600E+03
     23.481  0.0000E+00  0.1600E+03
     23.700  0.0000E+00  0.1600E+03
     23.919  0.0000E+00  0.1600E+03
     24.138  0.0000E+00  0.1600E+03
