       N       E                     dE             d eps       ncg     rms          rms(c)
DAV:   1     0.161750343951E+04    0.16175E+04   -0.61982E+04 28816   0.208E+03
DAV:   2     0.471996933000E+02   -0.15703E+04   -0.14769E+04 28800   0.599E+02
DAV:   3    -0.102328169819E+03   -0.14953E+03   -0.13483E+03 29800   0.197E+02
DAV:   4    -0.107515706062E+03   -0.51875E+01   -0.51463E+01 31112   0.382E+01
DAV:   5    -0.107579133901E+03   -0.63428E-01   -0.63420E-01 30352   0.459E+00    0.460E+01
DAV:   6    -0.898753553727E+02    0.17704E+02   -0.11592E+02 31272   0.741E+01    0.149E+01
DAV:   7    -0.871074524461E+02    0.27679E+01   -0.19181E+01 30416   0.300E+01    0.690E+00
DAV:   8    -0.872495119938E+02   -0.14206E+00   -0.16192E+00 32632   0.154E+01    0.840E+00
DAV:   9    -0.868796771850E+02    0.36983E+00   -0.50645E-01 31752   0.880E+00    0.374E+00
DAV:  10    -0.868611172197E+02    0.18560E-01   -0.21886E-01 32000   0.690E+00    0.339E+00
DAV:  11    -0.868066998747E+02    0.54417E-01   -0.16548E-01 31128   0.476E+00    0.230E+00
DAV:  12    -0.867844126094E+02    0.22287E-01   -0.55089E-02 30520   0.338E+00    0.871E-01
DAV:  13    -0.867864863556E+02   -0.20737E-02   -0.18566E-02 30680   0.186E+00    0.116E+00
DAV:  14    -0.867799906660E+02    0.64957E-02   -0.11546E-02 30760   0.160E+00    0.201E-01
DAV:  15    -0.867811663822E+02   -0.11757E-02   -0.27359E-03 30608   0.730E-01    0.525E-01
DAV:  16    -0.867798890748E+02    0.12773E-02   -0.17982E-03 30456   0.658E-01    0.531E-02
DAV:  17    -0.867799718897E+02   -0.82815E-04   -0.28598E-04 32968   0.193E-01    0.150E-01
DAV:  18    -0.867798786802E+02    0.93210E-04   -0.16691E-04 30464   0.178E-01    0.209E-02
DAV:  19    -0.867798752343E+02    0.34459E-05   -0.17149E-05 33016   0.330E-02    0.187E-02
DAV:  20    -0.867798743052E+02    0.92905E-06   -0.59128E-06 28320   0.348E-02
   1 F= -.86779874E+02 E0= -.86775302E+02  d E =-.914373E-02
