unknown system                          
           1
     0.000000    3.530428    6.962845
     2.022445    0.000000    6.962845
     2.022445    3.530428    0.000000
   Mn   B 
     8     2
Direct configuration=     1
   0.83229500  0.83229500  0.66770500
   0.66770500  0.66770500  0.83229500
   0.91882200  0.91882200  0.08117800
   0.08117800  0.08117800  0.91882200
   0.42172800  0.07827200  0.42172800
   0.34352800  0.65647200  0.34352800
   0.07827200  0.42172800  0.07827200
   0.65647200  0.34352800  0.65647200
   0.12516300  0.12516300  0.37483700
   0.37483700  0.37483700  0.12516300
