Pt2 Cl4                                 
   1.00000000000000     
     1.7111132499999999    6.2208839700000000   -0.0863032900000000
    -1.7111132499999999    6.2208839700000000   -0.0863032900000000
     0.0000000000000000    2.1016410799999998    7.0993889599999997
   Pt   Cl
     2     4
Direct
     0.4773725000000013    0.4773725000000013    0.7563311899999974
     0.5226274999999987    0.5226274999999987    0.2436688100000026
     0.8476882300000028    0.8476882300000028    0.8060475699999969
     0.1523117699999972    0.1523117699999972    0.1939524300000031
     0.8929965100000032    0.8929965100000032    0.2907389000000009
     0.1070034899999968    0.1070034899999968    0.7092610999999991
 
  0.00000000E+00  0.00000000E+00  0.00000000E+00
  0.00000000E+00  0.00000000E+00  0.00000000E+00
  0.00000000E+00  0.00000000E+00  0.00000000E+00
  0.00000000E+00  0.00000000E+00  0.00000000E+00
  0.00000000E+00  0.00000000E+00  0.00000000E+00
  0.00000000E+00  0.00000000E+00  0.00000000E+00
