   2   2   0   0
  0.1187318E+02  0.2874302E-09  0.2874302E-09  0.2874302E-09  0.5000000E-15
  1.000000000000000E-004
  CAR 
 unknown system                          
     35.72403664     -9.72782698  301      7.40577174      1.00000000
     -9.728  0.0000E+00  0.0000E+00
     -9.576  0.0000E+00  0.0000E+00
     -9.425  0.0000E+00  0.0000E+00
     -9.273  0.0000E+00  0.0000E+00
     -9.122  0.0000E+00  0.0000E+00
     -8.970  0.0000E+00  0.0000E+00
     -8.819  0.0000E+00  0.0000E+00
     -8.667  0.0000E+00  0.0000E+00
     -8.516  0.0000E+00  0.0000E+00
     -8.364  0.0000E+00  0.0000E+00
     -8.213  0.0000E+00  0.0000E+00
     -8.061  0.0000E+00  0.0000E+00
     -7.910  0.1239E-12  0.1877E-13
     -7.758  0.3375E-03  0.5113E-04
     -7.607  0.9898E-01  0.1505E-01
     -7.455  0.1681E+00  0.4052E-01
     -7.304  0.2015E+00  0.7105E-01
     -7.152  0.2860E+00  0.1144E+00
     -7.001  0.4198E+00  0.1780E+00
     -6.849  0.6219E+00  0.2722E+00
     -6.698  0.4059E+00  0.3337E+00
     -6.546  0.9436E+00  0.4767E+00
     -6.395  0.9460E+00  0.6200E+00
     -6.243  0.1713E+01  0.8795E+00
     -6.092  0.1783E+01  0.1150E+01
     -5.940  0.1995E+01  0.1452E+01
     -5.789  0.1233E+01  0.1639E+01
     -5.637  0.6612E+00  0.1739E+01
     -5.486  0.6455E+00  0.1837E+01
     -5.334  0.3736E+00  0.1893E+01
     -5.183  0.2823E+00  0.1936E+01
     -5.031  0.2884E+00  0.1980E+01
     -4.880  0.3152E-01  0.1984E+01
     -4.728  0.1015E+00  0.2000E+01
     -4.577  0.8243E-03  0.2000E+01
     -4.425  0.1077E-11  0.2000E+01
     -4.274  0.0000E+00  0.2000E+01
     -4.122  0.0000E+00  0.2000E+01
     -3.971  0.0000E+00  0.2000E+01
     -3.819  0.0000E+00  0.2000E+01
     -3.668  0.0000E+00  0.2000E+01
     -3.516  0.0000E+00  0.2000E+01
     -3.365  0.0000E+00  0.2000E+01
     -3.213  0.0000E+00  0.2000E+01
     -3.062  0.0000E+00  0.2000E+01
     -2.910  0.0000E+00  0.2000E+01
     -2.759  0.0000E+00  0.2000E+01
     -2.607  0.0000E+00  0.2000E+01
     -2.456  0.0000E+00  0.2000E+01
     -2.304  0.0000E+00  0.2000E+01
     -2.153  0.0000E+00  0.2000E+01
     -2.001  0.0000E+00  0.2000E+01
     -1.850  0.0000E+00  0.2000E+01
     -1.698  0.0000E+00  0.2000E+01
     -1.546  0.0000E+00  0.2000E+01
     -1.395  0.0000E+00  0.2000E+01
     -1.243  0.0000E+00  0.2000E+01
     -1.092  0.0000E+00  0.2000E+01
     -0.940  0.0000E+00  0.2000E+01
     -0.789  0.0000E+00  0.2000E+01
     -0.637  0.0000E+00  0.2000E+01
     -0.486  0.0000E+00  0.2000E+01
     -0.334  0.0000E+00  0.2000E+01
     -0.183  0.0000E+00  0.2000E+01
     -0.031  0.0000E+00  0.2000E+01
      0.120  0.0000E+00  0.2000E+01
      0.272  0.9665E-08  0.2000E+01
      0.423  0.4091E-01  0.2006E+01
      0.575  0.2757E+00  0.2048E+01
      0.726  0.6229E-01  0.2057E+01
      0.878  0.7824E+00  0.2176E+01
      1.029  0.9289E+00  0.2317E+01
      1.181  0.9076E+00  0.2454E+01
      1.332  0.1322E+01  0.2654E+01
      1.484  0.2050E+01  0.2965E+01
      1.635  0.2737E+01  0.3380E+01
      1.787  0.2626E+01  0.3777E+01
      1.938  0.2294E+01  0.4125E+01
      2.090  0.3142E+01  0.4601E+01
      2.241  0.3246E+01  0.5093E+01
      2.393  0.3172E+01  0.5573E+01
      2.544  0.1553E+01  0.5809E+01
      2.696  0.2271E+01  0.6153E+01
      2.847  0.2397E+01  0.6516E+01
      2.999  0.5335E+01  0.7324E+01
      3.150  0.3689E+01  0.7883E+01
      3.302  0.2557E+01  0.8270E+01
      3.453  0.4029E+01  0.8881E+01
      3.605  0.2767E+01  0.9300E+01
      3.756  0.4292E+01  0.9950E+01
      3.908  0.4721E+01  0.1067E+02
      4.059  0.2571E+01  0.1106E+02
      4.211  0.3107E+01  0.1153E+02
      4.362  0.2103E+01  0.1184E+02
      4.514  0.7390E+00  0.1196E+02
      4.665  0.7600E+00  0.1207E+02
      4.817  0.6184E+00  0.1217E+02
      4.968  0.2839E+01  0.1260E+02
      5.120  0.1733E+01  0.1286E+02
      5.271  0.3565E+01  0.1340E+02
      5.423  0.3019E+01  0.1386E+02
      5.574  0.1148E+01  0.1403E+02
      5.726  0.7163E+00  0.1414E+02
      5.877  0.9066E+00  0.1428E+02
      6.029  0.1724E+01  0.1454E+02
      6.180  0.1178E+01  0.1471E+02
      6.332  0.1598E+01  0.1496E+02
      6.483  0.5720E+00  0.1504E+02
      6.635  0.1772E+01  0.1531E+02
      6.786  0.6607E+00  0.1541E+02
      6.938  0.7667E+00  0.1553E+02
      7.089  0.1324E+01  0.1573E+02
      7.241  0.5212E+00  0.1581E+02
      7.392  0.1173E+01  0.1599E+02
      7.544  0.1015E+01  0.1614E+02
      7.695  0.1608E+01  0.1638E+02
      7.847  0.2378E+01  0.1674E+02
      7.998  0.3206E+01  0.1723E+02
      8.150  0.3450E+01  0.1775E+02
      8.301  0.1168E+01  0.1793E+02
      8.453  0.4417E+00  0.1800E+02
      8.604  0.2871E-01  0.1800E+02
      8.756  0.2988E-08  0.1800E+02
      8.907  0.0000E+00  0.1800E+02
      9.059  0.0000E+00  0.1800E+02
      9.210  0.0000E+00  0.1800E+02
      9.362  0.2992E-13  0.1800E+02
      9.513  0.1830E-03  0.1800E+02
      9.665  0.9628E-01  0.1801E+02
      9.816  0.9142E-02  0.1802E+02
      9.968  0.8599E-09  0.1802E+02
     10.119  0.0000E+00  0.1802E+02
     10.271  0.1759E-16  0.1802E+02
     10.422  0.7658E-05  0.1802E+02
     10.574  0.1862E+00  0.1804E+02
     10.726  0.1306E+00  0.1806E+02
     10.877  0.1042E-05  0.1806E+02
     11.029  0.0000E+00  0.1806E+02
     11.180  0.2451E-07  0.1806E+02
     11.332  0.5327E-01  0.1807E+02
     11.483  0.2634E+00  0.1811E+02
     11.635  0.1105E+00  0.1813E+02
     11.786  0.2065E+00  0.1816E+02
     11.938  0.3711E-01  0.1817E+02
     12.089  0.6851E-01  0.1818E+02
     12.241  0.6274E-01  0.1819E+02
     12.392  0.5700E+00  0.1827E+02
     12.544  0.1599E-02  0.1827E+02
     12.695  0.4642E+00  0.1834E+02
     12.847  0.6611E+00  0.1844E+02
     12.998  0.4763E+00  0.1851E+02
     13.150  0.1174E+01  0.1869E+02
     13.301  0.1648E+01  0.1894E+02
     13.453  0.3181E+01  0.1942E+02
     13.604  0.8428E+00  0.1955E+02
     13.756  0.5637E+00  0.1964E+02
     13.907  0.1351E+01  0.1984E+02
     14.059  0.9705E-01  0.1986E+02
     14.210  0.8433E+00  0.1998E+02
     14.362  0.3139E+00  0.2003E+02
     14.513  0.7156E-05  0.2003E+02
     14.665  0.0000E+00  0.2003E+02
     14.816  0.1110E-07  0.2003E+02
     14.968  0.4301E-01  0.2004E+02
     15.119  0.5588E+00  0.2012E+02
     15.271  0.3178E-01  0.2013E+02
     15.422  0.4674E-07  0.2013E+02
     15.574  0.7080E-01  0.2014E+02
     15.725  0.1433E+01  0.2036E+02
     15.877  0.8258E-01  0.2037E+02
     16.028  0.3039E+00  0.2041E+02
     16.180  0.8010E-01  0.2043E+02
     16.331  0.6612E+00  0.2053E+02
     16.483  0.1734E+01  0.2079E+02
     16.634  0.5982E+00  0.2088E+02
     16.786  0.8402E-03  0.2088E+02
     16.937  0.5710E+00  0.2097E+02
     17.089  0.6686E+00  0.2107E+02
     17.240  0.3304E+00  0.2112E+02
     17.392  0.9816E+00  0.2127E+02
     17.543  0.1551E+01  0.2150E+02
     17.695  0.1120E+01  0.2167E+02
     17.846  0.1194E+01  0.2185E+02
     17.998  0.4859E+00  0.2193E+02
     18.149  0.8496E+00  0.2205E+02
     18.301  0.6063E+00  0.2215E+02
     18.452  0.3046E+00  0.2219E+02
     18.604  0.2066E+00  0.2222E+02
     18.755  0.2208E-03  0.2222E+02
     18.907  0.5526E+00  0.2231E+02
     19.058  0.4008E+00  0.2237E+02
     19.210  0.2878E+00  0.2241E+02
     19.361  0.8736E+00  0.2254E+02
     19.513  0.1594E+01  0.2279E+02
     19.664  0.7304E+00  0.2290E+02
     19.816  0.2073E+00  0.2293E+02
     19.967  0.6069E+00  0.2302E+02
     20.119  0.4753E+00  0.2309E+02
     20.270  0.5910E+00  0.2318E+02
     20.422  0.1651E-01  0.2318E+02
     20.573  0.2371E+00  0.2322E+02
     20.725  0.1044E+00  0.2324E+02
     20.876  0.2919E+00  0.2328E+02
     21.028  0.3272E+00  0.2333E+02
     21.179  0.1124E+01  0.2350E+02
     21.331  0.1645E+01  0.2375E+02
     21.482  0.8695E+00  0.2388E+02
     21.634  0.1937E+00  0.2391E+02
     21.785  0.2821E+00  0.2395E+02
     21.937  0.6028E+00  0.2404E+02
     22.088  0.7011E+00  0.2415E+02
     22.240  0.6303E-01  0.2416E+02
     22.391  0.5479E-05  0.2416E+02
     22.543  0.3653E+00  0.2422E+02
     22.695  0.1008E+01  0.2437E+02
     22.846  0.3751E+00  0.2442E+02
     22.998  0.1105E+01  0.2459E+02
     23.149  0.1266E+01  0.2478E+02
     23.301  0.1392E+01  0.2499E+02
     23.452  0.8819E+00  0.2513E+02
     23.604  0.5330E+00  0.2521E+02
     23.755  0.2839E+01  0.2564E+02
     23.907  0.1598E+01  0.2588E+02
     24.058  0.1154E+01  0.2606E+02
     24.210  0.5531E+00  0.2614E+02
     24.361  0.2557E+01  0.2653E+02
     24.513  0.1135E+01  0.2670E+02
     24.664  0.9812E+00  0.2685E+02
     24.816  0.1174E+01  0.2703E+02
     24.967  0.1181E+01  0.2721E+02
     25.119  0.5572E+00  0.2729E+02
     25.270  0.4342E-01  0.2730E+02
     25.422  0.1074E-03  0.2730E+02
     25.573  0.8314E+00  0.2742E+02
     25.725  0.1386E+01  0.2763E+02
     25.876  0.5876E+00  0.2772E+02
     26.028  0.4604E-01  0.2773E+02
     26.179  0.1456E-07  0.2773E+02
     26.331  0.3611E-12  0.2773E+02
     26.482  0.1488E-02  0.2773E+02
     26.634  0.5900E+00  0.2782E+02
     26.785  0.9962E+00  0.2797E+02
     26.937  0.8363E+00  0.2810E+02
     27.088  0.2809E+00  0.2814E+02
     27.240  0.9462E+00  0.2828E+02
     27.391  0.1282E+00  0.2830E+02
     27.543  0.1125E+01  0.2847E+02
     27.694  0.5259E+00  0.2855E+02
     27.846  0.4836E+00  0.2862E+02
     27.997  0.3605E+00  0.2868E+02
     28.149  0.1525E+01  0.2891E+02
     28.300  0.1068E+01  0.2907E+02
     28.452  0.1511E+01  0.2930E+02
     28.603  0.7056E+00  0.2941E+02
     28.755  0.3063E+00  0.2945E+02
     28.906  0.3541E-01  0.2946E+02
     29.058  0.1058E+01  0.2962E+02
     29.209  0.1271E+01  0.2981E+02
     29.361  0.5297E+00  0.2989E+02
     29.512  0.2885E+00  0.2994E+02
     29.664  0.3863E-01  0.2994E+02
     29.815  0.9203E+00  0.3008E+02
     29.967  0.3727E+00  0.3014E+02
     30.118  0.1365E+01  0.3034E+02
     30.270  0.1302E+01  0.3054E+02
     30.421  0.1543E+01  0.3078E+02
     30.573  0.9345E+00  0.3092E+02
     30.724  0.7174E+00  0.3103E+02
     30.876  0.9069E+00  0.3116E+02
     31.027  0.1083E+01  0.3133E+02
     31.179  0.2489E+00  0.3137E+02
     31.330  0.7543E+00  0.3148E+02
     31.482  0.2687E+00  0.3152E+02
     31.633  0.2152E+00  0.3155E+02
     31.785  0.1144E+01  0.3173E+02
     31.936  0.2057E+00  0.3176E+02
     32.088  0.1144E+01  0.3193E+02
     32.239  0.7926E-01  0.3194E+02
     32.391  0.2737E+00  0.3198E+02
     32.542  0.2302E-03  0.3198E+02
     32.694  0.0000E+00  0.3198E+02
     32.845  0.0000E+00  0.3198E+02
     32.997  0.0000E+00  0.3198E+02
     33.148  0.0000E+00  0.3198E+02
     33.300  0.0000E+00  0.3198E+02
     33.451  0.2712E-09  0.3198E+02
     33.603  0.6303E-02  0.3198E+02
     33.754  0.9897E-01  0.3200E+02
     33.906  0.3367E-03  0.3200E+02
     34.057  0.1232E-12  0.3200E+02
     34.209  0.0000E+00  0.3200E+02
     34.360  0.0000E+00  0.3200E+02
     34.512  0.0000E+00  0.3200E+02
     34.663  0.0000E+00  0.3200E+02
     34.815  0.0000E+00  0.3200E+02
     34.967  0.0000E+00  0.3200E+02
     35.118  0.0000E+00  0.3200E+02
     35.270  0.0000E+00  0.3200E+02
     35.421  0.0000E+00  0.3200E+02
     35.573  0.0000E+00  0.3200E+02
     35.724  0.0000E+00  0.3200E+02
