       N       E                     dE             d eps       ncg     rms          rms(c)
DAV:   1     0.871447693904E+02    0.87145E+02   -0.87029E+03 32072   0.109E+03
DAV:   2    -0.674198410940E+01   -0.93887E+02   -0.84911E+02 39888   0.252E+02
DAV:   3    -0.920064987326E+01   -0.24587E+01   -0.24403E+01 37568   0.425E+01
DAV:   4    -0.920882343412E+01   -0.81736E-02   -0.81732E-02 41672   0.266E+00
DAV:   5    -0.920888100795E+01   -0.57574E-04   -0.57573E-04 38176   0.218E-01    0.113E+01
DAV:   6    -0.866411919980E+01    0.54476E+00   -0.86259E+00 36376   0.427E+01    0.141E+01
DAV:   7    -0.748685817473E+01    0.11773E+01   -0.10229E+00 32840   0.159E+01    0.520E+00
DAV:   8    -0.745012134751E+01    0.36737E-01   -0.32216E-01 33096   0.753E+00    0.129E+00
DAV:   9    -0.742882403769E+01    0.21297E-01   -0.58968E-02 36136   0.298E+00    0.489E-01
DAV:  10    -0.742937256622E+01   -0.54853E-03   -0.44103E-03 39192   0.670E-01    0.292E-01
DAV:  11    -0.742733213204E+01    0.20404E-02   -0.22340E-03 36024   0.857E-01    0.580E-02
DAV:  12    -0.742737404924E+01   -0.41917E-04   -0.27468E-04 35744   0.130E-01    0.263E-02
DAV:  13    -0.742736045766E+01    0.13592E-04   -0.17138E-05 38464   0.659E-02    0.117E-02
DAV:  14    -0.742735923870E+01    0.12190E-05   -0.27640E-06 35720   0.210E-02    0.151E-03
DAV:  15    -0.742735923140E+01    0.72998E-08   -0.45637E-07 18368   0.611E-03
   1 F= -.74273592E+01 E0= -.74266806E+01  d E =-.135719E-02
