       N       E                     dE             d eps       ncg     rms          rms(c)
DAV:   1     0.929015033489E+03    0.92902E+03   -0.74608E+04  8672   0.120E+03
DAV:   2    -0.163844269338E+03   -0.10929E+04   -0.10362E+04 10936   0.291E+02
DAV:   3    -0.252621365403E+03   -0.88777E+02   -0.87417E+02 10504   0.822E+01
DAV:   4    -0.253996917898E+03   -0.13756E+01   -0.13695E+01 11160   0.114E+01
DAV:   5    -0.254025285789E+03   -0.28368E-01   -0.28338E-01 10696   0.149E+00    0.281E+01
DAV:   6    -0.240452283027E+03    0.13573E+02   -0.24263E+01 10224   0.178E+01    0.150E+01
DAV:   7    -0.238669471666E+03    0.17828E+01   -0.48527E+00 10864   0.774E+00    0.803E+00
DAV:   8    -0.238287619030E+03    0.38185E+00   -0.17969E+00 10448   0.382E+00    0.222E+00
DAV:   9    -0.238273773866E+03    0.13845E-01   -0.79664E-02 10384   0.126E+00    0.917E-01
DAV:  10    -0.238271944005E+03    0.18299E-02   -0.28537E-02  9904   0.560E-01    0.256E-01
DAV:  11    -0.238272412668E+03   -0.46866E-03   -0.32717E-03 10104   0.206E-01    0.115E-01
DAV:  12    -0.238272819965E+03   -0.40730E-03   -0.73580E-04  9752   0.877E-02    0.530E-02
DAV:  13    -0.238272833998E+03   -0.14033E-04   -0.75529E-05 10216   0.381E-02    0.133E-02
DAV:  14    -0.238272837858E+03   -0.38601E-05   -0.24946E-05 10192   0.159E-02    0.711E-03
DAV:  15    -0.238272837917E+03   -0.59254E-07   -0.13411E-06  8048   0.425E-03
   1 F= -.23827284E+03 E0= -.23827284E+03  d E =-.152596E-10
