C12 N12 O6
1.0
   4.7203390000000001   -8.1758670000000002    0.0000000000000000
   4.7203390000000001    8.1758670000000002    0.0000000000000000
   0.0000000000000000    0.0000000000000000    6.1606980000000000
C N O
12 12 6
direct
   0.8438380000000000    0.3752410000000000    0.7500000000000000 C
   0.1561620000000000    0.6247590000000000    0.2500000000000000 C
   0.5314030000000000    0.1561620000000000    0.7500000000000000 C
   0.4685970000000000    0.8438380000000000    0.2500000000000000 C
   0.6247590000000000    0.4685970000000000    0.7500000000000000 C
   0.3752410000000000    0.5314030000000000    0.2500000000000000 C
   0.7056650000000000    0.2068790000000000    0.7500000000000000 C
   0.2943350000000000    0.7931210000000000    0.2500000000000000 C
   0.5012140000000000    0.2943350000000000    0.7500000000000000 C
   0.4987860000000000    0.7056650000000000    0.2500000000000000 C
   0.7931210000000000    0.4987860000000000    0.7500000000000000 C
   0.2068790000000000    0.5012140000000000    0.2500000000000000 C
   0.7432910000000000    0.0897630000000000    0.7500000000000000 N
   0.2567090000000000    0.9102370000000000    0.2500000000000000 N
   0.3464710000000000    0.2567090000000000    0.7500000000000000 N
   0.6535290000000000    0.7432910000000000    0.2500000000000000 N
   0.9102370000000000    0.6535290000000000    0.7500000000000000 N
   0.0897630000000000    0.3464710000000000    0.2500000000000000 N
   0.7784670000000000    0.9908680000000000    0.7500000000000000 N
   0.2215330000000000    0.0091320000000000    0.2500000000000000 N
   0.2124020000000000    0.2215330000000000    0.7500000000000000 N
   0.7875980000000000    0.7784670000000000    0.2500000000000000 N
   0.0091320000000000    0.7875980000000000    0.7500000000000000 N
   0.9908680000000000    0.2124020000000000    0.2500000000000000 N
   0.9886070000000000    0.4090110000000000    0.7500000000000000 O
   0.0113930000000000    0.5909890000000000    0.2500000000000000 O
   0.4204040000000000    0.0113930000000000    0.7500000000000000 O
   0.5795960000000000    0.9886070000000000    0.2500000000000000 O
   0.5909890000000000    0.5795960000000000    0.7500000000000000 O
   0.4090110000000000    0.4204040000000000    0.2500000000000000 O
