unknown system                          
           1
     4.720339   -8.175867    0.000000
     4.720339    8.175867    0.000000
     0.000000    0.000000    6.160698
   C    N    O 
    12    12     6
Direct configuration=     1
   0.84383800  0.37524100  0.75000000
   0.15616200  0.62475900  0.25000000
   0.53140300  0.15616200  0.75000000
   0.46859700  0.84383800  0.25000000
   0.62475900  0.46859700  0.75000000
   0.37524100  0.53140300  0.25000000
   0.70566500  0.20687900  0.75000000
   0.29433500  0.79312100  0.25000000
   0.50121400  0.29433500  0.75000000
   0.49878600  0.70566500  0.25000000
   0.79312100  0.49878600  0.75000000
   0.20687900  0.50121400  0.25000000
   0.74329100  0.08976300  0.75000000
   0.25670900  0.91023700  0.25000000
   0.34647100  0.25670900  0.75000000
   0.65352900  0.74329100  0.25000000
   0.91023700  0.65352900  0.75000000
   0.08976300  0.34647100  0.25000000
   0.77846700  0.99086800  0.75000000
   0.22153300  0.00913200  0.25000000
   0.21240200  0.22153300  0.75000000
   0.78759800  0.77846700  0.25000000
   0.00913200  0.78759800  0.75000000
   0.99086800  0.21240200  0.25000000
   0.98860700  0.40901100  0.75000000
   0.01139300  0.59098900  0.25000000
   0.42040400  0.01139300  0.75000000
   0.57959600  0.98860700  0.25000000
   0.59098900  0.57959600  0.75000000
   0.40901100  0.42040400  0.25000000
