Ca6 N4                                  
   1.00000000000000     
     5.4511326899999997   -0.0034631300000000    3.6764483700000001
     1.9531076100000000    5.0892255799999999    3.6764483800000001
    -0.0050426600000000   -0.0034631100000000    6.5750348799999996
   Ca   N 
     6     4
Direct
     0.7500000000000000    0.4506774099999973    0.0493225900000027
     0.0493225900000027    0.7500000000000000    0.4506774099999973
     0.4506774099999973    0.0493225900000027    0.7500000000000000
     0.9506774099999973    0.2500000000000000    0.5493225900000027
     0.2500000000000000    0.5493225900000027    0.9506774099999973
     0.5493225900000027    0.9506774099999973    0.2500000000000000
     0.8536556500000003    0.8536556500000003    0.8536556500000003
     0.6463443499999997    0.6463443499999997    0.6463443499999997
     0.1463453499999972    0.1463453499999972    0.1463453499999972
     0.3536556500000003    0.3536556500000003    0.3536556500000003
 
  0.00000000E+00  0.00000000E+00  0.00000000E+00
  0.00000000E+00  0.00000000E+00  0.00000000E+00
  0.00000000E+00  0.00000000E+00  0.00000000E+00
  0.00000000E+00  0.00000000E+00  0.00000000E+00
  0.00000000E+00  0.00000000E+00  0.00000000E+00
  0.00000000E+00  0.00000000E+00  0.00000000E+00
  0.00000000E+00  0.00000000E+00  0.00000000E+00
  0.00000000E+00  0.00000000E+00  0.00000000E+00
  0.00000000E+00  0.00000000E+00  0.00000000E+00
  0.00000000E+00  0.00000000E+00  0.00000000E+00
