Ca6N4
1.0
      5.4511327      -0.0034631       3.6764484
      1.9531076       5.0892256       3.6764484
     -0.0050427      -0.0034631       6.5750349
  Ca    N   
  6     4   
Direct
      0.7500000       0.4506774       0.0493226
      0.0493226       0.7500000       0.4506774
      0.4506774       0.0493226       0.7500000
      0.9506774       0.2500000       0.5493226
      0.2500000       0.5493226       0.9506774
      0.5493226       0.9506774       0.2500000
      0.8536557       0.8536557       0.8536557
      0.6463443       0.6463443       0.6463443
      0.1463453       0.1463453       0.1463453
      0.3536557       0.3536557       0.3536557
