Ba1 Mg3                                 
   1.00000000000000     
     3.6756739999999999    0.0000000000000000    0.0000000000000000
     0.0000000000000000    5.2603090000000003    0.0000000000000000
     0.0000000000000000    0.0000000000000000    6.7954309999999998
   Ba   Mg
     1     3
Direct
     0.0000000000000000    0.0000000000000000    0.1593429999999998
     0.5000000000000000    0.0000000000000000    0.6590050000000005
     0.5000000000000000    0.5000000000000000    0.4054519999999968
     0.0000000000000000    0.5000000000000000    0.7762000000000029
 
  0.00000000E+00  0.00000000E+00  0.00000000E+00
  0.00000000E+00  0.00000000E+00  0.00000000E+00
  0.00000000E+00  0.00000000E+00  0.00000000E+00
  0.00000000E+00  0.00000000E+00  0.00000000E+00
