unknown system                          
           1
     3.067385   -5.312866    0.000000
     3.067385    5.312866    0.000000
     0.000000    0.000000    5.141065
   Ga   Hg
     6     2
Direct configuration=     1
   0.16069000  0.32137900  0.25000000
   0.67862100  0.83931000  0.25000000
   0.16069000  0.83931000  0.25000000
   0.83931000  0.67862100  0.75000000
   0.32137900  0.16069000  0.75000000
   0.83931000  0.16069000  0.75000000
   0.33333300  0.66666700  0.75000000
   0.66666700  0.33333300  0.25000000
