Ag1 Pb3                                 
   1.00000000000000     
    -2.4520979999999999    2.4520979999999999    4.7346870000000001
     2.4520979999999999   -2.4520979999999999    4.7346870000000001
     2.4520979999999999    2.4520979999999999   -4.7346870000000001
   Ag   Pb
     1     3
Direct
     0.0000000000000000    0.0000000000000000    0.0000000000000000
     0.7500000000000000    0.2500000000000000    0.5000000000000000
     0.2500000000000000    0.7500000000000000    0.5000000000000000
     0.5000000000000000    0.5000000000000000    0.0000000000000000
 
  0.00000000E+00  0.00000000E+00  0.00000000E+00
  0.00000000E+00  0.00000000E+00  0.00000000E+00
  0.00000000E+00  0.00000000E+00  0.00000000E+00
  0.00000000E+00  0.00000000E+00  0.00000000E+00
