   4   4   0   0
  0.2846865E+02  0.5868802E-09  0.5868802E-09  0.5868802E-09  0.5000000E-15
  1.000000000000000E-004
  CAR 
 unknown system                          
     17.13408768    -11.60763463  301      6.79190090      1.00000000
    -11.608  0.0000E+00  0.0000E+00
    -11.512  0.0000E+00  0.0000E+00
    -11.416  0.0000E+00  0.0000E+00
    -11.320  0.0000E+00  0.0000E+00
    -11.224  0.0000E+00  0.0000E+00
    -11.129  0.0000E+00  0.0000E+00
    -11.033  0.0000E+00  0.0000E+00
    -10.937  0.0000E+00  0.0000E+00
    -10.841  0.0000E+00  0.0000E+00
    -10.745  0.0000E+00  0.0000E+00
    -10.650  0.0000E+00  0.0000E+00
    -10.554  0.3879E-12  0.3716E-13
    -10.458  0.5564E-05  0.5331E-06
    -10.362  0.1147E+00  0.1099E-01
    -10.266  0.1234E+02  0.1193E+01
    -10.171  0.6295E+02  0.7224E+01
    -10.075  0.7403E+02  0.1432E+02
     -9.979  0.8603E+02  0.2256E+02
     -9.883  0.6522E+02  0.2881E+02
     -9.787  0.1240E+02  0.2999E+02
     -9.692  0.5680E-01  0.3000E+02
     -9.596  0.1732E-05  0.3000E+02
     -9.500  0.1011E-12  0.3000E+02
     -9.404  0.0000E+00  0.3000E+02
     -9.308  0.0000E+00  0.3000E+02
     -9.212  0.0000E+00  0.3000E+02
     -9.117  0.0000E+00  0.3000E+02
     -9.021  0.0000E+00  0.3000E+02
     -8.925  0.0000E+00  0.3000E+02
     -8.829  0.0000E+00  0.3000E+02
     -8.733  0.0000E+00  0.3000E+02
     -8.638  0.0000E+00  0.3000E+02
     -8.542  0.0000E+00  0.3000E+02
     -8.446  0.0000E+00  0.3000E+02
     -8.350  0.0000E+00  0.3000E+02
     -8.254  0.0000E+00  0.3000E+02
     -8.159  0.0000E+00  0.3000E+02
     -8.063  0.0000E+00  0.3000E+02
     -7.967  0.0000E+00  0.3000E+02
     -7.871  0.0000E+00  0.3000E+02
     -7.775  0.0000E+00  0.3000E+02
     -7.680  0.0000E+00  0.3000E+02
     -7.584  0.0000E+00  0.3000E+02
     -7.488  0.0000E+00  0.3000E+02
     -7.392  0.0000E+00  0.3000E+02
     -7.296  0.0000E+00  0.3000E+02
     -7.201  0.0000E+00  0.3000E+02
     -7.105  0.0000E+00  0.3000E+02
     -7.009  0.0000E+00  0.3000E+02
     -6.913  0.0000E+00  0.3000E+02
     -6.817  0.0000E+00  0.3000E+02
     -6.722  0.0000E+00  0.3000E+02
     -6.626  0.0000E+00  0.3000E+02
     -6.530  0.0000E+00  0.3000E+02
     -6.434  0.0000E+00  0.3000E+02
     -6.338  0.0000E+00  0.3000E+02
     -6.243  0.0000E+00  0.3000E+02
     -6.147  0.0000E+00  0.3000E+02
     -6.051  0.0000E+00  0.3000E+02
     -5.955  0.0000E+00  0.3000E+02
     -5.859  0.0000E+00  0.3000E+02
     -5.763  0.0000E+00  0.3000E+02
     -5.668  0.0000E+00  0.3000E+02
     -5.572  0.0000E+00  0.3000E+02
     -5.476  0.0000E+00  0.3000E+02
     -5.380  0.0000E+00  0.3000E+02
     -5.284  0.0000E+00  0.3000E+02
     -5.189  0.0000E+00  0.3000E+02
     -5.093  0.0000E+00  0.3000E+02
     -4.997  0.0000E+00  0.3000E+02
     -4.901  0.0000E+00  0.3000E+02
     -4.805  0.0000E+00  0.3000E+02
     -4.710  0.0000E+00  0.3000E+02
     -4.614  0.1489E-13  0.3000E+02
     -4.518  0.2858E-06  0.3000E+02
     -4.422  0.4787E-02  0.3000E+02
     -4.326  0.1456E+00  0.3001E+02
     -4.231  0.2274E+00  0.3004E+02
     -4.135  0.2076E+00  0.3006E+02
     -4.039  0.7042E+00  0.3012E+02
     -3.943  0.1002E+01  0.3022E+02
     -3.847  0.2772E-01  0.3022E+02
     -3.752  0.3751E-01  0.3023E+02
     -3.656  0.1106E+01  0.3033E+02
     -3.560  0.1077E+01  0.3043E+02
     -3.464  0.9180E+00  0.3052E+02
     -3.368  0.1625E+01  0.3068E+02
     -3.273  0.8352E+00  0.3076E+02
     -3.177  0.6864E-02  0.3076E+02
     -3.081  0.3056E+00  0.3079E+02
     -2.985  0.1688E+01  0.3095E+02
     -2.889  0.2063E+01  0.3115E+02
     -2.794  0.1537E+01  0.3130E+02
     -2.698  0.2487E+01  0.3153E+02
     -2.602  0.4235E+00  0.3157E+02
     -2.506  0.2034E-02  0.3157E+02
     -2.410  0.2730E+00  0.3160E+02
     -2.314  0.1702E+01  0.3176E+02
     -2.219  0.1492E+01  0.3191E+02
     -2.123  0.8027E+00  0.3198E+02
     -2.027  0.1445E+01  0.3212E+02
     -1.931  0.1701E+01  0.3228E+02
     -1.835  0.2679E+00  0.3231E+02
     -1.740  0.2241E+01  0.3252E+02
     -1.644  0.1878E+01  0.3270E+02
     -1.548  0.2573E+01  0.3295E+02
     -1.452  0.1571E+01  0.3310E+02
     -1.356  0.2142E+01  0.3331E+02
     -1.261  0.9268E+00  0.3340E+02
     -1.165  0.7393E+00  0.3347E+02
     -1.069  0.1619E+01  0.3362E+02
     -0.973  0.2111E+01  0.3382E+02
     -0.877  0.3248E+01  0.3414E+02
     -0.782  0.1195E+01  0.3425E+02
     -0.686  0.2161E+01  0.3446E+02
     -0.590  0.8249E+00  0.3454E+02
     -0.494  0.2709E+01  0.3480E+02
     -0.398  0.1028E+01  0.3489E+02
     -0.303  0.1744E+01  0.3506E+02
     -0.207  0.3665E+01  0.3541E+02
     -0.111  0.1574E+01  0.3556E+02
     -0.015  0.7399E+00  0.3563E+02
      0.081  0.1681E+01  0.3579E+02
      0.176  0.1114E+01  0.3590E+02
      0.272  0.3210E+00  0.3593E+02
      0.368  0.3221E+00  0.3596E+02
      0.464  0.3544E+00  0.3600E+02
      0.560  0.2955E-01  0.3600E+02
      0.656  0.1600E-04  0.3600E+02
      0.751  0.9076E-11  0.3600E+02
      0.847  0.0000E+00  0.3600E+02
      0.943  0.0000E+00  0.3600E+02
      1.039  0.0000E+00  0.3600E+02
      1.135  0.0000E+00  0.3600E+02
      1.230  0.0000E+00  0.3600E+02
      1.326  0.0000E+00  0.3600E+02
      1.422  0.0000E+00  0.3600E+02
      1.518  0.0000E+00  0.3600E+02
      1.614  0.0000E+00  0.3600E+02
      1.709  0.0000E+00  0.3600E+02
      1.805  0.0000E+00  0.3600E+02
      1.901  0.0000E+00  0.3600E+02
      1.997  0.4253E-09  0.3600E+02
      2.093  0.1532E-03  0.3600E+02
      2.188  0.6307E-01  0.3601E+02
      2.284  0.3041E+00  0.3604E+02
      2.380  0.4582E+01  0.3647E+02
      2.476  0.1434E+02  0.3785E+02
      2.572  0.2074E+02  0.3983E+02
      2.667  0.2416E+02  0.4215E+02
      2.763  0.1753E+02  0.4383E+02
      2.859  0.1840E+02  0.4559E+02
      2.955  0.4092E+01  0.4598E+02
      3.051  0.3384E+00  0.4602E+02
      3.146  0.9376E+00  0.4611E+02
      3.242  0.5315E+00  0.4616E+02
      3.338  0.1532E+01  0.4630E+02
      3.434  0.2113E+01  0.4651E+02
      3.530  0.2128E+01  0.4671E+02
      3.625  0.8589E+00  0.4679E+02
      3.721  0.8929E+00  0.4688E+02
      3.817  0.3139E+01  0.4718E+02
      3.913  0.9905E+00  0.4727E+02
      4.009  0.1999E+01  0.4746E+02
      4.105  0.1514E+01  0.4761E+02
      4.200  0.1777E+01  0.4778E+02
      4.296  0.1930E+01  0.4796E+02
      4.392  0.1223E+01  0.4808E+02
      4.488  0.1974E+01  0.4827E+02
      4.584  0.2363E+01  0.4850E+02
      4.679  0.1344E+01  0.4863E+02
      4.775  0.2532E+01  0.4887E+02
      4.871  0.2507E+01  0.4911E+02
      4.967  0.2417E+01  0.4934E+02
      5.063  0.1485E+01  0.4948E+02
      5.158  0.6100E+00  0.4954E+02
      5.254  0.2396E+01  0.4977E+02
      5.350  0.2835E+01  0.5004E+02
      5.446  0.1578E+01  0.5019E+02
      5.542  0.2568E+01  0.5044E+02
      5.637  0.1683E+01  0.5060E+02
      5.733  0.1282E+01  0.5072E+02
      5.829  0.1744E+01  0.5089E+02
      5.925  0.3737E+01  0.5125E+02
      6.021  0.4315E+01  0.5166E+02
      6.116  0.2181E+01  0.5187E+02
      6.212  0.1154E+01  0.5198E+02
      6.308  0.1745E+01  0.5215E+02
      6.404  0.1492E+01  0.5229E+02
      6.500  0.7056E+00  0.5236E+02
      6.595  0.1265E+01  0.5248E+02
      6.691  0.7614E+00  0.5255E+02
      6.787  0.4417E+01  0.5298E+02
      6.883  0.2479E+01  0.5321E+02
      6.979  0.8069E+00  0.5329E+02
      7.074  0.5266E+00  0.5334E+02
      7.170  0.6965E+00  0.5341E+02
      7.266  0.1104E+01  0.5351E+02
      7.362  0.1852E+01  0.5369E+02
      7.458  0.1455E+01  0.5383E+02
      7.554  0.1906E+01  0.5401E+02
      7.649  0.2646E+01  0.5427E+02
      7.745  0.5380E+01  0.5478E+02
      7.841  0.1876E+01  0.5496E+02
      7.937  0.2641E+01  0.5522E+02
      8.033  0.2254E+01  0.5543E+02
      8.128  0.3630E+01  0.5578E+02
      8.224  0.8511E+00  0.5586E+02
      8.320  0.1353E+01  0.5599E+02
      8.416  0.3340E+01  0.5631E+02
      8.512  0.2156E+01  0.5652E+02
      8.607  0.9149E+00  0.5660E+02
      8.703  0.1285E+01  0.5673E+02
      8.799  0.1213E+01  0.5684E+02
      8.895  0.2009E+01  0.5704E+02
      8.991  0.1068E+01  0.5714E+02
      9.086  0.1983E+01  0.5733E+02
      9.182  0.1525E+01  0.5748E+02
      9.278  0.2212E+01  0.5769E+02
      9.374  0.4071E+01  0.5808E+02
      9.470  0.2780E+01  0.5834E+02
      9.565  0.2543E+01  0.5859E+02
      9.661  0.3511E+01  0.5892E+02
      9.757  0.1046E+01  0.5902E+02
      9.853  0.1777E+01  0.5919E+02
      9.949  0.2111E+01  0.5940E+02
     10.044  0.4194E+01  0.5980E+02
     10.140  0.4883E+01  0.6027E+02
     10.236  0.4088E+01  0.6066E+02
     10.332  0.3279E+01  0.6097E+02
     10.428  0.3010E+01  0.6126E+02
     10.523  0.2504E+01  0.6150E+02
     10.619  0.1863E+01  0.6168E+02
     10.715  0.3674E+01  0.6203E+02
     10.811  0.1947E+01  0.6222E+02
     10.907  0.1054E+01  0.6232E+02
     11.003  0.2012E+01  0.6251E+02
     11.098  0.2844E+01  0.6278E+02
     11.194  0.3178E+01  0.6309E+02
     11.290  0.2308E+01  0.6331E+02
     11.386  0.4293E+01  0.6372E+02
     11.482  0.1529E+01  0.6387E+02
     11.577  0.3374E+01  0.6419E+02
     11.673  0.3079E+01  0.6448E+02
     11.769  0.2372E+01  0.6471E+02
     11.865  0.5535E+00  0.6477E+02
     11.961  0.2606E+01  0.6501E+02
     12.056  0.2351E+01  0.6524E+02
     12.152  0.6928E+00  0.6531E+02
     12.248  0.1636E+01  0.6546E+02
     12.344  0.9356E+00  0.6555E+02
     12.440  0.1365E+01  0.6568E+02
     12.535  0.1140E+01  0.6579E+02
     12.631  0.9176E+00  0.6588E+02
     12.727  0.2556E+01  0.6613E+02
     12.823  0.5292E+01  0.6663E+02
     12.919  0.3195E+01  0.6694E+02
     13.014  0.2343E+01  0.6716E+02
     13.110  0.1076E+01  0.6727E+02
     13.206  0.3620E+00  0.6730E+02
     13.302  0.2372E+01  0.6753E+02
     13.398  0.3261E+01  0.6784E+02
     13.493  0.1806E+01  0.6801E+02
     13.589  0.1374E+01  0.6815E+02
     13.685  0.1846E+01  0.6832E+02
     13.781  0.1004E+01  0.6842E+02
     13.877  0.3001E+00  0.6845E+02
     13.972  0.1118E+01  0.6855E+02
     14.068  0.2246E+01  0.6877E+02
     14.164  0.2501E+01  0.6901E+02
     14.260  0.3528E+01  0.6935E+02
     14.356  0.1268E+01  0.6947E+02
     14.452  0.2217E+01  0.6968E+02
     14.547  0.2179E+01  0.6989E+02
     14.643  0.3495E+01  0.7022E+02
     14.739  0.3719E+01  0.7058E+02
     14.835  0.2398E+01  0.7081E+02
     14.931  0.2432E+01  0.7104E+02
     15.026  0.1524E+01  0.7119E+02
     15.122  0.1501E+01  0.7133E+02
     15.218  0.3645E+01  0.7168E+02
     15.314  0.7556E+00  0.7175E+02
     15.410  0.9303E+00  0.7184E+02
     15.505  0.1123E+01  0.7195E+02
     15.601  0.3120E+00  0.7198E+02
     15.697  0.1009E-02  0.7198E+02
     15.793  0.3134E-01  0.7198E+02
     15.889  0.1538E+00  0.7200E+02
     15.984  0.8176E-02  0.7200E+02
     16.080  0.8925E-06  0.7200E+02
     16.176  0.8751E-13  0.7200E+02
     16.272  0.0000E+00  0.7200E+02
     16.368  0.0000E+00  0.7200E+02
     16.463  0.0000E+00  0.7200E+02
     16.559  0.0000E+00  0.7200E+02
     16.655  0.0000E+00  0.7200E+02
     16.751  0.0000E+00  0.7200E+02
     16.847  0.0000E+00  0.7200E+02
     16.942  0.0000E+00  0.7200E+02
     17.038  0.0000E+00  0.7200E+02
     17.134  0.0000E+00  0.7200E+02
