unknown system                          
           1
     4.003997    0.000000    0.000000
     0.000000    5.847319    0.000000
     0.000000    0.000000    7.524537
   As   Rh
     4     8
Direct configuration=     1
   0.25000000  0.23344300  0.61160400
   0.25000000  0.73344300  0.88839600
   0.75000000  0.76655700  0.38839600
   0.75000000  0.26655700  0.11160400
   0.25000000  0.03198200  0.32162800
   0.25000000  0.53198200  0.17837200
   0.75000000  0.96801800  0.67837200
   0.75000000  0.46801800  0.82162800
   0.25000000  0.14721000  0.92668500
   0.25000000  0.64721000  0.57331500
   0.75000000  0.85279000  0.07331500
   0.75000000  0.35279000  0.42668500
