Mg12 Ru8                                
   1.00000000000000     
     6.9053534799999996    0.0000000000000000    0.0000000000000000
     0.0000000000000000    6.9053534799999996    0.0000000000000000
     0.0000000000000000    0.0000000000000000    6.9053534799999996
   Mg   Ru
    12     8
Direct
     0.6250000000000000    0.2939273799999995    0.5439273799999995
     0.7060726200000005    0.0439273799999995    0.8750000000000000
     0.5439273799999995    0.6250000000000000    0.2939273799999995
     0.9560726200000005    0.3750000000000000    0.7939273799999995
     0.2939273799999995    0.5439273799999995    0.6250000000000000
     0.4560726200000005    0.1250000000000000    0.2060726200000005
     0.0439273799999995    0.8750000000000000    0.7060726200000005
     0.7939273799999995    0.9560726200000005    0.3750000000000000
     0.1250000000000000    0.2060726200000005    0.4560726200000005
     0.3750000000000000    0.7939273799999995    0.9560726200000005
     0.8750000000000000    0.7060726200000005    0.0439273799999995
     0.2060726200000005    0.4560726200000005    0.1250000000000000
     0.6750417000000013    0.6750417000000013    0.6750417000000013
     0.9250417000000013    0.5749582999999987    0.4250417000000013
     0.5749582999999987    0.4250417000000013    0.9250417000000013
     0.4250417000000013    0.9250417000000013    0.5749582999999987
     0.1750417000000013    0.8249582999999987    0.3249582999999987
     0.8249582999999987    0.3249582999999987    0.1750417000000013
     0.3249582999999987    0.1750417000000013    0.8249582999999987
     0.0749582999999987    0.0749582999999987    0.0749582999999987
 
  0.00000000E+00  0.00000000E+00  0.00000000E+00
  0.00000000E+00  0.00000000E+00  0.00000000E+00
  0.00000000E+00  0.00000000E+00  0.00000000E+00
  0.00000000E+00  0.00000000E+00  0.00000000E+00
  0.00000000E+00  0.00000000E+00  0.00000000E+00
  0.00000000E+00  0.00000000E+00  0.00000000E+00
  0.00000000E+00  0.00000000E+00  0.00000000E+00
  0.00000000E+00  0.00000000E+00  0.00000000E+00
  0.00000000E+00  0.00000000E+00  0.00000000E+00
  0.00000000E+00  0.00000000E+00  0.00000000E+00
  0.00000000E+00  0.00000000E+00  0.00000000E+00
  0.00000000E+00  0.00000000E+00  0.00000000E+00
  0.00000000E+00  0.00000000E+00  0.00000000E+00
  0.00000000E+00  0.00000000E+00  0.00000000E+00
  0.00000000E+00  0.00000000E+00  0.00000000E+00
  0.00000000E+00  0.00000000E+00  0.00000000E+00
  0.00000000E+00  0.00000000E+00  0.00000000E+00
  0.00000000E+00  0.00000000E+00  0.00000000E+00
  0.00000000E+00  0.00000000E+00  0.00000000E+00
  0.00000000E+00  0.00000000E+00  0.00000000E+00
