       N       E                     dE             d eps       ncg     rms          rms(c)
DAV:   1     0.285982505710E+04    0.28598E+04   -0.14456E+05 17040   0.211E+03
DAV:   2     0.477782401937E+02   -0.28120E+04   -0.27509E+04 15720   0.637E+02
DAV:   3    -0.922981454242E+02   -0.14008E+03   -0.12970E+03 19792   0.135E+02
DAV:   4    -0.983103046991E+02   -0.60122E+01   -0.58069E+01 17392   0.207E+01
DAV:   5    -0.985147101916E+02   -0.20441E+00   -0.20342E+00 19448   0.346E+00    0.233E+01
DAV:   6    -0.955422577682E+02    0.29725E+01   -0.15569E+01 16720   0.148E+01    0.595E+00
DAV:   7    -0.947107172433E+02    0.83154E+00   -0.46012E+00 16592   0.662E+00    0.599E+00
DAV:   8    -0.943464788847E+02    0.36424E+00   -0.12492E+00 16344   0.459E+00    0.104E+00
DAV:   9    -0.943397396373E+02    0.67392E-02   -0.93552E-02 19968   0.889E-01    0.494E-01
DAV:  10    -0.943394885521E+02    0.25109E-03   -0.12887E-02 17688   0.706E-01    0.408E-01
DAV:  11    -0.943376101190E+02    0.18784E-02   -0.48004E-03 17600   0.510E-01    0.102E-01
DAV:  12    -0.943375876867E+02    0.22432E-04   -0.11825E-03 16736   0.169E-01    0.805E-02
DAV:  13    -0.943375151651E+02    0.72522E-04   -0.24064E-04 17688   0.116E-01    0.301E-02
DAV:  14    -0.943374977734E+02    0.17392E-04   -0.45645E-05 17056   0.367E-02    0.142E-02
DAV:  15    -0.943374949622E+02    0.28113E-05   -0.11713E-05 14744   0.196E-02    0.104E-02
DAV:  16    -0.943374928026E+02    0.21596E-05   -0.39068E-06 12976   0.143E-02    0.311E-03
DAV:  17    -0.943374925417E+02    0.26096E-06   -0.79231E-07  9128   0.657E-03
   1 F= -.94337493E+02 E0= -.94335919E+02  d E =-.314768E-02
