N8 O4                                   
   1.00000000000000     
     4.3726669999999999    0.0000000000000000    0.0000000000000000
     0.0000000000000000    5.4001159999999997    0.0000000000000000
     0.0000000000000000    0.0000000000000000    6.6272940000000000
   N    O 
     8     4
Direct
     0.2500000000000000    0.2100149999999985    0.8725990000000010
     0.2500000000000000    0.2899850000000015    0.3725990000000010
     0.7500000000000000    0.7899850000000015    0.1274009999999990
     0.7500000000000000    0.7100149999999985    0.6274009999999990
     0.2500000000000000    0.5011399999999995    0.3628289999999978
     0.2500000000000000    0.9988600000000005    0.8628289999999978
     0.7500000000000000    0.4988600000000005    0.6371710000000022
     0.7500000000000000    0.0011399999999995    0.1371710000000022
     0.2500000000000000    0.4306750000000008    0.8857489999999970
     0.2500000000000000    0.0693249999999992    0.3857489999999970
     0.7500000000000000    0.5693249999999992    0.1142510000000030
     0.7500000000000000    0.9306750000000008    0.6142510000000030
 
  0.00000000E+00  0.00000000E+00  0.00000000E+00
  0.00000000E+00  0.00000000E+00  0.00000000E+00
  0.00000000E+00  0.00000000E+00  0.00000000E+00
  0.00000000E+00  0.00000000E+00  0.00000000E+00
  0.00000000E+00  0.00000000E+00  0.00000000E+00
  0.00000000E+00  0.00000000E+00  0.00000000E+00
  0.00000000E+00  0.00000000E+00  0.00000000E+00
  0.00000000E+00  0.00000000E+00  0.00000000E+00
  0.00000000E+00  0.00000000E+00  0.00000000E+00
  0.00000000E+00  0.00000000E+00  0.00000000E+00
  0.00000000E+00  0.00000000E+00  0.00000000E+00
  0.00000000E+00  0.00000000E+00  0.00000000E+00
