       N       E                     dE             d eps       ncg     rms          rms(c)
DAV:   1     0.425195476822E+03    0.42520E+03   -0.36482E+04 11520   0.138E+03
DAV:   2    -0.592277529290E+02   -0.48442E+03   -0.46127E+03 14912   0.338E+02
DAV:   3    -0.892945911740E+02   -0.30067E+02   -0.29726E+02 14200   0.850E+01
DAV:   4    -0.896281278098E+02   -0.33354E+00   -0.33300E+00 13408   0.992E+00
DAV:   5    -0.896331331519E+02   -0.50053E-02   -0.50037E-02 14168   0.112E+00    0.183E+01
DAV:   6    -0.854589897785E+02    0.41741E+01   -0.80254E+00 14280   0.168E+01    0.962E+00
DAV:   7    -0.849416431648E+02    0.51735E+00   -0.14529E+00 14120   0.789E+00    0.544E+00
DAV:   8    -0.848366750351E+02    0.10497E+00   -0.52440E-01 14304   0.475E+00    0.179E+00
DAV:   9    -0.848193140061E+02    0.17361E-01   -0.65243E-02 14248   0.215E+00    0.941E-01
DAV:  10    -0.848183896242E+02    0.92438E-03   -0.25231E-02 14168   0.841E-01    0.287E-01
DAV:  11    -0.848178903475E+02    0.49928E-03   -0.29538E-03 13688   0.455E-01    0.744E-02
DAV:  12    -0.848179894164E+02   -0.99069E-04   -0.42380E-04 13272   0.138E-01    0.261E-02
DAV:  13    -0.848180064074E+02   -0.16991E-04   -0.54185E-05 14320   0.406E-02    0.110E-02
DAV:  14    -0.848180119538E+02   -0.55465E-05   -0.62856E-06 12784   0.157E-02    0.498E-03
DAV:  15    -0.848180124873E+02   -0.53347E-06   -0.68230E-07  8432   0.485E-03
   1 F= -.84818012E+02 E0= -.84818012E+02  d E =-.102853E-15
