N8O4
1.0
      4.3726670       0.0000000       0.0000000
      0.0000000       5.4001160       0.0000000
      0.0000000       0.0000000       6.6272940
  N     O   
  8     4   
Direct
      0.2500000       0.2100150       0.8725990
      0.2500000       0.2899850       0.3725990
      0.7500000       0.7899850       0.1274010
      0.7500000       0.7100150       0.6274010
      0.2500000       0.5011400       0.3628290
      0.2500000       0.9988600       0.8628290
      0.7500000       0.4988600       0.6371710
      0.7500000       0.0011400       0.1371710
      0.2500000       0.4306750       0.8857490
      0.2500000       0.0693250       0.3857490
      0.7500000       0.5693250       0.1142510
      0.7500000       0.9306750       0.6142510
