  16  16   0   0
  0.1151881E+02  0.4548101E-09  0.6759396E-09  0.6759498E-09  0.5000000E-15
  1.000000000000000E-004
  CAR 
 unknown system                          
     22.23854060    -34.68581744  301     11.67171461      1.00000000
    -34.686  0.0000E+00  0.0000E+00
    -34.496  0.0000E+00  0.0000E+00
    -34.306  0.0000E+00  0.0000E+00
    -34.117  0.0000E+00  0.0000E+00
    -33.927  0.0000E+00  0.0000E+00
    -33.737  0.0000E+00  0.0000E+00
    -33.547  0.0000E+00  0.0000E+00
    -33.358  0.0000E+00  0.0000E+00
    -33.168  0.0000E+00  0.0000E+00
    -32.978  0.0000E+00  0.0000E+00
    -32.788  0.0000E+00  0.0000E+00
    -32.599  0.0000E+00  0.0000E+00
    -32.409  0.0000E+00  0.0000E+00
    -32.219  0.1110E-02  0.2107E-03
    -32.029  0.3453E+01  0.6553E+00
    -31.840  0.3568E+01  0.1332E+01
    -31.650  0.2829E+01  0.1869E+01
    -31.460  0.7409E+02  0.1593E+02
    -31.270  0.1190E+03  0.3852E+02
    -31.081  0.1059E+03  0.5861E+02
    -30.891  0.5541E+01  0.5966E+02
    -30.701  0.1772E+01  0.6000E+02
    -30.511  0.1496E-06  0.6000E+02
    -30.322  0.0000E+00  0.6000E+02
    -30.132  0.0000E+00  0.6000E+02
    -29.942  0.0000E+00  0.6000E+02
    -29.752  0.0000E+00  0.6000E+02
    -29.563  0.0000E+00  0.6000E+02
    -29.373  0.0000E+00  0.6000E+02
    -29.183  0.0000E+00  0.6000E+02
    -28.993  0.0000E+00  0.6000E+02
    -28.804  0.0000E+00  0.6000E+02
    -28.614  0.0000E+00  0.6000E+02
    -28.424  0.0000E+00  0.6000E+02
    -28.234  0.0000E+00  0.6000E+02
    -28.045  0.0000E+00  0.6000E+02
    -27.855  0.0000E+00  0.6000E+02
    -27.665  0.0000E+00  0.6000E+02
    -27.475  0.0000E+00  0.6000E+02
    -27.286  0.0000E+00  0.6000E+02
    -27.096  0.0000E+00  0.6000E+02
    -26.906  0.0000E+00  0.6000E+02
    -26.716  0.0000E+00  0.6000E+02
    -26.527  0.0000E+00  0.6000E+02
    -26.337  0.0000E+00  0.6000E+02
    -26.147  0.0000E+00  0.6000E+02
    -25.957  0.0000E+00  0.6000E+02
    -25.768  0.0000E+00  0.6000E+02
    -25.578  0.0000E+00  0.6000E+02
    -25.388  0.0000E+00  0.6000E+02
    -25.198  0.0000E+00  0.6000E+02
    -25.009  0.0000E+00  0.6000E+02
    -24.819  0.0000E+00  0.6000E+02
    -24.629  0.0000E+00  0.6000E+02
    -24.439  0.0000E+00  0.6000E+02
    -24.250  0.0000E+00  0.6000E+02
    -24.060  0.0000E+00  0.6000E+02
    -23.870  0.0000E+00  0.6000E+02
    -23.680  0.0000E+00  0.6000E+02
    -23.491  0.0000E+00  0.6000E+02
    -23.301  0.0000E+00  0.6000E+02
    -23.111  0.0000E+00  0.6000E+02
    -22.921  0.0000E+00  0.6000E+02
    -22.732  0.0000E+00  0.6000E+02
    -22.542  0.0000E+00  0.6000E+02
    -22.352  0.0000E+00  0.6000E+02
    -22.162  0.0000E+00  0.6000E+02
    -21.973  0.0000E+00  0.6000E+02
    -21.783  0.0000E+00  0.6000E+02
    -21.593  0.0000E+00  0.6000E+02
    -21.403  0.0000E+00  0.6000E+02
    -21.214  0.0000E+00  0.6000E+02
    -21.024  0.0000E+00  0.6000E+02
    -20.834  0.0000E+00  0.6000E+02
    -20.644  0.0000E+00  0.6000E+02
    -20.455  0.0000E+00  0.6000E+02
    -20.265  0.0000E+00  0.6000E+02
    -20.075  0.0000E+00  0.6000E+02
    -19.885  0.0000E+00  0.6000E+02
    -19.696  0.0000E+00  0.6000E+02
    -19.506  0.0000E+00  0.6000E+02
    -19.316  0.0000E+00  0.6000E+02
    -19.126  0.0000E+00  0.6000E+02
    -18.937  0.0000E+00  0.6000E+02
    -18.747  0.0000E+00  0.6000E+02
    -18.557  0.0000E+00  0.6000E+02
    -18.368  0.0000E+00  0.6000E+02
    -18.178  0.0000E+00  0.6000E+02
    -17.988  0.0000E+00  0.6000E+02
    -17.798  0.0000E+00  0.6000E+02
    -17.609  0.0000E+00  0.6000E+02
    -17.419  0.0000E+00  0.6000E+02
    -17.229  0.0000E+00  0.6000E+02
    -17.039  0.0000E+00  0.6000E+02
    -16.850  0.0000E+00  0.6000E+02
    -16.660  0.0000E+00  0.6000E+02
    -16.470  0.0000E+00  0.6000E+02
    -16.280  0.0000E+00  0.6000E+02
    -16.091  0.0000E+00  0.6000E+02
    -15.901  0.0000E+00  0.6000E+02
    -15.711  0.0000E+00  0.6000E+02
    -15.521  0.0000E+00  0.6000E+02
    -15.332  0.0000E+00  0.6000E+02
    -15.142  0.0000E+00  0.6000E+02
    -14.952  0.0000E+00  0.6000E+02
    -14.762  0.0000E+00  0.6000E+02
    -14.573  0.0000E+00  0.6000E+02
    -14.383  0.0000E+00  0.6000E+02
    -14.193  0.0000E+00  0.6000E+02
    -14.003  0.0000E+00  0.6000E+02
    -13.814  0.0000E+00  0.6000E+02
    -13.624  0.0000E+00  0.6000E+02
    -13.434  0.0000E+00  0.6000E+02
    -13.244  0.0000E+00  0.6000E+02
    -13.055  0.0000E+00  0.6000E+02
    -12.865  0.0000E+00  0.6000E+02
    -12.675  0.0000E+00  0.6000E+02
    -12.485  0.0000E+00  0.6000E+02
    -12.296  0.0000E+00  0.6000E+02
    -12.106  0.0000E+00  0.6000E+02
    -11.916  0.0000E+00  0.6000E+02
    -11.726  0.0000E+00  0.6000E+02
    -11.537  0.0000E+00  0.6000E+02
    -11.347  0.0000E+00  0.6000E+02
    -11.157  0.0000E+00  0.6000E+02
    -10.967  0.0000E+00  0.6000E+02
    -10.778  0.0000E+00  0.6000E+02
    -10.588  0.0000E+00  0.6000E+02
    -10.398  0.0000E+00  0.6000E+02
    -10.208  0.0000E+00  0.6000E+02
    -10.019  0.0000E+00  0.6000E+02
     -9.829  0.0000E+00  0.6000E+02
     -9.639  0.0000E+00  0.6000E+02
     -9.449  0.0000E+00  0.6000E+02
     -9.260  0.0000E+00  0.6000E+02
     -9.070  0.0000E+00  0.6000E+02
     -8.880  0.0000E+00  0.6000E+02
     -8.690  0.0000E+00  0.6000E+02
     -8.501  0.0000E+00  0.6000E+02
     -8.311  0.0000E+00  0.6000E+02
     -8.121  0.0000E+00  0.6000E+02
     -7.931  0.0000E+00  0.6000E+02
     -7.742  0.0000E+00  0.6000E+02
     -7.552  0.0000E+00  0.6000E+02
     -7.362  0.0000E+00  0.6000E+02
     -7.172  0.0000E+00  0.6000E+02
     -6.983  0.0000E+00  0.6000E+02
     -6.793  0.0000E+00  0.6000E+02
     -6.603  0.0000E+00  0.6000E+02
     -6.413  0.0000E+00  0.6000E+02
     -6.224  0.0000E+00  0.6000E+02
     -6.034  0.0000E+00  0.6000E+02
     -5.844  0.0000E+00  0.6000E+02
     -5.654  0.0000E+00  0.6000E+02
     -5.465  0.0000E+00  0.6000E+02
     -5.275  0.0000E+00  0.6000E+02
     -5.085  0.0000E+00  0.6000E+02
     -4.895  0.0000E+00  0.6000E+02
     -4.706  0.0000E+00  0.6000E+02
     -4.516  0.0000E+00  0.6000E+02
     -4.326  0.0000E+00  0.6000E+02
     -4.136  0.0000E+00  0.6000E+02
     -3.947  0.0000E+00  0.6000E+02
     -3.757  0.0000E+00  0.6000E+02
     -3.567  0.0000E+00  0.6000E+02
     -3.377  0.0000E+00  0.6000E+02
     -3.188  0.0000E+00  0.6000E+02
     -2.998  0.0000E+00  0.6000E+02
     -2.808  0.0000E+00  0.6000E+02
     -2.618  0.0000E+00  0.6000E+02
     -2.429  0.0000E+00  0.6000E+02
     -2.239  0.0000E+00  0.6000E+02
     -2.049  0.0000E+00  0.6000E+02
     -1.859  0.0000E+00  0.6000E+02
     -1.670  0.0000E+00  0.6000E+02
     -1.480  0.0000E+00  0.6000E+02
     -1.290  0.0000E+00  0.6000E+02
     -1.100  0.0000E+00  0.6000E+02
     -0.911  0.4144E-15  0.6000E+02
     -0.721  0.1394E-02  0.6000E+02
     -0.531  0.7126E+00  0.6014E+02
     -0.341  0.9519E+00  0.6032E+02
     -0.152  0.1714E+01  0.6064E+02
      0.038  0.1956E+01  0.6101E+02
      0.228  0.1328E+01  0.6126E+02
      0.418  0.3615E+00  0.6133E+02
      0.607  0.6817E+00  0.6146E+02
      0.797  0.1308E+01  0.6171E+02
      0.987  0.1333E+01  0.6196E+02
      1.177  0.9681E+00  0.6215E+02
      1.366  0.1494E+01  0.6243E+02
      1.556  0.2084E+01  0.6283E+02
      1.746  0.3767E+01  0.6354E+02
      1.936  0.2855E+01  0.6408E+02
      2.125  0.3592E+01  0.6476E+02
      2.315  0.3980E+01  0.6552E+02
      2.505  0.2850E+01  0.6606E+02
      2.695  0.1279E+01  0.6630E+02
      2.884  0.4559E+01  0.6717E+02
      3.074  0.5764E+01  0.6826E+02
      3.264  0.5465E+01  0.6930E+02
      3.454  0.4215E+01  0.7010E+02
      3.643  0.5013E+01  0.7105E+02
      3.833  0.1495E+01  0.7133E+02
      4.023  0.7505E-05  0.7133E+02
      4.212  0.0000E+00  0.7133E+02
      4.402  0.0000E+00  0.7133E+02
      4.592  0.2647E-07  0.7133E+02
      4.782  0.9093E+00  0.7151E+02
      4.971  0.2604E+01  0.7200E+02
      5.161  0.2364E+00  0.7204E+02
      5.351  0.1900E+01  0.7241E+02
      5.541  0.5297E+01  0.7341E+02
      5.730  0.3973E+01  0.7416E+02
      5.920  0.6744E+01  0.7544E+02
      6.110  0.7213E+01  0.7681E+02
      6.300  0.2301E+01  0.7725E+02
      6.489  0.7296E+01  0.7863E+02
      6.679  0.5200E+01  0.7962E+02
      6.869  0.4526E+01  0.8048E+02
      7.059  0.8369E+01  0.8207E+02
      7.248  0.5028E+01  0.8302E+02
      7.438  0.5658E+01  0.8409E+02
      7.628  0.9676E+01  0.8593E+02
      7.818  0.1067E+02  0.8796E+02
      8.007  0.1100E+02  0.9004E+02
      8.197  0.1380E+02  0.9266E+02
      8.387  0.1539E+02  0.9558E+02
      8.577  0.1621E+02  0.9866E+02
      8.766  0.1651E+02  0.1018E+03
      8.956  0.1574E+02  0.1048E+03
      9.146  0.1536E+02  0.1077E+03
      9.336  0.1616E+02  0.1108E+03
      9.525  0.7231E+01  0.1121E+03
      9.715  0.1817E+02  0.1156E+03
      9.905  0.1843E+02  0.1191E+03
     10.095  0.2103E+02  0.1231E+03
     10.284  0.1426E+02  0.1258E+03
     10.474  0.1487E+02  0.1286E+03
     10.664  0.1573E+02  0.1316E+03
     10.854  0.1237E+02  0.1339E+03
     11.043  0.9584E+01  0.1357E+03
     11.233  0.1241E+02  0.1381E+03
     11.423  0.1232E+02  0.1404E+03
     11.613  0.1496E+02  0.1433E+03
     11.802  0.1326E+02  0.1458E+03
     11.992  0.2246E+02  0.1501E+03
     12.182  0.2123E+02  0.1541E+03
     12.372  0.1885E+02  0.1577E+03
     12.561  0.1651E+02  0.1608E+03
     12.751  0.1336E+02  0.1633E+03
     12.941  0.1714E+02  0.1666E+03
     13.131  0.2602E+02  0.1715E+03
     13.320  0.2316E+02  0.1759E+03
     13.510  0.1332E+02  0.1784E+03
     13.700  0.9767E+01  0.1803E+03
     13.890  0.1035E+02  0.1823E+03
     14.079  0.5319E+01  0.1833E+03
     14.269  0.6091E+01  0.1844E+03
     14.459  0.7766E+01  0.1859E+03
     14.649  0.8558E+01  0.1875E+03
     14.838  0.6228E+01  0.1887E+03
     15.028  0.6413E+01  0.1899E+03
     15.218  0.6127E+01  0.1911E+03
     15.408  0.5255E+01  0.1921E+03
     15.597  0.6589E+01  0.1933E+03
     15.787  0.6037E+01  0.1945E+03
     15.977  0.8718E+01  0.1961E+03
     16.167  0.8971E+01  0.1978E+03
     16.356  0.5265E+01  0.1988E+03
     16.546  0.5165E+01  0.1998E+03
     16.736  0.9586E+01  0.2016E+03
     16.926  0.7052E+01  0.2030E+03
     17.115  0.7299E+01  0.2043E+03
     17.305  0.6867E+01  0.2056E+03
     17.495  0.3678E+01  0.2063E+03
     17.685  0.4868E+01  0.2073E+03
     17.874  0.7120E+01  0.2086E+03
     18.064  0.9333E+01  0.2104E+03
     18.254  0.7153E+01  0.2117E+03
     18.444  0.5158E+01  0.2127E+03
     18.633  0.2896E+01  0.2133E+03
     18.823  0.6312E+01  0.2145E+03
     19.013  0.1346E+02  0.2170E+03
     19.203  0.6222E+02  0.2288E+03
     19.392  0.1194E+02  0.2311E+03
     19.582  0.4352E+01  0.2319E+03
     19.772  0.3819E+00  0.2320E+03
     19.962  0.3540E-04  0.2320E+03
     20.151  0.0000E+00  0.2320E+03
     20.341  0.0000E+00  0.2320E+03
     20.531  0.0000E+00  0.2320E+03
     20.721  0.0000E+00  0.2320E+03
     20.910  0.0000E+00  0.2320E+03
     21.100  0.0000E+00  0.2320E+03
     21.290  0.0000E+00  0.2320E+03
     21.480  0.0000E+00  0.2320E+03
     21.669  0.0000E+00  0.2320E+03
     21.859  0.0000E+00  0.2320E+03
     22.049  0.0000E+00  0.2320E+03
     22.239  0.0000E+00  0.2320E+03
