       N       E                     dE             d eps       ncg     rms          rms(c)
DAV:   1     0.204255323178E+04    0.20426E+04   -0.77407E+04 22272   0.158E+03
DAV:   2     0.552695552398E+01   -0.20370E+04   -0.19057E+04 22272   0.492E+02
DAV:   3    -0.150344067631E+03   -0.15587E+03   -0.14278E+03 23016   0.151E+02
DAV:   4    -0.155890697240E+03   -0.55466E+01   -0.54665E+01 25816   0.273E+01
DAV:   5    -0.156047887098E+03   -0.15719E+00   -0.15710E+00 30112   0.402E+00    0.514E+01
DAV:   6    -0.142824548585E+03    0.13223E+02   -0.14113E+02 24112   0.633E+01    0.326E+01
DAV:   7    -0.163237834979E+03   -0.20413E+02   -0.67940E+01 25156   0.536E+01    0.649E+01
DAV:   8    -0.133321228658E+03    0.29917E+02   -0.34816E+01 27124   0.402E+01    0.107E+01
DAV:   9    -0.132875383319E+03    0.44585E+00   -0.36453E+00 25448   0.628E+00    0.449E+00
DAV:  10    -0.132733804746E+03    0.14158E+00   -0.61845E-01 25788   0.443E+00    0.320E+00
DAV:  11    -0.132754971406E+03   -0.21167E-01   -0.19193E-01 29364   0.436E+00    0.340E+00
DAV:  12    -0.132695697525E+03    0.59274E-01   -0.50769E-02 29296   0.242E+00    0.128E+00
DAV:  13    -0.132709820175E+03   -0.14123E-01   -0.29341E-02 30332   0.169E+00    0.183E+00
DAV:  14    -0.132693292669E+03    0.16528E-01   -0.21450E-02 28568   0.144E+00    0.429E-01
DAV:  15    -0.132694293236E+03   -0.10006E-02   -0.39377E-03 29284   0.560E-01    0.518E-01
DAV:  16    -0.132693220536E+03    0.10727E-02   -0.17546E-03 28072   0.422E-01    0.215E-01
DAV:  17    -0.132693336986E+03   -0.11645E-03   -0.37891E-04 30728   0.172E-01    0.189E-01
DAV:  18    -0.132693166929E+03    0.17006E-03   -0.27017E-04 28624   0.174E-01    0.649E-02
DAV:  19    -0.132693178249E+03   -0.11320E-04   -0.65651E-05 26968   0.646E-02    0.708E-02
DAV:  20    -0.132693160423E+03    0.17827E-04   -0.31689E-05 26740   0.574E-02    0.419E-02
DAV:  21    -0.132693157711E+03    0.27111E-05   -0.36720E-06 24904   0.121E-02    0.191E-02
DAV:  22    -0.132693157281E+03    0.43077E-06   -0.14696E-06 16508   0.119E-02
   1 F= -.13269316E+03 E0= -.13268554E+03  d E =-.152303E-01
