Mg2 F4                                  
   1.00000000000000     
     3.0923300000000000    0.0000000000000000    0.0000000000000000
     0.0000000000000000    4.6439750000000002    0.0000000000000000
     0.0000000000000000    0.0000000000000000    4.7349530000000000
   Mg   F 
     2     4
Direct
     0.5000000000000000    0.5000000000000000    0.5000000000000000
     0.0000000000000000    0.0000000000000000    0.0000000000000000
     0.5000000000000000    0.7858319999999992    0.1798160000000024
     0.5000000000000000    0.2141680000000008    0.8201839999999976
     0.0000000000000000    0.2858319999999992    0.3201839999999976
     0.0000000000000000    0.7141680000000008    0.6798160000000024
 
  0.00000000E+00  0.00000000E+00  0.00000000E+00
  0.00000000E+00  0.00000000E+00  0.00000000E+00
  0.00000000E+00  0.00000000E+00  0.00000000E+00
  0.00000000E+00  0.00000000E+00  0.00000000E+00
  0.00000000E+00  0.00000000E+00  0.00000000E+00
  0.00000000E+00  0.00000000E+00  0.00000000E+00
