       N       E                     dE             d eps       ncg     rms          rms(c)
DAV:   1     0.465699493575E+03    0.46570E+03   -0.32423E+04 16968   0.217E+03
DAV:   2    -0.148688720176E+02   -0.48057E+03   -0.47482E+03 19240   0.549E+02
DAV:   3    -0.338626633278E+02   -0.18994E+02   -0.18981E+02 18832   0.125E+02
DAV:   4    -0.340429222453E+02   -0.18026E+00   -0.18024E+00 18256   0.125E+01
DAV:   5    -0.340447878787E+02   -0.18656E-02   -0.18656E-02 18752   0.128E+00    0.100E+01
DAV:   6    -0.313942684845E+02    0.26505E+01   -0.13364E+01 15920   0.239E+01    0.316E+00
DAV:   7    -0.314098572899E+02   -0.15589E-01   -0.10543E-01 17536   0.291E+00    0.193E+00
DAV:   8    -0.314401542172E+02   -0.30297E-01   -0.60937E-02 17144   0.284E+00    0.139E-01
DAV:   9    -0.314419472170E+02   -0.17930E-02   -0.27246E-03 20440   0.448E-01    0.665E-02
DAV:  10    -0.314420778093E+02   -0.13059E-03   -0.17079E-04 19120   0.108E-01    0.134E-02
DAV:  11    -0.314420778059E+02    0.33651E-08   -0.40486E-05 18960   0.466E-02    0.775E-03
DAV:  12    -0.314420781470E+02   -0.34104E-06   -0.14003E-05 18752   0.274E-02    0.368E-03
DAV:  13    -0.314420779549E+02    0.19206E-06   -0.15973E-06 13360   0.106E-02
   1 F= -.31442078E+02 E0= -.31442078E+02  d E =-.493787E-25
