Rb6 O3                                  
   1.00000000000000     
     6.3290843700000003   -3.6694936000000000   -0.0043519800000000
    -6.3188152500000001    3.6644775500000000    5.9526387500000002
    -0.0025943100000000   -7.3219507999999998    5.9466931499999998
   Rb   O 
     6     3
Direct
     0.1989269500000006    0.8700668899999968    0.0004916299999991
     0.1070777699999965    0.7734454200000016    0.6648820200000003
     0.1065745000000007    0.4420746799999975    0.9983576300000010
     0.2044959600000027    0.5395168299999966    0.3316934599999968
     0.1022567799999976    0.1056348999999983    0.3349235199999967
     0.2045804099999984    0.2048259399999992    0.6662198000000004
     0.6518151200000020    0.3202461500000027    0.3333142400000000
     0.6576032600000019    0.9932295899999986    0.6661834299999967
     0.6520632499999977    0.6539756100000034    0.9987652800000006
 
  0.00000000E+00  0.00000000E+00  0.00000000E+00
  0.00000000E+00  0.00000000E+00  0.00000000E+00
  0.00000000E+00  0.00000000E+00  0.00000000E+00
  0.00000000E+00  0.00000000E+00  0.00000000E+00
  0.00000000E+00  0.00000000E+00  0.00000000E+00
  0.00000000E+00  0.00000000E+00  0.00000000E+00
  0.00000000E+00  0.00000000E+00  0.00000000E+00
  0.00000000E+00  0.00000000E+00  0.00000000E+00
  0.00000000E+00  0.00000000E+00  0.00000000E+00
