   9   9   0   0
  0.3063814E+02  0.7315908E-09  0.9422830E-09  0.9432610E-09  0.5000000E-15
  1.000000000000000E-004
  CAR 
 unknown system                          
      7.10918709    -27.55997001  301      0.88318430      1.00000000
    -27.560  0.0000E+00  0.0000E+00
    -27.444  0.0000E+00  0.0000E+00
    -27.329  0.0000E+00  0.0000E+00
    -27.213  0.0000E+00  0.0000E+00
    -27.098  0.0000E+00  0.0000E+00
    -26.982  0.0000E+00  0.0000E+00
    -26.867  0.0000E+00  0.0000E+00
    -26.751  0.0000E+00  0.0000E+00
    -26.635  0.0000E+00  0.0000E+00
    -26.520  0.0000E+00  0.0000E+00
    -26.404  0.0000E+00  0.0000E+00
    -26.289  0.0000E+00  0.0000E+00
    -26.173  0.2295E-07  0.2653E-08
    -26.058  0.3021E-01  0.3491E-02
    -25.942  0.1166E+02  0.1350E+01
    -25.827  0.6423E+02  0.8773E+01
    -25.711  0.2787E+02  0.1199E+02
    -25.595  0.5159E-01  0.1200E+02
    -25.480  0.1292E-07  0.1200E+02
    -25.364  0.0000E+00  0.1200E+02
    -25.249  0.0000E+00  0.1200E+02
    -25.133  0.0000E+00  0.1200E+02
    -25.018  0.0000E+00  0.1200E+02
    -24.902  0.0000E+00  0.1200E+02
    -24.786  0.0000E+00  0.1200E+02
    -24.671  0.0000E+00  0.1200E+02
    -24.555  0.0000E+00  0.1200E+02
    -24.440  0.0000E+00  0.1200E+02
    -24.324  0.0000E+00  0.1200E+02
    -24.209  0.0000E+00  0.1200E+02
    -24.093  0.0000E+00  0.1200E+02
    -23.977  0.0000E+00  0.1200E+02
    -23.862  0.0000E+00  0.1200E+02
    -23.746  0.0000E+00  0.1200E+02
    -23.631  0.0000E+00  0.1200E+02
    -23.515  0.0000E+00  0.1200E+02
    -23.400  0.0000E+00  0.1200E+02
    -23.284  0.0000E+00  0.1200E+02
    -23.169  0.0000E+00  0.1200E+02
    -23.053  0.0000E+00  0.1200E+02
    -22.937  0.0000E+00  0.1200E+02
    -22.822  0.0000E+00  0.1200E+02
    -22.706  0.0000E+00  0.1200E+02
    -22.591  0.0000E+00  0.1200E+02
    -22.475  0.0000E+00  0.1200E+02
    -22.360  0.0000E+00  0.1200E+02
    -22.244  0.0000E+00  0.1200E+02
    -22.128  0.0000E+00  0.1200E+02
    -22.013  0.0000E+00  0.1200E+02
    -21.897  0.0000E+00  0.1200E+02
    -21.782  0.0000E+00  0.1200E+02
    -21.666  0.0000E+00  0.1200E+02
    -21.551  0.0000E+00  0.1200E+02
    -21.435  0.0000E+00  0.1200E+02
    -21.320  0.0000E+00  0.1200E+02
    -21.204  0.0000E+00  0.1200E+02
    -21.088  0.0000E+00  0.1200E+02
    -20.973  0.0000E+00  0.1200E+02
    -20.857  0.0000E+00  0.1200E+02
    -20.742  0.0000E+00  0.1200E+02
    -20.626  0.0000E+00  0.1200E+02
    -20.511  0.0000E+00  0.1200E+02
    -20.395  0.0000E+00  0.1200E+02
    -20.279  0.0000E+00  0.1200E+02
    -20.164  0.0000E+00  0.1200E+02
    -20.048  0.0000E+00  0.1200E+02
    -19.933  0.0000E+00  0.1200E+02
    -19.817  0.0000E+00  0.1200E+02
    -19.702  0.0000E+00  0.1200E+02
    -19.586  0.0000E+00  0.1200E+02
    -19.471  0.0000E+00  0.1200E+02
    -19.355  0.0000E+00  0.1200E+02
    -19.239  0.0000E+00  0.1200E+02
    -19.124  0.0000E+00  0.1200E+02
    -19.008  0.0000E+00  0.1200E+02
    -18.893  0.0000E+00  0.1200E+02
    -18.777  0.0000E+00  0.1200E+02
    -18.662  0.0000E+00  0.1200E+02
    -18.546  0.0000E+00  0.1200E+02
    -18.430  0.0000E+00  0.1200E+02
    -18.315  0.0000E+00  0.1200E+02
    -18.199  0.0000E+00  0.1200E+02
    -18.084  0.0000E+00  0.1200E+02
    -17.968  0.0000E+00  0.1200E+02
    -17.853  0.0000E+00  0.1200E+02
    -17.737  0.0000E+00  0.1200E+02
    -17.621  0.0000E+00  0.1200E+02
    -17.506  0.0000E+00  0.1200E+02
    -17.390  0.0000E+00  0.1200E+02
    -17.275  0.0000E+00  0.1200E+02
    -17.159  0.0000E+00  0.1200E+02
    -17.044  0.0000E+00  0.1200E+02
    -16.928  0.0000E+00  0.1200E+02
    -16.813  0.0000E+00  0.1200E+02
    -16.697  0.0000E+00  0.1200E+02
    -16.581  0.0000E+00  0.1200E+02
    -16.466  0.0000E+00  0.1200E+02
    -16.350  0.0000E+00  0.1200E+02
    -16.235  0.0000E+00  0.1200E+02
    -16.119  0.0000E+00  0.1200E+02
    -16.004  0.0000E+00  0.1200E+02
    -15.888  0.0000E+00  0.1200E+02
    -15.772  0.0000E+00  0.1200E+02
    -15.657  0.0000E+00  0.1200E+02
    -15.541  0.0000E+00  0.1200E+02
    -15.426  0.0000E+00  0.1200E+02
    -15.310  0.0000E+00  0.1200E+02
    -15.195  0.0000E+00  0.1200E+02
    -15.079  0.0000E+00  0.1200E+02
    -14.964  0.0000E+00  0.1200E+02
    -14.848  0.0000E+00  0.1200E+02
    -14.732  0.0000E+00  0.1200E+02
    -14.617  0.0000E+00  0.1200E+02
    -14.501  0.0000E+00  0.1200E+02
    -14.386  0.8462E-09  0.1200E+02
    -14.270  0.1180E-01  0.1200E+02
    -14.155  0.1352E+02  0.1356E+02
    -14.039  0.3403E+02  0.1750E+02
    -13.923  0.4355E+01  0.1800E+02
    -13.808  0.4423E-02  0.1800E+02
    -13.692  0.7070E-09  0.1800E+02
    -13.577  0.0000E+00  0.1800E+02
    -13.461  0.0000E+00  0.1800E+02
    -13.346  0.0000E+00  0.1800E+02
    -13.230  0.0000E+00  0.1800E+02
    -13.114  0.0000E+00  0.1800E+02
    -12.999  0.0000E+00  0.1800E+02
    -12.883  0.0000E+00  0.1800E+02
    -12.768  0.0000E+00  0.1800E+02
    -12.652  0.0000E+00  0.1800E+02
    -12.537  0.0000E+00  0.1800E+02
    -12.421  0.0000E+00  0.1800E+02
    -12.306  0.0000E+00  0.1800E+02
    -12.190  0.0000E+00  0.1800E+02
    -12.074  0.0000E+00  0.1800E+02
    -11.959  0.0000E+00  0.1800E+02
    -11.843  0.0000E+00  0.1800E+02
    -11.728  0.0000E+00  0.1800E+02
    -11.612  0.0000E+00  0.1800E+02
    -11.497  0.0000E+00  0.1800E+02
    -11.381  0.0000E+00  0.1800E+02
    -11.265  0.0000E+00  0.1800E+02
    -11.150  0.0000E+00  0.1800E+02
    -11.034  0.0000E+00  0.1800E+02
    -10.919  0.0000E+00  0.1800E+02
    -10.803  0.4683E-09  0.1800E+02
    -10.688  0.3413E-02  0.1800E+02
    -10.572  0.3673E+01  0.1842E+02
    -10.457  0.2538E+02  0.2136E+02
    -10.341  0.2893E+02  0.2470E+02
    -10.225  0.1988E+02  0.2700E+02
    -10.110  0.1753E+02  0.2902E+02
     -9.994  0.2082E+02  0.3143E+02
     -9.879  0.4971E+02  0.3717E+02
     -9.763  0.6724E+02  0.4495E+02
     -9.648  0.7406E+02  0.5350E+02
     -9.532  0.4289E+01  0.5400E+02
     -9.416  0.2452E-03  0.5400E+02
     -9.301  0.1414E-11  0.5400E+02
     -9.185  0.0000E+00  0.5400E+02
     -9.070  0.0000E+00  0.5400E+02
     -8.954  0.0000E+00  0.5400E+02
     -8.839  0.0000E+00  0.5400E+02
     -8.723  0.0000E+00  0.5400E+02
     -8.607  0.0000E+00  0.5400E+02
     -8.492  0.0000E+00  0.5400E+02
     -8.376  0.0000E+00  0.5400E+02
     -8.261  0.0000E+00  0.5400E+02
     -8.145  0.0000E+00  0.5400E+02
     -8.030  0.0000E+00  0.5400E+02
     -7.914  0.0000E+00  0.5400E+02
     -7.799  0.0000E+00  0.5400E+02
     -7.683  0.0000E+00  0.5400E+02
     -7.567  0.0000E+00  0.5400E+02
     -7.452  0.0000E+00  0.5400E+02
     -7.336  0.0000E+00  0.5400E+02
     -7.221  0.0000E+00  0.5400E+02
     -7.105  0.0000E+00  0.5400E+02
     -6.990  0.0000E+00  0.5400E+02
     -6.874  0.0000E+00  0.5400E+02
     -6.758  0.0000E+00  0.5400E+02
     -6.643  0.0000E+00  0.5400E+02
     -6.527  0.0000E+00  0.5400E+02
     -6.412  0.0000E+00  0.5400E+02
     -6.296  0.0000E+00  0.5400E+02
     -6.181  0.0000E+00  0.5400E+02
     -6.065  0.0000E+00  0.5400E+02
     -5.950  0.0000E+00  0.5400E+02
     -5.834  0.0000E+00  0.5400E+02
     -5.718  0.0000E+00  0.5400E+02
     -5.603  0.0000E+00  0.5400E+02
     -5.487  0.0000E+00  0.5400E+02
     -5.372  0.0000E+00  0.5400E+02
     -5.256  0.0000E+00  0.5400E+02
     -5.141  0.0000E+00  0.5400E+02
     -5.025  0.0000E+00  0.5400E+02
     -4.909  0.0000E+00  0.5400E+02
     -4.794  0.0000E+00  0.5400E+02
     -4.678  0.0000E+00  0.5400E+02
     -4.563  0.0000E+00  0.5400E+02
     -4.447  0.0000E+00  0.5400E+02
     -4.332  0.0000E+00  0.5400E+02
     -4.216  0.0000E+00  0.5400E+02
     -4.101  0.0000E+00  0.5400E+02
     -3.985  0.0000E+00  0.5400E+02
     -3.869  0.0000E+00  0.5400E+02
     -3.754  0.0000E+00  0.5400E+02
     -3.638  0.0000E+00  0.5400E+02
     -3.523  0.0000E+00  0.5400E+02
     -3.407  0.0000E+00  0.5400E+02
     -3.292  0.0000E+00  0.5400E+02
     -3.176  0.0000E+00  0.5400E+02
     -3.060  0.0000E+00  0.5400E+02
     -2.945  0.0000E+00  0.5400E+02
     -2.829  0.0000E+00  0.5400E+02
     -2.714  0.0000E+00  0.5400E+02
     -2.598  0.0000E+00  0.5400E+02
     -2.483  0.0000E+00  0.5400E+02
     -2.367  0.0000E+00  0.5400E+02
     -2.251  0.0000E+00  0.5400E+02
     -2.136  0.0000E+00  0.5400E+02
     -2.020  0.0000E+00  0.5400E+02
     -1.905  0.0000E+00  0.5400E+02
     -1.789  0.0000E+00  0.5400E+02
     -1.674  0.0000E+00  0.5400E+02
     -1.558  0.0000E+00  0.5400E+02
     -1.443  0.0000E+00  0.5400E+02
     -1.327  0.0000E+00  0.5400E+02
     -1.211  0.0000E+00  0.5400E+02
     -1.096  0.0000E+00  0.5400E+02
     -0.980  0.0000E+00  0.5400E+02
     -0.865  0.0000E+00  0.5400E+02
     -0.749  0.0000E+00  0.5400E+02
     -0.634  0.1596E-10  0.5400E+02
     -0.518  0.1832E-03  0.5400E+02
     -0.402  0.1248E+00  0.5401E+02
     -0.287  0.1012E+01  0.5413E+02
     -0.171  0.3205E+01  0.5450E+02
     -0.056  0.8426E+01  0.5548E+02
      0.060  0.1548E+02  0.5726E+02
      0.175  0.1822E+02  0.5937E+02
      0.291  0.2362E+02  0.6210E+02
      0.406  0.2933E+02  0.6549E+02
      0.522  0.3742E+02  0.6981E+02
      0.638  0.1864E+02  0.7197E+02
      0.753  0.2764E+00  0.7200E+02
      0.869  0.3338E-05  0.7200E+02
      0.984  0.3383E-03  0.7200E+02
      1.100  0.1345E+00  0.7202E+02
      1.215  0.8149E-01  0.7202E+02
      1.331  0.9396E-03  0.7203E+02
      1.447  0.2833E+00  0.7206E+02
      1.562  0.1612E+00  0.7208E+02
      1.678  0.8369E+00  0.7217E+02
      1.793  0.8772E+00  0.7227E+02
      1.909  0.9821E-01  0.7229E+02
      2.024  0.1369E+01  0.7244E+02
      2.140  0.2122E+01  0.7269E+02
      2.256  0.1229E+01  0.7283E+02
      2.371  0.4661E+00  0.7289E+02
      2.487  0.1168E+01  0.7302E+02
      2.602  0.4681E+01  0.7356E+02
      2.718  0.4136E+01  0.7404E+02
      2.833  0.2792E+01  0.7436E+02
      2.949  0.3027E+01  0.7471E+02
      3.064  0.2146E+01  0.7496E+02
      3.180  0.3675E+01  0.7538E+02
      3.296  0.4863E+01  0.7595E+02
      3.411  0.4501E+01  0.7647E+02
      3.527  0.3668E+01  0.7689E+02
      3.642  0.3677E+01  0.7732E+02
      3.758  0.3938E+01  0.7777E+02
      3.873  0.3225E+01  0.7814E+02
      3.989  0.5372E+01  0.7876E+02
      4.105  0.4613E+01  0.7930E+02
      4.220  0.6619E+01  0.8006E+02
      4.336  0.5997E+01  0.8075E+02
      4.451  0.1183E+02  0.8212E+02
      4.567  0.1109E+02  0.8340E+02
      4.682  0.8009E+01  0.8433E+02
      4.798  0.7402E+01  0.8518E+02
      4.913  0.6770E+01  0.8597E+02
      5.029  0.6372E+01  0.8670E+02
      5.145  0.3250E+01  0.8708E+02
      5.260  0.4062E+01  0.8755E+02
      5.376  0.2968E+01  0.8789E+02
      5.491  0.3297E+00  0.8793E+02
      5.607  0.6063E+00  0.8800E+02
      5.722  0.7657E-02  0.8800E+02
      5.838  0.1544E-07  0.8800E+02
      5.954  0.0000E+00  0.8800E+02
      6.069  0.0000E+00  0.8800E+02
      6.185  0.0000E+00  0.8800E+02
      6.300  0.0000E+00  0.8800E+02
      6.416  0.0000E+00  0.8800E+02
      6.531  0.0000E+00  0.8800E+02
      6.647  0.0000E+00  0.8800E+02
      6.762  0.0000E+00  0.8800E+02
      6.878  0.0000E+00  0.8800E+02
      6.994  0.0000E+00  0.8800E+02
      7.109  0.0000E+00  0.8800E+02
