       N       E                     dE             d eps       ncg     rms          rms(c)
DAV:   1     0.967663886636E+02    0.96766E+02   -0.86011E+03 11048   0.109E+03
DAV:   2    -0.784027637890E+00   -0.97550E+02   -0.89477E+02 13608   0.208E+02
DAV:   3    -0.413429149220E+01   -0.33503E+01   -0.33405E+01 13536   0.395E+01
DAV:   4    -0.417118738406E+01   -0.36896E-01   -0.36894E-01 14840   0.412E+00
DAV:   5    -0.417182821235E+01   -0.64083E-03   -0.64083E-03 14272   0.458E-01    0.463E+00
DAV:   6    -0.400604849971E+01    0.16578E+00   -0.27036E-01 11568   0.753E+00    0.350E+00
DAV:   7    -0.399549818573E+01    0.10550E-01   -0.63105E-02 12664   0.168E+00    0.149E+00
DAV:   8    -0.399475743231E+01    0.74075E-03   -0.57618E-03 13504   0.650E-01    0.348E-01
DAV:   9    -0.399471149056E+01    0.45942E-04   -0.60424E-04 13936   0.266E-01    0.846E-02
DAV:  10    -0.399469125418E+01    0.20236E-04   -0.50645E-05 12064   0.992E-02    0.268E-02
DAV:  11    -0.399469891408E+01   -0.76599E-05   -0.22197E-05 12056   0.381E-02    0.164E-02
DAV:  12    -0.399469769565E+01    0.12184E-05   -0.22117E-06 10240   0.156E-02    0.921E-03
DAV:  13    -0.399469775990E+01   -0.64251E-07   -0.28777E-07  6168   0.378E-03
   1 F= -.39946978E+01 E0= -.39944753E+01  d E =-.444880E-03
