   8   8   0   0
  0.9374126E+01  0.2824940E-09  0.4375530E-09  0.6067096E-09  0.5000000E-15
  1.000000000000000E-004
  CAR 
 unknown system                          
     18.17519551    -25.31891205  301      3.19960178      1.00000000
    -25.319  0.0000E+00  0.0000E+00
    -25.174  0.0000E+00  0.0000E+00
    -25.029  0.0000E+00  0.0000E+00
    -24.884  0.0000E+00  0.0000E+00
    -24.739  0.0000E+00  0.0000E+00
    -24.594  0.0000E+00  0.0000E+00
    -24.449  0.0000E+00  0.0000E+00
    -24.304  0.0000E+00  0.0000E+00
    -24.159  0.0000E+00  0.0000E+00
    -24.014  0.0000E+00  0.0000E+00
    -23.869  0.0000E+00  0.0000E+00
    -23.724  0.0000E+00  0.0000E+00
    -23.579  0.4469E-11  0.6480E-12
    -23.434  0.2085E-02  0.3023E-03
    -23.289  0.5760E+00  0.8381E-01
    -23.144  0.2181E+01  0.4000E+00
    -22.999  0.3943E+01  0.9716E+00
    -22.854  0.6434E+01  0.1904E+01
    -22.709  0.5589E+01  0.2715E+01
    -22.564  0.7804E+01  0.3846E+01
    -22.419  0.1433E+02  0.5924E+01
    -22.274  0.1335E+02  0.7860E+01
    -22.129  0.9683E+00  0.8000E+01
    -21.984  0.6254E-05  0.8000E+01
    -21.839  0.0000E+00  0.8000E+01
    -21.694  0.0000E+00  0.8000E+01
    -21.549  0.0000E+00  0.8000E+01
    -21.404  0.0000E+00  0.8000E+01
    -21.259  0.0000E+00  0.8000E+01
    -21.114  0.0000E+00  0.8000E+01
    -20.970  0.0000E+00  0.8000E+01
    -20.825  0.0000E+00  0.8000E+01
    -20.680  0.0000E+00  0.8000E+01
    -20.535  0.0000E+00  0.8000E+01
    -20.390  0.0000E+00  0.8000E+01
    -20.245  0.0000E+00  0.8000E+01
    -20.100  0.0000E+00  0.8000E+01
    -19.955  0.0000E+00  0.8000E+01
    -19.810  0.0000E+00  0.8000E+01
    -19.665  0.0000E+00  0.8000E+01
    -19.520  0.0000E+00  0.8000E+01
    -19.375  0.0000E+00  0.8000E+01
    -19.230  0.0000E+00  0.8000E+01
    -19.085  0.0000E+00  0.8000E+01
    -18.940  0.0000E+00  0.8000E+01
    -18.795  0.0000E+00  0.8000E+01
    -18.650  0.0000E+00  0.8000E+01
    -18.505  0.0000E+00  0.8000E+01
    -18.360  0.0000E+00  0.8000E+01
    -18.215  0.0000E+00  0.8000E+01
    -18.070  0.0000E+00  0.8000E+01
    -17.925  0.0000E+00  0.8000E+01
    -17.780  0.0000E+00  0.8000E+01
    -17.635  0.0000E+00  0.8000E+01
    -17.490  0.0000E+00  0.8000E+01
    -17.345  0.0000E+00  0.8000E+01
    -17.200  0.0000E+00  0.8000E+01
    -17.055  0.0000E+00  0.8000E+01
    -16.910  0.0000E+00  0.8000E+01
    -16.765  0.0000E+00  0.8000E+01
    -16.620  0.0000E+00  0.8000E+01
    -16.475  0.0000E+00  0.8000E+01
    -16.330  0.0000E+00  0.8000E+01
    -16.185  0.0000E+00  0.8000E+01
    -16.040  0.0000E+00  0.8000E+01
    -15.895  0.0000E+00  0.8000E+01
    -15.750  0.0000E+00  0.8000E+01
    -15.605  0.0000E+00  0.8000E+01
    -15.460  0.0000E+00  0.8000E+01
    -15.315  0.0000E+00  0.8000E+01
    -15.170  0.0000E+00  0.8000E+01
    -15.025  0.0000E+00  0.8000E+01
    -14.880  0.0000E+00  0.8000E+01
    -14.735  0.0000E+00  0.8000E+01
    -14.590  0.0000E+00  0.8000E+01
    -14.445  0.0000E+00  0.8000E+01
    -14.300  0.0000E+00  0.8000E+01
    -14.155  0.0000E+00  0.8000E+01
    -14.010  0.0000E+00  0.8000E+01
    -13.865  0.0000E+00  0.8000E+01
    -13.720  0.0000E+00  0.8000E+01
    -13.576  0.0000E+00  0.8000E+01
    -13.431  0.0000E+00  0.8000E+01
    -13.286  0.0000E+00  0.8000E+01
    -13.141  0.0000E+00  0.8000E+01
    -12.996  0.0000E+00  0.8000E+01
    -12.851  0.0000E+00  0.8000E+01
    -12.706  0.0000E+00  0.8000E+01
    -12.561  0.0000E+00  0.8000E+01
    -12.416  0.0000E+00  0.8000E+01
    -12.271  0.0000E+00  0.8000E+01
    -12.126  0.0000E+00  0.8000E+01
    -11.981  0.0000E+00  0.8000E+01
    -11.836  0.0000E+00  0.8000E+01
    -11.691  0.0000E+00  0.8000E+01
    -11.546  0.5652E-07  0.8000E+01
    -11.401  0.6686E-01  0.8010E+01
    -11.256  0.7872E+00  0.8124E+01
    -11.111  0.1817E+01  0.8387E+01
    -10.966  0.2586E+01  0.8762E+01
    -10.821  0.2730E+01  0.9158E+01
    -10.676  0.2729E+01  0.9554E+01
    -10.531  0.2981E+01  0.9986E+01
    -10.386  0.1042E+01  0.1014E+02
    -10.241  0.3163E+01  0.1060E+02
    -10.096  0.1948E+01  0.1088E+02
     -9.951  0.1091E+01  0.1104E+02
     -9.806  0.8324E+00  0.1116E+02
     -9.661  0.3494E+01  0.1166E+02
     -9.516  0.1436E+01  0.1187E+02
     -9.371  0.4833E+00  0.1194E+02
     -9.226  0.4356E+00  0.1200E+02
     -9.081  0.1679E+01  0.1225E+02
     -8.936  0.1844E+01  0.1252E+02
     -8.791  0.2001E+01  0.1281E+02
     -8.646  0.1703E+01  0.1305E+02
     -8.501  0.2652E+01  0.1344E+02
     -8.356  0.2595E+01  0.1381E+02
     -8.211  0.3133E+01  0.1427E+02
     -8.066  0.1743E+01  0.1452E+02
     -7.921  0.2143E+01  0.1483E+02
     -7.776  0.2998E+01  0.1527E+02
     -7.631  0.1892E+01  0.1554E+02
     -7.486  0.7451E+00  0.1565E+02
     -7.341  0.1007E+01  0.1579E+02
     -7.196  0.1163E+01  0.1596E+02
     -7.051  0.2595E+00  0.1600E+02
     -6.906  0.1733E-04  0.1600E+02
     -6.761  0.7119E-05  0.1600E+02
     -6.616  0.3097E+00  0.1604E+02
     -6.471  0.3706E+01  0.1658E+02
     -6.326  0.3987E+01  0.1716E+02
     -6.182  0.2680E+01  0.1755E+02
     -6.037  0.3337E+01  0.1803E+02
     -5.892  0.3844E+01  0.1859E+02
     -5.747  0.3496E+01  0.1910E+02
     -5.602  0.2860E+01  0.1951E+02
     -5.457  0.3778E+01  0.2006E+02
     -5.312  0.6488E+01  0.2100E+02
     -5.167  0.4080E+01  0.2159E+02
     -5.022  0.4540E+01  0.2225E+02
     -4.877  0.2683E+01  0.2264E+02
     -4.732  0.2958E+01  0.2307E+02
     -4.587  0.3597E+01  0.2359E+02
     -4.442  0.5155E+01  0.2434E+02
     -4.297  0.5607E+01  0.2515E+02
     -4.152  0.7998E+01  0.2631E+02
     -4.007  0.8153E+01  0.2749E+02
     -3.862  0.2739E+01  0.2789E+02
     -3.717  0.2829E+01  0.2830E+02
     -3.572  0.2484E+01  0.2866E+02
     -3.427  0.4265E+01  0.2928E+02
     -3.282  0.4430E+01  0.2992E+02
     -3.137  0.4306E+01  0.3054E+02
     -2.992  0.3369E+01  0.3103E+02
     -2.847  0.1543E+01  0.3126E+02
     -2.702  0.2811E+01  0.3166E+02
     -2.557  0.5963E+01  0.3253E+02
     -2.412  0.1207E+02  0.3428E+02
     -2.267  0.7969E+01  0.3543E+02
     -2.122  0.3371E+01  0.3592E+02
     -1.977  0.1129E+01  0.3608E+02
     -1.832  0.1547E+01  0.3631E+02
     -1.687  0.2587E+01  0.3668E+02
     -1.542  0.2978E+01  0.3712E+02
     -1.397  0.2553E+01  0.3749E+02
     -1.252  0.2549E+01  0.3786E+02
     -1.107  0.2319E+01  0.3819E+02
     -0.962  0.2485E+01  0.3855E+02
     -0.817  0.2128E+01  0.3886E+02
     -0.672  0.2683E+01  0.3925E+02
     -0.527  0.2133E+01  0.3956E+02
     -0.382  0.1068E+01  0.3971E+02
     -0.237  0.1377E+01  0.3991E+02
     -0.092  0.2278E+00  0.3995E+02
      0.053  0.3735E+00  0.4000E+02
      0.198  0.3033E-03  0.4000E+02
      0.343  0.0000E+00  0.4000E+02
      0.488  0.0000E+00  0.4000E+02
      0.633  0.0000E+00  0.4000E+02
      0.778  0.0000E+00  0.4000E+02
      0.923  0.0000E+00  0.4000E+02
      1.068  0.0000E+00  0.4000E+02
      1.212  0.0000E+00  0.4000E+02
      1.357  0.2531E-07  0.4000E+02
      1.502  0.5217E-01  0.4001E+02
      1.647  0.8534E+00  0.4013E+02
      1.792  0.4754E+00  0.4020E+02
      1.937  0.1524E+01  0.4042E+02
      2.082  0.1868E+01  0.4069E+02
      2.227  0.2242E+01  0.4102E+02
      2.372  0.2014E+01  0.4131E+02
      2.517  0.3934E+01  0.4188E+02
      2.662  0.3752E+01  0.4242E+02
      2.807  0.3004E+01  0.4286E+02
      2.952  0.2492E+01  0.4322E+02
      3.097  0.2352E+01  0.4356E+02
      3.242  0.4632E+01  0.4423E+02
      3.387  0.2931E+01  0.4466E+02
      3.532  0.2236E+01  0.4498E+02
      3.677  0.2588E+01  0.4536E+02
      3.822  0.6031E+01  0.4623E+02
      3.967  0.5129E+01  0.4698E+02
      4.112  0.2713E+01  0.4737E+02
      4.257  0.1964E+01  0.4765E+02
      4.402  0.1259E+01  0.4784E+02
      4.547  0.6533E+00  0.4793E+02
      4.692  0.4793E+00  0.4800E+02
      4.837  0.4566E+00  0.4807E+02
      4.982  0.2713E+00  0.4811E+02
      5.127  0.6897E+00  0.4821E+02
      5.272  0.1761E+01  0.4846E+02
      5.417  0.1489E+01  0.4868E+02
      5.562  0.1712E+01  0.4892E+02
      5.707  0.1076E+01  0.4908E+02
      5.852  0.2021E+01  0.4937E+02
      5.997  0.1023E+01  0.4952E+02
      6.142  0.1978E+01  0.4981E+02
      6.287  0.2023E+01  0.5010E+02
      6.432  0.4639E+01  0.5077E+02
      6.577  0.6585E+01  0.5173E+02
      6.722  0.6799E+01  0.5272E+02
      6.867  0.6967E+01  0.5373E+02
      7.012  0.6106E+01  0.5461E+02
      7.157  0.5648E+01  0.5543E+02
      7.302  0.3275E+01  0.5590E+02
      7.447  0.6608E+00  0.5600E+02
      7.592  0.6709E-03  0.5600E+02
      7.737  0.3374E-12  0.5600E+02
      7.882  0.0000E+00  0.5600E+02
      8.027  0.0000E+00  0.5600E+02
      8.172  0.0000E+00  0.5600E+02
      8.317  0.0000E+00  0.5600E+02
      8.462  0.0000E+00  0.5600E+02
      8.606  0.0000E+00  0.5600E+02
      8.751  0.0000E+00  0.5600E+02
      8.896  0.0000E+00  0.5600E+02
      9.041  0.0000E+00  0.5600E+02
      9.186  0.0000E+00  0.5600E+02
      9.331  0.0000E+00  0.5600E+02
      9.476  0.0000E+00  0.5600E+02
      9.621  0.0000E+00  0.5600E+02
      9.766  0.0000E+00  0.5600E+02
      9.911  0.0000E+00  0.5600E+02
     10.056  0.0000E+00  0.5600E+02
     10.201  0.0000E+00  0.5600E+02
     10.346  0.0000E+00  0.5600E+02
     10.491  0.0000E+00  0.5600E+02
     10.636  0.0000E+00  0.5600E+02
     10.781  0.0000E+00  0.5600E+02
     10.926  0.0000E+00  0.5600E+02
     11.071  0.2808E-15  0.5600E+02
     11.216  0.2243E-04  0.5600E+02
     11.361  0.2671E+00  0.5604E+02
     11.506  0.4332E+00  0.5610E+02
     11.651  0.7065E+00  0.5620E+02
     11.796  0.9393E+00  0.5634E+02
     11.941  0.8774E+00  0.5647E+02
     12.086  0.1218E+01  0.5664E+02
     12.231  0.1021E+01  0.5679E+02
     12.376  0.1297E+01  0.5698E+02
     12.521  0.2476E+00  0.5702E+02
     12.666  0.8267E+00  0.5714E+02
     12.811  0.1493E+01  0.5735E+02
     12.956  0.2006E+01  0.5764E+02
     13.101  0.1088E+01  0.5780E+02
     13.246  0.1983E+01  0.5809E+02
     13.391  0.1457E+01  0.5830E+02
     13.536  0.1505E+01  0.5852E+02
     13.681  0.1613E+01  0.5875E+02
     13.826  0.2787E+01  0.5916E+02
     13.971  0.1947E+01  0.5944E+02
     14.116  0.1458E+01  0.5965E+02
     14.261  0.7782E+00  0.5976E+02
     14.406  0.6710E+00  0.5986E+02
     14.551  0.1951E+01  0.6014E+02
     14.696  0.1719E+01  0.6039E+02
     14.841  0.9745E+00  0.6053E+02
     14.986  0.1212E+01  0.6071E+02
     15.131  0.2097E+01  0.6101E+02
     15.276  0.3649E+01  0.6154E+02
     15.421  0.3958E+01  0.6212E+02
     15.566  0.3618E+01  0.6264E+02
     15.711  0.3306E+01  0.6312E+02
     15.856  0.2597E+01  0.6350E+02
     16.000  0.1531E+01  0.6372E+02
     16.145  0.1186E+01  0.6389E+02
     16.290  0.7588E+00  0.6400E+02
     16.435  0.2185E-02  0.6400E+02
     16.580  0.4466E-11  0.6400E+02
     16.725  0.0000E+00  0.6400E+02
     16.870  0.0000E+00  0.6400E+02
     17.015  0.0000E+00  0.6400E+02
     17.160  0.0000E+00  0.6400E+02
     17.305  0.0000E+00  0.6400E+02
     17.450  0.0000E+00  0.6400E+02
     17.595  0.0000E+00  0.6400E+02
     17.740  0.0000E+00  0.6400E+02
     17.885  0.0000E+00  0.6400E+02
     18.030  0.0000E+00  0.6400E+02
     18.175  0.0000E+00  0.6400E+02
