N4O4
1.0
      2.8249400       0.0000000       0.0000000
      0.0000000       4.3755300       0.0000000
      0.0000000       0.0000000       6.0670960
  N     O   
  4     4   
Direct
      0.5098680       0.3903530       0.4930800
      0.9901320       0.6096470       0.9930800
      0.4901320       0.8903530       0.0069200
      0.0098680       0.1096470       0.5069200
      0.5091900       0.5724050       0.6364640
      0.9908100       0.4275950       0.1364640
      0.4908100       0.0724050       0.8635360
      0.0091900       0.9275950       0.3635360
