Tc2                                     
   1.00000000000000     
     2.7365809900000002    0.0000000100000000    0.0000000000000000
    -1.3682894800000001    2.3699478900000002    0.0000000000000000
     0.0000000000000000    0.0000000000000000    4.3949027999999997
   Tc
     2
Direct
     0.3333330000000032    0.6666669999999968    0.2500000000000000
     0.6666669999999968    0.3333330000000032    0.7500000000000000
 
  0.00000000E+00  0.00000000E+00  0.00000000E+00
  0.00000000E+00  0.00000000E+00  0.00000000E+00
