Li6 N2                                  
   1.00000000000000     
     3.5240759300000000    0.0000000000000000    0.0000000000000000
    -1.7620384700000000    3.0519404899999998    0.0000000000000000
     0.0000000000000000    0.0000000000000000    6.2595448700000000
   Li   N 
     6     2
Direct
     0.0000000000000000    0.0000000000000000    0.2500000000000000
     0.0000000000000000    0.0000000000000000    0.7500000000000000
     0.3333330000000032    0.6666669999999968    0.5769933600000030
     0.6666669999999968    0.3333330000000032    0.0769933600000030
     0.6666669999999968    0.3333330000000032    0.4230066399999970
     0.3333330000000032    0.6666669999999968    0.9230066399999970
     0.3333330000000032    0.6666669999999968    0.2500000000000000
     0.6666669999999968    0.3333330000000032    0.7500000000000000
 
  0.00000000E+00  0.00000000E+00  0.00000000E+00
  0.00000000E+00  0.00000000E+00  0.00000000E+00
  0.00000000E+00  0.00000000E+00  0.00000000E+00
  0.00000000E+00  0.00000000E+00  0.00000000E+00
  0.00000000E+00  0.00000000E+00  0.00000000E+00
  0.00000000E+00  0.00000000E+00  0.00000000E+00
  0.00000000E+00  0.00000000E+00  0.00000000E+00
  0.00000000E+00  0.00000000E+00  0.00000000E+00
