   8   8   0   0
  0.8415387E+01  0.3524076E-09  0.3524077E-09  0.6259545E-09  0.5000000E-15
  1.000000000000000E-004
  CAR 
 unknown system                          
     32.89695489    -45.49626370  301      3.40150640      1.00000000
    -45.496  0.0000E+00  0.0000E+00
    -45.235  0.0000E+00  0.0000E+00
    -44.974  0.0000E+00  0.0000E+00
    -44.712  0.0000E+00  0.0000E+00
    -44.451  0.0000E+00  0.0000E+00
    -44.190  0.0000E+00  0.0000E+00
    -43.928  0.0000E+00  0.0000E+00
    -43.667  0.0000E+00  0.0000E+00
    -43.406  0.0000E+00  0.0000E+00
    -43.144  0.0000E+00  0.0000E+00
    -42.883  0.0000E+00  0.0000E+00
    -42.622  0.0000E+00  0.0000E+00
    -42.361  0.0000E+00  0.0000E+00
    -42.099  0.1421E-06  0.3713E-07
    -41.838  0.7223E+01  0.1887E+01
    -41.577  0.2334E+02  0.7985E+01
    -41.315  0.5609E-01  0.8000E+01
    -41.054  0.1515E+02  0.1196E+02
    -40.793  0.1570E+00  0.1200E+02
    -40.531  0.0000E+00  0.1200E+02
    -40.270  0.0000E+00  0.1200E+02
    -40.009  0.0000E+00  0.1200E+02
    -39.747  0.0000E+00  0.1200E+02
    -39.486  0.0000E+00  0.1200E+02
    -39.225  0.0000E+00  0.1200E+02
    -38.963  0.0000E+00  0.1200E+02
    -38.702  0.0000E+00  0.1200E+02
    -38.441  0.0000E+00  0.1200E+02
    -38.180  0.0000E+00  0.1200E+02
    -37.918  0.0000E+00  0.1200E+02
    -37.657  0.0000E+00  0.1200E+02
    -37.396  0.0000E+00  0.1200E+02
    -37.134  0.0000E+00  0.1200E+02
    -36.873  0.0000E+00  0.1200E+02
    -36.612  0.0000E+00  0.1200E+02
    -36.350  0.0000E+00  0.1200E+02
    -36.089  0.0000E+00  0.1200E+02
    -35.828  0.0000E+00  0.1200E+02
    -35.566  0.0000E+00  0.1200E+02
    -35.305  0.0000E+00  0.1200E+02
    -35.044  0.0000E+00  0.1200E+02
    -34.783  0.0000E+00  0.1200E+02
    -34.521  0.0000E+00  0.1200E+02
    -34.260  0.0000E+00  0.1200E+02
    -33.999  0.0000E+00  0.1200E+02
    -33.737  0.0000E+00  0.1200E+02
    -33.476  0.0000E+00  0.1200E+02
    -33.215  0.0000E+00  0.1200E+02
    -32.953  0.0000E+00  0.1200E+02
    -32.692  0.0000E+00  0.1200E+02
    -32.431  0.0000E+00  0.1200E+02
    -32.169  0.0000E+00  0.1200E+02
    -31.908  0.0000E+00  0.1200E+02
    -31.647  0.0000E+00  0.1200E+02
    -31.385  0.0000E+00  0.1200E+02
    -31.124  0.0000E+00  0.1200E+02
    -30.863  0.0000E+00  0.1200E+02
    -30.602  0.0000E+00  0.1200E+02
    -30.340  0.0000E+00  0.1200E+02
    -30.079  0.0000E+00  0.1200E+02
    -29.818  0.0000E+00  0.1200E+02
    -29.556  0.0000E+00  0.1200E+02
    -29.295  0.0000E+00  0.1200E+02
    -29.034  0.0000E+00  0.1200E+02
    -28.772  0.0000E+00  0.1200E+02
    -28.511  0.0000E+00  0.1200E+02
    -28.250  0.0000E+00  0.1200E+02
    -27.988  0.0000E+00  0.1200E+02
    -27.727  0.0000E+00  0.1200E+02
    -27.466  0.0000E+00  0.1200E+02
    -27.205  0.0000E+00  0.1200E+02
    -26.943  0.0000E+00  0.1200E+02
    -26.682  0.0000E+00  0.1200E+02
    -26.421  0.0000E+00  0.1200E+02
    -26.159  0.0000E+00  0.1200E+02
    -25.898  0.0000E+00  0.1200E+02
    -25.637  0.0000E+00  0.1200E+02
    -25.375  0.0000E+00  0.1200E+02
    -25.114  0.0000E+00  0.1200E+02
    -24.853  0.0000E+00  0.1200E+02
    -24.591  0.0000E+00  0.1200E+02
    -24.330  0.0000E+00  0.1200E+02
    -24.069  0.0000E+00  0.1200E+02
    -23.807  0.0000E+00  0.1200E+02
    -23.546  0.0000E+00  0.1200E+02
    -23.285  0.0000E+00  0.1200E+02
    -23.024  0.0000E+00  0.1200E+02
    -22.762  0.0000E+00  0.1200E+02
    -22.501  0.0000E+00  0.1200E+02
    -22.240  0.0000E+00  0.1200E+02
    -21.978  0.0000E+00  0.1200E+02
    -21.717  0.0000E+00  0.1200E+02
    -21.456  0.0000E+00  0.1200E+02
    -21.194  0.0000E+00  0.1200E+02
    -20.933  0.0000E+00  0.1200E+02
    -20.672  0.0000E+00  0.1200E+02
    -20.410  0.0000E+00  0.1200E+02
    -20.149  0.0000E+00  0.1200E+02
    -19.888  0.0000E+00  0.1200E+02
    -19.627  0.0000E+00  0.1200E+02
    -19.365  0.0000E+00  0.1200E+02
    -19.104  0.0000E+00  0.1200E+02
    -18.843  0.0000E+00  0.1200E+02
    -18.581  0.0000E+00  0.1200E+02
    -18.320  0.0000E+00  0.1200E+02
    -18.059  0.0000E+00  0.1200E+02
    -17.797  0.0000E+00  0.1200E+02
    -17.536  0.0000E+00  0.1200E+02
    -17.275  0.0000E+00  0.1200E+02
    -17.013  0.0000E+00  0.1200E+02
    -16.752  0.0000E+00  0.1200E+02
    -16.491  0.0000E+00  0.1200E+02
    -16.229  0.0000E+00  0.1200E+02
    -15.968  0.0000E+00  0.1200E+02
    -15.707  0.0000E+00  0.1200E+02
    -15.446  0.0000E+00  0.1200E+02
    -15.184  0.0000E+00  0.1200E+02
    -14.923  0.0000E+00  0.1200E+02
    -14.662  0.0000E+00  0.1200E+02
    -14.400  0.0000E+00  0.1200E+02
    -14.139  0.0000E+00  0.1200E+02
    -13.878  0.0000E+00  0.1200E+02
    -13.616  0.0000E+00  0.1200E+02
    -13.355  0.0000E+00  0.1200E+02
    -13.094  0.0000E+00  0.1200E+02
    -12.832  0.0000E+00  0.1200E+02
    -12.571  0.0000E+00  0.1200E+02
    -12.310  0.0000E+00  0.1200E+02
    -12.048  0.0000E+00  0.1200E+02
    -11.787  0.0000E+00  0.1200E+02
    -11.526  0.0000E+00  0.1200E+02
    -11.265  0.0000E+00  0.1200E+02
    -11.003  0.0000E+00  0.1200E+02
    -10.742  0.0000E+00  0.1200E+02
    -10.481  0.0000E+00  0.1200E+02
    -10.219  0.0000E+00  0.1200E+02
     -9.958  0.0000E+00  0.1200E+02
     -9.697  0.0000E+00  0.1200E+02
     -9.435  0.0000E+00  0.1200E+02
     -9.174  0.1437E-08  0.1200E+02
     -8.913  0.5868E+00  0.1215E+02
     -8.651  0.1180E+02  0.1524E+02
     -8.390  0.2916E+01  0.1600E+02
     -8.129  0.0000E+00  0.1600E+02
     -7.868  0.0000E+00  0.1600E+02
     -7.606  0.0000E+00  0.1600E+02
     -7.345  0.0000E+00  0.1600E+02
     -7.084  0.0000E+00  0.1600E+02
     -6.822  0.0000E+00  0.1600E+02
     -6.561  0.0000E+00  0.1600E+02
     -6.300  0.0000E+00  0.1600E+02
     -6.038  0.0000E+00  0.1600E+02
     -5.777  0.0000E+00  0.1600E+02
     -5.516  0.0000E+00  0.1600E+02
     -5.254  0.0000E+00  0.1600E+02
     -4.993  0.0000E+00  0.1600E+02
     -4.732  0.0000E+00  0.1600E+02
     -4.470  0.0000E+00  0.1600E+02
     -4.209  0.0000E+00  0.1600E+02
     -3.948  0.0000E+00  0.1600E+02
     -3.687  0.0000E+00  0.1600E+02
     -3.425  0.0000E+00  0.1600E+02
     -3.164  0.0000E+00  0.1600E+02
     -2.903  0.0000E+00  0.1600E+02
     -2.641  0.0000E+00  0.1600E+02
     -2.380  0.0000E+00  0.1600E+02
     -2.119  0.0000E+00  0.1600E+02
     -1.857  0.0000E+00  0.1600E+02
     -1.596  0.0000E+00  0.1600E+02
     -1.335  0.0000E+00  0.1600E+02
     -1.073  0.0000E+00  0.1600E+02
     -0.812  0.0000E+00  0.1600E+02
     -0.551  0.0000E+00  0.1600E+02
     -0.290  0.1097E-02  0.1600E+02
     -0.028  0.2064E+00  0.1605E+02
      0.233  0.1283E+01  0.1639E+02
      0.494  0.3789E+01  0.1738E+02
      0.756  0.4979E+01  0.1868E+02
      1.017  0.3855E+01  0.1969E+02
      1.278  0.3920E+01  0.2071E+02
      1.540  0.3574E+01  0.2165E+02
      1.801  0.6718E+01  0.2340E+02
      2.062  0.6942E+01  0.2522E+02
      2.324  0.5609E+01  0.2668E+02
      2.585  0.2562E+01  0.2735E+02
      2.846  0.1796E+01  0.2782E+02
      3.108  0.6848E+00  0.2800E+02
      3.369  0.2714E-02  0.2800E+02
      3.630  0.0000E+00  0.2800E+02
      3.891  0.0000E+00  0.2800E+02
      4.153  0.0000E+00  0.2800E+02
      4.414  0.1127E-02  0.2800E+02
      4.675  0.1783E+00  0.2805E+02
      4.937  0.3710E-03  0.2805E+02
      5.198  0.4165E+00  0.2816E+02
      5.459  0.4801E+00  0.2828E+02
      5.721  0.1303E+01  0.2862E+02
      5.982  0.7714E-01  0.2864E+02
      6.243  0.1064E+01  0.2892E+02
      6.505  0.2084E+01  0.2946E+02
      6.766  0.2000E+01  0.2999E+02
      7.027  0.1754E+01  0.3045E+02
      7.289  0.2850E+01  0.3119E+02
      7.550  0.1043E+01  0.3146E+02
      7.811  0.7101E+00  0.3165E+02
      8.072  0.5085E+00  0.3178E+02
      8.334  0.4182E+00  0.3189E+02
      8.595  0.2962E+00  0.3197E+02
      8.856  0.9207E-01  0.3199E+02
      9.118  0.2965E-01  0.3200E+02
      9.379  0.3169E-01  0.3201E+02
      9.640  0.2876E+01  0.3276E+02
      9.902  0.4620E+01  0.3397E+02
     10.163  0.3383E+01  0.3485E+02
     10.424  0.2187E+01  0.3542E+02
     10.686  0.2658E+01  0.3612E+02
     10.947  0.1926E+01  0.3662E+02
     11.208  0.3908E+01  0.3764E+02
     11.469  0.2782E+01  0.3837E+02
     11.731  0.3017E+01  0.3916E+02
     11.992  0.3581E+01  0.4009E+02
     12.253  0.5566E+01  0.4155E+02
     12.515  0.4444E+01  0.4271E+02
     12.776  0.3194E+01  0.4354E+02
     13.037  0.3062E+01  0.4434E+02
     13.299  0.9356E+00  0.4459E+02
     13.560  0.1157E+01  0.4489E+02
     13.821  0.2862E-02  0.4489E+02
     14.083  0.1020E+01  0.4516E+02
     14.344  0.1787E+01  0.4562E+02
     14.605  0.4396E+01  0.4677E+02
     14.867  0.3300E+01  0.4764E+02
     15.128  0.2518E+01  0.4829E+02
     15.389  0.2429E+01  0.4893E+02
     15.650  0.1944E+01  0.4944E+02
     15.912  0.2672E+01  0.5013E+02
     16.173  0.2176E+01  0.5070E+02
     16.434  0.2611E+01  0.5138E+02
     16.696  0.1389E+01  0.5175E+02
     16.957  0.2126E+01  0.5230E+02
     17.218  0.1000E+01  0.5256E+02
     17.480  0.1204E+01  0.5288E+02
     17.741  0.1067E+01  0.5316E+02
     18.002  0.3944E+01  0.5419E+02
     18.264  0.4569E+01  0.5538E+02
     18.525  0.1358E+01  0.5574E+02
     18.786  0.6835E+00  0.5592E+02
     19.047  0.7941E+00  0.5612E+02
     19.309  0.4246E+00  0.5623E+02
     19.570  0.9134E+00  0.5647E+02
     19.831  0.3768E+00  0.5657E+02
     20.093  0.1460E+01  0.5695E+02
     20.354  0.2110E+01  0.5750E+02
     20.615  0.5068E+01  0.5883E+02
     20.877  0.3396E+01  0.5972E+02
     21.138  0.3073E+01  0.6052E+02
     21.399  0.2479E+01  0.6117E+02
     21.661  0.2712E+01  0.6188E+02
     21.922  0.4271E+01  0.6299E+02
     22.183  0.3923E+01  0.6402E+02
     22.445  0.5308E+01  0.6540E+02
     22.706  0.2643E+01  0.6610E+02
     22.967  0.3585E+01  0.6703E+02
     23.228  0.1995E+01  0.6755E+02
     23.490  0.2991E+01  0.6833E+02
     23.751  0.2248E+01  0.6892E+02
     24.012  0.2525E+01  0.6958E+02
     24.274  0.2975E+01  0.7036E+02
     24.535  0.2195E+01  0.7093E+02
     24.796  0.2105E+01  0.7148E+02
     25.058  0.4189E+01  0.7258E+02
     25.319  0.2526E+01  0.7324E+02
     25.580  0.2962E+01  0.7401E+02
     25.842  0.3744E+01  0.7499E+02
     26.103  0.3329E+01  0.7586E+02
     26.364  0.5588E+01  0.7732E+02
     26.625  0.4535E+01  0.7851E+02
     26.887  0.2283E+01  0.7910E+02
     27.148  0.8667E+00  0.7933E+02
     27.409  0.7758E+00  0.7953E+02
     27.671  0.4173E+00  0.7964E+02
     27.932  0.6581E+00  0.7981E+02
     28.193  0.9386E-01  0.7984E+02
     28.455  0.8554E-01  0.7986E+02
     28.716  0.1235E-02  0.7986E+02
     28.977  0.3572E+00  0.7995E+02
     29.239  0.1029E+00  0.7998E+02
     29.500  0.7684E-01  0.8000E+02
     29.761  0.0000E+00  0.8000E+02
     30.023  0.0000E+00  0.8000E+02
     30.284  0.0000E+00  0.8000E+02
     30.545  0.0000E+00  0.8000E+02
     30.806  0.0000E+00  0.8000E+02
     31.068  0.0000E+00  0.8000E+02
     31.329  0.0000E+00  0.8000E+02
     31.590  0.0000E+00  0.8000E+02
     31.852  0.0000E+00  0.8000E+02
     32.113  0.0000E+00  0.8000E+02
     32.374  0.0000E+00  0.8000E+02
     32.636  0.0000E+00  0.8000E+02
     32.897  0.0000E+00  0.8000E+02
