       N       E                     dE             d eps       ncg     rms          rms(c)
DAV:   1     0.216119427472E+03    0.21612E+03   -0.11614E+04 20512   0.868E+02
DAV:   2    -0.554784256557E+01   -0.22167E+03   -0.20535E+03 22568   0.259E+02
DAV:   3    -0.344488697516E+02   -0.28901E+02   -0.28034E+02 39312   0.663E+01
DAV:   4    -0.354102534355E+02   -0.96138E+00   -0.95786E+00 26992   0.141E+01
DAV:   5    -0.354259321622E+02   -0.15679E-01   -0.15676E-01 29744   0.157E+00    0.107E+01
DAV:   6    -0.313128902938E+02    0.41130E+01   -0.12657E+01 27568   0.104E+01    0.468E+00
DAV:   7    -0.311657680461E+02    0.14712E+00   -0.94442E-01 27152   0.416E+00    0.271E+00
DAV:   8    -0.311285433173E+02    0.37225E-01   -0.31747E-01 24024   0.230E+00    0.153E+00
DAV:   9    -0.311088132844E+02    0.19730E-01   -0.34200E-02 25232   0.743E-01    0.443E-01
DAV:  10    -0.311089243195E+02   -0.11104E-03   -0.36489E-03 27432   0.234E-01    0.157E-01
DAV:  11    -0.311087903741E+02    0.13395E-03   -0.28741E-04 25784   0.672E-02    0.561E-02
DAV:  12    -0.311087881195E+02    0.22546E-05   -0.45765E-05 28824   0.311E-02    0.164E-02
DAV:  13    -0.311087868375E+02    0.12820E-05   -0.33256E-06 27656   0.868E-03    0.296E-03
DAV:  14    -0.311087868389E+02   -0.13490E-08   -0.19845E-07 15736   0.221E-03
   1 F= -.31108787E+02 E0= -.31108787E+02  d E =-.365910E-25
