Li6N2
1.0
      3.5240759       0.0000000       0.0000000
     -1.7620385       3.0519405       0.0000000
      0.0000000       0.0000000       6.2595449
  Li    N   
  6     2   
Direct
      0.0000000       0.0000000       0.2500000
      0.0000000       0.0000000       0.7500000
      0.3333330       0.6666670       0.5769934
      0.6666670       0.3333330       0.0769934
      0.6666670       0.3333330       0.4230066
      0.3333330       0.6666670       0.9230066
      0.3333330       0.6666670       0.2500000
      0.6666670       0.3333330       0.7500000
