unknown system                          
           1
     3.524076    0.000000    0.000000
    -1.762038    3.051940    0.000000
     0.000000    0.000000    6.259545
   Li   N 
     6     2
Direct configuration=     1
   0.00000000  0.00000000  0.25000000
   0.00000000  0.00000000  0.75000000
   0.33333300  0.66666700  0.57699336
   0.66666700  0.33333300  0.07699336
   0.66666700  0.33333300  0.42300664
   0.33333300  0.66666700  0.92300664
   0.33333300  0.66666700  0.25000000
   0.66666700  0.33333300  0.75000000
