   2   2   0   0
  0.9543496E+01  0.2672468E-09  0.2672468E-09  0.2672468E-09  0.5000000E-15
  1.000000000000000E-004
  CAR 
 unknown system                          
    174.13340247    -10.94638804  301      7.81465137      1.00000000
    -10.946  0.0000E+00  0.0000E+00
    -10.329  0.0000E+00  0.0000E+00
     -9.713  0.0000E+00  0.0000E+00
     -9.096  0.0000E+00  0.0000E+00
     -8.479  0.0000E+00  0.0000E+00
     -7.862  0.0000E+00  0.0000E+00
     -7.245  0.0000E+00  0.0000E+00
     -6.628  0.0000E+00  0.0000E+00
     -6.011  0.0000E+00  0.0000E+00
     -5.394  0.0000E+00  0.0000E+00
     -4.777  0.0000E+00  0.0000E+00
     -4.160  0.0000E+00  0.0000E+00
     -3.543  0.0000E+00  0.0000E+00
     -2.926  0.0000E+00  0.0000E+00
     -2.309  0.2594E-01  0.1600E-01
     -1.692  0.7713E-01  0.1116E+00
     -1.075  0.1379E+00  0.1971E+00
     -0.459  0.8364E-01  0.3236E+00
      0.158  0.2334E+00  0.5600E+00
      0.775  0.2593E+00  0.7680E+00
      1.392  0.2168E+00  0.9978E+00
      2.009  0.4442E+00  0.1378E+01
      2.626  0.8456E+00  0.2058E+01
      3.243  0.1648E+01  0.3529E+01
      3.860  0.2230E+01  0.5760E+01
      4.477  0.3590E+01  0.8503E+01
      5.094  0.2233E+01  0.1117E+02
      5.711  0.1588E+00  0.1163E+02
      6.328  0.6834E+00  0.1210E+02
      6.945  0.3855E+00  0.1251E+02
      7.562  0.5342E+00  0.1284E+02
      8.179  0.4504E+00  0.1322E+02
      8.795  0.7783E-01  0.1333E+02
      9.412  0.2370E+00  0.1357E+02
     10.029  0.1567E+00  0.1381E+02
     10.646  0.5261E-01  0.1386E+02
     11.263  0.7995E-01  0.1394E+02
     11.880  0.4572E+00  0.1439E+02
     12.497  0.8409E+00  0.1505E+02
     13.114  0.2334E+00  0.1534E+02
     13.731  0.6238E+00  0.1582E+02
     14.348  0.3936E+00  0.1619E+02
     14.965  0.5064E+00  0.1666E+02
     15.582  0.2832E+00  0.1701E+02
     16.199  0.5016E+00  0.1778E+02
     16.816  0.5439E+00  0.1824E+02
     17.433  0.4664E+00  0.1870E+02
     18.049  0.7622E+00  0.1917E+02
     18.666  0.2496E+00  0.1955E+02
     19.283  0.1353E+00  0.1991E+02
     19.900  0.1511E+00  0.2008E+02
     20.517  0.2958E+00  0.2031E+02
     21.134  0.4272E+00  0.2068E+02
     21.751  0.3510E+00  0.2100E+02
     22.368  0.2949E+00  0.2135E+02
     22.985  0.4970E+00  0.2186E+02
     23.602  0.6271E+00  0.2232E+02
     24.219  0.7622E+00  0.2289E+02
     24.836  0.3697E+00  0.2340E+02
     25.453  0.6753E+00  0.2386E+02
     26.070  0.5435E+00  0.2442E+02
     26.687  0.7991E+00  0.2491E+02
     27.303  0.4679E+00  0.2547E+02
     27.920  0.5664E+00  0.2595E+02
     28.537  0.3097E+00  0.2622E+02
     29.154  0.4748E+00  0.2666E+02
     29.771  0.5629E+00  0.2710E+02
     30.388  0.6476E+00  0.2762E+02
     31.005  0.3455E+00  0.2799E+02
     31.622  0.6489E+00  0.2846E+02
     32.239  0.4392E+00  0.2883E+02
     32.856  0.8708E-01  0.2913E+02
     33.473  0.3791E+00  0.2950E+02
     34.090  0.7383E+00  0.3020E+02
     34.707  0.7777E+00  0.3075E+02
     35.324  0.7990E+00  0.3134E+02
     35.940  0.7780E-01  0.3160E+02
     36.557  0.6156E+00  0.3201E+02
     37.174  0.6838E+00  0.3281E+02
     37.791  0.6238E+00  0.3347E+02
     38.408  0.3667E+00  0.3403E+02
     39.025  0.5733E+00  0.3466E+02
     39.642  0.4629E+00  0.3510E+02
     40.259  0.9670E+00  0.3591E+02
     40.876  0.5797E+00  0.3652E+02
     41.493  0.5788E+00  0.3695E+02
     42.110  0.4711E+00  0.3757E+02
     42.727  0.7393E+00  0.3809E+02
     43.344  0.6324E+00  0.3857E+02
     43.961  0.3836E+00  0.3902E+02
     44.578  0.5431E+00  0.3946E+02
     45.194  0.5579E+00  0.4009E+02
     45.811  0.2852E+00  0.4066E+02
     46.428  0.1551E+01  0.4177E+02
     47.045  0.3835E+00  0.4240E+02
     47.662  0.7780E+00  0.4288E+02
     48.279  0.2165E+00  0.4316E+02
     48.896  0.9411E+00  0.4399E+02
     49.513  0.4351E+00  0.4454E+02
     50.130  0.4845E+00  0.4508E+02
     50.747  0.3113E+00  0.4544E+02
     51.364  0.1019E+01  0.4631E+02
     51.981  0.6417E+00  0.4692E+02
     52.598  0.2324E+00  0.4734E+02
     53.215  0.3981E+00  0.4807E+02
     53.832  0.4371E+00  0.4857E+02
     54.448  0.8034E+00  0.4934E+02
     55.065  0.5212E+00  0.5018E+02
     55.682  0.8774E+00  0.5097E+02
     56.299  0.4938E+00  0.5134E+02
     56.916  0.8506E+00  0.5204E+02
     57.533  0.1215E+01  0.5302E+02
     58.150  0.7355E+00  0.5378E+02
     58.767  0.2883E+00  0.5408E+02
     59.384  0.7759E+00  0.5483E+02
     60.001  0.9121E+00  0.5567E+02
     60.618  0.7710E+00  0.5625E+02
     61.235  0.6337E+00  0.5684E+02
     61.852  0.5531E+00  0.5733E+02
     62.469  0.6044E+00  0.5804E+02
     63.086  0.6730E+00  0.5874E+02
     63.702  0.1242E+01  0.5979E+02
     64.319  0.7629E+00  0.6052E+02
     64.936  0.4445E+00  0.6117E+02
     65.553  0.6880E+00  0.6214E+02
     66.170  0.7210E+00  0.6273E+02
     66.787  0.4294E+00  0.6329E+02
     67.404  0.8662E+00  0.6399E+02
     68.021  0.8546E+00  0.6477E+02
     68.638  0.5677E+00  0.6536E+02
     69.255  0.6668E+00  0.6593E+02
     69.872  0.8366E+00  0.6655E+02
     70.489  0.6534E+00  0.6704E+02
     71.106  0.1644E+00  0.6748E+02
     71.723  0.1283E+01  0.6865E+02
     72.340  0.1203E+01  0.6954E+02
     72.956  0.6457E+00  0.7013E+02
     73.573  0.6594E+00  0.7082E+02
     74.190  0.8672E+00  0.7159E+02
     74.807  0.9516E+00  0.7248E+02
     75.424  0.1066E+01  0.7328E+02
     76.041  0.1022E+01  0.7413E+02
     76.658  0.9839E+00  0.7507E+02
     77.275  0.6943E+00  0.7577E+02
     77.892  0.1116E+01  0.7680E+02
     78.509  0.8611E+00  0.7756E+02
     79.126  0.4772E+00  0.7794E+02
     79.743  0.9881E+00  0.7877E+02
     80.360  0.5480E+00  0.7951E+02
     80.977  0.6493E+00  0.8016E+02
     81.594  0.9510E+00  0.8107E+02
     82.210  0.4562E+00  0.8167E+02
     82.827  0.9698E+00  0.8277E+02
     83.444  0.1071E+01  0.8360E+02
     84.061  0.1389E+01  0.8473E+02
     84.678  0.9575E+00  0.8542E+02
     85.295  0.1329E+01  0.8652E+02
     85.912  0.1147E+01  0.8738E+02
     86.529  0.8485E+00  0.8827E+02
     87.146  0.7353E+00  0.8913E+02
     87.763  0.1634E+01  0.9019E+02
     88.380  0.7307E+00  0.9093E+02
     88.997  0.5298E+00  0.9170E+02
     89.614  0.1410E+01  0.9303E+02
     90.231  0.6602E+00  0.9375E+02
     90.847  0.1148E+01  0.9458E+02
     91.464  0.9517E+00  0.9537E+02
     92.081  0.9613E+00  0.9621E+02
     92.698  0.6878E+00  0.9721E+02
     93.315  0.5694E+00  0.9786E+02
     93.932  0.1163E+01  0.9889E+02
     94.549  0.5043E+00  0.9975E+02
     95.166  0.6988E+00  0.1004E+03
     95.783  0.1667E+01  0.1016E+03
     96.400  0.1393E+01  0.1027E+03
     97.017  0.1211E+01  0.1040E+03
     97.634  0.1354E+01  0.1053E+03
     98.251  0.1154E+01  0.1066E+03
     98.868  0.1185E+01  0.1077E+03
     99.485  0.1113E+01  0.1087E+03
    100.101  0.8437E+00  0.1095E+03
    100.718  0.1236E+01  0.1107E+03
    101.335  0.1135E+01  0.1118E+03
    101.952  0.6347E+00  0.1127E+03
    102.569  0.7706E+00  0.1133E+03
    103.186  0.8544E+00  0.1141E+03
    103.803  0.5266E+00  0.1147E+03
    104.420  0.4946E+00  0.1154E+03
    105.037  0.4369E+00  0.1159E+03
    105.654  0.8883E+00  0.1170E+03
    106.271  0.6086E+00  0.1178E+03
    106.888  0.1088E+01  0.1189E+03
    107.505  0.5345E+00  0.1196E+03
    108.122  0.2485E+00  0.1202E+03
    108.739  0.1223E+01  0.1212E+03
    109.355  0.1214E+01  0.1224E+03
    109.972  0.1076E+01  0.1235E+03
    110.589  0.1072E+01  0.1244E+03
    111.206  0.6345E+00  0.1252E+03
    111.823  0.1304E+01  0.1263E+03
    112.440  0.1572E+01  0.1274E+03
    113.057  0.7643E+00  0.1285E+03
    113.674  0.5655E+00  0.1292E+03
    114.291  0.1130E+01  0.1300E+03
    114.908  0.1458E+01  0.1313E+03
    115.525  0.1005E+01  0.1321E+03
    116.142  0.8452E+00  0.1327E+03
    116.759  0.1522E+01  0.1336E+03
    117.376  0.8144E+00  0.1347E+03
    117.993  0.1039E+01  0.1355E+03
    118.609  0.1086E+01  0.1365E+03
    119.226  0.1189E+01  0.1378E+03
    119.843  0.1076E+01  0.1388E+03
    120.460  0.1469E+01  0.1400E+03
    121.077  0.8615E+00  0.1407E+03
    121.694  0.7067E+00  0.1415E+03
    122.311  0.8245E+00  0.1425E+03
    122.928  0.8010E+00  0.1434E+03
    123.545  0.6414E+00  0.1440E+03
    124.162  0.1022E+01  0.1450E+03
    124.779  0.8608E+00  0.1458E+03
    125.396  0.8461E+00  0.1467E+03
    126.013  0.8849E+00  0.1476E+03
    126.630  0.1098E+01  0.1486E+03
    127.247  0.8881E+00  0.1495E+03
    127.863  0.9622E+00  0.1504E+03
    128.480  0.1110E+01  0.1512E+03
    129.097  0.1231E+01  0.1522E+03
    129.714  0.5848E+00  0.1530E+03
    130.331  0.6859E+00  0.1538E+03
    130.948  0.1053E+01  0.1548E+03
    131.565  0.1007E+01  0.1558E+03
    132.182  0.1011E+01  0.1568E+03
    132.799  0.6495E+00  0.1576E+03
    133.416  0.1385E+01  0.1588E+03
    134.033  0.1427E+01  0.1600E+03
    134.650  0.1087E+01  0.1610E+03
    135.267  0.8169E+00  0.1617E+03
    135.884  0.1157E+01  0.1629E+03
    136.501  0.8472E+00  0.1638E+03
    137.117  0.1218E+01  0.1650E+03
    137.734  0.7139E+00  0.1655E+03
    138.351  0.1163E+01  0.1663E+03
    138.968  0.1032E+01  0.1673E+03
    139.585  0.8864E+00  0.1680E+03
    140.202  0.1305E+01  0.1692E+03
    140.819  0.1117E+01  0.1700E+03
    141.436  0.1236E+01  0.1712E+03
    142.053  0.8558E+00  0.1722E+03
    142.670  0.7126E+00  0.1729E+03
    143.287  0.1109E+01  0.1742E+03
    143.904  0.1032E+01  0.1751E+03
    144.521  0.1319E+01  0.1765E+03
    145.138  0.8168E+00  0.1773E+03
    145.755  0.1270E+01  0.1784E+03
    146.371  0.6420E+00  0.1790E+03
    146.988  0.1084E+01  0.1800E+03
    147.605  0.1237E+01  0.1812E+03
    148.222  0.6245E+00  0.1819E+03
    148.839  0.1291E+01  0.1830E+03
    149.456  0.1065E+01  0.1840E+03
    150.073  0.1299E+01  0.1851E+03
    150.690  0.1120E+01  0.1863E+03
    151.307  0.7265E+00  0.1870E+03
    151.924  0.6332E+00  0.1877E+03
    152.541  0.1202E+01  0.1888E+03
    153.158  0.1345E+01  0.1899E+03
    153.775  0.1066E+01  0.1910E+03
    154.392  0.1304E+01  0.1922E+03
    155.008  0.1348E+01  0.1933E+03
    155.625  0.1127E+01  0.1942E+03
    156.242  0.8832E+00  0.1951E+03
    156.859  0.1292E+01  0.1965E+03
    157.476  0.6941E+00  0.1973E+03
    158.093  0.1056E+01  0.1983E+03
    158.710  0.4726E+00  0.1989E+03
    159.327  0.1206E+00  0.1990E+03
    159.944  0.2457E+00  0.1993E+03
    160.561  0.2337E+00  0.1995E+03
    161.178  0.1579E+00  0.1996E+03
    161.795  0.5257E-01  0.1997E+03
    162.412  0.1541E-01  0.1998E+03
    163.029  0.2579E-01  0.1998E+03
    163.646  0.9471E-01  0.1999E+03
    164.262  0.7780E-01  0.1999E+03
    164.879  0.4761E-07  0.1999E+03
    165.496  0.6398E-01  0.2000E+03
    166.113  0.3242E-02  0.2000E+03
    166.730  0.0000E+00  0.2000E+03
    167.347  0.0000E+00  0.2000E+03
    167.964  0.0000E+00  0.2000E+03
    168.581  0.0000E+00  0.2000E+03
    169.198  0.0000E+00  0.2000E+03
    169.815  0.0000E+00  0.2000E+03
    170.432  0.0000E+00  0.2000E+03
    171.049  0.0000E+00  0.2000E+03
    171.666  0.0000E+00  0.2000E+03
    172.283  0.0000E+00  0.2000E+03
    172.900  0.0000E+00  0.2000E+03
    173.516  0.0000E+00  0.2000E+03
    174.133  0.0000E+00  0.2000E+03
