 vasp.6.5.0 16Dec24 (build Jan 23 2025 15:25:19) complex                        
  
 executed on             LinuxIFC date 2026.08.13  23:05:15
 running   16 mpi-ranks, with    1 threads/rank, on    1 nodes
 distrk:  each k-point on    8 cores,    2 groups
 distr:  one band on NCORE=   2 cores,    4 groups


--------------------------------------------------------------------------------------------------------


 INCAR:
   EDIFF = 1e-06
   ENCUT = 600.0
   IBRION = -1
   ISMEAR = 0
   ISYM = -1
   KPAR = 2
   LASPH = True
   LCHARG = True
   LWAVE = True
   NBANDS = 100
   NPAR = 4
   NSW = 0
   PREC = Accurate
   SIGMA = 0.05

 POTCAR:    PAW_PBE Be 06Sep2000                  
 POTCAR:    PAW_PBE Cu 22Jun2005                  
 POTCAR:    PAW_PBE Be 06Sep2000                  
   VRHFIN =Be: s2p0                                                                                 
   LEXCH  = PE                                                                                      
   EATOM  =    27.4793 eV,    2.0197 Ry                                                             
                                                                                                    
   TITEL  = PAW_PBE Be 06Sep2000                                                                    
   LULTRA =        F    use ultrasoft PP ?                                                          
   IUNSCR =        1    unscreen: 0-lin 1-nonlin 2-no                                               
   RPACOR =    1.580    partial core radius                                                         
   POMASS =    9.013; ZVAL   =    2.000    mass and valenz                                          
   RCORE  =    1.900    outmost cutoff radius                                                       
   RWIGS  =    1.880; RWIGS  =    0.995    wigner-seitz radius (au A)                               
   ENMAX  =  247.543; ENMIN  =  185.658 eV                                                          
   ICORE  =        2    local potential                                                             
   LCOR   =        T    correct aug charges                                                         
   LPAW   =        T    paw PP                                                                      
   EAUG   =  318.781                                                                                
   DEXC   =    0.000                                                                                
   RMAX   =    1.944    core radius for proj-oper                                                   
   RAUG   =    1.300    factor for augmentation sphere                                              
   RDEP   =    2.003    radius for radial grids                                                     
   RDEPT  =    1.802    core radius for aug-charge                                                  
                                                                                                    
   Atomic configuration                                                                             
    4 entries                                                                                       
     n  l   j            E        occ.                                                              
     1  0  0.50      -106.2287   2.0000                                                             
     2  0  0.50        -5.6162   1.9900                                                             
     2  1  0.50        -2.0244   0.0100                                                             
     3  2  1.50        -1.3606   0.0000                                                             
   Description                                                                                      
     l       E           TYP  RCUT    TYP  RCUT                                                     
     0     -5.6161739     23  1.900                                                                 
     0     27.2116520     23  1.900                                                                 
     1     -2.0243505     23  1.900                                                                 
     1     27.2116520     23  1.900                                                                 
     2     -1.3605826     15  1.500                                                                 
  local pseudopotential read in
  partial core-charges read in
  partial kinetic energy density read in
  atomic valenz-charges read in
  non local Contribution for L=           0  read in
    real space projection operators read in
  non local Contribution for L=           0  read in
    real space projection operators read in
  non local Contribution for L=           1  read in
    real space projection operators read in
  non local Contribution for L=           1  read in
    real space projection operators read in
    PAW grid and wavefunctions read in
 
   number of l-projection  operators is LMAX  =           4
   number of lm-projection operators is LMMAX =           8
 
 POTCAR:    PAW_PBE Cu 22Jun2005                  
   VRHFIN =Cu: d10 p1                                                                               
   LEXCH  = PE                                                                                      
   EATOM  =  1390.9808 eV,  102.2342 Ry                                                             
                                                                                                    
   TITEL  = PAW_PBE Cu 22Jun2005                                                                    
   LULTRA =        F    use ultrasoft PP ?                                                          
   IUNSCR =        1    unscreen: 0-lin 1-nonlin 2-no                                               
   RPACOR =    2.000    partial core radius                                                         
   POMASS =   63.546; ZVAL   =   11.000    mass and valenz                                          
   RCORE  =    2.300    outmost cutoff radius                                                       
   RWIGS  =    2.200; RWIGS  =    1.164    wigner-seitz radius (au A)                               
   ENMAX  =  295.446; ENMIN  =  221.585 eV                                                          
   ICORE  =        3    local potential                                                             
   LCOR   =        T    correct aug charges                                                         
   LPAW   =        T    paw PP                                                                      
   EAUG   =  586.980                                                                                
   DEXC   =    0.000                                                                                
   RMAX   =    2.344    core radius for proj-oper                                                   
   RAUG   =    1.300    factor for augmentation sphere                                              
   RDEP   =    2.302    radius for radial grids                                                     
   RDEPT  =    1.771    core radius for aug-charge                                                  
                                                                                                    
   Atomic configuration                                                                             
    9 entries                                                                                       
     n  l   j            E        occ.                                                              
     1  0  0.50     -8850.2468   2.0000                                                             
     2  0  0.50     -1062.3498   2.0000                                                             
     2  1  1.50      -916.8226   6.0000                                                             
     3  0  0.50      -114.6929   2.0000                                                             
     3  1  1.50       -72.1325   6.0000                                                             
     3  2  2.50        -5.0394  10.0000                                                             
     4  0  0.50        -4.6097   1.0000                                                             
     4  1  0.50        -4.0817   0.0000                                                             
     4  3  2.50        -1.3606   0.0000                                                             
   Description                                                                                      
     l       E           TYP  RCUT    TYP  RCUT                                                     
     2     -5.0393973     23  2.200                                                                 
     2     10.8846608     23  2.200                                                                 
     0     -4.6097109     23  2.200                                                                 
     0      8.2520465     23  2.200                                                                 
     1     -2.7211652     23  2.200                                                                 
     1     21.7055443     23  2.200                                                                 
     3      2.7211652     23  2.300                                                                 
  local pseudopotential read in
  partial core-charges read in
  partial kinetic energy density read in
  atomic valenz-charges read in
  non local Contribution for L=           2  read in
    real space projection operators read in
  non local Contribution for L=           2  read in
    real space projection operators read in
  non local Contribution for L=           0  read in
    real space projection operators read in
  non local Contribution for L=           0  read in
    real space projection operators read in
  non local Contribution for L=           1  read in
    real space projection operators read in
  non local Contribution for L=           1  read in
    real space projection operators read in
    PAW grid and wavefunctions read in
 
   number of l-projection  operators is LMAX  =           6
   number of lm-projection operators is LMMAX =          18
 
  PAW_PBE Be 06Sep2000                  :
 energy of atom  1       EATOM=  -27.4793
 kinetic energy error for atom=    0.0000 (will be added to EATOM!!)
  PAW_PBE Cu 22Jun2005                  :
 energy of atom  2       EATOM=-1390.9808
 kinetic energy error for atom=    0.0033 (will be added to EATOM!!)
 
 
 POSCAR: Be1 Cu1
  positions in direct lattice
  No initial velocities read in


 exchange-correlation table for PE
   RHO(1)=    0.500       N(1)  =     2000
   RHO(2)=  100.500       N(2)  =     4000
 


--------------------------------------------------------------------------------------------------------


 ion  position               nearest neighbor table
   1  0.000  0.000  0.000-   2 2.31   2 2.31   2 2.31   2 2.31   2 2.31   2 2.31   2 2.31   2 2.31

   2  0.500  0.500  0.500-   1 2.31   1 2.31   1 2.31   1 2.31   1 2.31   1 2.31   1 2.31   1 2.31

 

IMPORTANT INFORMATION: All symmetrisations will be switched off!
NOSYMM: (Re-)initialisation of all symmetry stuff for point group C_1.


----------------------------------------------------------------------------------------

                                     Primitive cell                                     

  volume of cell :      19.0870

  direct lattice vectors                    reciprocal lattice vectors
     2.672467880  0.000000000  0.000000000     0.374185975  0.000000000  0.000000000
     0.000000000  2.672467880  0.000000000     0.000000000  0.374185975  0.000000000
     0.000000000  0.000000000  2.672467880     0.000000000  0.000000000  0.374185975

  length of vectors
     2.672467880  2.672467880  2.672467880     0.374185975  0.374185975  0.374185975

  position of ions in fractional coordinates (direct lattice)
     0.000000000  0.000000000  0.000000000
     0.500000000  0.500000000  0.500000000

  ion indices of the primitive-cell ions
   primitive index   ion index
                 1           1
                 2           2

----------------------------------------------------------------------------------------

 
 
 KPOINTS: pymatgen with grid density = 2599 / numb

Automatic generation of k-mesh.
 Grid dimensions read from file:
 generate k-points for:   10   10   10

 Generating k-lattice:

  Cartesian coordinates                     Fractional coordinates (reciprocal lattice)
     0.037418598  0.000000000  0.000000000     0.100000000  0.000000000  0.000000000
     0.000000000  0.037418598  0.000000000     0.000000000  0.100000000  0.000000000
     0.000000000  0.000000000  0.037418598     0.000000000  0.000000000  0.100000000

  Length of vectors
     0.037418598  0.037418598  0.037418598

  Shift w.r.t. Gamma in fractional coordinates (k-lattice)
     0.500000000  0.500000000  0.500000000

 
 Subroutine IBZKPT returns following result:
 ===========================================
 
 Found   1000 irreducible k-points:
 
 Following reciprocal coordinates:
            Coordinates               Weight
  0.050000  0.050000  0.050000      1.000000
  0.150000  0.050000  0.050000      1.000000
  0.250000  0.050000  0.050000      1.000000
  0.350000  0.050000  0.050000      1.000000
  0.450000  0.050000  0.050000      1.000000
 -0.450000  0.050000  0.050000      1.000000
 -0.350000  0.050000  0.050000      1.000000
 -0.250000  0.050000  0.050000      1.000000
 -0.150000  0.050000  0.050000      1.000000
 -0.050000  0.050000  0.050000      1.000000
  0.050000  0.150000  0.050000      1.000000
  0.150000  0.150000  0.050000      1.000000
  0.250000  0.150000  0.050000      1.000000
  0.350000  0.150000  0.050000      1.000000
  0.450000  0.150000  0.050000      1.000000
 -0.450000  0.150000  0.050000      1.000000
 -0.350000  0.150000  0.050000      1.000000
 -0.250000  0.150000  0.050000      1.000000
 -0.150000  0.150000  0.050000      1.000000
 -0.050000  0.150000  0.050000      1.000000
  0.050000  0.250000  0.050000      1.000000
  0.150000  0.250000  0.050000      1.000000
  0.250000  0.250000  0.050000      1.000000
  0.350000  0.250000  0.050000      1.000000
  0.450000  0.250000  0.050000      1.000000
 -0.450000  0.250000  0.050000      1.000000
 -0.350000  0.250000  0.050000      1.000000
 -0.250000  0.250000  0.050000      1.000000
 -0.150000  0.250000  0.050000      1.000000
 -0.050000  0.250000  0.050000      1.000000
  0.050000  0.350000  0.050000      1.000000
  0.150000  0.350000  0.050000      1.000000
  0.250000  0.350000  0.050000      1.000000
  0.350000  0.350000  0.050000      1.000000
  0.450000  0.350000  0.050000      1.000000
 -0.450000  0.350000  0.050000      1.000000
 -0.350000  0.350000  0.050000      1.000000
 -0.250000  0.350000  0.050000      1.000000
 -0.150000  0.350000  0.050000      1.000000
 -0.050000  0.350000  0.050000      1.000000
  0.050000  0.450000  0.050000      1.000000
  0.150000  0.450000  0.050000      1.000000
  0.250000  0.450000  0.050000      1.000000
  0.350000  0.450000  0.050000      1.000000
  0.450000  0.450000  0.050000      1.000000
 -0.450000  0.450000  0.050000      1.000000
 -0.350000  0.450000  0.050000      1.000000
 -0.250000  0.450000  0.050000      1.000000
 -0.150000  0.450000  0.050000      1.000000
 -0.050000  0.450000  0.050000      1.000000
  0.050000 -0.450000  0.050000      1.000000
  0.150000 -0.450000  0.050000      1.000000
  0.250000 -0.450000  0.050000      1.000000
  0.350000 -0.450000  0.050000      1.000000
  0.450000 -0.450000  0.050000      1.000000
 -0.450000 -0.450000  0.050000      1.000000
 -0.350000 -0.450000  0.050000      1.000000
 -0.250000 -0.450000  0.050000      1.000000
 -0.150000 -0.450000  0.050000      1.000000
 -0.050000 -0.450000  0.050000      1.000000
  0.050000 -0.350000  0.050000      1.000000
  0.150000 -0.350000  0.050000      1.000000
  0.250000 -0.350000  0.050000      1.000000
  0.350000 -0.350000  0.050000      1.000000
  0.450000 -0.350000  0.050000      1.000000
 -0.450000 -0.350000  0.050000      1.000000
 -0.350000 -0.350000  0.050000      1.000000
 -0.250000 -0.350000  0.050000      1.000000
 -0.150000 -0.350000  0.050000      1.000000
 -0.050000 -0.350000  0.050000      1.000000
  0.050000 -0.250000  0.050000      1.000000
  0.150000 -0.250000  0.050000      1.000000
  0.250000 -0.250000  0.050000      1.000000
  0.350000 -0.250000  0.050000      1.000000
  0.450000 -0.250000  0.050000      1.000000
 -0.450000 -0.250000  0.050000      1.000000
 -0.350000 -0.250000  0.050000      1.000000
 -0.250000 -0.250000  0.050000      1.000000
 -0.150000 -0.250000  0.050000      1.000000
 -0.050000 -0.250000  0.050000      1.000000
  0.050000 -0.150000  0.050000      1.000000
  0.150000 -0.150000  0.050000      1.000000
  0.250000 -0.150000  0.050000      1.000000
  0.350000 -0.150000  0.050000      1.000000
  0.450000 -0.150000  0.050000      1.000000
 -0.450000 -0.150000  0.050000      1.000000
 -0.350000 -0.150000  0.050000      1.000000
 -0.250000 -0.150000  0.050000      1.000000
 -0.150000 -0.150000  0.050000      1.000000
 -0.050000 -0.150000  0.050000      1.000000
  0.050000 -0.050000  0.050000      1.000000
  0.150000 -0.050000  0.050000      1.000000
  0.250000 -0.050000  0.050000      1.000000
  0.350000 -0.050000  0.050000      1.000000
  0.450000 -0.050000  0.050000      1.000000
 -0.450000 -0.050000  0.050000      1.000000
 -0.350000 -0.050000  0.050000      1.000000
 -0.250000 -0.050000  0.050000      1.000000
 -0.150000 -0.050000  0.050000      1.000000
 -0.050000 -0.050000  0.050000      1.000000
  0.050000  0.050000  0.150000      1.000000
  0.150000  0.050000  0.150000      1.000000
  0.250000  0.050000  0.150000      1.000000
  0.350000  0.050000  0.150000      1.000000
  0.450000  0.050000  0.150000      1.000000
 -0.450000  0.050000  0.150000      1.000000
 -0.350000  0.050000  0.150000      1.000000
 -0.250000  0.050000  0.150000      1.000000
 -0.150000  0.050000  0.150000      1.000000
 -0.050000  0.050000  0.150000      1.000000
  0.050000  0.150000  0.150000      1.000000
  0.150000  0.150000  0.150000      1.000000
  0.250000  0.150000  0.150000      1.000000
  0.350000  0.150000  0.150000      1.000000
  0.450000  0.150000  0.150000      1.000000
 -0.450000  0.150000  0.150000      1.000000
 -0.350000  0.150000  0.150000      1.000000
 -0.250000  0.150000  0.150000      1.000000
 -0.150000  0.150000  0.150000      1.000000
 -0.050000  0.150000  0.150000      1.000000
  0.050000  0.250000  0.150000      1.000000
  0.150000  0.250000  0.150000      1.000000
  0.250000  0.250000  0.150000      1.000000
  0.350000  0.250000  0.150000      1.000000
  0.450000  0.250000  0.150000      1.000000
 -0.450000  0.250000  0.150000      1.000000
 -0.350000  0.250000  0.150000      1.000000
 -0.250000  0.250000  0.150000      1.000000
 -0.150000  0.250000  0.150000      1.000000
 -0.050000  0.250000  0.150000      1.000000
  0.050000  0.350000  0.150000      1.000000
  0.150000  0.350000  0.150000      1.000000
  0.250000  0.350000  0.150000      1.000000
  0.350000  0.350000  0.150000      1.000000
  0.450000  0.350000  0.150000      1.000000
 -0.450000  0.350000  0.150000      1.000000
 -0.350000  0.350000  0.150000      1.000000
 -0.250000  0.350000  0.150000      1.000000
 -0.150000  0.350000  0.150000      1.000000
 -0.050000  0.350000  0.150000      1.000000
  0.050000  0.450000  0.150000      1.000000
  0.150000  0.450000  0.150000      1.000000
  0.250000  0.450000  0.150000      1.000000
  0.350000  0.450000  0.150000      1.000000
  0.450000  0.450000  0.150000      1.000000
 -0.450000  0.450000  0.150000      1.000000
 -0.350000  0.450000  0.150000      1.000000
 -0.250000  0.450000  0.150000      1.000000
 -0.150000  0.450000  0.150000      1.000000
 -0.050000  0.450000  0.150000      1.000000
  0.050000 -0.450000  0.150000      1.000000
  0.150000 -0.450000  0.150000      1.000000
  0.250000 -0.450000  0.150000      1.000000
  0.350000 -0.450000  0.150000      1.000000
  0.450000 -0.450000  0.150000      1.000000
 -0.450000 -0.450000  0.150000      1.000000
 -0.350000 -0.450000  0.150000      1.000000
 -0.250000 -0.450000  0.150000      1.000000
 -0.150000 -0.450000  0.150000      1.000000
 -0.050000 -0.450000  0.150000      1.000000
  0.050000 -0.350000  0.150000      1.000000
  0.150000 -0.350000  0.150000      1.000000
  0.250000 -0.350000  0.150000      1.000000
  0.350000 -0.350000  0.150000      1.000000
  0.450000 -0.350000  0.150000      1.000000
 -0.450000 -0.350000  0.150000      1.000000
 -0.350000 -0.350000  0.150000      1.000000
 -0.250000 -0.350000  0.150000      1.000000
 -0.150000 -0.350000  0.150000      1.000000
 -0.050000 -0.350000  0.150000      1.000000
  0.050000 -0.250000  0.150000      1.000000
  0.150000 -0.250000  0.150000      1.000000
  0.250000 -0.250000  0.150000      1.000000
  0.350000 -0.250000  0.150000      1.000000
  0.450000 -0.250000  0.150000      1.000000
 -0.450000 -0.250000  0.150000      1.000000
 -0.350000 -0.250000  0.150000      1.000000
 -0.250000 -0.250000  0.150000      1.000000
 -0.150000 -0.250000  0.150000      1.000000
 -0.050000 -0.250000  0.150000      1.000000
  0.050000 -0.150000  0.150000      1.000000
  0.150000 -0.150000  0.150000      1.000000
  0.250000 -0.150000  0.150000      1.000000
  0.350000 -0.150000  0.150000      1.000000
  0.450000 -0.150000  0.150000      1.000000
 -0.450000 -0.150000  0.150000      1.000000
 -0.350000 -0.150000  0.150000      1.000000
 -0.250000 -0.150000  0.150000      1.000000
 -0.150000 -0.150000  0.150000      1.000000
 -0.050000 -0.150000  0.150000      1.000000
  0.050000 -0.050000  0.150000      1.000000
  0.150000 -0.050000  0.150000      1.000000
  0.250000 -0.050000  0.150000      1.000000
  0.350000 -0.050000  0.150000      1.000000
  0.450000 -0.050000  0.150000      1.000000
 -0.450000 -0.050000  0.150000      1.000000
 -0.350000 -0.050000  0.150000      1.000000
 -0.250000 -0.050000  0.150000      1.000000
 -0.150000 -0.050000  0.150000      1.000000
 -0.050000 -0.050000  0.150000      1.000000
  0.050000  0.050000  0.250000      1.000000
  0.150000  0.050000  0.250000      1.000000
  0.250000  0.050000  0.250000      1.000000
  0.350000  0.050000  0.250000      1.000000
  0.450000  0.050000  0.250000      1.000000
 -0.450000  0.050000  0.250000      1.000000
 -0.350000  0.050000  0.250000      1.000000
 -0.250000  0.050000  0.250000      1.000000
 -0.150000  0.050000  0.250000      1.000000
 -0.050000  0.050000  0.250000      1.000000
  0.050000  0.150000  0.250000      1.000000
  0.150000  0.150000  0.250000      1.000000
  0.250000  0.150000  0.250000      1.000000
  0.350000  0.150000  0.250000      1.000000
  0.450000  0.150000  0.250000      1.000000
 -0.450000  0.150000  0.250000      1.000000
 -0.350000  0.150000  0.250000      1.000000
 -0.250000  0.150000  0.250000      1.000000
 -0.150000  0.150000  0.250000      1.000000
 -0.050000  0.150000  0.250000      1.000000
  0.050000  0.250000  0.250000      1.000000
  0.150000  0.250000  0.250000      1.000000
  0.250000  0.250000  0.250000      1.000000
  0.350000  0.250000  0.250000      1.000000
  0.450000  0.250000  0.250000      1.000000
 -0.450000  0.250000  0.250000      1.000000
 -0.350000  0.250000  0.250000      1.000000
 -0.250000  0.250000  0.250000      1.000000
 -0.150000  0.250000  0.250000      1.000000
 -0.050000  0.250000  0.250000      1.000000
  0.050000  0.350000  0.250000      1.000000
  0.150000  0.350000  0.250000      1.000000
  0.250000  0.350000  0.250000      1.000000
  0.350000  0.350000  0.250000      1.000000
  0.450000  0.350000  0.250000      1.000000
 -0.450000  0.350000  0.250000      1.000000
 -0.350000  0.350000  0.250000      1.000000
 -0.250000  0.350000  0.250000      1.000000
 -0.150000  0.350000  0.250000      1.000000
 -0.050000  0.350000  0.250000      1.000000
  0.050000  0.450000  0.250000      1.000000
  0.150000  0.450000  0.250000      1.000000
  0.250000  0.450000  0.250000      1.000000
  0.350000  0.450000  0.250000      1.000000
  0.450000  0.450000  0.250000      1.000000
 -0.450000  0.450000  0.250000      1.000000
 -0.350000  0.450000  0.250000      1.000000
 -0.250000  0.450000  0.250000      1.000000
 -0.150000  0.450000  0.250000      1.000000
 -0.050000  0.450000  0.250000      1.000000
  0.050000 -0.450000  0.250000      1.000000
  0.150000 -0.450000  0.250000      1.000000
  0.250000 -0.450000  0.250000      1.000000
  0.350000 -0.450000  0.250000      1.000000
  0.450000 -0.450000  0.250000      1.000000
 -0.450000 -0.450000  0.250000      1.000000
 -0.350000 -0.450000  0.250000      1.000000
 -0.250000 -0.450000  0.250000      1.000000
 -0.150000 -0.450000  0.250000      1.000000
 -0.050000 -0.450000  0.250000      1.000000
  0.050000 -0.350000  0.250000      1.000000
  0.150000 -0.350000  0.250000      1.000000
  0.250000 -0.350000  0.250000      1.000000
  0.350000 -0.350000  0.250000      1.000000
  0.450000 -0.350000  0.250000      1.000000
 -0.450000 -0.350000  0.250000      1.000000
 -0.350000 -0.350000  0.250000      1.000000
 -0.250000 -0.350000  0.250000      1.000000
 -0.150000 -0.350000  0.250000      1.000000
 -0.050000 -0.350000  0.250000      1.000000
  0.050000 -0.250000  0.250000      1.000000
  0.150000 -0.250000  0.250000      1.000000
  0.250000 -0.250000  0.250000      1.000000
  0.350000 -0.250000  0.250000      1.000000
  0.450000 -0.250000  0.250000      1.000000
 -0.450000 -0.250000  0.250000      1.000000
 -0.350000 -0.250000  0.250000      1.000000
 -0.250000 -0.250000  0.250000      1.000000
 -0.150000 -0.250000  0.250000      1.000000
 -0.050000 -0.250000  0.250000      1.000000
  0.050000 -0.150000  0.250000      1.000000
  0.150000 -0.150000  0.250000      1.000000
  0.250000 -0.150000  0.250000      1.000000
  0.350000 -0.150000  0.250000      1.000000
  0.450000 -0.150000  0.250000      1.000000
 -0.450000 -0.150000  0.250000      1.000000
 -0.350000 -0.150000  0.250000      1.000000
 -0.250000 -0.150000  0.250000      1.000000
 -0.150000 -0.150000  0.250000      1.000000
 -0.050000 -0.150000  0.250000      1.000000
  0.050000 -0.050000  0.250000      1.000000
  0.150000 -0.050000  0.250000      1.000000
  0.250000 -0.050000  0.250000      1.000000
  0.350000 -0.050000  0.250000      1.000000
  0.450000 -0.050000  0.250000      1.000000
 -0.450000 -0.050000  0.250000      1.000000
 -0.350000 -0.050000  0.250000      1.000000
 -0.250000 -0.050000  0.250000      1.000000
 -0.150000 -0.050000  0.250000      1.000000
 -0.050000 -0.050000  0.250000      1.000000
  0.050000  0.050000  0.350000      1.000000
  0.150000  0.050000  0.350000      1.000000
  0.250000  0.050000  0.350000      1.000000
  0.350000  0.050000  0.350000      1.000000
  0.450000  0.050000  0.350000      1.000000
 -0.450000  0.050000  0.350000      1.000000
 -0.350000  0.050000  0.350000      1.000000
 -0.250000  0.050000  0.350000      1.000000
 -0.150000  0.050000  0.350000      1.000000
 -0.050000  0.050000  0.350000      1.000000
  0.050000  0.150000  0.350000      1.000000
  0.150000  0.150000  0.350000      1.000000
  0.250000  0.150000  0.350000      1.000000
  0.350000  0.150000  0.350000      1.000000
  0.450000  0.150000  0.350000      1.000000
 -0.450000  0.150000  0.350000      1.000000
 -0.350000  0.150000  0.350000      1.000000
 -0.250000  0.150000  0.350000      1.000000
 -0.150000  0.150000  0.350000      1.000000
 -0.050000  0.150000  0.350000      1.000000
  0.050000  0.250000  0.350000      1.000000
  0.150000  0.250000  0.350000      1.000000
  0.250000  0.250000  0.350000      1.000000
  0.350000  0.250000  0.350000      1.000000
  0.450000  0.250000  0.350000      1.000000
 -0.450000  0.250000  0.350000      1.000000
 -0.350000  0.250000  0.350000      1.000000
 -0.250000  0.250000  0.350000      1.000000
 -0.150000  0.250000  0.350000      1.000000
 -0.050000  0.250000  0.350000      1.000000
  0.050000  0.350000  0.350000      1.000000
  0.150000  0.350000  0.350000      1.000000
  0.250000  0.350000  0.350000      1.000000
  0.350000  0.350000  0.350000      1.000000
  0.450000  0.350000  0.350000      1.000000
 -0.450000  0.350000  0.350000      1.000000
 -0.350000  0.350000  0.350000      1.000000
 -0.250000  0.350000  0.350000      1.000000
 -0.150000  0.350000  0.350000      1.000000
 -0.050000  0.350000  0.350000      1.000000
  0.050000  0.450000  0.350000      1.000000
  0.150000  0.450000  0.350000      1.000000
  0.250000  0.450000  0.350000      1.000000
  0.350000  0.450000  0.350000      1.000000
  0.450000  0.450000  0.350000      1.000000
 -0.450000  0.450000  0.350000      1.000000
 -0.350000  0.450000  0.350000      1.000000
 -0.250000  0.450000  0.350000      1.000000
 -0.150000  0.450000  0.350000      1.000000
 -0.050000  0.450000  0.350000      1.000000
  0.050000 -0.450000  0.350000      1.000000
  0.150000 -0.450000  0.350000      1.000000
  0.250000 -0.450000  0.350000      1.000000
  0.350000 -0.450000  0.350000      1.000000
  0.450000 -0.450000  0.350000      1.000000
 -0.450000 -0.450000  0.350000      1.000000
 -0.350000 -0.450000  0.350000      1.000000
 -0.250000 -0.450000  0.350000      1.000000
 -0.150000 -0.450000  0.350000      1.000000
 -0.050000 -0.450000  0.350000      1.000000
  0.050000 -0.350000  0.350000      1.000000
  0.150000 -0.350000  0.350000      1.000000
  0.250000 -0.350000  0.350000      1.000000
  0.350000 -0.350000  0.350000      1.000000
  0.450000 -0.350000  0.350000      1.000000
 -0.450000 -0.350000  0.350000      1.000000
 -0.350000 -0.350000  0.350000      1.000000
 -0.250000 -0.350000  0.350000      1.000000
 -0.150000 -0.350000  0.350000      1.000000
 -0.050000 -0.350000  0.350000      1.000000
  0.050000 -0.250000  0.350000      1.000000
  0.150000 -0.250000  0.350000      1.000000
  0.250000 -0.250000  0.350000      1.000000
  0.350000 -0.250000  0.350000      1.000000
  0.450000 -0.250000  0.350000      1.000000
 -0.450000 -0.250000  0.350000      1.000000
 -0.350000 -0.250000  0.350000      1.000000
 -0.250000 -0.250000  0.350000      1.000000
 -0.150000 -0.250000  0.350000      1.000000
 -0.050000 -0.250000  0.350000      1.000000
  0.050000 -0.150000  0.350000      1.000000
  0.150000 -0.150000  0.350000      1.000000
  0.250000 -0.150000  0.350000      1.000000
  0.350000 -0.150000  0.350000      1.000000
  0.450000 -0.150000  0.350000      1.000000
 -0.450000 -0.150000  0.350000      1.000000
 -0.350000 -0.150000  0.350000      1.000000
 -0.250000 -0.150000  0.350000      1.000000
 -0.150000 -0.150000  0.350000      1.000000
 -0.050000 -0.150000  0.350000      1.000000
  0.050000 -0.050000  0.350000      1.000000
  0.150000 -0.050000  0.350000      1.000000
  0.250000 -0.050000  0.350000      1.000000
  0.350000 -0.050000  0.350000      1.000000
  0.450000 -0.050000  0.350000      1.000000
 -0.450000 -0.050000  0.350000      1.000000
 -0.350000 -0.050000  0.350000      1.000000
 -0.250000 -0.050000  0.350000      1.000000
 -0.150000 -0.050000  0.350000      1.000000
 -0.050000 -0.050000  0.350000      1.000000
  0.050000  0.050000  0.450000      1.000000
  0.150000  0.050000  0.450000      1.000000
  0.250000  0.050000  0.450000      1.000000
  0.350000  0.050000  0.450000      1.000000
  0.450000  0.050000  0.450000      1.000000
 -0.450000  0.050000  0.450000      1.000000
 -0.350000  0.050000  0.450000      1.000000
 -0.250000  0.050000  0.450000      1.000000
 -0.150000  0.050000  0.450000      1.000000
 -0.050000  0.050000  0.450000      1.000000
  0.050000  0.150000  0.450000      1.000000
  0.150000  0.150000  0.450000      1.000000
  0.250000  0.150000  0.450000      1.000000
  0.350000  0.150000  0.450000      1.000000
  0.450000  0.150000  0.450000      1.000000
 -0.450000  0.150000  0.450000      1.000000
 -0.350000  0.150000  0.450000      1.000000
 -0.250000  0.150000  0.450000      1.000000
 -0.150000  0.150000  0.450000      1.000000
 -0.050000  0.150000  0.450000      1.000000
  0.050000  0.250000  0.450000      1.000000
  0.150000  0.250000  0.450000      1.000000
  0.250000  0.250000  0.450000      1.000000
  0.350000  0.250000  0.450000      1.000000
  0.450000  0.250000  0.450000      1.000000
 -0.450000  0.250000  0.450000      1.000000
 -0.350000  0.250000  0.450000      1.000000
 -0.250000  0.250000  0.450000      1.000000
 -0.150000  0.250000  0.450000      1.000000
 -0.050000  0.250000  0.450000      1.000000
  0.050000  0.350000  0.450000      1.000000
  0.150000  0.350000  0.450000      1.000000
  0.250000  0.350000  0.450000      1.000000
  0.350000  0.350000  0.450000      1.000000
  0.450000  0.350000  0.450000      1.000000
 -0.450000  0.350000  0.450000      1.000000
 -0.350000  0.350000  0.450000      1.000000
 -0.250000  0.350000  0.450000      1.000000
 -0.150000  0.350000  0.450000      1.000000
 -0.050000  0.350000  0.450000      1.000000
  0.050000  0.450000  0.450000      1.000000
  0.150000  0.450000  0.450000      1.000000
  0.250000  0.450000  0.450000      1.000000
  0.350000  0.450000  0.450000      1.000000
  0.450000  0.450000  0.450000      1.000000
 -0.450000  0.450000  0.450000      1.000000
 -0.350000  0.450000  0.450000      1.000000
 -0.250000  0.450000  0.450000      1.000000
 -0.150000  0.450000  0.450000      1.000000
 -0.050000  0.450000  0.450000      1.000000
  0.050000 -0.450000  0.450000      1.000000
  0.150000 -0.450000  0.450000      1.000000
  0.250000 -0.450000  0.450000      1.000000
  0.350000 -0.450000  0.450000      1.000000
  0.450000 -0.450000  0.450000      1.000000
 -0.450000 -0.450000  0.450000      1.000000
 -0.350000 -0.450000  0.450000      1.000000
 -0.250000 -0.450000  0.450000      1.000000
 -0.150000 -0.450000  0.450000      1.000000
 -0.050000 -0.450000  0.450000      1.000000
  0.050000 -0.350000  0.450000      1.000000
  0.150000 -0.350000  0.450000      1.000000
  0.250000 -0.350000  0.450000      1.000000
  0.350000 -0.350000  0.450000      1.000000
  0.450000 -0.350000  0.450000      1.000000
 -0.450000 -0.350000  0.450000      1.000000
 -0.350000 -0.350000  0.450000      1.000000
 -0.250000 -0.350000  0.450000      1.000000
 -0.150000 -0.350000  0.450000      1.000000
 -0.050000 -0.350000  0.450000      1.000000
  0.050000 -0.250000  0.450000      1.000000
  0.150000 -0.250000  0.450000      1.000000
  0.250000 -0.250000  0.450000      1.000000
  0.350000 -0.250000  0.450000      1.000000
  0.450000 -0.250000  0.450000      1.000000
 -0.450000 -0.250000  0.450000      1.000000
 -0.350000 -0.250000  0.450000      1.000000
 -0.250000 -0.250000  0.450000      1.000000
 -0.150000 -0.250000  0.450000      1.000000
 -0.050000 -0.250000  0.450000      1.000000
  0.050000 -0.150000  0.450000      1.000000
  0.150000 -0.150000  0.450000      1.000000
  0.250000 -0.150000  0.450000      1.000000
  0.350000 -0.150000  0.450000      1.000000
  0.450000 -0.150000  0.450000      1.000000
 -0.450000 -0.150000  0.450000      1.000000
 -0.350000 -0.150000  0.450000      1.000000
 -0.250000 -0.150000  0.450000      1.000000
 -0.150000 -0.150000  0.450000      1.000000
 -0.050000 -0.150000  0.450000      1.000000
  0.050000 -0.050000  0.450000      1.000000
  0.150000 -0.050000  0.450000      1.000000
  0.250000 -0.050000  0.450000      1.000000
  0.350000 -0.050000  0.450000      1.000000
  0.450000 -0.050000  0.450000      1.000000
 -0.450000 -0.050000  0.450000      1.000000
 -0.350000 -0.050000  0.450000      1.000000
 -0.250000 -0.050000  0.450000      1.000000
 -0.150000 -0.050000  0.450000      1.000000
 -0.050000 -0.050000  0.450000      1.000000
  0.050000  0.050000 -0.450000      1.000000
  0.150000  0.050000 -0.450000      1.000000
  0.250000  0.050000 -0.450000      1.000000
  0.350000  0.050000 -0.450000      1.000000
  0.450000  0.050000 -0.450000      1.000000
 -0.450000  0.050000 -0.450000      1.000000
 -0.350000  0.050000 -0.450000      1.000000
 -0.250000  0.050000 -0.450000      1.000000
 -0.150000  0.050000 -0.450000      1.000000
 -0.050000  0.050000 -0.450000      1.000000
  0.050000  0.150000 -0.450000      1.000000
  0.150000  0.150000 -0.450000      1.000000
  0.250000  0.150000 -0.450000      1.000000
  0.350000  0.150000 -0.450000      1.000000
  0.450000  0.150000 -0.450000      1.000000
 -0.450000  0.150000 -0.450000      1.000000
 -0.350000  0.150000 -0.450000      1.000000
 -0.250000  0.150000 -0.450000      1.000000
 -0.150000  0.150000 -0.450000      1.000000
 -0.050000  0.150000 -0.450000      1.000000
  0.050000  0.250000 -0.450000      1.000000
  0.150000  0.250000 -0.450000      1.000000
  0.250000  0.250000 -0.450000      1.000000
  0.350000  0.250000 -0.450000      1.000000
  0.450000  0.250000 -0.450000      1.000000
 -0.450000  0.250000 -0.450000      1.000000
 -0.350000  0.250000 -0.450000      1.000000
 -0.250000  0.250000 -0.450000      1.000000
 -0.150000  0.250000 -0.450000      1.000000
 -0.050000  0.250000 -0.450000      1.000000
  0.050000  0.350000 -0.450000      1.000000
  0.150000  0.350000 -0.450000      1.000000
  0.250000  0.350000 -0.450000      1.000000
  0.350000  0.350000 -0.450000      1.000000
  0.450000  0.350000 -0.450000      1.000000
 -0.450000  0.350000 -0.450000      1.000000
 -0.350000  0.350000 -0.450000      1.000000
 -0.250000  0.350000 -0.450000      1.000000
 -0.150000  0.350000 -0.450000      1.000000
 -0.050000  0.350000 -0.450000      1.000000
  0.050000  0.450000 -0.450000      1.000000
  0.150000  0.450000 -0.450000      1.000000
  0.250000  0.450000 -0.450000      1.000000
  0.350000  0.450000 -0.450000      1.000000
  0.450000  0.450000 -0.450000      1.000000
 -0.450000  0.450000 -0.450000      1.000000
 -0.350000  0.450000 -0.450000      1.000000
 -0.250000  0.450000 -0.450000      1.000000
 -0.150000  0.450000 -0.450000      1.000000
 -0.050000  0.450000 -0.450000      1.000000
  0.050000 -0.450000 -0.450000      1.000000
  0.150000 -0.450000 -0.450000      1.000000
  0.250000 -0.450000 -0.450000      1.000000
  0.350000 -0.450000 -0.450000      1.000000
  0.450000 -0.450000 -0.450000      1.000000
 -0.450000 -0.450000 -0.450000      1.000000
 -0.350000 -0.450000 -0.450000      1.000000
 -0.250000 -0.450000 -0.450000      1.000000
 -0.150000 -0.450000 -0.450000      1.000000
 -0.050000 -0.450000 -0.450000      1.000000
  0.050000 -0.350000 -0.450000      1.000000
  0.150000 -0.350000 -0.450000      1.000000
  0.250000 -0.350000 -0.450000      1.000000
  0.350000 -0.350000 -0.450000      1.000000
  0.450000 -0.350000 -0.450000      1.000000
 -0.450000 -0.350000 -0.450000      1.000000
 -0.350000 -0.350000 -0.450000      1.000000
 -0.250000 -0.350000 -0.450000      1.000000
 -0.150000 -0.350000 -0.450000      1.000000
 -0.050000 -0.350000 -0.450000      1.000000
  0.050000 -0.250000 -0.450000      1.000000
  0.150000 -0.250000 -0.450000      1.000000
  0.250000 -0.250000 -0.450000      1.000000
  0.350000 -0.250000 -0.450000      1.000000
  0.450000 -0.250000 -0.450000      1.000000
 -0.450000 -0.250000 -0.450000      1.000000
 -0.350000 -0.250000 -0.450000      1.000000
 -0.250000 -0.250000 -0.450000      1.000000
 -0.150000 -0.250000 -0.450000      1.000000
 -0.050000 -0.250000 -0.450000      1.000000
  0.050000 -0.150000 -0.450000      1.000000
  0.150000 -0.150000 -0.450000      1.000000
  0.250000 -0.150000 -0.450000      1.000000
  0.350000 -0.150000 -0.450000      1.000000
  0.450000 -0.150000 -0.450000      1.000000
 -0.450000 -0.150000 -0.450000      1.000000
 -0.350000 -0.150000 -0.450000      1.000000
 -0.250000 -0.150000 -0.450000      1.000000
 -0.150000 -0.150000 -0.450000      1.000000
 -0.050000 -0.150000 -0.450000      1.000000
  0.050000 -0.050000 -0.450000      1.000000
  0.150000 -0.050000 -0.450000      1.000000
  0.250000 -0.050000 -0.450000      1.000000
  0.350000 -0.050000 -0.450000      1.000000
  0.450000 -0.050000 -0.450000      1.000000
 -0.450000 -0.050000 -0.450000      1.000000
 -0.350000 -0.050000 -0.450000      1.000000
 -0.250000 -0.050000 -0.450000      1.000000
 -0.150000 -0.050000 -0.450000      1.000000
 -0.050000 -0.050000 -0.450000      1.000000
  0.050000  0.050000 -0.350000      1.000000
  0.150000  0.050000 -0.350000      1.000000
  0.250000  0.050000 -0.350000      1.000000
  0.350000  0.050000 -0.350000      1.000000
  0.450000  0.050000 -0.350000      1.000000
 -0.450000  0.050000 -0.350000      1.000000
 -0.350000  0.050000 -0.350000      1.000000
 -0.250000  0.050000 -0.350000      1.000000
 -0.150000  0.050000 -0.350000      1.000000
 -0.050000  0.050000 -0.350000      1.000000
  0.050000  0.150000 -0.350000      1.000000
  0.150000  0.150000 -0.350000      1.000000
  0.250000  0.150000 -0.350000      1.000000
  0.350000  0.150000 -0.350000      1.000000
  0.450000  0.150000 -0.350000      1.000000
 -0.450000  0.150000 -0.350000      1.000000
 -0.350000  0.150000 -0.350000      1.000000
 -0.250000  0.150000 -0.350000      1.000000
 -0.150000  0.150000 -0.350000      1.000000
 -0.050000  0.150000 -0.350000      1.000000
  0.050000  0.250000 -0.350000      1.000000
  0.150000  0.250000 -0.350000      1.000000
  0.250000  0.250000 -0.350000      1.000000
  0.350000  0.250000 -0.350000      1.000000
  0.450000  0.250000 -0.350000      1.000000
 -0.450000  0.250000 -0.350000      1.000000
 -0.350000  0.250000 -0.350000      1.000000
 -0.250000  0.250000 -0.350000      1.000000
 -0.150000  0.250000 -0.350000      1.000000
 -0.050000  0.250000 -0.350000      1.000000
  0.050000  0.350000 -0.350000      1.000000
  0.150000  0.350000 -0.350000      1.000000
  0.250000  0.350000 -0.350000      1.000000
  0.350000  0.350000 -0.350000      1.000000
  0.450000  0.350000 -0.350000      1.000000
 -0.450000  0.350000 -0.350000      1.000000
 -0.350000  0.350000 -0.350000      1.000000
 -0.250000  0.350000 -0.350000      1.000000
 -0.150000  0.350000 -0.350000      1.000000
 -0.050000  0.350000 -0.350000      1.000000
  0.050000  0.450000 -0.350000      1.000000
  0.150000  0.450000 -0.350000      1.000000
  0.250000  0.450000 -0.350000      1.000000
  0.350000  0.450000 -0.350000      1.000000
  0.450000  0.450000 -0.350000      1.000000
 -0.450000  0.450000 -0.350000      1.000000
 -0.350000  0.450000 -0.350000      1.000000
 -0.250000  0.450000 -0.350000      1.000000
 -0.150000  0.450000 -0.350000      1.000000
 -0.050000  0.450000 -0.350000      1.000000
  0.050000 -0.450000 -0.350000      1.000000
  0.150000 -0.450000 -0.350000      1.000000
  0.250000 -0.450000 -0.350000      1.000000
  0.350000 -0.450000 -0.350000      1.000000
  0.450000 -0.450000 -0.350000      1.000000
 -0.450000 -0.450000 -0.350000      1.000000
 -0.350000 -0.450000 -0.350000      1.000000
 -0.250000 -0.450000 -0.350000      1.000000
 -0.150000 -0.450000 -0.350000      1.000000
 -0.050000 -0.450000 -0.350000      1.000000
  0.050000 -0.350000 -0.350000      1.000000
  0.150000 -0.350000 -0.350000      1.000000
  0.250000 -0.350000 -0.350000      1.000000
  0.350000 -0.350000 -0.350000      1.000000
  0.450000 -0.350000 -0.350000      1.000000
 -0.450000 -0.350000 -0.350000      1.000000
 -0.350000 -0.350000 -0.350000      1.000000
 -0.250000 -0.350000 -0.350000      1.000000
 -0.150000 -0.350000 -0.350000      1.000000
 -0.050000 -0.350000 -0.350000      1.000000
  0.050000 -0.250000 -0.350000      1.000000
  0.150000 -0.250000 -0.350000      1.000000
  0.250000 -0.250000 -0.350000      1.000000
  0.350000 -0.250000 -0.350000      1.000000
  0.450000 -0.250000 -0.350000      1.000000
 -0.450000 -0.250000 -0.350000      1.000000
 -0.350000 -0.250000 -0.350000      1.000000
 -0.250000 -0.250000 -0.350000      1.000000
 -0.150000 -0.250000 -0.350000      1.000000
 -0.050000 -0.250000 -0.350000      1.000000
  0.050000 -0.150000 -0.350000      1.000000
  0.150000 -0.150000 -0.350000      1.000000
  0.250000 -0.150000 -0.350000      1.000000
  0.350000 -0.150000 -0.350000      1.000000
  0.450000 -0.150000 -0.350000      1.000000
 -0.450000 -0.150000 -0.350000      1.000000
 -0.350000 -0.150000 -0.350000      1.000000
 -0.250000 -0.150000 -0.350000      1.000000
 -0.150000 -0.150000 -0.350000      1.000000
 -0.050000 -0.150000 -0.350000      1.000000
  0.050000 -0.050000 -0.350000      1.000000
  0.150000 -0.050000 -0.350000      1.000000
  0.250000 -0.050000 -0.350000      1.000000
  0.350000 -0.050000 -0.350000      1.000000
  0.450000 -0.050000 -0.350000      1.000000
 -0.450000 -0.050000 -0.350000      1.000000
 -0.350000 -0.050000 -0.350000      1.000000
 -0.250000 -0.050000 -0.350000      1.000000
 -0.150000 -0.050000 -0.350000      1.000000
 -0.050000 -0.050000 -0.350000      1.000000
  0.050000  0.050000 -0.250000      1.000000
  0.150000  0.050000 -0.250000      1.000000
  0.250000  0.050000 -0.250000      1.000000
  0.350000  0.050000 -0.250000      1.000000
  0.450000  0.050000 -0.250000      1.000000
 -0.450000  0.050000 -0.250000      1.000000
 -0.350000  0.050000 -0.250000      1.000000
 -0.250000  0.050000 -0.250000      1.000000
 -0.150000  0.050000 -0.250000      1.000000
 -0.050000  0.050000 -0.250000      1.000000
  0.050000  0.150000 -0.250000      1.000000
  0.150000  0.150000 -0.250000      1.000000
  0.250000  0.150000 -0.250000      1.000000
  0.350000  0.150000 -0.250000      1.000000
  0.450000  0.150000 -0.250000      1.000000
 -0.450000  0.150000 -0.250000      1.000000
 -0.350000  0.150000 -0.250000      1.000000
 -0.250000  0.150000 -0.250000      1.000000
 -0.150000  0.150000 -0.250000      1.000000
 -0.050000  0.150000 -0.250000      1.000000
  0.050000  0.250000 -0.250000      1.000000
  0.150000  0.250000 -0.250000      1.000000
  0.250000  0.250000 -0.250000      1.000000
  0.350000  0.250000 -0.250000      1.000000
  0.450000  0.250000 -0.250000      1.000000
 -0.450000  0.250000 -0.250000      1.000000
 -0.350000  0.250000 -0.250000      1.000000
 -0.250000  0.250000 -0.250000      1.000000
 -0.150000  0.250000 -0.250000      1.000000
 -0.050000  0.250000 -0.250000      1.000000
  0.050000  0.350000 -0.250000      1.000000
  0.150000  0.350000 -0.250000      1.000000
  0.250000  0.350000 -0.250000      1.000000
  0.350000  0.350000 -0.250000      1.000000
  0.450000  0.350000 -0.250000      1.000000
 -0.450000  0.350000 -0.250000      1.000000
 -0.350000  0.350000 -0.250000      1.000000
 -0.250000  0.350000 -0.250000      1.000000
 -0.150000  0.350000 -0.250000      1.000000
 -0.050000  0.350000 -0.250000      1.000000
  0.050000  0.450000 -0.250000      1.000000
  0.150000  0.450000 -0.250000      1.000000
  0.250000  0.450000 -0.250000      1.000000
  0.350000  0.450000 -0.250000      1.000000
  0.450000  0.450000 -0.250000      1.000000
 -0.450000  0.450000 -0.250000      1.000000
 -0.350000  0.450000 -0.250000      1.000000
 -0.250000  0.450000 -0.250000      1.000000
 -0.150000  0.450000 -0.250000      1.000000
 -0.050000  0.450000 -0.250000      1.000000
  0.050000 -0.450000 -0.250000      1.000000
  0.150000 -0.450000 -0.250000      1.000000
  0.250000 -0.450000 -0.250000      1.000000
  0.350000 -0.450000 -0.250000      1.000000
  0.450000 -0.450000 -0.250000      1.000000
 -0.450000 -0.450000 -0.250000      1.000000
 -0.350000 -0.450000 -0.250000      1.000000
 -0.250000 -0.450000 -0.250000      1.000000
 -0.150000 -0.450000 -0.250000      1.000000
 -0.050000 -0.450000 -0.250000      1.000000
  0.050000 -0.350000 -0.250000      1.000000
  0.150000 -0.350000 -0.250000      1.000000
  0.250000 -0.350000 -0.250000      1.000000
  0.350000 -0.350000 -0.250000      1.000000
  0.450000 -0.350000 -0.250000      1.000000
 -0.450000 -0.350000 -0.250000      1.000000
 -0.350000 -0.350000 -0.250000      1.000000
 -0.250000 -0.350000 -0.250000      1.000000
 -0.150000 -0.350000 -0.250000      1.000000
 -0.050000 -0.350000 -0.250000      1.000000
  0.050000 -0.250000 -0.250000      1.000000
  0.150000 -0.250000 -0.250000      1.000000
  0.250000 -0.250000 -0.250000      1.000000
  0.350000 -0.250000 -0.250000      1.000000
  0.450000 -0.250000 -0.250000      1.000000
 -0.450000 -0.250000 -0.250000      1.000000
 -0.350000 -0.250000 -0.250000      1.000000
 -0.250000 -0.250000 -0.250000      1.000000
 -0.150000 -0.250000 -0.250000      1.000000
 -0.050000 -0.250000 -0.250000      1.000000
  0.050000 -0.150000 -0.250000      1.000000
  0.150000 -0.150000 -0.250000      1.000000
  0.250000 -0.150000 -0.250000      1.000000
  0.350000 -0.150000 -0.250000      1.000000
  0.450000 -0.150000 -0.250000      1.000000
 -0.450000 -0.150000 -0.250000      1.000000
 -0.350000 -0.150000 -0.250000      1.000000
 -0.250000 -0.150000 -0.250000      1.000000
 -0.150000 -0.150000 -0.250000      1.000000
 -0.050000 -0.150000 -0.250000      1.000000
  0.050000 -0.050000 -0.250000      1.000000
  0.150000 -0.050000 -0.250000      1.000000
  0.250000 -0.050000 -0.250000      1.000000
  0.350000 -0.050000 -0.250000      1.000000
  0.450000 -0.050000 -0.250000      1.000000
 -0.450000 -0.050000 -0.250000      1.000000
 -0.350000 -0.050000 -0.250000      1.000000
 -0.250000 -0.050000 -0.250000      1.000000
 -0.150000 -0.050000 -0.250000      1.000000
 -0.050000 -0.050000 -0.250000      1.000000
  0.050000  0.050000 -0.150000      1.000000
  0.150000  0.050000 -0.150000      1.000000
  0.250000  0.050000 -0.150000      1.000000
  0.350000  0.050000 -0.150000      1.000000
  0.450000  0.050000 -0.150000      1.000000
 -0.450000  0.050000 -0.150000      1.000000
 -0.350000  0.050000 -0.150000      1.000000
 -0.250000  0.050000 -0.150000      1.000000
 -0.150000  0.050000 -0.150000      1.000000
 -0.050000  0.050000 -0.150000      1.000000
  0.050000  0.150000 -0.150000      1.000000
  0.150000  0.150000 -0.150000      1.000000
  0.250000  0.150000 -0.150000      1.000000
  0.350000  0.150000 -0.150000      1.000000
  0.450000  0.150000 -0.150000      1.000000
 -0.450000  0.150000 -0.150000      1.000000
 -0.350000  0.150000 -0.150000      1.000000
 -0.250000  0.150000 -0.150000      1.000000
 -0.150000  0.150000 -0.150000      1.000000
 -0.050000  0.150000 -0.150000      1.000000
  0.050000  0.250000 -0.150000      1.000000
  0.150000  0.250000 -0.150000      1.000000
  0.250000  0.250000 -0.150000      1.000000
  0.350000  0.250000 -0.150000      1.000000
  0.450000  0.250000 -0.150000      1.000000
 -0.450000  0.250000 -0.150000      1.000000
 -0.350000  0.250000 -0.150000      1.000000
 -0.250000  0.250000 -0.150000      1.000000
 -0.150000  0.250000 -0.150000      1.000000
 -0.050000  0.250000 -0.150000      1.000000
  0.050000  0.350000 -0.150000      1.000000
  0.150000  0.350000 -0.150000      1.000000
  0.250000  0.350000 -0.150000      1.000000
  0.350000  0.350000 -0.150000      1.000000
  0.450000  0.350000 -0.150000      1.000000
 -0.450000  0.350000 -0.150000      1.000000
 -0.350000  0.350000 -0.150000      1.000000
 -0.250000  0.350000 -0.150000      1.000000
 -0.150000  0.350000 -0.150000      1.000000
 -0.050000  0.350000 -0.150000      1.000000
  0.050000  0.450000 -0.150000      1.000000
  0.150000  0.450000 -0.150000      1.000000
  0.250000  0.450000 -0.150000      1.000000
  0.350000  0.450000 -0.150000      1.000000
  0.450000  0.450000 -0.150000      1.000000
 -0.450000  0.450000 -0.150000      1.000000
 -0.350000  0.450000 -0.150000      1.000000
 -0.250000  0.450000 -0.150000      1.000000
 -0.150000  0.450000 -0.150000      1.000000
 -0.050000  0.450000 -0.150000      1.000000
  0.050000 -0.450000 -0.150000      1.000000
  0.150000 -0.450000 -0.150000      1.000000
  0.250000 -0.450000 -0.150000      1.000000
  0.350000 -0.450000 -0.150000      1.000000
  0.450000 -0.450000 -0.150000      1.000000
 -0.450000 -0.450000 -0.150000      1.000000
 -0.350000 -0.450000 -0.150000      1.000000
 -0.250000 -0.450000 -0.150000      1.000000
 -0.150000 -0.450000 -0.150000      1.000000
 -0.050000 -0.450000 -0.150000      1.000000
  0.050000 -0.350000 -0.150000      1.000000
  0.150000 -0.350000 -0.150000      1.000000
  0.250000 -0.350000 -0.150000      1.000000
  0.350000 -0.350000 -0.150000      1.000000
  0.450000 -0.350000 -0.150000      1.000000
 -0.450000 -0.350000 -0.150000      1.000000
 -0.350000 -0.350000 -0.150000      1.000000
 -0.250000 -0.350000 -0.150000      1.000000
 -0.150000 -0.350000 -0.150000      1.000000
 -0.050000 -0.350000 -0.150000      1.000000
  0.050000 -0.250000 -0.150000      1.000000
  0.150000 -0.250000 -0.150000      1.000000
  0.250000 -0.250000 -0.150000      1.000000
  0.350000 -0.250000 -0.150000      1.000000
  0.450000 -0.250000 -0.150000      1.000000
 -0.450000 -0.250000 -0.150000      1.000000
 -0.350000 -0.250000 -0.150000      1.000000
 -0.250000 -0.250000 -0.150000      1.000000
 -0.150000 -0.250000 -0.150000      1.000000
 -0.050000 -0.250000 -0.150000      1.000000
  0.050000 -0.150000 -0.150000      1.000000
  0.150000 -0.150000 -0.150000      1.000000
  0.250000 -0.150000 -0.150000      1.000000
  0.350000 -0.150000 -0.150000      1.000000
  0.450000 -0.150000 -0.150000      1.000000
 -0.450000 -0.150000 -0.150000      1.000000
 -0.350000 -0.150000 -0.150000      1.000000
 -0.250000 -0.150000 -0.150000      1.000000
 -0.150000 -0.150000 -0.150000      1.000000
 -0.050000 -0.150000 -0.150000      1.000000
  0.050000 -0.050000 -0.150000      1.000000
  0.150000 -0.050000 -0.150000      1.000000
  0.250000 -0.050000 -0.150000      1.000000
  0.350000 -0.050000 -0.150000      1.000000
  0.450000 -0.050000 -0.150000      1.000000
 -0.450000 -0.050000 -0.150000      1.000000
 -0.350000 -0.050000 -0.150000      1.000000
 -0.250000 -0.050000 -0.150000      1.000000
 -0.150000 -0.050000 -0.150000      1.000000
 -0.050000 -0.050000 -0.150000      1.000000
  0.050000  0.050000 -0.050000      1.000000
  0.150000  0.050000 -0.050000      1.000000
  0.250000  0.050000 -0.050000      1.000000
  0.350000  0.050000 -0.050000      1.000000
  0.450000  0.050000 -0.050000      1.000000
 -0.450000  0.050000 -0.050000      1.000000
 -0.350000  0.050000 -0.050000      1.000000
 -0.250000  0.050000 -0.050000      1.000000
 -0.150000  0.050000 -0.050000      1.000000
 -0.050000  0.050000 -0.050000      1.000000
  0.050000  0.150000 -0.050000      1.000000
  0.150000  0.150000 -0.050000      1.000000
  0.250000  0.150000 -0.050000      1.000000
  0.350000  0.150000 -0.050000      1.000000
  0.450000  0.150000 -0.050000      1.000000
 -0.450000  0.150000 -0.050000      1.000000
 -0.350000  0.150000 -0.050000      1.000000
 -0.250000  0.150000 -0.050000      1.000000
 -0.150000  0.150000 -0.050000      1.000000
 -0.050000  0.150000 -0.050000      1.000000
  0.050000  0.250000 -0.050000      1.000000
  0.150000  0.250000 -0.050000      1.000000
  0.250000  0.250000 -0.050000      1.000000
  0.350000  0.250000 -0.050000      1.000000
  0.450000  0.250000 -0.050000      1.000000
 -0.450000  0.250000 -0.050000      1.000000
 -0.350000  0.250000 -0.050000      1.000000
 -0.250000  0.250000 -0.050000      1.000000
 -0.150000  0.250000 -0.050000      1.000000
 -0.050000  0.250000 -0.050000      1.000000
  0.050000  0.350000 -0.050000      1.000000
  0.150000  0.350000 -0.050000      1.000000
  0.250000  0.350000 -0.050000      1.000000
  0.350000  0.350000 -0.050000      1.000000
  0.450000  0.350000 -0.050000      1.000000
 -0.450000  0.350000 -0.050000      1.000000
 -0.350000  0.350000 -0.050000      1.000000
 -0.250000  0.350000 -0.050000      1.000000
 -0.150000  0.350000 -0.050000      1.000000
 -0.050000  0.350000 -0.050000      1.000000
  0.050000  0.450000 -0.050000      1.000000
  0.150000  0.450000 -0.050000      1.000000
  0.250000  0.450000 -0.050000      1.000000
  0.350000  0.450000 -0.050000      1.000000
  0.450000  0.450000 -0.050000      1.000000
 -0.450000  0.450000 -0.050000      1.000000
 -0.350000  0.450000 -0.050000      1.000000
 -0.250000  0.450000 -0.050000      1.000000
 -0.150000  0.450000 -0.050000      1.000000
 -0.050000  0.450000 -0.050000      1.000000
  0.050000 -0.450000 -0.050000      1.000000
  0.150000 -0.450000 -0.050000      1.000000
  0.250000 -0.450000 -0.050000      1.000000
  0.350000 -0.450000 -0.050000      1.000000
  0.450000 -0.450000 -0.050000      1.000000
 -0.450000 -0.450000 -0.050000      1.000000
 -0.350000 -0.450000 -0.050000      1.000000
 -0.250000 -0.450000 -0.050000      1.000000
 -0.150000 -0.450000 -0.050000      1.000000
 -0.050000 -0.450000 -0.050000      1.000000
  0.050000 -0.350000 -0.050000      1.000000
  0.150000 -0.350000 -0.050000      1.000000
  0.250000 -0.350000 -0.050000      1.000000
  0.350000 -0.350000 -0.050000      1.000000
  0.450000 -0.350000 -0.050000      1.000000
 -0.450000 -0.350000 -0.050000      1.000000
 -0.350000 -0.350000 -0.050000      1.000000
 -0.250000 -0.350000 -0.050000      1.000000
 -0.150000 -0.350000 -0.050000      1.000000
 -0.050000 -0.350000 -0.050000      1.000000
  0.050000 -0.250000 -0.050000      1.000000
  0.150000 -0.250000 -0.050000      1.000000
  0.250000 -0.250000 -0.050000      1.000000
  0.350000 -0.250000 -0.050000      1.000000
  0.450000 -0.250000 -0.050000      1.000000
 -0.450000 -0.250000 -0.050000      1.000000
 -0.350000 -0.250000 -0.050000      1.000000
 -0.250000 -0.250000 -0.050000      1.000000
 -0.150000 -0.250000 -0.050000      1.000000
 -0.050000 -0.250000 -0.050000      1.000000
  0.050000 -0.150000 -0.050000      1.000000
  0.150000 -0.150000 -0.050000      1.000000
  0.250000 -0.150000 -0.050000      1.000000
  0.350000 -0.150000 -0.050000      1.000000
  0.450000 -0.150000 -0.050000      1.000000
 -0.450000 -0.150000 -0.050000      1.000000
 -0.350000 -0.150000 -0.050000      1.000000
 -0.250000 -0.150000 -0.050000      1.000000
 -0.150000 -0.150000 -0.050000      1.000000
 -0.050000 -0.150000 -0.050000      1.000000
  0.050000 -0.050000 -0.050000      1.000000
  0.150000 -0.050000 -0.050000      1.000000
  0.250000 -0.050000 -0.050000      1.000000
  0.350000 -0.050000 -0.050000      1.000000
  0.450000 -0.050000 -0.050000      1.000000
 -0.450000 -0.050000 -0.050000      1.000000
 -0.350000 -0.050000 -0.050000      1.000000
 -0.250000 -0.050000 -0.050000      1.000000
 -0.150000 -0.050000 -0.050000      1.000000
 -0.050000 -0.050000 -0.050000      1.000000
 
 Following cartesian coordinates:
            Coordinates               Weight
  0.018709  0.018709  0.018709      1.000000
  0.056128  0.018709  0.018709      1.000000
  0.093546  0.018709  0.018709      1.000000
  0.130965  0.018709  0.018709      1.000000
  0.168384  0.018709  0.018709      1.000000
 -0.168384  0.018709  0.018709      1.000000
 -0.130965  0.018709  0.018709      1.000000
 -0.093546  0.018709  0.018709      1.000000
 -0.056128  0.018709  0.018709      1.000000
 -0.018709  0.018709  0.018709      1.000000
  0.018709  0.056128  0.018709      1.000000
  0.056128  0.056128  0.018709      1.000000
  0.093546  0.056128  0.018709      1.000000
  0.130965  0.056128  0.018709      1.000000
  0.168384  0.056128  0.018709      1.000000
 -0.168384  0.056128  0.018709      1.000000
 -0.130965  0.056128  0.018709      1.000000
 -0.093546  0.056128  0.018709      1.000000
 -0.056128  0.056128  0.018709      1.000000
 -0.018709  0.056128  0.018709      1.000000
  0.018709  0.093546  0.018709      1.000000
  0.056128  0.093546  0.018709      1.000000
  0.093546  0.093546  0.018709      1.000000
  0.130965  0.093546  0.018709      1.000000
  0.168384  0.093546  0.018709      1.000000
 -0.168384  0.093546  0.018709      1.000000
 -0.130965  0.093546  0.018709      1.000000
 -0.093546  0.093546  0.018709      1.000000
 -0.056128  0.093546  0.018709      1.000000
 -0.018709  0.093546  0.018709      1.000000
  0.018709  0.130965  0.018709      1.000000
  0.056128  0.130965  0.018709      1.000000
  0.093546  0.130965  0.018709      1.000000
  0.130965  0.130965  0.018709      1.000000
  0.168384  0.130965  0.018709      1.000000
 -0.168384  0.130965  0.018709      1.000000
 -0.130965  0.130965  0.018709      1.000000
 -0.093546  0.130965  0.018709      1.000000
 -0.056128  0.130965  0.018709      1.000000
 -0.018709  0.130965  0.018709      1.000000
  0.018709  0.168384  0.018709      1.000000
  0.056128  0.168384  0.018709      1.000000
  0.093546  0.168384  0.018709      1.000000
  0.130965  0.168384  0.018709      1.000000
  0.168384  0.168384  0.018709      1.000000
 -0.168384  0.168384  0.018709      1.000000
 -0.130965  0.168384  0.018709      1.000000
 -0.093546  0.168384  0.018709      1.000000
 -0.056128  0.168384  0.018709      1.000000
 -0.018709  0.168384  0.018709      1.000000
  0.018709 -0.168384  0.018709      1.000000
  0.056128 -0.168384  0.018709      1.000000
  0.093546 -0.168384  0.018709      1.000000
  0.130965 -0.168384  0.018709      1.000000
  0.168384 -0.168384  0.018709      1.000000
 -0.168384 -0.168384  0.018709      1.000000
 -0.130965 -0.168384  0.018709      1.000000
 -0.093546 -0.168384  0.018709      1.000000
 -0.056128 -0.168384  0.018709      1.000000
 -0.018709 -0.168384  0.018709      1.000000
  0.018709 -0.130965  0.018709      1.000000
  0.056128 -0.130965  0.018709      1.000000
  0.093546 -0.130965  0.018709      1.000000
  0.130965 -0.130965  0.018709      1.000000
  0.168384 -0.130965  0.018709      1.000000
 -0.168384 -0.130965  0.018709      1.000000
 -0.130965 -0.130965  0.018709      1.000000
 -0.093546 -0.130965  0.018709      1.000000
 -0.056128 -0.130965  0.018709      1.000000
 -0.018709 -0.130965  0.018709      1.000000
  0.018709 -0.093546  0.018709      1.000000
  0.056128 -0.093546  0.018709      1.000000
  0.093546 -0.093546  0.018709      1.000000
  0.130965 -0.093546  0.018709      1.000000
  0.168384 -0.093546  0.018709      1.000000
 -0.168384 -0.093546  0.018709      1.000000
 -0.130965 -0.093546  0.018709      1.000000
 -0.093546 -0.093546  0.018709      1.000000
 -0.056128 -0.093546  0.018709      1.000000
 -0.018709 -0.093546  0.018709      1.000000
  0.018709 -0.056128  0.018709      1.000000
  0.056128 -0.056128  0.018709      1.000000
  0.093546 -0.056128  0.018709      1.000000
  0.130965 -0.056128  0.018709      1.000000
  0.168384 -0.056128  0.018709      1.000000
 -0.168384 -0.056128  0.018709      1.000000
 -0.130965 -0.056128  0.018709      1.000000
 -0.093546 -0.056128  0.018709      1.000000
 -0.056128 -0.056128  0.018709      1.000000
 -0.018709 -0.056128  0.018709      1.000000
  0.018709 -0.018709  0.018709      1.000000
  0.056128 -0.018709  0.018709      1.000000
  0.093546 -0.018709  0.018709      1.000000
  0.130965 -0.018709  0.018709      1.000000
  0.168384 -0.018709  0.018709      1.000000
 -0.168384 -0.018709  0.018709      1.000000
 -0.130965 -0.018709  0.018709      1.000000
 -0.093546 -0.018709  0.018709      1.000000
 -0.056128 -0.018709  0.018709      1.000000
 -0.018709 -0.018709  0.018709      1.000000
  0.018709  0.018709  0.056128      1.000000
  0.056128  0.018709  0.056128      1.000000
  0.093546  0.018709  0.056128      1.000000
  0.130965  0.018709  0.056128      1.000000
  0.168384  0.018709  0.056128      1.000000
 -0.168384  0.018709  0.056128      1.000000
 -0.130965  0.018709  0.056128      1.000000
 -0.093546  0.018709  0.056128      1.000000
 -0.056128  0.018709  0.056128      1.000000
 -0.018709  0.018709  0.056128      1.000000
  0.018709  0.056128  0.056128      1.000000
  0.056128  0.056128  0.056128      1.000000
  0.093546  0.056128  0.056128      1.000000
  0.130965  0.056128  0.056128      1.000000
  0.168384  0.056128  0.056128      1.000000
 -0.168384  0.056128  0.056128      1.000000
 -0.130965  0.056128  0.056128      1.000000
 -0.093546  0.056128  0.056128      1.000000
 -0.056128  0.056128  0.056128      1.000000
 -0.018709  0.056128  0.056128      1.000000
  0.018709  0.093546  0.056128      1.000000
  0.056128  0.093546  0.056128      1.000000
  0.093546  0.093546  0.056128      1.000000
  0.130965  0.093546  0.056128      1.000000
  0.168384  0.093546  0.056128      1.000000
 -0.168384  0.093546  0.056128      1.000000
 -0.130965  0.093546  0.056128      1.000000
 -0.093546  0.093546  0.056128      1.000000
 -0.056128  0.093546  0.056128      1.000000
 -0.018709  0.093546  0.056128      1.000000
  0.018709  0.130965  0.056128      1.000000
  0.056128  0.130965  0.056128      1.000000
  0.093546  0.130965  0.056128      1.000000
  0.130965  0.130965  0.056128      1.000000
  0.168384  0.130965  0.056128      1.000000
 -0.168384  0.130965  0.056128      1.000000
 -0.130965  0.130965  0.056128      1.000000
 -0.093546  0.130965  0.056128      1.000000
 -0.056128  0.130965  0.056128      1.000000
 -0.018709  0.130965  0.056128      1.000000
  0.018709  0.168384  0.056128      1.000000
  0.056128  0.168384  0.056128      1.000000
  0.093546  0.168384  0.056128      1.000000
  0.130965  0.168384  0.056128      1.000000
  0.168384  0.168384  0.056128      1.000000
 -0.168384  0.168384  0.056128      1.000000
 -0.130965  0.168384  0.056128      1.000000
 -0.093546  0.168384  0.056128      1.000000
 -0.056128  0.168384  0.056128      1.000000
 -0.018709  0.168384  0.056128      1.000000
  0.018709 -0.168384  0.056128      1.000000
  0.056128 -0.168384  0.056128      1.000000
  0.093546 -0.168384  0.056128      1.000000
  0.130965 -0.168384  0.056128      1.000000
  0.168384 -0.168384  0.056128      1.000000
 -0.168384 -0.168384  0.056128      1.000000
 -0.130965 -0.168384  0.056128      1.000000
 -0.093546 -0.168384  0.056128      1.000000
 -0.056128 -0.168384  0.056128      1.000000
 -0.018709 -0.168384  0.056128      1.000000
  0.018709 -0.130965  0.056128      1.000000
  0.056128 -0.130965  0.056128      1.000000
  0.093546 -0.130965  0.056128      1.000000
  0.130965 -0.130965  0.056128      1.000000
  0.168384 -0.130965  0.056128      1.000000
 -0.168384 -0.130965  0.056128      1.000000
 -0.130965 -0.130965  0.056128      1.000000
 -0.093546 -0.130965  0.056128      1.000000
 -0.056128 -0.130965  0.056128      1.000000
 -0.018709 -0.130965  0.056128      1.000000
  0.018709 -0.093546  0.056128      1.000000
  0.056128 -0.093546  0.056128      1.000000
  0.093546 -0.093546  0.056128      1.000000
  0.130965 -0.093546  0.056128      1.000000
  0.168384 -0.093546  0.056128      1.000000
 -0.168384 -0.093546  0.056128      1.000000
 -0.130965 -0.093546  0.056128      1.000000
 -0.093546 -0.093546  0.056128      1.000000
 -0.056128 -0.093546  0.056128      1.000000
 -0.018709 -0.093546  0.056128      1.000000
  0.018709 -0.056128  0.056128      1.000000
  0.056128 -0.056128  0.056128      1.000000
  0.093546 -0.056128  0.056128      1.000000
  0.130965 -0.056128  0.056128      1.000000
  0.168384 -0.056128  0.056128      1.000000
 -0.168384 -0.056128  0.056128      1.000000
 -0.130965 -0.056128  0.056128      1.000000
 -0.093546 -0.056128  0.056128      1.000000
 -0.056128 -0.056128  0.056128      1.000000
 -0.018709 -0.056128  0.056128      1.000000
  0.018709 -0.018709  0.056128      1.000000
  0.056128 -0.018709  0.056128      1.000000
  0.093546 -0.018709  0.056128      1.000000
  0.130965 -0.018709  0.056128      1.000000
  0.168384 -0.018709  0.056128      1.000000
 -0.168384 -0.018709  0.056128      1.000000
 -0.130965 -0.018709  0.056128      1.000000
 -0.093546 -0.018709  0.056128      1.000000
 -0.056128 -0.018709  0.056128      1.000000
 -0.018709 -0.018709  0.056128      1.000000
  0.018709  0.018709  0.093546      1.000000
  0.056128  0.018709  0.093546      1.000000
  0.093546  0.018709  0.093546      1.000000
  0.130965  0.018709  0.093546      1.000000
  0.168384  0.018709  0.093546      1.000000
 -0.168384  0.018709  0.093546      1.000000
 -0.130965  0.018709  0.093546      1.000000
 -0.093546  0.018709  0.093546      1.000000
 -0.056128  0.018709  0.093546      1.000000
 -0.018709  0.018709  0.093546      1.000000
  0.018709  0.056128  0.093546      1.000000
  0.056128  0.056128  0.093546      1.000000
  0.093546  0.056128  0.093546      1.000000
  0.130965  0.056128  0.093546      1.000000
  0.168384  0.056128  0.093546      1.000000
 -0.168384  0.056128  0.093546      1.000000
 -0.130965  0.056128  0.093546      1.000000
 -0.093546  0.056128  0.093546      1.000000
 -0.056128  0.056128  0.093546      1.000000
 -0.018709  0.056128  0.093546      1.000000
  0.018709  0.093546  0.093546      1.000000
  0.056128  0.093546  0.093546      1.000000
  0.093546  0.093546  0.093546      1.000000
  0.130965  0.093546  0.093546      1.000000
  0.168384  0.093546  0.093546      1.000000
 -0.168384  0.093546  0.093546      1.000000
 -0.130965  0.093546  0.093546      1.000000
 -0.093546  0.093546  0.093546      1.000000
 -0.056128  0.093546  0.093546      1.000000
 -0.018709  0.093546  0.093546      1.000000
  0.018709  0.130965  0.093546      1.000000
  0.056128  0.130965  0.093546      1.000000
  0.093546  0.130965  0.093546      1.000000
  0.130965  0.130965  0.093546      1.000000
  0.168384  0.130965  0.093546      1.000000
 -0.168384  0.130965  0.093546      1.000000
 -0.130965  0.130965  0.093546      1.000000
 -0.093546  0.130965  0.093546      1.000000
 -0.056128  0.130965  0.093546      1.000000
 -0.018709  0.130965  0.093546      1.000000
  0.018709  0.168384  0.093546      1.000000
  0.056128  0.168384  0.093546      1.000000
  0.093546  0.168384  0.093546      1.000000
  0.130965  0.168384  0.093546      1.000000
  0.168384  0.168384  0.093546      1.000000
 -0.168384  0.168384  0.093546      1.000000
 -0.130965  0.168384  0.093546      1.000000
 -0.093546  0.168384  0.093546      1.000000
 -0.056128  0.168384  0.093546      1.000000
 -0.018709  0.168384  0.093546      1.000000
  0.018709 -0.168384  0.093546      1.000000
  0.056128 -0.168384  0.093546      1.000000
  0.093546 -0.168384  0.093546      1.000000
  0.130965 -0.168384  0.093546      1.000000
  0.168384 -0.168384  0.093546      1.000000
 -0.168384 -0.168384  0.093546      1.000000
 -0.130965 -0.168384  0.093546      1.000000
 -0.093546 -0.168384  0.093546      1.000000
 -0.056128 -0.168384  0.093546      1.000000
 -0.018709 -0.168384  0.093546      1.000000
  0.018709 -0.130965  0.093546      1.000000
  0.056128 -0.130965  0.093546      1.000000
  0.093546 -0.130965  0.093546      1.000000
  0.130965 -0.130965  0.093546      1.000000
  0.168384 -0.130965  0.093546      1.000000
 -0.168384 -0.130965  0.093546      1.000000
 -0.130965 -0.130965  0.093546      1.000000
 -0.093546 -0.130965  0.093546      1.000000
 -0.056128 -0.130965  0.093546      1.000000
 -0.018709 -0.130965  0.093546      1.000000
  0.018709 -0.093546  0.093546      1.000000
  0.056128 -0.093546  0.093546      1.000000
  0.093546 -0.093546  0.093546      1.000000
  0.130965 -0.093546  0.093546      1.000000
  0.168384 -0.093546  0.093546      1.000000
 -0.168384 -0.093546  0.093546      1.000000
 -0.130965 -0.093546  0.093546      1.000000
 -0.093546 -0.093546  0.093546      1.000000
 -0.056128 -0.093546  0.093546      1.000000
 -0.018709 -0.093546  0.093546      1.000000
  0.018709 -0.056128  0.093546      1.000000
  0.056128 -0.056128  0.093546      1.000000
  0.093546 -0.056128  0.093546      1.000000
  0.130965 -0.056128  0.093546      1.000000
  0.168384 -0.056128  0.093546      1.000000
 -0.168384 -0.056128  0.093546      1.000000
 -0.130965 -0.056128  0.093546      1.000000
 -0.093546 -0.056128  0.093546      1.000000
 -0.056128 -0.056128  0.093546      1.000000
 -0.018709 -0.056128  0.093546      1.000000
  0.018709 -0.018709  0.093546      1.000000
  0.056128 -0.018709  0.093546      1.000000
  0.093546 -0.018709  0.093546      1.000000
  0.130965 -0.018709  0.093546      1.000000
  0.168384 -0.018709  0.093546      1.000000
 -0.168384 -0.018709  0.093546      1.000000
 -0.130965 -0.018709  0.093546      1.000000
 -0.093546 -0.018709  0.093546      1.000000
 -0.056128 -0.018709  0.093546      1.000000
 -0.018709 -0.018709  0.093546      1.000000
  0.018709  0.018709  0.130965      1.000000
  0.056128  0.018709  0.130965      1.000000
  0.093546  0.018709  0.130965      1.000000
  0.130965  0.018709  0.130965      1.000000
  0.168384  0.018709  0.130965      1.000000
 -0.168384  0.018709  0.130965      1.000000
 -0.130965  0.018709  0.130965      1.000000
 -0.093546  0.018709  0.130965      1.000000
 -0.056128  0.018709  0.130965      1.000000
 -0.018709  0.018709  0.130965      1.000000
  0.018709  0.056128  0.130965      1.000000
  0.056128  0.056128  0.130965      1.000000
  0.093546  0.056128  0.130965      1.000000
  0.130965  0.056128  0.130965      1.000000
  0.168384  0.056128  0.130965      1.000000
 -0.168384  0.056128  0.130965      1.000000
 -0.130965  0.056128  0.130965      1.000000
 -0.093546  0.056128  0.130965      1.000000
 -0.056128  0.056128  0.130965      1.000000
 -0.018709  0.056128  0.130965      1.000000
  0.018709  0.093546  0.130965      1.000000
  0.056128  0.093546  0.130965      1.000000
  0.093546  0.093546  0.130965      1.000000
  0.130965  0.093546  0.130965      1.000000
  0.168384  0.093546  0.130965      1.000000
 -0.168384  0.093546  0.130965      1.000000
 -0.130965  0.093546  0.130965      1.000000
 -0.093546  0.093546  0.130965      1.000000
 -0.056128  0.093546  0.130965      1.000000
 -0.018709  0.093546  0.130965      1.000000
  0.018709  0.130965  0.130965      1.000000
  0.056128  0.130965  0.130965      1.000000
  0.093546  0.130965  0.130965      1.000000
  0.130965  0.130965  0.130965      1.000000
  0.168384  0.130965  0.130965      1.000000
 -0.168384  0.130965  0.130965      1.000000
 -0.130965  0.130965  0.130965      1.000000
 -0.093546  0.130965  0.130965      1.000000
 -0.056128  0.130965  0.130965      1.000000
 -0.018709  0.130965  0.130965      1.000000
  0.018709  0.168384  0.130965      1.000000
  0.056128  0.168384  0.130965      1.000000
  0.093546  0.168384  0.130965      1.000000
  0.130965  0.168384  0.130965      1.000000
  0.168384  0.168384  0.130965      1.000000
 -0.168384  0.168384  0.130965      1.000000
 -0.130965  0.168384  0.130965      1.000000
 -0.093546  0.168384  0.130965      1.000000
 -0.056128  0.168384  0.130965      1.000000
 -0.018709  0.168384  0.130965      1.000000
  0.018709 -0.168384  0.130965      1.000000
  0.056128 -0.168384  0.130965      1.000000
  0.093546 -0.168384  0.130965      1.000000
  0.130965 -0.168384  0.130965      1.000000
  0.168384 -0.168384  0.130965      1.000000
 -0.168384 -0.168384  0.130965      1.000000
 -0.130965 -0.168384  0.130965      1.000000
 -0.093546 -0.168384  0.130965      1.000000
 -0.056128 -0.168384  0.130965      1.000000
 -0.018709 -0.168384  0.130965      1.000000
  0.018709 -0.130965  0.130965      1.000000
  0.056128 -0.130965  0.130965      1.000000
  0.093546 -0.130965  0.130965      1.000000
  0.130965 -0.130965  0.130965      1.000000
  0.168384 -0.130965  0.130965      1.000000
 -0.168384 -0.130965  0.130965      1.000000
 -0.130965 -0.130965  0.130965      1.000000
 -0.093546 -0.130965  0.130965      1.000000
 -0.056128 -0.130965  0.130965      1.000000
 -0.018709 -0.130965  0.130965      1.000000
  0.018709 -0.093546  0.130965      1.000000
  0.056128 -0.093546  0.130965      1.000000
  0.093546 -0.093546  0.130965      1.000000
  0.130965 -0.093546  0.130965      1.000000
  0.168384 -0.093546  0.130965      1.000000
 -0.168384 -0.093546  0.130965      1.000000
 -0.130965 -0.093546  0.130965      1.000000
 -0.093546 -0.093546  0.130965      1.000000
 -0.056128 -0.093546  0.130965      1.000000
 -0.018709 -0.093546  0.130965      1.000000
  0.018709 -0.056128  0.130965      1.000000
  0.056128 -0.056128  0.130965      1.000000
  0.093546 -0.056128  0.130965      1.000000
  0.130965 -0.056128  0.130965      1.000000
  0.168384 -0.056128  0.130965      1.000000
 -0.168384 -0.056128  0.130965      1.000000
 -0.130965 -0.056128  0.130965      1.000000
 -0.093546 -0.056128  0.130965      1.000000
 -0.056128 -0.056128  0.130965      1.000000
 -0.018709 -0.056128  0.130965      1.000000
  0.018709 -0.018709  0.130965      1.000000
  0.056128 -0.018709  0.130965      1.000000
  0.093546 -0.018709  0.130965      1.000000
  0.130965 -0.018709  0.130965      1.000000
  0.168384 -0.018709  0.130965      1.000000
 -0.168384 -0.018709  0.130965      1.000000
 -0.130965 -0.018709  0.130965      1.000000
 -0.093546 -0.018709  0.130965      1.000000
 -0.056128 -0.018709  0.130965      1.000000
 -0.018709 -0.018709  0.130965      1.000000
  0.018709  0.018709  0.168384      1.000000
  0.056128  0.018709  0.168384      1.000000
  0.093546  0.018709  0.168384      1.000000
  0.130965  0.018709  0.168384      1.000000
  0.168384  0.018709  0.168384      1.000000
 -0.168384  0.018709  0.168384      1.000000
 -0.130965  0.018709  0.168384      1.000000
 -0.093546  0.018709  0.168384      1.000000
 -0.056128  0.018709  0.168384      1.000000
 -0.018709  0.018709  0.168384      1.000000
  0.018709  0.056128  0.168384      1.000000
  0.056128  0.056128  0.168384      1.000000
  0.093546  0.056128  0.168384      1.000000
  0.130965  0.056128  0.168384      1.000000
  0.168384  0.056128  0.168384      1.000000
 -0.168384  0.056128  0.168384      1.000000
 -0.130965  0.056128  0.168384      1.000000
 -0.093546  0.056128  0.168384      1.000000
 -0.056128  0.056128  0.168384      1.000000
 -0.018709  0.056128  0.168384      1.000000
  0.018709  0.093546  0.168384      1.000000
  0.056128  0.093546  0.168384      1.000000
  0.093546  0.093546  0.168384      1.000000
  0.130965  0.093546  0.168384      1.000000
  0.168384  0.093546  0.168384      1.000000
 -0.168384  0.093546  0.168384      1.000000
 -0.130965  0.093546  0.168384      1.000000
 -0.093546  0.093546  0.168384      1.000000
 -0.056128  0.093546  0.168384      1.000000
 -0.018709  0.093546  0.168384      1.000000
  0.018709  0.130965  0.168384      1.000000
  0.056128  0.130965  0.168384      1.000000
  0.093546  0.130965  0.168384      1.000000
  0.130965  0.130965  0.168384      1.000000
  0.168384  0.130965  0.168384      1.000000
 -0.168384  0.130965  0.168384      1.000000
 -0.130965  0.130965  0.168384      1.000000
 -0.093546  0.130965  0.168384      1.000000
 -0.056128  0.130965  0.168384      1.000000
 -0.018709  0.130965  0.168384      1.000000
  0.018709  0.168384  0.168384      1.000000
  0.056128  0.168384  0.168384      1.000000
  0.093546  0.168384  0.168384      1.000000
  0.130965  0.168384  0.168384      1.000000
  0.168384  0.168384  0.168384      1.000000
 -0.168384  0.168384  0.168384      1.000000
 -0.130965  0.168384  0.168384      1.000000
 -0.093546  0.168384  0.168384      1.000000
 -0.056128  0.168384  0.168384      1.000000
 -0.018709  0.168384  0.168384      1.000000
  0.018709 -0.168384  0.168384      1.000000
  0.056128 -0.168384  0.168384      1.000000
  0.093546 -0.168384  0.168384      1.000000
  0.130965 -0.168384  0.168384      1.000000
  0.168384 -0.168384  0.168384      1.000000
 -0.168384 -0.168384  0.168384      1.000000
 -0.130965 -0.168384  0.168384      1.000000
 -0.093546 -0.168384  0.168384      1.000000
 -0.056128 -0.168384  0.168384      1.000000
 -0.018709 -0.168384  0.168384      1.000000
  0.018709 -0.130965  0.168384      1.000000
  0.056128 -0.130965  0.168384      1.000000
  0.093546 -0.130965  0.168384      1.000000
  0.130965 -0.130965  0.168384      1.000000
  0.168384 -0.130965  0.168384      1.000000
 -0.168384 -0.130965  0.168384      1.000000
 -0.130965 -0.130965  0.168384      1.000000
 -0.093546 -0.130965  0.168384      1.000000
 -0.056128 -0.130965  0.168384      1.000000
 -0.018709 -0.130965  0.168384      1.000000
  0.018709 -0.093546  0.168384      1.000000
  0.056128 -0.093546  0.168384      1.000000
  0.093546 -0.093546  0.168384      1.000000
  0.130965 -0.093546  0.168384      1.000000
  0.168384 -0.093546  0.168384      1.000000
 -0.168384 -0.093546  0.168384      1.000000
 -0.130965 -0.093546  0.168384      1.000000
 -0.093546 -0.093546  0.168384      1.000000
 -0.056128 -0.093546  0.168384      1.000000
 -0.018709 -0.093546  0.168384      1.000000
  0.018709 -0.056128  0.168384      1.000000
  0.056128 -0.056128  0.168384      1.000000
  0.093546 -0.056128  0.168384      1.000000
  0.130965 -0.056128  0.168384      1.000000
  0.168384 -0.056128  0.168384      1.000000
 -0.168384 -0.056128  0.168384      1.000000
 -0.130965 -0.056128  0.168384      1.000000
 -0.093546 -0.056128  0.168384      1.000000
 -0.056128 -0.056128  0.168384      1.000000
 -0.018709 -0.056128  0.168384      1.000000
  0.018709 -0.018709  0.168384      1.000000
  0.056128 -0.018709  0.168384      1.000000
  0.093546 -0.018709  0.168384      1.000000
  0.130965 -0.018709  0.168384      1.000000
  0.168384 -0.018709  0.168384      1.000000
 -0.168384 -0.018709  0.168384      1.000000
 -0.130965 -0.018709  0.168384      1.000000
 -0.093546 -0.018709  0.168384      1.000000
 -0.056128 -0.018709  0.168384      1.000000
 -0.018709 -0.018709  0.168384      1.000000
  0.018709  0.018709 -0.168384      1.000000
  0.056128  0.018709 -0.168384      1.000000
  0.093546  0.018709 -0.168384      1.000000
  0.130965  0.018709 -0.168384      1.000000
  0.168384  0.018709 -0.168384      1.000000
 -0.168384  0.018709 -0.168384      1.000000
 -0.130965  0.018709 -0.168384      1.000000
 -0.093546  0.018709 -0.168384      1.000000
 -0.056128  0.018709 -0.168384      1.000000
 -0.018709  0.018709 -0.168384      1.000000
  0.018709  0.056128 -0.168384      1.000000
  0.056128  0.056128 -0.168384      1.000000
  0.093546  0.056128 -0.168384      1.000000
  0.130965  0.056128 -0.168384      1.000000
  0.168384  0.056128 -0.168384      1.000000
 -0.168384  0.056128 -0.168384      1.000000
 -0.130965  0.056128 -0.168384      1.000000
 -0.093546  0.056128 -0.168384      1.000000
 -0.056128  0.056128 -0.168384      1.000000
 -0.018709  0.056128 -0.168384      1.000000
  0.018709  0.093546 -0.168384      1.000000
  0.056128  0.093546 -0.168384      1.000000
  0.093546  0.093546 -0.168384      1.000000
  0.130965  0.093546 -0.168384      1.000000
  0.168384  0.093546 -0.168384      1.000000
 -0.168384  0.093546 -0.168384      1.000000
 -0.130965  0.093546 -0.168384      1.000000
 -0.093546  0.093546 -0.168384      1.000000
 -0.056128  0.093546 -0.168384      1.000000
 -0.018709  0.093546 -0.168384      1.000000
  0.018709  0.130965 -0.168384      1.000000
  0.056128  0.130965 -0.168384      1.000000
  0.093546  0.130965 -0.168384      1.000000
  0.130965  0.130965 -0.168384      1.000000
  0.168384  0.130965 -0.168384      1.000000
 -0.168384  0.130965 -0.168384      1.000000
 -0.130965  0.130965 -0.168384      1.000000
 -0.093546  0.130965 -0.168384      1.000000
 -0.056128  0.130965 -0.168384      1.000000
 -0.018709  0.130965 -0.168384      1.000000
  0.018709  0.168384 -0.168384      1.000000
  0.056128  0.168384 -0.168384      1.000000
  0.093546  0.168384 -0.168384      1.000000
  0.130965  0.168384 -0.168384      1.000000
  0.168384  0.168384 -0.168384      1.000000
 -0.168384  0.168384 -0.168384      1.000000
 -0.130965  0.168384 -0.168384      1.000000
 -0.093546  0.168384 -0.168384      1.000000
 -0.056128  0.168384 -0.168384      1.000000
 -0.018709  0.168384 -0.168384      1.000000
  0.018709 -0.168384 -0.168384      1.000000
  0.056128 -0.168384 -0.168384      1.000000
  0.093546 -0.168384 -0.168384      1.000000
  0.130965 -0.168384 -0.168384      1.000000
  0.168384 -0.168384 -0.168384      1.000000
 -0.168384 -0.168384 -0.168384      1.000000
 -0.130965 -0.168384 -0.168384      1.000000
 -0.093546 -0.168384 -0.168384      1.000000
 -0.056128 -0.168384 -0.168384      1.000000
 -0.018709 -0.168384 -0.168384      1.000000
  0.018709 -0.130965 -0.168384      1.000000
  0.056128 -0.130965 -0.168384      1.000000
  0.093546 -0.130965 -0.168384      1.000000
  0.130965 -0.130965 -0.168384      1.000000
  0.168384 -0.130965 -0.168384      1.000000
 -0.168384 -0.130965 -0.168384      1.000000
 -0.130965 -0.130965 -0.168384      1.000000
 -0.093546 -0.130965 -0.168384      1.000000
 -0.056128 -0.130965 -0.168384      1.000000
 -0.018709 -0.130965 -0.168384      1.000000
  0.018709 -0.093546 -0.168384      1.000000
  0.056128 -0.093546 -0.168384      1.000000
  0.093546 -0.093546 -0.168384      1.000000
  0.130965 -0.093546 -0.168384      1.000000
  0.168384 -0.093546 -0.168384      1.000000
 -0.168384 -0.093546 -0.168384      1.000000
 -0.130965 -0.093546 -0.168384      1.000000
 -0.093546 -0.093546 -0.168384      1.000000
 -0.056128 -0.093546 -0.168384      1.000000
 -0.018709 -0.093546 -0.168384      1.000000
  0.018709 -0.056128 -0.168384      1.000000
  0.056128 -0.056128 -0.168384      1.000000
  0.093546 -0.056128 -0.168384      1.000000
  0.130965 -0.056128 -0.168384      1.000000
  0.168384 -0.056128 -0.168384      1.000000
 -0.168384 -0.056128 -0.168384      1.000000
 -0.130965 -0.056128 -0.168384      1.000000
 -0.093546 -0.056128 -0.168384      1.000000
 -0.056128 -0.056128 -0.168384      1.000000
 -0.018709 -0.056128 -0.168384      1.000000
  0.018709 -0.018709 -0.168384      1.000000
  0.056128 -0.018709 -0.168384      1.000000
  0.093546 -0.018709 -0.168384      1.000000
  0.130965 -0.018709 -0.168384      1.000000
  0.168384 -0.018709 -0.168384      1.000000
 -0.168384 -0.018709 -0.168384      1.000000
 -0.130965 -0.018709 -0.168384      1.000000
 -0.093546 -0.018709 -0.168384      1.000000
 -0.056128 -0.018709 -0.168384      1.000000
 -0.018709 -0.018709 -0.168384      1.000000
  0.018709  0.018709 -0.130965      1.000000
  0.056128  0.018709 -0.130965      1.000000
  0.093546  0.018709 -0.130965      1.000000
  0.130965  0.018709 -0.130965      1.000000
  0.168384  0.018709 -0.130965      1.000000
 -0.168384  0.018709 -0.130965      1.000000
 -0.130965  0.018709 -0.130965      1.000000
 -0.093546  0.018709 -0.130965      1.000000
 -0.056128  0.018709 -0.130965      1.000000
 -0.018709  0.018709 -0.130965      1.000000
  0.018709  0.056128 -0.130965      1.000000
  0.056128  0.056128 -0.130965      1.000000
  0.093546  0.056128 -0.130965      1.000000
  0.130965  0.056128 -0.130965      1.000000
  0.168384  0.056128 -0.130965      1.000000
 -0.168384  0.056128 -0.130965      1.000000
 -0.130965  0.056128 -0.130965      1.000000
 -0.093546  0.056128 -0.130965      1.000000
 -0.056128  0.056128 -0.130965      1.000000
 -0.018709  0.056128 -0.130965      1.000000
  0.018709  0.093546 -0.130965      1.000000
  0.056128  0.093546 -0.130965      1.000000
  0.093546  0.093546 -0.130965      1.000000
  0.130965  0.093546 -0.130965      1.000000
  0.168384  0.093546 -0.130965      1.000000
 -0.168384  0.093546 -0.130965      1.000000
 -0.130965  0.093546 -0.130965      1.000000
 -0.093546  0.093546 -0.130965      1.000000
 -0.056128  0.093546 -0.130965      1.000000
 -0.018709  0.093546 -0.130965      1.000000
  0.018709  0.130965 -0.130965      1.000000
  0.056128  0.130965 -0.130965      1.000000
  0.093546  0.130965 -0.130965      1.000000
  0.130965  0.130965 -0.130965      1.000000
  0.168384  0.130965 -0.130965      1.000000
 -0.168384  0.130965 -0.130965      1.000000
 -0.130965  0.130965 -0.130965      1.000000
 -0.093546  0.130965 -0.130965      1.000000
 -0.056128  0.130965 -0.130965      1.000000
 -0.018709  0.130965 -0.130965      1.000000
  0.018709  0.168384 -0.130965      1.000000
  0.056128  0.168384 -0.130965      1.000000
  0.093546  0.168384 -0.130965      1.000000
  0.130965  0.168384 -0.130965      1.000000
  0.168384  0.168384 -0.130965      1.000000
 -0.168384  0.168384 -0.130965      1.000000
 -0.130965  0.168384 -0.130965      1.000000
 -0.093546  0.168384 -0.130965      1.000000
 -0.056128  0.168384 -0.130965      1.000000
 -0.018709  0.168384 -0.130965      1.000000
  0.018709 -0.168384 -0.130965      1.000000
  0.056128 -0.168384 -0.130965      1.000000
  0.093546 -0.168384 -0.130965      1.000000
  0.130965 -0.168384 -0.130965      1.000000
  0.168384 -0.168384 -0.130965      1.000000
 -0.168384 -0.168384 -0.130965      1.000000
 -0.130965 -0.168384 -0.130965      1.000000
 -0.093546 -0.168384 -0.130965      1.000000
 -0.056128 -0.168384 -0.130965      1.000000
 -0.018709 -0.168384 -0.130965      1.000000
  0.018709 -0.130965 -0.130965      1.000000
  0.056128 -0.130965 -0.130965      1.000000
  0.093546 -0.130965 -0.130965      1.000000
  0.130965 -0.130965 -0.130965      1.000000
  0.168384 -0.130965 -0.130965      1.000000
 -0.168384 -0.130965 -0.130965      1.000000
 -0.130965 -0.130965 -0.130965      1.000000
 -0.093546 -0.130965 -0.130965      1.000000
 -0.056128 -0.130965 -0.130965      1.000000
 -0.018709 -0.130965 -0.130965      1.000000
  0.018709 -0.093546 -0.130965      1.000000
  0.056128 -0.093546 -0.130965      1.000000
  0.093546 -0.093546 -0.130965      1.000000
  0.130965 -0.093546 -0.130965      1.000000
  0.168384 -0.093546 -0.130965      1.000000
 -0.168384 -0.093546 -0.130965      1.000000
 -0.130965 -0.093546 -0.130965      1.000000
 -0.093546 -0.093546 -0.130965      1.000000
 -0.056128 -0.093546 -0.130965      1.000000
 -0.018709 -0.093546 -0.130965      1.000000
  0.018709 -0.056128 -0.130965      1.000000
  0.056128 -0.056128 -0.130965      1.000000
  0.093546 -0.056128 -0.130965      1.000000
  0.130965 -0.056128 -0.130965      1.000000
  0.168384 -0.056128 -0.130965      1.000000
 -0.168384 -0.056128 -0.130965      1.000000
 -0.130965 -0.056128 -0.130965      1.000000
 -0.093546 -0.056128 -0.130965      1.000000
 -0.056128 -0.056128 -0.130965      1.000000
 -0.018709 -0.056128 -0.130965      1.000000
  0.018709 -0.018709 -0.130965      1.000000
  0.056128 -0.018709 -0.130965      1.000000
  0.093546 -0.018709 -0.130965      1.000000
  0.130965 -0.018709 -0.130965      1.000000
  0.168384 -0.018709 -0.130965      1.000000
 -0.168384 -0.018709 -0.130965      1.000000
 -0.130965 -0.018709 -0.130965      1.000000
 -0.093546 -0.018709 -0.130965      1.000000
 -0.056128 -0.018709 -0.130965      1.000000
 -0.018709 -0.018709 -0.130965      1.000000
  0.018709  0.018709 -0.093546      1.000000
  0.056128  0.018709 -0.093546      1.000000
  0.093546  0.018709 -0.093546      1.000000
  0.130965  0.018709 -0.093546      1.000000
  0.168384  0.018709 -0.093546      1.000000
 -0.168384  0.018709 -0.093546      1.000000
 -0.130965  0.018709 -0.093546      1.000000
 -0.093546  0.018709 -0.093546      1.000000
 -0.056128  0.018709 -0.093546      1.000000
 -0.018709  0.018709 -0.093546      1.000000
  0.018709  0.056128 -0.093546      1.000000
  0.056128  0.056128 -0.093546      1.000000
  0.093546  0.056128 -0.093546      1.000000
  0.130965  0.056128 -0.093546      1.000000
  0.168384  0.056128 -0.093546      1.000000
 -0.168384  0.056128 -0.093546      1.000000
 -0.130965  0.056128 -0.093546      1.000000
 -0.093546  0.056128 -0.093546      1.000000
 -0.056128  0.056128 -0.093546      1.000000
 -0.018709  0.056128 -0.093546      1.000000
  0.018709  0.093546 -0.093546      1.000000
  0.056128  0.093546 -0.093546      1.000000
  0.093546  0.093546 -0.093546      1.000000
  0.130965  0.093546 -0.093546      1.000000
  0.168384  0.093546 -0.093546      1.000000
 -0.168384  0.093546 -0.093546      1.000000
 -0.130965  0.093546 -0.093546      1.000000
 -0.093546  0.093546 -0.093546      1.000000
 -0.056128  0.093546 -0.093546      1.000000
 -0.018709  0.093546 -0.093546      1.000000
  0.018709  0.130965 -0.093546      1.000000
  0.056128  0.130965 -0.093546      1.000000
  0.093546  0.130965 -0.093546      1.000000
  0.130965  0.130965 -0.093546      1.000000
  0.168384  0.130965 -0.093546      1.000000
 -0.168384  0.130965 -0.093546      1.000000
 -0.130965  0.130965 -0.093546      1.000000
 -0.093546  0.130965 -0.093546      1.000000
 -0.056128  0.130965 -0.093546      1.000000
 -0.018709  0.130965 -0.093546      1.000000
  0.018709  0.168384 -0.093546      1.000000
  0.056128  0.168384 -0.093546      1.000000
  0.093546  0.168384 -0.093546      1.000000
  0.130965  0.168384 -0.093546      1.000000
  0.168384  0.168384 -0.093546      1.000000
 -0.168384  0.168384 -0.093546      1.000000
 -0.130965  0.168384 -0.093546      1.000000
 -0.093546  0.168384 -0.093546      1.000000
 -0.056128  0.168384 -0.093546      1.000000
 -0.018709  0.168384 -0.093546      1.000000
  0.018709 -0.168384 -0.093546      1.000000
  0.056128 -0.168384 -0.093546      1.000000
  0.093546 -0.168384 -0.093546      1.000000
  0.130965 -0.168384 -0.093546      1.000000
  0.168384 -0.168384 -0.093546      1.000000
 -0.168384 -0.168384 -0.093546      1.000000
 -0.130965 -0.168384 -0.093546      1.000000
 -0.093546 -0.168384 -0.093546      1.000000
 -0.056128 -0.168384 -0.093546      1.000000
 -0.018709 -0.168384 -0.093546      1.000000
  0.018709 -0.130965 -0.093546      1.000000
  0.056128 -0.130965 -0.093546      1.000000
  0.093546 -0.130965 -0.093546      1.000000
  0.130965 -0.130965 -0.093546      1.000000
  0.168384 -0.130965 -0.093546      1.000000
 -0.168384 -0.130965 -0.093546      1.000000
 -0.130965 -0.130965 -0.093546      1.000000
 -0.093546 -0.130965 -0.093546      1.000000
 -0.056128 -0.130965 -0.093546      1.000000
 -0.018709 -0.130965 -0.093546      1.000000
  0.018709 -0.093546 -0.093546      1.000000
  0.056128 -0.093546 -0.093546      1.000000
  0.093546 -0.093546 -0.093546      1.000000
  0.130965 -0.093546 -0.093546      1.000000
  0.168384 -0.093546 -0.093546      1.000000
 -0.168384 -0.093546 -0.093546      1.000000
 -0.130965 -0.093546 -0.093546      1.000000
 -0.093546 -0.093546 -0.093546      1.000000
 -0.056128 -0.093546 -0.093546      1.000000
 -0.018709 -0.093546 -0.093546      1.000000
  0.018709 -0.056128 -0.093546      1.000000
  0.056128 -0.056128 -0.093546      1.000000
  0.093546 -0.056128 -0.093546      1.000000
  0.130965 -0.056128 -0.093546      1.000000
  0.168384 -0.056128 -0.093546      1.000000
 -0.168384 -0.056128 -0.093546      1.000000
 -0.130965 -0.056128 -0.093546      1.000000
 -0.093546 -0.056128 -0.093546      1.000000
 -0.056128 -0.056128 -0.093546      1.000000
 -0.018709 -0.056128 -0.093546      1.000000
  0.018709 -0.018709 -0.093546      1.000000
  0.056128 -0.018709 -0.093546      1.000000
  0.093546 -0.018709 -0.093546      1.000000
  0.130965 -0.018709 -0.093546      1.000000
  0.168384 -0.018709 -0.093546      1.000000
 -0.168384 -0.018709 -0.093546      1.000000
 -0.130965 -0.018709 -0.093546      1.000000
 -0.093546 -0.018709 -0.093546      1.000000
 -0.056128 -0.018709 -0.093546      1.000000
 -0.018709 -0.018709 -0.093546      1.000000
  0.018709  0.018709 -0.056128      1.000000
  0.056128  0.018709 -0.056128      1.000000
  0.093546  0.018709 -0.056128      1.000000
  0.130965  0.018709 -0.056128      1.000000
  0.168384  0.018709 -0.056128      1.000000
 -0.168384  0.018709 -0.056128      1.000000
 -0.130965  0.018709 -0.056128      1.000000
 -0.093546  0.018709 -0.056128      1.000000
 -0.056128  0.018709 -0.056128      1.000000
 -0.018709  0.018709 -0.056128      1.000000
  0.018709  0.056128 -0.056128      1.000000
  0.056128  0.056128 -0.056128      1.000000
  0.093546  0.056128 -0.056128      1.000000
  0.130965  0.056128 -0.056128      1.000000
  0.168384  0.056128 -0.056128      1.000000
 -0.168384  0.056128 -0.056128      1.000000
 -0.130965  0.056128 -0.056128      1.000000
 -0.093546  0.056128 -0.056128      1.000000
 -0.056128  0.056128 -0.056128      1.000000
 -0.018709  0.056128 -0.056128      1.000000
  0.018709  0.093546 -0.056128      1.000000
  0.056128  0.093546 -0.056128      1.000000
  0.093546  0.093546 -0.056128      1.000000
  0.130965  0.093546 -0.056128      1.000000
  0.168384  0.093546 -0.056128      1.000000
 -0.168384  0.093546 -0.056128      1.000000
 -0.130965  0.093546 -0.056128      1.000000
 -0.093546  0.093546 -0.056128      1.000000
 -0.056128  0.093546 -0.056128      1.000000
 -0.018709  0.093546 -0.056128      1.000000
  0.018709  0.130965 -0.056128      1.000000
  0.056128  0.130965 -0.056128      1.000000
  0.093546  0.130965 -0.056128      1.000000
  0.130965  0.130965 -0.056128      1.000000
  0.168384  0.130965 -0.056128      1.000000
 -0.168384  0.130965 -0.056128      1.000000
 -0.130965  0.130965 -0.056128      1.000000
 -0.093546  0.130965 -0.056128      1.000000
 -0.056128  0.130965 -0.056128      1.000000
 -0.018709  0.130965 -0.056128      1.000000
  0.018709  0.168384 -0.056128      1.000000
  0.056128  0.168384 -0.056128      1.000000
  0.093546  0.168384 -0.056128      1.000000
  0.130965  0.168384 -0.056128      1.000000
  0.168384  0.168384 -0.056128      1.000000
 -0.168384  0.168384 -0.056128      1.000000
 -0.130965  0.168384 -0.056128      1.000000
 -0.093546  0.168384 -0.056128      1.000000
 -0.056128  0.168384 -0.056128      1.000000
 -0.018709  0.168384 -0.056128      1.000000
  0.018709 -0.168384 -0.056128      1.000000
  0.056128 -0.168384 -0.056128      1.000000
  0.093546 -0.168384 -0.056128      1.000000
  0.130965 -0.168384 -0.056128      1.000000
  0.168384 -0.168384 -0.056128      1.000000
 -0.168384 -0.168384 -0.056128      1.000000
 -0.130965 -0.168384 -0.056128      1.000000
 -0.093546 -0.168384 -0.056128      1.000000
 -0.056128 -0.168384 -0.056128      1.000000
 -0.018709 -0.168384 -0.056128      1.000000
  0.018709 -0.130965 -0.056128      1.000000
  0.056128 -0.130965 -0.056128      1.000000
  0.093546 -0.130965 -0.056128      1.000000
  0.130965 -0.130965 -0.056128      1.000000
  0.168384 -0.130965 -0.056128      1.000000
 -0.168384 -0.130965 -0.056128      1.000000
 -0.130965 -0.130965 -0.056128      1.000000
 -0.093546 -0.130965 -0.056128      1.000000
 -0.056128 -0.130965 -0.056128      1.000000
 -0.018709 -0.130965 -0.056128      1.000000
  0.018709 -0.093546 -0.056128      1.000000
  0.056128 -0.093546 -0.056128      1.000000
  0.093546 -0.093546 -0.056128      1.000000
  0.130965 -0.093546 -0.056128      1.000000
  0.168384 -0.093546 -0.056128      1.000000
 -0.168384 -0.093546 -0.056128      1.000000
 -0.130965 -0.093546 -0.056128      1.000000
 -0.093546 -0.093546 -0.056128      1.000000
 -0.056128 -0.093546 -0.056128      1.000000
 -0.018709 -0.093546 -0.056128      1.000000
  0.018709 -0.056128 -0.056128      1.000000
  0.056128 -0.056128 -0.056128      1.000000
  0.093546 -0.056128 -0.056128      1.000000
  0.130965 -0.056128 -0.056128      1.000000
  0.168384 -0.056128 -0.056128      1.000000
 -0.168384 -0.056128 -0.056128      1.000000
 -0.130965 -0.056128 -0.056128      1.000000
 -0.093546 -0.056128 -0.056128      1.000000
 -0.056128 -0.056128 -0.056128      1.000000
 -0.018709 -0.056128 -0.056128      1.000000
  0.018709 -0.018709 -0.056128      1.000000
  0.056128 -0.018709 -0.056128      1.000000
  0.093546 -0.018709 -0.056128      1.000000
  0.130965 -0.018709 -0.056128      1.000000
  0.168384 -0.018709 -0.056128      1.000000
 -0.168384 -0.018709 -0.056128      1.000000
 -0.130965 -0.018709 -0.056128      1.000000
 -0.093546 -0.018709 -0.056128      1.000000
 -0.056128 -0.018709 -0.056128      1.000000
 -0.018709 -0.018709 -0.056128      1.000000
  0.018709  0.018709 -0.018709      1.000000
  0.056128  0.018709 -0.018709      1.000000
  0.093546  0.018709 -0.018709      1.000000
  0.130965  0.018709 -0.018709      1.000000
  0.168384  0.018709 -0.018709      1.000000
 -0.168384  0.018709 -0.018709      1.000000
 -0.130965  0.018709 -0.018709      1.000000
 -0.093546  0.018709 -0.018709      1.000000
 -0.056128  0.018709 -0.018709      1.000000
 -0.018709  0.018709 -0.018709      1.000000
  0.018709  0.056128 -0.018709      1.000000
  0.056128  0.056128 -0.018709      1.000000
  0.093546  0.056128 -0.018709      1.000000
  0.130965  0.056128 -0.018709      1.000000
  0.168384  0.056128 -0.018709      1.000000
 -0.168384  0.056128 -0.018709      1.000000
 -0.130965  0.056128 -0.018709      1.000000
 -0.093546  0.056128 -0.018709      1.000000
 -0.056128  0.056128 -0.018709      1.000000
 -0.018709  0.056128 -0.018709      1.000000
  0.018709  0.093546 -0.018709      1.000000
  0.056128  0.093546 -0.018709      1.000000
  0.093546  0.093546 -0.018709      1.000000
  0.130965  0.093546 -0.018709      1.000000
  0.168384  0.093546 -0.018709      1.000000
 -0.168384  0.093546 -0.018709      1.000000
 -0.130965  0.093546 -0.018709      1.000000
 -0.093546  0.093546 -0.018709      1.000000
 -0.056128  0.093546 -0.018709      1.000000
 -0.018709  0.093546 -0.018709      1.000000
  0.018709  0.130965 -0.018709      1.000000
  0.056128  0.130965 -0.018709      1.000000
  0.093546  0.130965 -0.018709      1.000000
  0.130965  0.130965 -0.018709      1.000000
  0.168384  0.130965 -0.018709      1.000000
 -0.168384  0.130965 -0.018709      1.000000
 -0.130965  0.130965 -0.018709      1.000000
 -0.093546  0.130965 -0.018709      1.000000
 -0.056128  0.130965 -0.018709      1.000000
 -0.018709  0.130965 -0.018709      1.000000
  0.018709  0.168384 -0.018709      1.000000
  0.056128  0.168384 -0.018709      1.000000
  0.093546  0.168384 -0.018709      1.000000
  0.130965  0.168384 -0.018709      1.000000
  0.168384  0.168384 -0.018709      1.000000
 -0.168384  0.168384 -0.018709      1.000000
 -0.130965  0.168384 -0.018709      1.000000
 -0.093546  0.168384 -0.018709      1.000000
 -0.056128  0.168384 -0.018709      1.000000
 -0.018709  0.168384 -0.018709      1.000000
  0.018709 -0.168384 -0.018709      1.000000
  0.056128 -0.168384 -0.018709      1.000000
  0.093546 -0.168384 -0.018709      1.000000
  0.130965 -0.168384 -0.018709      1.000000
  0.168384 -0.168384 -0.018709      1.000000
 -0.168384 -0.168384 -0.018709      1.000000
 -0.130965 -0.168384 -0.018709      1.000000
 -0.093546 -0.168384 -0.018709      1.000000
 -0.056128 -0.168384 -0.018709      1.000000
 -0.018709 -0.168384 -0.018709      1.000000
  0.018709 -0.130965 -0.018709      1.000000
  0.056128 -0.130965 -0.018709      1.000000
  0.093546 -0.130965 -0.018709      1.000000
  0.130965 -0.130965 -0.018709      1.000000
  0.168384 -0.130965 -0.018709      1.000000
 -0.168384 -0.130965 -0.018709      1.000000
 -0.130965 -0.130965 -0.018709      1.000000
 -0.093546 -0.130965 -0.018709      1.000000
 -0.056128 -0.130965 -0.018709      1.000000
 -0.018709 -0.130965 -0.018709      1.000000
  0.018709 -0.093546 -0.018709      1.000000
  0.056128 -0.093546 -0.018709      1.000000
  0.093546 -0.093546 -0.018709      1.000000
  0.130965 -0.093546 -0.018709      1.000000
  0.168384 -0.093546 -0.018709      1.000000
 -0.168384 -0.093546 -0.018709      1.000000
 -0.130965 -0.093546 -0.018709      1.000000
 -0.093546 -0.093546 -0.018709      1.000000
 -0.056128 -0.093546 -0.018709      1.000000
 -0.018709 -0.093546 -0.018709      1.000000
  0.018709 -0.056128 -0.018709      1.000000
  0.056128 -0.056128 -0.018709      1.000000
  0.093546 -0.056128 -0.018709      1.000000
  0.130965 -0.056128 -0.018709      1.000000
  0.168384 -0.056128 -0.018709      1.000000
 -0.168384 -0.056128 -0.018709      1.000000
 -0.130965 -0.056128 -0.018709      1.000000
 -0.093546 -0.056128 -0.018709      1.000000
 -0.056128 -0.056128 -0.018709      1.000000
 -0.018709 -0.056128 -0.018709      1.000000
  0.018709 -0.018709 -0.018709      1.000000
  0.056128 -0.018709 -0.018709      1.000000
  0.093546 -0.018709 -0.018709      1.000000
  0.130965 -0.018709 -0.018709      1.000000
  0.168384 -0.018709 -0.018709      1.000000
 -0.168384 -0.018709 -0.018709      1.000000
 -0.130965 -0.018709 -0.018709      1.000000
 -0.093546 -0.018709 -0.018709      1.000000
 -0.056128 -0.018709 -0.018709      1.000000
 -0.018709 -0.018709 -0.018709      1.000000
 


--------------------------------------------------------------------------------------------------------




 Dimension of arrays:
   k-points           NKPTS =   1000   k-points in BZ     NKDIM =   1000   number of bands    NBANDS=    100
   number of dos      NEDOS =    301   number of ions     NIONS =      2
   non local maximal  LDIM  =      6   non local SUM 2l+1 LMDIM =     18
   total plane-waves  NPLWV =  13824
   max r-space proj   IRMAX =      1   max aug-charges    IRDMAX=  24788
   dimension x,y,z NGX =    24 NGY =   24 NGZ =   24
   dimension x,y,z NGXF=    48 NGYF=   48 NGZF=   48
   support grid    NGXF=    48 NGYF=   48 NGZF=   48
   ions per type =               1   1
   NGX,Y,Z   is equivalent  to a cutoff of  14.93, 14.93, 14.93 a.u.
   NGXF,Y,Z  is equivalent  to a cutoff of  29.86, 29.86, 29.86 a.u.

 SYSTEM =  unknown system                          
 POSCAR =  Be1 Cu1                                 

 Startparameter for this run:
   NWRITE =      2    write-flag & timer
   PREC   = accura    normal or accurate (medium, high low for compatibility)
   ISTART =      0    job   : 0-new  1-cont  2-samecut
   ICHARG =      2    charge: 1-file 2-atom 10-const
   ISPIN  =      1    spin polarized calculation?
   LNONCOLLINEAR =      F non collinear calculations
   LSORBIT =      F    spin-orbit coupling
   INIWAV =      1    electr: 0-lowe 1-rand  2-diag
   LASPH  =      T    aspherical Exc in radial PAW
 Electronic Relaxation 1
   ENCUT  =  600.0 eV  44.10 Ry    6.64 a.u.   5.34  5.34  5.34*2*pi/ulx,y,z
   ENINI  =  600.0     initial cutoff
   ENAUG  =  587.0 eV  augmentation charge cutoff
   NELM   =     60;   NELMIN=  2; NELMDL= -5     # of ELM steps 
   EDIFF  = 0.1E-05   stopping-criterion for ELM
   LREAL  =      F    real-space projection
   NLSPLINE    = F    spline interpolate recip. space projectors
   LCOMPAT=      F    compatible to vasp.4.4
   GGA_COMPAT  = T    GGA compatible to vasp.4.4-vasp.4.6
   LMAXPAW     = -100 max onsite density
   LMAXMIX     =    2 max onsite mixed and CHGCAR
   VOSKOWN=      0    Vosko Wilk Nusair interpolation
   ROPT   =    0.00000   0.00000
 Ionic relaxation
   EDIFFG = 0.1E-04   stopping-criterion for IOM
   NSW    =      0    number of steps for IOM
   NBLOCK =      1;   KBLOCK =      1    inner block; outer block 
   IBRION =     -1    ionic relax: 0-MD 1-quasi-New 2-CG
   NFREE  =      0    steps in history (QN), initial steepest desc. (CG)
   ISIF   =      2    stress and relaxation
   IWAVPR =     10    prediction:  0-non 1-charg 2-wave 3-comb
   ISYM   =     -1    0-nonsym 1-usesym 2-fastsym
   LCORR  =      T    Harris-Foulkes like correction to forces

   POTIM  = 0.5000    time-step for ionic-motion
   TEIN   =    0.0    initial temperature
   TEBEG  =    0.0;   TEEND  =   0.0 temperature during run
   SMASS  =  -3.00    Nose mass-parameter (am)
   estimated Nose-frequenzy (Omega)   =  0.10E-29 period in steps = 0.13E+47 mass=  -0.163E-27a.u.
   SCALEE = 1.0000    scale energy and forces
   NPACO  =    256;   APACO  = 10.0  distance and # of slots for P.C.
   PSTRESS=    0.0 pullay stress

  Mass of Ions in am
   POMASS =   9.01 63.55
  Ionic Valenz
   ZVAL   =   2.00 11.00
  Atomic Wigner-Seitz radii
   RWIGS  =  -1.00 -1.00
  virtual crystal weights 
   VCA    =   1.00  1.00
   NELECT =      13.0000    total number of electrons
   NUPDOWN=      -1.0000    fix difference up-down

 DOS related values:
   EMIN   =  10.00;   EMAX   =-10.00  energy-range for DOS
   EFERMI =   0.00;   METHOD = LEGACY      
   ISMEAR =     0;   SIGMA  =   0.05  broadening in eV -4-tet -1-fermi 0-gaus
   EFERMI_NEDOS =   21; number of points for ismear=-14 and -15

 Electronic relaxation 2 (details)
   IALGO  =     38    algorithm
   LDIAG  =      T    sub-space diagonalisation (order eigenvalues)
   LSUBROT=      F    optimize rotation matrix (better conditioning)
   TURBO    =      0    0=normal 1=particle mesh
   IRESTART =      0    0=no restart 2=restart with 2 vectors
   NREBOOT  =      0    no. of reboots
   NMIN     =      0    reboot dimension
   EREF     =   0.00    reference energy to select bands
   IMIX   =      4    mixing-type and parameters
     AMIX     =   0.40;   BMIX     =  1.00
     AMIX_MAG =   1.60;   BMIX_MAG =  1.00
     AMIN     =   0.10
     WC   =   100.;   INIMIX=   1;  MIXPRE=   1;  MAXMIX= -45

 Intra band minimization:
   WEIMIN = 0.0000     energy-eigenvalue tresh-hold
   EBREAK =  0.25E-08  absolut break condition
   DEPER  =   0.30     relativ break condition  

   TIME   =   0.40     timestep for ELM

  volume/ion in A,a.u.               =       9.54        64.40
  Fermi-wavevector in a.u.,A,eV,Ry     =   1.440379  2.721922 28.227895  2.074692
  Thomas-Fermi vector in A             =   2.559130
 
 Write flags
   LWAVE        =      T    write WAVECAR
   LDOWNSAMPLE  =      F    k-point downsampling of WAVECAR
   LCHARG       =      T    write CHGCAR
   LVTOT        =      F    write LOCPOT, total local potential
   LVHAR        =      F    write LOCPOT, Hartree potential only
   WRT_POTENTIAL= false  ! write potential to hdf5 file
   LELF         =      F    write electronic localiz. function (ELF)
   LORBIT       =      0    0 simple, 1 ext, 2 COOP (PROOUT), +10 PAW based schemes


 Python interface
   PLUGINS active      =      F    recompile with -DPLUGINS to activate
 
 Dipole corrections
   LMONO      =      F    monopole corrections only (constant potential shift)
   LDIPOL     =      F    correct potential (dipole corrections)
   IDIPOL     =      0    1-x, 2-y, 3-z, 4-all directions 
   EPSILON    =  1.0000000 bulk dielectric constant
   LVACPOTAV  =      F  vacuum potentials using an averaging scheme for the charge density
   VACPOTFLAT =  0.1000000 required flatness to determine vacuum potential
 
Coulomb truncation method
  LTRUNCATE          =      F  Coulomb kernel truncation to be used
  IDIMENSIONALITY    =      3  Dimensionality of cutoff (0 molecules / 2 surfaces)
  ISURFACE           =     -1  Direction of surface normal
  LCOARSEN           =      F  Coarsen the charge grid before padding, preferred

 
 Exchange correlation treatment:
   GGA     = PE    functional components
   XC_C    = 1    coefficients multiplying the functional components
   LIBXC   =     F    Libxc                    
   VOSKOWN =     0    Vosko Wilk Nusair interpolation
   LHFCALC =     F    Hartree Fock is set to
   LHFONE  =     F    Hartree Fock one center treatment
   AEXX    =    0.0000 exact exchange contribution

 Parameters of functionals:
   PE:
     No parameter
 
 Van der Waals corrections
   IVDW    =     0    specifies the selected vdW correction

 Linear response parameters
   LEPSILON=     F    determine dielectric tensor
   LRPA    =     F    only Hartree local field effects (RPA)
   LNABLA  =     F    use nabla operator in PAW spheres
   LVEL    =     F    velocity operator in full k-point grid
   CSHIFT  =0.1000    complex shift for real part using Kramers Kronig
   OMEGAMAX=  -1.0    maximum frequency
   DEG_THRESHOLD= 0.2000000E-02 threshold for treating states as degnerate
   RTIME   =   -0.100 relaxation time in fs
  (WPLASMAI=    0.000 imaginary part of plasma frequency in eV, 0.658/RTIME)
   DFIELD  = 0.0000000 0.0000000 0.0000000 field for delta impulse in time
 
  Optional k-point grid parameters
   LKPOINTS_OPT  =     F    use optional k-point grid
   KPOINTS_OPT_MODE=     1    mode for optional k-point grid
 
 Orbital magnetization related:
   ORBITALMAG=     F  switch on orbital magnetization
   LCHIMAG   =     F  perturbation theory with respect to B field
   DQ        =  0.001000  dq finite difference perturbation B field
   LLRAUG    =     F  two centre corrections for induced B field
   LBONE     =     F  B-component reconstruction in AE one-centre
   LVGVCALC  =     T  calculate vGv susceptibility
   LVGVAPPL  =     F  apply vGv susceptibility instead of pGv for G=0

 Random number generation:
   RANDOM_GENERATOR = DEFAULT
   PCG_SEED         = not used


--------------------------------------------------------------------------------------------------------


 Static calculation
 charge density and potential will be updated during run
 non-spin polarized calculation
 Variant of blocked Davidson
 Davidson routine will perform the subspace rotation
 perform sub-space diagonalisation
    after iterative eigenvector-optimisation
 modified Broyden-mixing scheme, WC =      100.0
 initial mixing is a Kerker type mixing with AMIX =  0.4000 and BMIX =      1.0000
 Hartree-type preconditioning will be used
 using additional bands           93
 reciprocal scheme for non local part
 use partial core corrections
 calculate Harris-corrections to forces 
   (improved forces if not selfconsistent)
 use gradient corrections 
 use of overlap-Matrix (Vanderbilt PP)
 Gauss-broadening in eV      SIGMA  =   0.05


--------------------------------------------------------------------------------------------------------


  energy-cutoff  :      600.00
  volume of cell :       19.09
      direct lattice vectors                 reciprocal lattice vectors
     2.672467880  0.000000000  0.000000000     0.374185975  0.000000000  0.000000000
     0.000000000  2.672467880  0.000000000     0.000000000  0.374185975  0.000000000
     0.000000000  0.000000000  2.672467880     0.000000000  0.000000000  0.374185975

  length of vectors
     2.672467880  2.672467880  2.672467880     0.374185975  0.374185975  0.374185975


 
 k-points in units of 2pi/SCALE and weight: pymatgen with grid density = 2599 / numb
   0.01870930  0.01870930  0.01870930       0.001
   0.05612790  0.01870930  0.01870930       0.001
   0.09354649  0.01870930  0.01870930       0.001
   0.13096509  0.01870930  0.01870930       0.001
   0.16838369  0.01870930  0.01870930       0.001
  -0.16838369  0.01870930  0.01870930       0.001
  -0.13096509  0.01870930  0.01870930       0.001
  -0.09354649  0.01870930  0.01870930       0.001
  -0.05612790  0.01870930  0.01870930       0.001
  -0.01870930  0.01870930  0.01870930       0.001
   0.01870930  0.05612790  0.01870930       0.001
   0.05612790  0.05612790  0.01870930       0.001
   0.09354649  0.05612790  0.01870930       0.001
   0.13096509  0.05612790  0.01870930       0.001
   0.16838369  0.05612790  0.01870930       0.001
  -0.16838369  0.05612790  0.01870930       0.001
  -0.13096509  0.05612790  0.01870930       0.001
  -0.09354649  0.05612790  0.01870930       0.001
  -0.05612790  0.05612790  0.01870930       0.001
  -0.01870930  0.05612790  0.01870930       0.001
   0.01870930  0.09354649  0.01870930       0.001
   0.05612790  0.09354649  0.01870930       0.001
   0.09354649  0.09354649  0.01870930       0.001
   0.13096509  0.09354649  0.01870930       0.001
   0.16838369  0.09354649  0.01870930       0.001
  -0.16838369  0.09354649  0.01870930       0.001
  -0.13096509  0.09354649  0.01870930       0.001
  -0.09354649  0.09354649  0.01870930       0.001
  -0.05612790  0.09354649  0.01870930       0.001
  -0.01870930  0.09354649  0.01870930       0.001
   0.01870930  0.13096509  0.01870930       0.001
   0.05612790  0.13096509  0.01870930       0.001
   0.09354649  0.13096509  0.01870930       0.001
   0.13096509  0.13096509  0.01870930       0.001
   0.16838369  0.13096509  0.01870930       0.001
  -0.16838369  0.13096509  0.01870930       0.001
  -0.13096509  0.13096509  0.01870930       0.001
  -0.09354649  0.13096509  0.01870930       0.001
  -0.05612790  0.13096509  0.01870930       0.001
  -0.01870930  0.13096509  0.01870930       0.001
   0.01870930  0.16838369  0.01870930       0.001
   0.05612790  0.16838369  0.01870930       0.001
   0.09354649  0.16838369  0.01870930       0.001
   0.13096509  0.16838369  0.01870930       0.001
   0.16838369  0.16838369  0.01870930       0.001
  -0.16838369  0.16838369  0.01870930       0.001
  -0.13096509  0.16838369  0.01870930       0.001
  -0.09354649  0.16838369  0.01870930       0.001
  -0.05612790  0.16838369  0.01870930       0.001
  -0.01870930  0.16838369  0.01870930       0.001
   0.01870930 -0.16838369  0.01870930       0.001
   0.05612790 -0.16838369  0.01870930       0.001
   0.09354649 -0.16838369  0.01870930       0.001
   0.13096509 -0.16838369  0.01870930       0.001
   0.16838369 -0.16838369  0.01870930       0.001
  -0.16838369 -0.16838369  0.01870930       0.001
  -0.13096509 -0.16838369  0.01870930       0.001
  -0.09354649 -0.16838369  0.01870930       0.001
  -0.05612790 -0.16838369  0.01870930       0.001
  -0.01870930 -0.16838369  0.01870930       0.001
   0.01870930 -0.13096509  0.01870930       0.001
   0.05612790 -0.13096509  0.01870930       0.001
   0.09354649 -0.13096509  0.01870930       0.001
   0.13096509 -0.13096509  0.01870930       0.001
   0.16838369 -0.13096509  0.01870930       0.001
  -0.16838369 -0.13096509  0.01870930       0.001
  -0.13096509 -0.13096509  0.01870930       0.001
  -0.09354649 -0.13096509  0.01870930       0.001
  -0.05612790 -0.13096509  0.01870930       0.001
  -0.01870930 -0.13096509  0.01870930       0.001
   0.01870930 -0.09354649  0.01870930       0.001
   0.05612790 -0.09354649  0.01870930       0.001
   0.09354649 -0.09354649  0.01870930       0.001
   0.13096509 -0.09354649  0.01870930       0.001
   0.16838369 -0.09354649  0.01870930       0.001
  -0.16838369 -0.09354649  0.01870930       0.001
  -0.13096509 -0.09354649  0.01870930       0.001
  -0.09354649 -0.09354649  0.01870930       0.001
  -0.05612790 -0.09354649  0.01870930       0.001
  -0.01870930 -0.09354649  0.01870930       0.001
   0.01870930 -0.05612790  0.01870930       0.001
   0.05612790 -0.05612790  0.01870930       0.001
   0.09354649 -0.05612790  0.01870930       0.001
   0.13096509 -0.05612790  0.01870930       0.001
   0.16838369 -0.05612790  0.01870930       0.001
  -0.16838369 -0.05612790  0.01870930       0.001
  -0.13096509 -0.05612790  0.01870930       0.001
  -0.09354649 -0.05612790  0.01870930       0.001
  -0.05612790 -0.05612790  0.01870930       0.001
  -0.01870930 -0.05612790  0.01870930       0.001
   0.01870930 -0.01870930  0.01870930       0.001
   0.05612790 -0.01870930  0.01870930       0.001
   0.09354649 -0.01870930  0.01870930       0.001
   0.13096509 -0.01870930  0.01870930       0.001
   0.16838369 -0.01870930  0.01870930       0.001
  -0.16838369 -0.01870930  0.01870930       0.001
  -0.13096509 -0.01870930  0.01870930       0.001
  -0.09354649 -0.01870930  0.01870930       0.001
  -0.05612790 -0.01870930  0.01870930       0.001
  -0.01870930 -0.01870930  0.01870930       0.001
   0.01870930  0.01870930  0.05612790       0.001
   0.05612790  0.01870930  0.05612790       0.001
   0.09354649  0.01870930  0.05612790       0.001
   0.13096509  0.01870930  0.05612790       0.001
   0.16838369  0.01870930  0.05612790       0.001
  -0.16838369  0.01870930  0.05612790       0.001
  -0.13096509  0.01870930  0.05612790       0.001
  -0.09354649  0.01870930  0.05612790       0.001
  -0.05612790  0.01870930  0.05612790       0.001
  -0.01870930  0.01870930  0.05612790       0.001
   0.01870930  0.05612790  0.05612790       0.001
   0.05612790  0.05612790  0.05612790       0.001
   0.09354649  0.05612790  0.05612790       0.001
   0.13096509  0.05612790  0.05612790       0.001
   0.16838369  0.05612790  0.05612790       0.001
  -0.16838369  0.05612790  0.05612790       0.001
  -0.13096509  0.05612790  0.05612790       0.001
  -0.09354649  0.05612790  0.05612790       0.001
  -0.05612790  0.05612790  0.05612790       0.001
  -0.01870930  0.05612790  0.05612790       0.001
   0.01870930  0.09354649  0.05612790       0.001
   0.05612790  0.09354649  0.05612790       0.001
   0.09354649  0.09354649  0.05612790       0.001
   0.13096509  0.09354649  0.05612790       0.001
   0.16838369  0.09354649  0.05612790       0.001
  -0.16838369  0.09354649  0.05612790       0.001
  -0.13096509  0.09354649  0.05612790       0.001
  -0.09354649  0.09354649  0.05612790       0.001
  -0.05612790  0.09354649  0.05612790       0.001
  -0.01870930  0.09354649  0.05612790       0.001
   0.01870930  0.13096509  0.05612790       0.001
   0.05612790  0.13096509  0.05612790       0.001
   0.09354649  0.13096509  0.05612790       0.001
   0.13096509  0.13096509  0.05612790       0.001
   0.16838369  0.13096509  0.05612790       0.001
  -0.16838369  0.13096509  0.05612790       0.001
  -0.13096509  0.13096509  0.05612790       0.001
  -0.09354649  0.13096509  0.05612790       0.001
  -0.05612790  0.13096509  0.05612790       0.001
  -0.01870930  0.13096509  0.05612790       0.001
   0.01870930  0.16838369  0.05612790       0.001
   0.05612790  0.16838369  0.05612790       0.001
   0.09354649  0.16838369  0.05612790       0.001
   0.13096509  0.16838369  0.05612790       0.001
   0.16838369  0.16838369  0.05612790       0.001
  -0.16838369  0.16838369  0.05612790       0.001
  -0.13096509  0.16838369  0.05612790       0.001
  -0.09354649  0.16838369  0.05612790       0.001
  -0.05612790  0.16838369  0.05612790       0.001
  -0.01870930  0.16838369  0.05612790       0.001
   0.01870930 -0.16838369  0.05612790       0.001
   0.05612790 -0.16838369  0.05612790       0.001
   0.09354649 -0.16838369  0.05612790       0.001
   0.13096509 -0.16838369  0.05612790       0.001
   0.16838369 -0.16838369  0.05612790       0.001
  -0.16838369 -0.16838369  0.05612790       0.001
  -0.13096509 -0.16838369  0.05612790       0.001
  -0.09354649 -0.16838369  0.05612790       0.001
  -0.05612790 -0.16838369  0.05612790       0.001
  -0.01870930 -0.16838369  0.05612790       0.001
   0.01870930 -0.13096509  0.05612790       0.001
   0.05612790 -0.13096509  0.05612790       0.001
   0.09354649 -0.13096509  0.05612790       0.001
   0.13096509 -0.13096509  0.05612790       0.001
   0.16838369 -0.13096509  0.05612790       0.001
  -0.16838369 -0.13096509  0.05612790       0.001
  -0.13096509 -0.13096509  0.05612790       0.001
  -0.09354649 -0.13096509  0.05612790       0.001
  -0.05612790 -0.13096509  0.05612790       0.001
  -0.01870930 -0.13096509  0.05612790       0.001
   0.01870930 -0.09354649  0.05612790       0.001
   0.05612790 -0.09354649  0.05612790       0.001
   0.09354649 -0.09354649  0.05612790       0.001
   0.13096509 -0.09354649  0.05612790       0.001
   0.16838369 -0.09354649  0.05612790       0.001
  -0.16838369 -0.09354649  0.05612790       0.001
  -0.13096509 -0.09354649  0.05612790       0.001
  -0.09354649 -0.09354649  0.05612790       0.001
  -0.05612790 -0.09354649  0.05612790       0.001
  -0.01870930 -0.09354649  0.05612790       0.001
   0.01870930 -0.05612790  0.05612790       0.001
   0.05612790 -0.05612790  0.05612790       0.001
   0.09354649 -0.05612790  0.05612790       0.001
   0.13096509 -0.05612790  0.05612790       0.001
   0.16838369 -0.05612790  0.05612790       0.001
  -0.16838369 -0.05612790  0.05612790       0.001
  -0.13096509 -0.05612790  0.05612790       0.001
  -0.09354649 -0.05612790  0.05612790       0.001
  -0.05612790 -0.05612790  0.05612790       0.001
  -0.01870930 -0.05612790  0.05612790       0.001
   0.01870930 -0.01870930  0.05612790       0.001
   0.05612790 -0.01870930  0.05612790       0.001
   0.09354649 -0.01870930  0.05612790       0.001
   0.13096509 -0.01870930  0.05612790       0.001
   0.16838369 -0.01870930  0.05612790       0.001
  -0.16838369 -0.01870930  0.05612790       0.001
  -0.13096509 -0.01870930  0.05612790       0.001
  -0.09354649 -0.01870930  0.05612790       0.001
  -0.05612790 -0.01870930  0.05612790       0.001
  -0.01870930 -0.01870930  0.05612790       0.001
   0.01870930  0.01870930  0.09354649       0.001
   0.05612790  0.01870930  0.09354649       0.001
   0.09354649  0.01870930  0.09354649       0.001
   0.13096509  0.01870930  0.09354649       0.001
   0.16838369  0.01870930  0.09354649       0.001
  -0.16838369  0.01870930  0.09354649       0.001
  -0.13096509  0.01870930  0.09354649       0.001
  -0.09354649  0.01870930  0.09354649       0.001
  -0.05612790  0.01870930  0.09354649       0.001
  -0.01870930  0.01870930  0.09354649       0.001
   0.01870930  0.05612790  0.09354649       0.001
   0.05612790  0.05612790  0.09354649       0.001
   0.09354649  0.05612790  0.09354649       0.001
   0.13096509  0.05612790  0.09354649       0.001
   0.16838369  0.05612790  0.09354649       0.001
  -0.16838369  0.05612790  0.09354649       0.001
  -0.13096509  0.05612790  0.09354649       0.001
  -0.09354649  0.05612790  0.09354649       0.001
  -0.05612790  0.05612790  0.09354649       0.001
  -0.01870930  0.05612790  0.09354649       0.001
   0.01870930  0.09354649  0.09354649       0.001
   0.05612790  0.09354649  0.09354649       0.001
   0.09354649  0.09354649  0.09354649       0.001
   0.13096509  0.09354649  0.09354649       0.001
   0.16838369  0.09354649  0.09354649       0.001
  -0.16838369  0.09354649  0.09354649       0.001
  -0.13096509  0.09354649  0.09354649       0.001
  -0.09354649  0.09354649  0.09354649       0.001
  -0.05612790  0.09354649  0.09354649       0.001
  -0.01870930  0.09354649  0.09354649       0.001
   0.01870930  0.13096509  0.09354649       0.001
   0.05612790  0.13096509  0.09354649       0.001
   0.09354649  0.13096509  0.09354649       0.001
   0.13096509  0.13096509  0.09354649       0.001
   0.16838369  0.13096509  0.09354649       0.001
  -0.16838369  0.13096509  0.09354649       0.001
  -0.13096509  0.13096509  0.09354649       0.001
  -0.09354649  0.13096509  0.09354649       0.001
  -0.05612790  0.13096509  0.09354649       0.001
  -0.01870930  0.13096509  0.09354649       0.001
   0.01870930  0.16838369  0.09354649       0.001
   0.05612790  0.16838369  0.09354649       0.001
   0.09354649  0.16838369  0.09354649       0.001
   0.13096509  0.16838369  0.09354649       0.001
   0.16838369  0.16838369  0.09354649       0.001
  -0.16838369  0.16838369  0.09354649       0.001
  -0.13096509  0.16838369  0.09354649       0.001
  -0.09354649  0.16838369  0.09354649       0.001
  -0.05612790  0.16838369  0.09354649       0.001
  -0.01870930  0.16838369  0.09354649       0.001
   0.01870930 -0.16838369  0.09354649       0.001
   0.05612790 -0.16838369  0.09354649       0.001
   0.09354649 -0.16838369  0.09354649       0.001
   0.13096509 -0.16838369  0.09354649       0.001
   0.16838369 -0.16838369  0.09354649       0.001
  -0.16838369 -0.16838369  0.09354649       0.001
  -0.13096509 -0.16838369  0.09354649       0.001
  -0.09354649 -0.16838369  0.09354649       0.001
  -0.05612790 -0.16838369  0.09354649       0.001
  -0.01870930 -0.16838369  0.09354649       0.001
   0.01870930 -0.13096509  0.09354649       0.001
   0.05612790 -0.13096509  0.09354649       0.001
   0.09354649 -0.13096509  0.09354649       0.001
   0.13096509 -0.13096509  0.09354649       0.001
   0.16838369 -0.13096509  0.09354649       0.001
  -0.16838369 -0.13096509  0.09354649       0.001
  -0.13096509 -0.13096509  0.09354649       0.001
  -0.09354649 -0.13096509  0.09354649       0.001
  -0.05612790 -0.13096509  0.09354649       0.001
  -0.01870930 -0.13096509  0.09354649       0.001
   0.01870930 -0.09354649  0.09354649       0.001
   0.05612790 -0.09354649  0.09354649       0.001
   0.09354649 -0.09354649  0.09354649       0.001
   0.13096509 -0.09354649  0.09354649       0.001
   0.16838369 -0.09354649  0.09354649       0.001
  -0.16838369 -0.09354649  0.09354649       0.001
  -0.13096509 -0.09354649  0.09354649       0.001
  -0.09354649 -0.09354649  0.09354649       0.001
  -0.05612790 -0.09354649  0.09354649       0.001
  -0.01870930 -0.09354649  0.09354649       0.001
   0.01870930 -0.05612790  0.09354649       0.001
   0.05612790 -0.05612790  0.09354649       0.001
   0.09354649 -0.05612790  0.09354649       0.001
   0.13096509 -0.05612790  0.09354649       0.001
   0.16838369 -0.05612790  0.09354649       0.001
  -0.16838369 -0.05612790  0.09354649       0.001
  -0.13096509 -0.05612790  0.09354649       0.001
  -0.09354649 -0.05612790  0.09354649       0.001
  -0.05612790 -0.05612790  0.09354649       0.001
  -0.01870930 -0.05612790  0.09354649       0.001
   0.01870930 -0.01870930  0.09354649       0.001
   0.05612790 -0.01870930  0.09354649       0.001
   0.09354649 -0.01870930  0.09354649       0.001
   0.13096509 -0.01870930  0.09354649       0.001
   0.16838369 -0.01870930  0.09354649       0.001
  -0.16838369 -0.01870930  0.09354649       0.001
  -0.13096509 -0.01870930  0.09354649       0.001
  -0.09354649 -0.01870930  0.09354649       0.001
  -0.05612790 -0.01870930  0.09354649       0.001
  -0.01870930 -0.01870930  0.09354649       0.001
   0.01870930  0.01870930  0.13096509       0.001
   0.05612790  0.01870930  0.13096509       0.001
   0.09354649  0.01870930  0.13096509       0.001
   0.13096509  0.01870930  0.13096509       0.001
   0.16838369  0.01870930  0.13096509       0.001
  -0.16838369  0.01870930  0.13096509       0.001
  -0.13096509  0.01870930  0.13096509       0.001
  -0.09354649  0.01870930  0.13096509       0.001
  -0.05612790  0.01870930  0.13096509       0.001
  -0.01870930  0.01870930  0.13096509       0.001
   0.01870930  0.05612790  0.13096509       0.001
   0.05612790  0.05612790  0.13096509       0.001
   0.09354649  0.05612790  0.13096509       0.001
   0.13096509  0.05612790  0.13096509       0.001
   0.16838369  0.05612790  0.13096509       0.001
  -0.16838369  0.05612790  0.13096509       0.001
  -0.13096509  0.05612790  0.13096509       0.001
  -0.09354649  0.05612790  0.13096509       0.001
  -0.05612790  0.05612790  0.13096509       0.001
  -0.01870930  0.05612790  0.13096509       0.001
   0.01870930  0.09354649  0.13096509       0.001
   0.05612790  0.09354649  0.13096509       0.001
   0.09354649  0.09354649  0.13096509       0.001
   0.13096509  0.09354649  0.13096509       0.001
   0.16838369  0.09354649  0.13096509       0.001
  -0.16838369  0.09354649  0.13096509       0.001
  -0.13096509  0.09354649  0.13096509       0.001
  -0.09354649  0.09354649  0.13096509       0.001
  -0.05612790  0.09354649  0.13096509       0.001
  -0.01870930  0.09354649  0.13096509       0.001
   0.01870930  0.13096509  0.13096509       0.001
   0.05612790  0.13096509  0.13096509       0.001
   0.09354649  0.13096509  0.13096509       0.001
   0.13096509  0.13096509  0.13096509       0.001
   0.16838369  0.13096509  0.13096509       0.001
  -0.16838369  0.13096509  0.13096509       0.001
  -0.13096509  0.13096509  0.13096509       0.001
  -0.09354649  0.13096509  0.13096509       0.001
  -0.05612790  0.13096509  0.13096509       0.001
  -0.01870930  0.13096509  0.13096509       0.001
   0.01870930  0.16838369  0.13096509       0.001
   0.05612790  0.16838369  0.13096509       0.001
   0.09354649  0.16838369  0.13096509       0.001
   0.13096509  0.16838369  0.13096509       0.001
   0.16838369  0.16838369  0.13096509       0.001
  -0.16838369  0.16838369  0.13096509       0.001
  -0.13096509  0.16838369  0.13096509       0.001
  -0.09354649  0.16838369  0.13096509       0.001
  -0.05612790  0.16838369  0.13096509       0.001
  -0.01870930  0.16838369  0.13096509       0.001
   0.01870930 -0.16838369  0.13096509       0.001
   0.05612790 -0.16838369  0.13096509       0.001
   0.09354649 -0.16838369  0.13096509       0.001
   0.13096509 -0.16838369  0.13096509       0.001
   0.16838369 -0.16838369  0.13096509       0.001
  -0.16838369 -0.16838369  0.13096509       0.001
  -0.13096509 -0.16838369  0.13096509       0.001
  -0.09354649 -0.16838369  0.13096509       0.001
  -0.05612790 -0.16838369  0.13096509       0.001
  -0.01870930 -0.16838369  0.13096509       0.001
   0.01870930 -0.13096509  0.13096509       0.001
   0.05612790 -0.13096509  0.13096509       0.001
   0.09354649 -0.13096509  0.13096509       0.001
   0.13096509 -0.13096509  0.13096509       0.001
   0.16838369 -0.13096509  0.13096509       0.001
  -0.16838369 -0.13096509  0.13096509       0.001
  -0.13096509 -0.13096509  0.13096509       0.001
  -0.09354649 -0.13096509  0.13096509       0.001
  -0.05612790 -0.13096509  0.13096509       0.001
  -0.01870930 -0.13096509  0.13096509       0.001
   0.01870930 -0.09354649  0.13096509       0.001
   0.05612790 -0.09354649  0.13096509       0.001
   0.09354649 -0.09354649  0.13096509       0.001
   0.13096509 -0.09354649  0.13096509       0.001
   0.16838369 -0.09354649  0.13096509       0.001
  -0.16838369 -0.09354649  0.13096509       0.001
  -0.13096509 -0.09354649  0.13096509       0.001
  -0.09354649 -0.09354649  0.13096509       0.001
  -0.05612790 -0.09354649  0.13096509       0.001
  -0.01870930 -0.09354649  0.13096509       0.001
   0.01870930 -0.05612790  0.13096509       0.001
   0.05612790 -0.05612790  0.13096509       0.001
   0.09354649 -0.05612790  0.13096509       0.001
   0.13096509 -0.05612790  0.13096509       0.001
   0.16838369 -0.05612790  0.13096509       0.001
  -0.16838369 -0.05612790  0.13096509       0.001
  -0.13096509 -0.05612790  0.13096509       0.001
  -0.09354649 -0.05612790  0.13096509       0.001
  -0.05612790 -0.05612790  0.13096509       0.001
  -0.01870930 -0.05612790  0.13096509       0.001
   0.01870930 -0.01870930  0.13096509       0.001
   0.05612790 -0.01870930  0.13096509       0.001
   0.09354649 -0.01870930  0.13096509       0.001
   0.13096509 -0.01870930  0.13096509       0.001
   0.16838369 -0.01870930  0.13096509       0.001
  -0.16838369 -0.01870930  0.13096509       0.001
  -0.13096509 -0.01870930  0.13096509       0.001
  -0.09354649 -0.01870930  0.13096509       0.001
  -0.05612790 -0.01870930  0.13096509       0.001
  -0.01870930 -0.01870930  0.13096509       0.001
   0.01870930  0.01870930  0.16838369       0.001
   0.05612790  0.01870930  0.16838369       0.001
   0.09354649  0.01870930  0.16838369       0.001
   0.13096509  0.01870930  0.16838369       0.001
   0.16838369  0.01870930  0.16838369       0.001
  -0.16838369  0.01870930  0.16838369       0.001
  -0.13096509  0.01870930  0.16838369       0.001
  -0.09354649  0.01870930  0.16838369       0.001
  -0.05612790  0.01870930  0.16838369       0.001
  -0.01870930  0.01870930  0.16838369       0.001
   0.01870930  0.05612790  0.16838369       0.001
   0.05612790  0.05612790  0.16838369       0.001
   0.09354649  0.05612790  0.16838369       0.001
   0.13096509  0.05612790  0.16838369       0.001
   0.16838369  0.05612790  0.16838369       0.001
  -0.16838369  0.05612790  0.16838369       0.001
  -0.13096509  0.05612790  0.16838369       0.001
  -0.09354649  0.05612790  0.16838369       0.001
  -0.05612790  0.05612790  0.16838369       0.001
  -0.01870930  0.05612790  0.16838369       0.001
   0.01870930  0.09354649  0.16838369       0.001
   0.05612790  0.09354649  0.16838369       0.001
   0.09354649  0.09354649  0.16838369       0.001
   0.13096509  0.09354649  0.16838369       0.001
   0.16838369  0.09354649  0.16838369       0.001
  -0.16838369  0.09354649  0.16838369       0.001
  -0.13096509  0.09354649  0.16838369       0.001
  -0.09354649  0.09354649  0.16838369       0.001
  -0.05612790  0.09354649  0.16838369       0.001
  -0.01870930  0.09354649  0.16838369       0.001
   0.01870930  0.13096509  0.16838369       0.001
   0.05612790  0.13096509  0.16838369       0.001
   0.09354649  0.13096509  0.16838369       0.001
   0.13096509  0.13096509  0.16838369       0.001
   0.16838369  0.13096509  0.16838369       0.001
  -0.16838369  0.13096509  0.16838369       0.001
  -0.13096509  0.13096509  0.16838369       0.001
  -0.09354649  0.13096509  0.16838369       0.001
  -0.05612790  0.13096509  0.16838369       0.001
  -0.01870930  0.13096509  0.16838369       0.001
   0.01870930  0.16838369  0.16838369       0.001
   0.05612790  0.16838369  0.16838369       0.001
   0.09354649  0.16838369  0.16838369       0.001
   0.13096509  0.16838369  0.16838369       0.001
   0.16838369  0.16838369  0.16838369       0.001
  -0.16838369  0.16838369  0.16838369       0.001
  -0.13096509  0.16838369  0.16838369       0.001
  -0.09354649  0.16838369  0.16838369       0.001
  -0.05612790  0.16838369  0.16838369       0.001
  -0.01870930  0.16838369  0.16838369       0.001
   0.01870930 -0.16838369  0.16838369       0.001
   0.05612790 -0.16838369  0.16838369       0.001
   0.09354649 -0.16838369  0.16838369       0.001
   0.13096509 -0.16838369  0.16838369       0.001
   0.16838369 -0.16838369  0.16838369       0.001
  -0.16838369 -0.16838369  0.16838369       0.001
  -0.13096509 -0.16838369  0.16838369       0.001
  -0.09354649 -0.16838369  0.16838369       0.001
  -0.05612790 -0.16838369  0.16838369       0.001
  -0.01870930 -0.16838369  0.16838369       0.001
   0.01870930 -0.13096509  0.16838369       0.001
   0.05612790 -0.13096509  0.16838369       0.001
   0.09354649 -0.13096509  0.16838369       0.001
   0.13096509 -0.13096509  0.16838369       0.001
   0.16838369 -0.13096509  0.16838369       0.001
  -0.16838369 -0.13096509  0.16838369       0.001
  -0.13096509 -0.13096509  0.16838369       0.001
  -0.09354649 -0.13096509  0.16838369       0.001
  -0.05612790 -0.13096509  0.16838369       0.001
  -0.01870930 -0.13096509  0.16838369       0.001
   0.01870930 -0.09354649  0.16838369       0.001
   0.05612790 -0.09354649  0.16838369       0.001
   0.09354649 -0.09354649  0.16838369       0.001
   0.13096509 -0.09354649  0.16838369       0.001
   0.16838369 -0.09354649  0.16838369       0.001
  -0.16838369 -0.09354649  0.16838369       0.001
  -0.13096509 -0.09354649  0.16838369       0.001
  -0.09354649 -0.09354649  0.16838369       0.001
  -0.05612790 -0.09354649  0.16838369       0.001
  -0.01870930 -0.09354649  0.16838369       0.001
   0.01870930 -0.05612790  0.16838369       0.001
   0.05612790 -0.05612790  0.16838369       0.001
   0.09354649 -0.05612790  0.16838369       0.001
   0.13096509 -0.05612790  0.16838369       0.001
   0.16838369 -0.05612790  0.16838369       0.001
  -0.16838369 -0.05612790  0.16838369       0.001
  -0.13096509 -0.05612790  0.16838369       0.001
  -0.09354649 -0.05612790  0.16838369       0.001
  -0.05612790 -0.05612790  0.16838369       0.001
  -0.01870930 -0.05612790  0.16838369       0.001
   0.01870930 -0.01870930  0.16838369       0.001
   0.05612790 -0.01870930  0.16838369       0.001
   0.09354649 -0.01870930  0.16838369       0.001
   0.13096509 -0.01870930  0.16838369       0.001
   0.16838369 -0.01870930  0.16838369       0.001
  -0.16838369 -0.01870930  0.16838369       0.001
  -0.13096509 -0.01870930  0.16838369       0.001
  -0.09354649 -0.01870930  0.16838369       0.001
  -0.05612790 -0.01870930  0.16838369       0.001
  -0.01870930 -0.01870930  0.16838369       0.001
   0.01870930  0.01870930 -0.16838369       0.001
   0.05612790  0.01870930 -0.16838369       0.001
   0.09354649  0.01870930 -0.16838369       0.001
   0.13096509  0.01870930 -0.16838369       0.001
   0.16838369  0.01870930 -0.16838369       0.001
  -0.16838369  0.01870930 -0.16838369       0.001
  -0.13096509  0.01870930 -0.16838369       0.001
  -0.09354649  0.01870930 -0.16838369       0.001
  -0.05612790  0.01870930 -0.16838369       0.001
  -0.01870930  0.01870930 -0.16838369       0.001
   0.01870930  0.05612790 -0.16838369       0.001
   0.05612790  0.05612790 -0.16838369       0.001
   0.09354649  0.05612790 -0.16838369       0.001
   0.13096509  0.05612790 -0.16838369       0.001
   0.16838369  0.05612790 -0.16838369       0.001
  -0.16838369  0.05612790 -0.16838369       0.001
  -0.13096509  0.05612790 -0.16838369       0.001
  -0.09354649  0.05612790 -0.16838369       0.001
  -0.05612790  0.05612790 -0.16838369       0.001
  -0.01870930  0.05612790 -0.16838369       0.001
   0.01870930  0.09354649 -0.16838369       0.001
   0.05612790  0.09354649 -0.16838369       0.001
   0.09354649  0.09354649 -0.16838369       0.001
   0.13096509  0.09354649 -0.16838369       0.001
   0.16838369  0.09354649 -0.16838369       0.001
  -0.16838369  0.09354649 -0.16838369       0.001
  -0.13096509  0.09354649 -0.16838369       0.001
  -0.09354649  0.09354649 -0.16838369       0.001
  -0.05612790  0.09354649 -0.16838369       0.001
  -0.01870930  0.09354649 -0.16838369       0.001
   0.01870930  0.13096509 -0.16838369       0.001
   0.05612790  0.13096509 -0.16838369       0.001
   0.09354649  0.13096509 -0.16838369       0.001
   0.13096509  0.13096509 -0.16838369       0.001
   0.16838369  0.13096509 -0.16838369       0.001
  -0.16838369  0.13096509 -0.16838369       0.001
  -0.13096509  0.13096509 -0.16838369       0.001
  -0.09354649  0.13096509 -0.16838369       0.001
  -0.05612790  0.13096509 -0.16838369       0.001
  -0.01870930  0.13096509 -0.16838369       0.001
   0.01870930  0.16838369 -0.16838369       0.001
   0.05612790  0.16838369 -0.16838369       0.001
   0.09354649  0.16838369 -0.16838369       0.001
   0.13096509  0.16838369 -0.16838369       0.001
   0.16838369  0.16838369 -0.16838369       0.001
  -0.16838369  0.16838369 -0.16838369       0.001
  -0.13096509  0.16838369 -0.16838369       0.001
  -0.09354649  0.16838369 -0.16838369       0.001
  -0.05612790  0.16838369 -0.16838369       0.001
  -0.01870930  0.16838369 -0.16838369       0.001
   0.01870930 -0.16838369 -0.16838369       0.001
   0.05612790 -0.16838369 -0.16838369       0.001
   0.09354649 -0.16838369 -0.16838369       0.001
   0.13096509 -0.16838369 -0.16838369       0.001
   0.16838369 -0.16838369 -0.16838369       0.001
  -0.16838369 -0.16838369 -0.16838369       0.001
  -0.13096509 -0.16838369 -0.16838369       0.001
  -0.09354649 -0.16838369 -0.16838369       0.001
  -0.05612790 -0.16838369 -0.16838369       0.001
  -0.01870930 -0.16838369 -0.16838369       0.001
   0.01870930 -0.13096509 -0.16838369       0.001
   0.05612790 -0.13096509 -0.16838369       0.001
   0.09354649 -0.13096509 -0.16838369       0.001
   0.13096509 -0.13096509 -0.16838369       0.001
   0.16838369 -0.13096509 -0.16838369       0.001
  -0.16838369 -0.13096509 -0.16838369       0.001
  -0.13096509 -0.13096509 -0.16838369       0.001
  -0.09354649 -0.13096509 -0.16838369       0.001
  -0.05612790 -0.13096509 -0.16838369       0.001
  -0.01870930 -0.13096509 -0.16838369       0.001
   0.01870930 -0.09354649 -0.16838369       0.001
   0.05612790 -0.09354649 -0.16838369       0.001
   0.09354649 -0.09354649 -0.16838369       0.001
   0.13096509 -0.09354649 -0.16838369       0.001
   0.16838369 -0.09354649 -0.16838369       0.001
  -0.16838369 -0.09354649 -0.16838369       0.001
  -0.13096509 -0.09354649 -0.16838369       0.001
  -0.09354649 -0.09354649 -0.16838369       0.001
  -0.05612790 -0.09354649 -0.16838369       0.001
  -0.01870930 -0.09354649 -0.16838369       0.001
   0.01870930 -0.05612790 -0.16838369       0.001
   0.05612790 -0.05612790 -0.16838369       0.001
   0.09354649 -0.05612790 -0.16838369       0.001
   0.13096509 -0.05612790 -0.16838369       0.001
   0.16838369 -0.05612790 -0.16838369       0.001
  -0.16838369 -0.05612790 -0.16838369       0.001
  -0.13096509 -0.05612790 -0.16838369       0.001
  -0.09354649 -0.05612790 -0.16838369       0.001
  -0.05612790 -0.05612790 -0.16838369       0.001
  -0.01870930 -0.05612790 -0.16838369       0.001
   0.01870930 -0.01870930 -0.16838369       0.001
   0.05612790 -0.01870930 -0.16838369       0.001
   0.09354649 -0.01870930 -0.16838369       0.001
   0.13096509 -0.01870930 -0.16838369       0.001
   0.16838369 -0.01870930 -0.16838369       0.001
  -0.16838369 -0.01870930 -0.16838369       0.001
  -0.13096509 -0.01870930 -0.16838369       0.001
  -0.09354649 -0.01870930 -0.16838369       0.001
  -0.05612790 -0.01870930 -0.16838369       0.001
  -0.01870930 -0.01870930 -0.16838369       0.001
   0.01870930  0.01870930 -0.13096509       0.001
   0.05612790  0.01870930 -0.13096509       0.001
   0.09354649  0.01870930 -0.13096509       0.001
   0.13096509  0.01870930 -0.13096509       0.001
   0.16838369  0.01870930 -0.13096509       0.001
  -0.16838369  0.01870930 -0.13096509       0.001
  -0.13096509  0.01870930 -0.13096509       0.001
  -0.09354649  0.01870930 -0.13096509       0.001
  -0.05612790  0.01870930 -0.13096509       0.001
  -0.01870930  0.01870930 -0.13096509       0.001
   0.01870930  0.05612790 -0.13096509       0.001
   0.05612790  0.05612790 -0.13096509       0.001
   0.09354649  0.05612790 -0.13096509       0.001
   0.13096509  0.05612790 -0.13096509       0.001
   0.16838369  0.05612790 -0.13096509       0.001
  -0.16838369  0.05612790 -0.13096509       0.001
  -0.13096509  0.05612790 -0.13096509       0.001
  -0.09354649  0.05612790 -0.13096509       0.001
  -0.05612790  0.05612790 -0.13096509       0.001
  -0.01870930  0.05612790 -0.13096509       0.001
   0.01870930  0.09354649 -0.13096509       0.001
   0.05612790  0.09354649 -0.13096509       0.001
   0.09354649  0.09354649 -0.13096509       0.001
   0.13096509  0.09354649 -0.13096509       0.001
   0.16838369  0.09354649 -0.13096509       0.001
  -0.16838369  0.09354649 -0.13096509       0.001
  -0.13096509  0.09354649 -0.13096509       0.001
  -0.09354649  0.09354649 -0.13096509       0.001
  -0.05612790  0.09354649 -0.13096509       0.001
  -0.01870930  0.09354649 -0.13096509       0.001
   0.01870930  0.13096509 -0.13096509       0.001
   0.05612790  0.13096509 -0.13096509       0.001
   0.09354649  0.13096509 -0.13096509       0.001
   0.13096509  0.13096509 -0.13096509       0.001
   0.16838369  0.13096509 -0.13096509       0.001
  -0.16838369  0.13096509 -0.13096509       0.001
  -0.13096509  0.13096509 -0.13096509       0.001
  -0.09354649  0.13096509 -0.13096509       0.001
  -0.05612790  0.13096509 -0.13096509       0.001
  -0.01870930  0.13096509 -0.13096509       0.001
   0.01870930  0.16838369 -0.13096509       0.001
   0.05612790  0.16838369 -0.13096509       0.001
   0.09354649  0.16838369 -0.13096509       0.001
   0.13096509  0.16838369 -0.13096509       0.001
   0.16838369  0.16838369 -0.13096509       0.001
  -0.16838369  0.16838369 -0.13096509       0.001
  -0.13096509  0.16838369 -0.13096509       0.001
  -0.09354649  0.16838369 -0.13096509       0.001
  -0.05612790  0.16838369 -0.13096509       0.001
  -0.01870930  0.16838369 -0.13096509       0.001
   0.01870930 -0.16838369 -0.13096509       0.001
   0.05612790 -0.16838369 -0.13096509       0.001
   0.09354649 -0.16838369 -0.13096509       0.001
   0.13096509 -0.16838369 -0.13096509       0.001
   0.16838369 -0.16838369 -0.13096509       0.001
  -0.16838369 -0.16838369 -0.13096509       0.001
  -0.13096509 -0.16838369 -0.13096509       0.001
  -0.09354649 -0.16838369 -0.13096509       0.001
  -0.05612790 -0.16838369 -0.13096509       0.001
  -0.01870930 -0.16838369 -0.13096509       0.001
   0.01870930 -0.13096509 -0.13096509       0.001
   0.05612790 -0.13096509 -0.13096509       0.001
   0.09354649 -0.13096509 -0.13096509       0.001
   0.13096509 -0.13096509 -0.13096509       0.001
   0.16838369 -0.13096509 -0.13096509       0.001
  -0.16838369 -0.13096509 -0.13096509       0.001
  -0.13096509 -0.13096509 -0.13096509       0.001
  -0.09354649 -0.13096509 -0.13096509       0.001
  -0.05612790 -0.13096509 -0.13096509       0.001
  -0.01870930 -0.13096509 -0.13096509       0.001
   0.01870930 -0.09354649 -0.13096509       0.001
   0.05612790 -0.09354649 -0.13096509       0.001
   0.09354649 -0.09354649 -0.13096509       0.001
   0.13096509 -0.09354649 -0.13096509       0.001
   0.16838369 -0.09354649 -0.13096509       0.001
  -0.16838369 -0.09354649 -0.13096509       0.001
  -0.13096509 -0.09354649 -0.13096509       0.001
  -0.09354649 -0.09354649 -0.13096509       0.001
  -0.05612790 -0.09354649 -0.13096509       0.001
  -0.01870930 -0.09354649 -0.13096509       0.001
   0.01870930 -0.05612790 -0.13096509       0.001
   0.05612790 -0.05612790 -0.13096509       0.001
   0.09354649 -0.05612790 -0.13096509       0.001
   0.13096509 -0.05612790 -0.13096509       0.001
   0.16838369 -0.05612790 -0.13096509       0.001
  -0.16838369 -0.05612790 -0.13096509       0.001
  -0.13096509 -0.05612790 -0.13096509       0.001
  -0.09354649 -0.05612790 -0.13096509       0.001
  -0.05612790 -0.05612790 -0.13096509       0.001
  -0.01870930 -0.05612790 -0.13096509       0.001
   0.01870930 -0.01870930 -0.13096509       0.001
   0.05612790 -0.01870930 -0.13096509       0.001
   0.09354649 -0.01870930 -0.13096509       0.001
   0.13096509 -0.01870930 -0.13096509       0.001
   0.16838369 -0.01870930 -0.13096509       0.001
  -0.16838369 -0.01870930 -0.13096509       0.001
  -0.13096509 -0.01870930 -0.13096509       0.001
  -0.09354649 -0.01870930 -0.13096509       0.001
  -0.05612790 -0.01870930 -0.13096509       0.001
  -0.01870930 -0.01870930 -0.13096509       0.001
   0.01870930  0.01870930 -0.09354649       0.001
   0.05612790  0.01870930 -0.09354649       0.001
   0.09354649  0.01870930 -0.09354649       0.001
   0.13096509  0.01870930 -0.09354649       0.001
   0.16838369  0.01870930 -0.09354649       0.001
  -0.16838369  0.01870930 -0.09354649       0.001
  -0.13096509  0.01870930 -0.09354649       0.001
  -0.09354649  0.01870930 -0.09354649       0.001
  -0.05612790  0.01870930 -0.09354649       0.001
  -0.01870930  0.01870930 -0.09354649       0.001
   0.01870930  0.05612790 -0.09354649       0.001
   0.05612790  0.05612790 -0.09354649       0.001
   0.09354649  0.05612790 -0.09354649       0.001
   0.13096509  0.05612790 -0.09354649       0.001
   0.16838369  0.05612790 -0.09354649       0.001
  -0.16838369  0.05612790 -0.09354649       0.001
  -0.13096509  0.05612790 -0.09354649       0.001
  -0.09354649  0.05612790 -0.09354649       0.001
  -0.05612790  0.05612790 -0.09354649       0.001
  -0.01870930  0.05612790 -0.09354649       0.001
   0.01870930  0.09354649 -0.09354649       0.001
   0.05612790  0.09354649 -0.09354649       0.001
   0.09354649  0.09354649 -0.09354649       0.001
   0.13096509  0.09354649 -0.09354649       0.001
   0.16838369  0.09354649 -0.09354649       0.001
  -0.16838369  0.09354649 -0.09354649       0.001
  -0.13096509  0.09354649 -0.09354649       0.001
  -0.09354649  0.09354649 -0.09354649       0.001
  -0.05612790  0.09354649 -0.09354649       0.001
  -0.01870930  0.09354649 -0.09354649       0.001
   0.01870930  0.13096509 -0.09354649       0.001
   0.05612790  0.13096509 -0.09354649       0.001
   0.09354649  0.13096509 -0.09354649       0.001
   0.13096509  0.13096509 -0.09354649       0.001
   0.16838369  0.13096509 -0.09354649       0.001
  -0.16838369  0.13096509 -0.09354649       0.001
  -0.13096509  0.13096509 -0.09354649       0.001
  -0.09354649  0.13096509 -0.09354649       0.001
  -0.05612790  0.13096509 -0.09354649       0.001
  -0.01870930  0.13096509 -0.09354649       0.001
   0.01870930  0.16838369 -0.09354649       0.001
   0.05612790  0.16838369 -0.09354649       0.001
   0.09354649  0.16838369 -0.09354649       0.001
   0.13096509  0.16838369 -0.09354649       0.001
   0.16838369  0.16838369 -0.09354649       0.001
  -0.16838369  0.16838369 -0.09354649       0.001
  -0.13096509  0.16838369 -0.09354649       0.001
  -0.09354649  0.16838369 -0.09354649       0.001
  -0.05612790  0.16838369 -0.09354649       0.001
  -0.01870930  0.16838369 -0.09354649       0.001
   0.01870930 -0.16838369 -0.09354649       0.001
   0.05612790 -0.16838369 -0.09354649       0.001
   0.09354649 -0.16838369 -0.09354649       0.001
   0.13096509 -0.16838369 -0.09354649       0.001
   0.16838369 -0.16838369 -0.09354649       0.001
  -0.16838369 -0.16838369 -0.09354649       0.001
  -0.13096509 -0.16838369 -0.09354649       0.001
  -0.09354649 -0.16838369 -0.09354649       0.001
  -0.05612790 -0.16838369 -0.09354649       0.001
  -0.01870930 -0.16838369 -0.09354649       0.001
   0.01870930 -0.13096509 -0.09354649       0.001
   0.05612790 -0.13096509 -0.09354649       0.001
   0.09354649 -0.13096509 -0.09354649       0.001
   0.13096509 -0.13096509 -0.09354649       0.001
   0.16838369 -0.13096509 -0.09354649       0.001
  -0.16838369 -0.13096509 -0.09354649       0.001
  -0.13096509 -0.13096509 -0.09354649       0.001
  -0.09354649 -0.13096509 -0.09354649       0.001
  -0.05612790 -0.13096509 -0.09354649       0.001
  -0.01870930 -0.13096509 -0.09354649       0.001
   0.01870930 -0.09354649 -0.09354649       0.001
   0.05612790 -0.09354649 -0.09354649       0.001
   0.09354649 -0.09354649 -0.09354649       0.001
   0.13096509 -0.09354649 -0.09354649       0.001
   0.16838369 -0.09354649 -0.09354649       0.001
  -0.16838369 -0.09354649 -0.09354649       0.001
  -0.13096509 -0.09354649 -0.09354649       0.001
  -0.09354649 -0.09354649 -0.09354649       0.001
  -0.05612790 -0.09354649 -0.09354649       0.001
  -0.01870930 -0.09354649 -0.09354649       0.001
   0.01870930 -0.05612790 -0.09354649       0.001
   0.05612790 -0.05612790 -0.09354649       0.001
   0.09354649 -0.05612790 -0.09354649       0.001
   0.13096509 -0.05612790 -0.09354649       0.001
   0.16838369 -0.05612790 -0.09354649       0.001
  -0.16838369 -0.05612790 -0.09354649       0.001
  -0.13096509 -0.05612790 -0.09354649       0.001
  -0.09354649 -0.05612790 -0.09354649       0.001
  -0.05612790 -0.05612790 -0.09354649       0.001
  -0.01870930 -0.05612790 -0.09354649       0.001
   0.01870930 -0.01870930 -0.09354649       0.001
   0.05612790 -0.01870930 -0.09354649       0.001
   0.09354649 -0.01870930 -0.09354649       0.001
   0.13096509 -0.01870930 -0.09354649       0.001
   0.16838369 -0.01870930 -0.09354649       0.001
  -0.16838369 -0.01870930 -0.09354649       0.001
  -0.13096509 -0.01870930 -0.09354649       0.001
  -0.09354649 -0.01870930 -0.09354649       0.001
  -0.05612790 -0.01870930 -0.09354649       0.001
  -0.01870930 -0.01870930 -0.09354649       0.001
   0.01870930  0.01870930 -0.05612790       0.001
   0.05612790  0.01870930 -0.05612790       0.001
   0.09354649  0.01870930 -0.05612790       0.001
   0.13096509  0.01870930 -0.05612790       0.001
   0.16838369  0.01870930 -0.05612790       0.001
  -0.16838369  0.01870930 -0.05612790       0.001
  -0.13096509  0.01870930 -0.05612790       0.001
  -0.09354649  0.01870930 -0.05612790       0.001
  -0.05612790  0.01870930 -0.05612790       0.001
  -0.01870930  0.01870930 -0.05612790       0.001
   0.01870930  0.05612790 -0.05612790       0.001
   0.05612790  0.05612790 -0.05612790       0.001
   0.09354649  0.05612790 -0.05612790       0.001
   0.13096509  0.05612790 -0.05612790       0.001
   0.16838369  0.05612790 -0.05612790       0.001
  -0.16838369  0.05612790 -0.05612790       0.001
  -0.13096509  0.05612790 -0.05612790       0.001
  -0.09354649  0.05612790 -0.05612790       0.001
  -0.05612790  0.05612790 -0.05612790       0.001
  -0.01870930  0.05612790 -0.05612790       0.001
   0.01870930  0.09354649 -0.05612790       0.001
   0.05612790  0.09354649 -0.05612790       0.001
   0.09354649  0.09354649 -0.05612790       0.001
   0.13096509  0.09354649 -0.05612790       0.001
   0.16838369  0.09354649 -0.05612790       0.001
  -0.16838369  0.09354649 -0.05612790       0.001
  -0.13096509  0.09354649 -0.05612790       0.001
  -0.09354649  0.09354649 -0.05612790       0.001
  -0.05612790  0.09354649 -0.05612790       0.001
  -0.01870930  0.09354649 -0.05612790       0.001
   0.01870930  0.13096509 -0.05612790       0.001
   0.05612790  0.13096509 -0.05612790       0.001
   0.09354649  0.13096509 -0.05612790       0.001
   0.13096509  0.13096509 -0.05612790       0.001
   0.16838369  0.13096509 -0.05612790       0.001
  -0.16838369  0.13096509 -0.05612790       0.001
  -0.13096509  0.13096509 -0.05612790       0.001
  -0.09354649  0.13096509 -0.05612790       0.001
  -0.05612790  0.13096509 -0.05612790       0.001
  -0.01870930  0.13096509 -0.05612790       0.001
   0.01870930  0.16838369 -0.05612790       0.001
   0.05612790  0.16838369 -0.05612790       0.001
   0.09354649  0.16838369 -0.05612790       0.001
   0.13096509  0.16838369 -0.05612790       0.001
   0.16838369  0.16838369 -0.05612790       0.001
  -0.16838369  0.16838369 -0.05612790       0.001
  -0.13096509  0.16838369 -0.05612790       0.001
  -0.09354649  0.16838369 -0.05612790       0.001
  -0.05612790  0.16838369 -0.05612790       0.001
  -0.01870930  0.16838369 -0.05612790       0.001
   0.01870930 -0.16838369 -0.05612790       0.001
   0.05612790 -0.16838369 -0.05612790       0.001
   0.09354649 -0.16838369 -0.05612790       0.001
   0.13096509 -0.16838369 -0.05612790       0.001
   0.16838369 -0.16838369 -0.05612790       0.001
  -0.16838369 -0.16838369 -0.05612790       0.001
  -0.13096509 -0.16838369 -0.05612790       0.001
  -0.09354649 -0.16838369 -0.05612790       0.001
  -0.05612790 -0.16838369 -0.05612790       0.001
  -0.01870930 -0.16838369 -0.05612790       0.001
   0.01870930 -0.13096509 -0.05612790       0.001
   0.05612790 -0.13096509 -0.05612790       0.001
   0.09354649 -0.13096509 -0.05612790       0.001
   0.13096509 -0.13096509 -0.05612790       0.001
   0.16838369 -0.13096509 -0.05612790       0.001
  -0.16838369 -0.13096509 -0.05612790       0.001
  -0.13096509 -0.13096509 -0.05612790       0.001
  -0.09354649 -0.13096509 -0.05612790       0.001
  -0.05612790 -0.13096509 -0.05612790       0.001
  -0.01870930 -0.13096509 -0.05612790       0.001
   0.01870930 -0.09354649 -0.05612790       0.001
   0.05612790 -0.09354649 -0.05612790       0.001
   0.09354649 -0.09354649 -0.05612790       0.001
   0.13096509 -0.09354649 -0.05612790       0.001
   0.16838369 -0.09354649 -0.05612790       0.001
  -0.16838369 -0.09354649 -0.05612790       0.001
  -0.13096509 -0.09354649 -0.05612790       0.001
  -0.09354649 -0.09354649 -0.05612790       0.001
  -0.05612790 -0.09354649 -0.05612790       0.001
  -0.01870930 -0.09354649 -0.05612790       0.001
   0.01870930 -0.05612790 -0.05612790       0.001
   0.05612790 -0.05612790 -0.05612790       0.001
   0.09354649 -0.05612790 -0.05612790       0.001
   0.13096509 -0.05612790 -0.05612790       0.001
   0.16838369 -0.05612790 -0.05612790       0.001
  -0.16838369 -0.05612790 -0.05612790       0.001
  -0.13096509 -0.05612790 -0.05612790       0.001
  -0.09354649 -0.05612790 -0.05612790       0.001
  -0.05612790 -0.05612790 -0.05612790       0.001
  -0.01870930 -0.05612790 -0.05612790       0.001
   0.01870930 -0.01870930 -0.05612790       0.001
   0.05612790 -0.01870930 -0.05612790       0.001
   0.09354649 -0.01870930 -0.05612790       0.001
   0.13096509 -0.01870930 -0.05612790       0.001
   0.16838369 -0.01870930 -0.05612790       0.001
  -0.16838369 -0.01870930 -0.05612790       0.001
  -0.13096509 -0.01870930 -0.05612790       0.001
  -0.09354649 -0.01870930 -0.05612790       0.001
  -0.05612790 -0.01870930 -0.05612790       0.001
  -0.01870930 -0.01870930 -0.05612790       0.001
   0.01870930  0.01870930 -0.01870930       0.001
   0.05612790  0.01870930 -0.01870930       0.001
   0.09354649  0.01870930 -0.01870930       0.001
   0.13096509  0.01870930 -0.01870930       0.001
   0.16838369  0.01870930 -0.01870930       0.001
  -0.16838369  0.01870930 -0.01870930       0.001
  -0.13096509  0.01870930 -0.01870930       0.001
  -0.09354649  0.01870930 -0.01870930       0.001
  -0.05612790  0.01870930 -0.01870930       0.001
  -0.01870930  0.01870930 -0.01870930       0.001
   0.01870930  0.05612790 -0.01870930       0.001
   0.05612790  0.05612790 -0.01870930       0.001
   0.09354649  0.05612790 -0.01870930       0.001
   0.13096509  0.05612790 -0.01870930       0.001
   0.16838369  0.05612790 -0.01870930       0.001
  -0.16838369  0.05612790 -0.01870930       0.001
  -0.13096509  0.05612790 -0.01870930       0.001
  -0.09354649  0.05612790 -0.01870930       0.001
  -0.05612790  0.05612790 -0.01870930       0.001
  -0.01870930  0.05612790 -0.01870930       0.001
   0.01870930  0.09354649 -0.01870930       0.001
   0.05612790  0.09354649 -0.01870930       0.001
   0.09354649  0.09354649 -0.01870930       0.001
   0.13096509  0.09354649 -0.01870930       0.001
   0.16838369  0.09354649 -0.01870930       0.001
  -0.16838369  0.09354649 -0.01870930       0.001
  -0.13096509  0.09354649 -0.01870930       0.001
  -0.09354649  0.09354649 -0.01870930       0.001
  -0.05612790  0.09354649 -0.01870930       0.001
  -0.01870930  0.09354649 -0.01870930       0.001
   0.01870930  0.13096509 -0.01870930       0.001
   0.05612790  0.13096509 -0.01870930       0.001
   0.09354649  0.13096509 -0.01870930       0.001
   0.13096509  0.13096509 -0.01870930       0.001
   0.16838369  0.13096509 -0.01870930       0.001
  -0.16838369  0.13096509 -0.01870930       0.001
  -0.13096509  0.13096509 -0.01870930       0.001
  -0.09354649  0.13096509 -0.01870930       0.001
  -0.05612790  0.13096509 -0.01870930       0.001
  -0.01870930  0.13096509 -0.01870930       0.001
   0.01870930  0.16838369 -0.01870930       0.001
   0.05612790  0.16838369 -0.01870930       0.001
   0.09354649  0.16838369 -0.01870930       0.001
   0.13096509  0.16838369 -0.01870930       0.001
   0.16838369  0.16838369 -0.01870930       0.001
  -0.16838369  0.16838369 -0.01870930       0.001
  -0.13096509  0.16838369 -0.01870930       0.001
  -0.09354649  0.16838369 -0.01870930       0.001
  -0.05612790  0.16838369 -0.01870930       0.001
  -0.01870930  0.16838369 -0.01870930       0.001
   0.01870930 -0.16838369 -0.01870930       0.001
   0.05612790 -0.16838369 -0.01870930       0.001
   0.09354649 -0.16838369 -0.01870930       0.001
   0.13096509 -0.16838369 -0.01870930       0.001
   0.16838369 -0.16838369 -0.01870930       0.001
  -0.16838369 -0.16838369 -0.01870930       0.001
  -0.13096509 -0.16838369 -0.01870930       0.001
  -0.09354649 -0.16838369 -0.01870930       0.001
  -0.05612790 -0.16838369 -0.01870930       0.001
  -0.01870930 -0.16838369 -0.01870930       0.001
   0.01870930 -0.13096509 -0.01870930       0.001
   0.05612790 -0.13096509 -0.01870930       0.001
   0.09354649 -0.13096509 -0.01870930       0.001
   0.13096509 -0.13096509 -0.01870930       0.001
   0.16838369 -0.13096509 -0.01870930       0.001
  -0.16838369 -0.13096509 -0.01870930       0.001
  -0.13096509 -0.13096509 -0.01870930       0.001
  -0.09354649 -0.13096509 -0.01870930       0.001
  -0.05612790 -0.13096509 -0.01870930       0.001
  -0.01870930 -0.13096509 -0.01870930       0.001
   0.01870930 -0.09354649 -0.01870930       0.001
   0.05612790 -0.09354649 -0.01870930       0.001
   0.09354649 -0.09354649 -0.01870930       0.001
   0.13096509 -0.09354649 -0.01870930       0.001
   0.16838369 -0.09354649 -0.01870930       0.001
  -0.16838369 -0.09354649 -0.01870930       0.001
  -0.13096509 -0.09354649 -0.01870930       0.001
  -0.09354649 -0.09354649 -0.01870930       0.001
  -0.05612790 -0.09354649 -0.01870930       0.001
  -0.01870930 -0.09354649 -0.01870930       0.001
   0.01870930 -0.05612790 -0.01870930       0.001
   0.05612790 -0.05612790 -0.01870930       0.001
   0.09354649 -0.05612790 -0.01870930       0.001
   0.13096509 -0.05612790 -0.01870930       0.001
   0.16838369 -0.05612790 -0.01870930       0.001
  -0.16838369 -0.05612790 -0.01870930       0.001
  -0.13096509 -0.05612790 -0.01870930       0.001
  -0.09354649 -0.05612790 -0.01870930       0.001
  -0.05612790 -0.05612790 -0.01870930       0.001
  -0.01870930 -0.05612790 -0.01870930       0.001
   0.01870930 -0.01870930 -0.01870930       0.001
   0.05612790 -0.01870930 -0.01870930       0.001
   0.09354649 -0.01870930 -0.01870930       0.001
   0.13096509 -0.01870930 -0.01870930       0.001
   0.16838369 -0.01870930 -0.01870930       0.001
  -0.16838369 -0.01870930 -0.01870930       0.001
  -0.13096509 -0.01870930 -0.01870930       0.001
  -0.09354649 -0.01870930 -0.01870930       0.001
  -0.05612790 -0.01870930 -0.01870930       0.001
  -0.01870930 -0.01870930 -0.01870930       0.001
 
 k-points in reciprocal lattice and weights: pymatgen with grid density = 2599 / numb
   0.05000000  0.05000000  0.05000000       0.001
   0.15000000  0.05000000  0.05000000       0.001
   0.25000000  0.05000000  0.05000000       0.001
   0.35000000  0.05000000  0.05000000       0.001
   0.45000000  0.05000000  0.05000000       0.001
  -0.45000000  0.05000000  0.05000000       0.001
  -0.35000000  0.05000000  0.05000000       0.001
  -0.25000000  0.05000000  0.05000000       0.001
  -0.15000000  0.05000000  0.05000000       0.001
  -0.05000000  0.05000000  0.05000000       0.001
   0.05000000  0.15000000  0.05000000       0.001
   0.15000000  0.15000000  0.05000000       0.001
   0.25000000  0.15000000  0.05000000       0.001
   0.35000000  0.15000000  0.05000000       0.001
   0.45000000  0.15000000  0.05000000       0.001
  -0.45000000  0.15000000  0.05000000       0.001
  -0.35000000  0.15000000  0.05000000       0.001
  -0.25000000  0.15000000  0.05000000       0.001
  -0.15000000  0.15000000  0.05000000       0.001
  -0.05000000  0.15000000  0.05000000       0.001
   0.05000000  0.25000000  0.05000000       0.001
   0.15000000  0.25000000  0.05000000       0.001
   0.25000000  0.25000000  0.05000000       0.001
   0.35000000  0.25000000  0.05000000       0.001
   0.45000000  0.25000000  0.05000000       0.001
  -0.45000000  0.25000000  0.05000000       0.001
  -0.35000000  0.25000000  0.05000000       0.001
  -0.25000000  0.25000000  0.05000000       0.001
  -0.15000000  0.25000000  0.05000000       0.001
  -0.05000000  0.25000000  0.05000000       0.001
   0.05000000  0.35000000  0.05000000       0.001
   0.15000000  0.35000000  0.05000000       0.001
   0.25000000  0.35000000  0.05000000       0.001
   0.35000000  0.35000000  0.05000000       0.001
   0.45000000  0.35000000  0.05000000       0.001
  -0.45000000  0.35000000  0.05000000       0.001
  -0.35000000  0.35000000  0.05000000       0.001
  -0.25000000  0.35000000  0.05000000       0.001
  -0.15000000  0.35000000  0.05000000       0.001
  -0.05000000  0.35000000  0.05000000       0.001
   0.05000000  0.45000000  0.05000000       0.001
   0.15000000  0.45000000  0.05000000       0.001
   0.25000000  0.45000000  0.05000000       0.001
   0.35000000  0.45000000  0.05000000       0.001
   0.45000000  0.45000000  0.05000000       0.001
  -0.45000000  0.45000000  0.05000000       0.001
  -0.35000000  0.45000000  0.05000000       0.001
  -0.25000000  0.45000000  0.05000000       0.001
  -0.15000000  0.45000000  0.05000000       0.001
  -0.05000000  0.45000000  0.05000000       0.001
   0.05000000 -0.45000000  0.05000000       0.001
   0.15000000 -0.45000000  0.05000000       0.001
   0.25000000 -0.45000000  0.05000000       0.001
   0.35000000 -0.45000000  0.05000000       0.001
   0.45000000 -0.45000000  0.05000000       0.001
  -0.45000000 -0.45000000  0.05000000       0.001
  -0.35000000 -0.45000000  0.05000000       0.001
  -0.25000000 -0.45000000  0.05000000       0.001
  -0.15000000 -0.45000000  0.05000000       0.001
  -0.05000000 -0.45000000  0.05000000       0.001
   0.05000000 -0.35000000  0.05000000       0.001
   0.15000000 -0.35000000  0.05000000       0.001
   0.25000000 -0.35000000  0.05000000       0.001
   0.35000000 -0.35000000  0.05000000       0.001
   0.45000000 -0.35000000  0.05000000       0.001
  -0.45000000 -0.35000000  0.05000000       0.001
  -0.35000000 -0.35000000  0.05000000       0.001
  -0.25000000 -0.35000000  0.05000000       0.001
  -0.15000000 -0.35000000  0.05000000       0.001
  -0.05000000 -0.35000000  0.05000000       0.001
   0.05000000 -0.25000000  0.05000000       0.001
   0.15000000 -0.25000000  0.05000000       0.001
   0.25000000 -0.25000000  0.05000000       0.001
   0.35000000 -0.25000000  0.05000000       0.001
   0.45000000 -0.25000000  0.05000000       0.001
  -0.45000000 -0.25000000  0.05000000       0.001
  -0.35000000 -0.25000000  0.05000000       0.001
  -0.25000000 -0.25000000  0.05000000       0.001
  -0.15000000 -0.25000000  0.05000000       0.001
  -0.05000000 -0.25000000  0.05000000       0.001
   0.05000000 -0.15000000  0.05000000       0.001
   0.15000000 -0.15000000  0.05000000       0.001
   0.25000000 -0.15000000  0.05000000       0.001
   0.35000000 -0.15000000  0.05000000       0.001
   0.45000000 -0.15000000  0.05000000       0.001
  -0.45000000 -0.15000000  0.05000000       0.001
  -0.35000000 -0.15000000  0.05000000       0.001
  -0.25000000 -0.15000000  0.05000000       0.001
  -0.15000000 -0.15000000  0.05000000       0.001
  -0.05000000 -0.15000000  0.05000000       0.001
   0.05000000 -0.05000000  0.05000000       0.001
   0.15000000 -0.05000000  0.05000000       0.001
   0.25000000 -0.05000000  0.05000000       0.001
   0.35000000 -0.05000000  0.05000000       0.001
   0.45000000 -0.05000000  0.05000000       0.001
  -0.45000000 -0.05000000  0.05000000       0.001
  -0.35000000 -0.05000000  0.05000000       0.001
  -0.25000000 -0.05000000  0.05000000       0.001
  -0.15000000 -0.05000000  0.05000000       0.001
  -0.05000000 -0.05000000  0.05000000       0.001
   0.05000000  0.05000000  0.15000000       0.001
   0.15000000  0.05000000  0.15000000       0.001
   0.25000000  0.05000000  0.15000000       0.001
   0.35000000  0.05000000  0.15000000       0.001
   0.45000000  0.05000000  0.15000000       0.001
  -0.45000000  0.05000000  0.15000000       0.001
  -0.35000000  0.05000000  0.15000000       0.001
  -0.25000000  0.05000000  0.15000000       0.001
  -0.15000000  0.05000000  0.15000000       0.001
  -0.05000000  0.05000000  0.15000000       0.001
   0.05000000  0.15000000  0.15000000       0.001
   0.15000000  0.15000000  0.15000000       0.001
   0.25000000  0.15000000  0.15000000       0.001
   0.35000000  0.15000000  0.15000000       0.001
   0.45000000  0.15000000  0.15000000       0.001
  -0.45000000  0.15000000  0.15000000       0.001
  -0.35000000  0.15000000  0.15000000       0.001
  -0.25000000  0.15000000  0.15000000       0.001
  -0.15000000  0.15000000  0.15000000       0.001
  -0.05000000  0.15000000  0.15000000       0.001
   0.05000000  0.25000000  0.15000000       0.001
   0.15000000  0.25000000  0.15000000       0.001
   0.25000000  0.25000000  0.15000000       0.001
   0.35000000  0.25000000  0.15000000       0.001
   0.45000000  0.25000000  0.15000000       0.001
  -0.45000000  0.25000000  0.15000000       0.001
  -0.35000000  0.25000000  0.15000000       0.001
  -0.25000000  0.25000000  0.15000000       0.001
  -0.15000000  0.25000000  0.15000000       0.001
  -0.05000000  0.25000000  0.15000000       0.001
   0.05000000  0.35000000  0.15000000       0.001
   0.15000000  0.35000000  0.15000000       0.001
   0.25000000  0.35000000  0.15000000       0.001
   0.35000000  0.35000000  0.15000000       0.001
   0.45000000  0.35000000  0.15000000       0.001
  -0.45000000  0.35000000  0.15000000       0.001
  -0.35000000  0.35000000  0.15000000       0.001
  -0.25000000  0.35000000  0.15000000       0.001
  -0.15000000  0.35000000  0.15000000       0.001
  -0.05000000  0.35000000  0.15000000       0.001
   0.05000000  0.45000000  0.15000000       0.001
   0.15000000  0.45000000  0.15000000       0.001
   0.25000000  0.45000000  0.15000000       0.001
   0.35000000  0.45000000  0.15000000       0.001
   0.45000000  0.45000000  0.15000000       0.001
  -0.45000000  0.45000000  0.15000000       0.001
  -0.35000000  0.45000000  0.15000000       0.001
  -0.25000000  0.45000000  0.15000000       0.001
  -0.15000000  0.45000000  0.15000000       0.001
  -0.05000000  0.45000000  0.15000000       0.001
   0.05000000 -0.45000000  0.15000000       0.001
   0.15000000 -0.45000000  0.15000000       0.001
   0.25000000 -0.45000000  0.15000000       0.001
   0.35000000 -0.45000000  0.15000000       0.001
   0.45000000 -0.45000000  0.15000000       0.001
  -0.45000000 -0.45000000  0.15000000       0.001
  -0.35000000 -0.45000000  0.15000000       0.001
  -0.25000000 -0.45000000  0.15000000       0.001
  -0.15000000 -0.45000000  0.15000000       0.001
  -0.05000000 -0.45000000  0.15000000       0.001
   0.05000000 -0.35000000  0.15000000       0.001
   0.15000000 -0.35000000  0.15000000       0.001
   0.25000000 -0.35000000  0.15000000       0.001
   0.35000000 -0.35000000  0.15000000       0.001
   0.45000000 -0.35000000  0.15000000       0.001
  -0.45000000 -0.35000000  0.15000000       0.001
  -0.35000000 -0.35000000  0.15000000       0.001
  -0.25000000 -0.35000000  0.15000000       0.001
  -0.15000000 -0.35000000  0.15000000       0.001
  -0.05000000 -0.35000000  0.15000000       0.001
   0.05000000 -0.25000000  0.15000000       0.001
   0.15000000 -0.25000000  0.15000000       0.001
   0.25000000 -0.25000000  0.15000000       0.001
   0.35000000 -0.25000000  0.15000000       0.001
   0.45000000 -0.25000000  0.15000000       0.001
  -0.45000000 -0.25000000  0.15000000       0.001
  -0.35000000 -0.25000000  0.15000000       0.001
  -0.25000000 -0.25000000  0.15000000       0.001
  -0.15000000 -0.25000000  0.15000000       0.001
  -0.05000000 -0.25000000  0.15000000       0.001
   0.05000000 -0.15000000  0.15000000       0.001
   0.15000000 -0.15000000  0.15000000       0.001
   0.25000000 -0.15000000  0.15000000       0.001
   0.35000000 -0.15000000  0.15000000       0.001
   0.45000000 -0.15000000  0.15000000       0.001
  -0.45000000 -0.15000000  0.15000000       0.001
  -0.35000000 -0.15000000  0.15000000       0.001
  -0.25000000 -0.15000000  0.15000000       0.001
  -0.15000000 -0.15000000  0.15000000       0.001
  -0.05000000 -0.15000000  0.15000000       0.001
   0.05000000 -0.05000000  0.15000000       0.001
   0.15000000 -0.05000000  0.15000000       0.001
   0.25000000 -0.05000000  0.15000000       0.001
   0.35000000 -0.05000000  0.15000000       0.001
   0.45000000 -0.05000000  0.15000000       0.001
  -0.45000000 -0.05000000  0.15000000       0.001
  -0.35000000 -0.05000000  0.15000000       0.001
  -0.25000000 -0.05000000  0.15000000       0.001
  -0.15000000 -0.05000000  0.15000000       0.001
  -0.05000000 -0.05000000  0.15000000       0.001
   0.05000000  0.05000000  0.25000000       0.001
   0.15000000  0.05000000  0.25000000       0.001
   0.25000000  0.05000000  0.25000000       0.001
   0.35000000  0.05000000  0.25000000       0.001
   0.45000000  0.05000000  0.25000000       0.001
  -0.45000000  0.05000000  0.25000000       0.001
  -0.35000000  0.05000000  0.25000000       0.001
  -0.25000000  0.05000000  0.25000000       0.001
  -0.15000000  0.05000000  0.25000000       0.001
  -0.05000000  0.05000000  0.25000000       0.001
   0.05000000  0.15000000  0.25000000       0.001
   0.15000000  0.15000000  0.25000000       0.001
   0.25000000  0.15000000  0.25000000       0.001
   0.35000000  0.15000000  0.25000000       0.001
   0.45000000  0.15000000  0.25000000       0.001
  -0.45000000  0.15000000  0.25000000       0.001
  -0.35000000  0.15000000  0.25000000       0.001
  -0.25000000  0.15000000  0.25000000       0.001
  -0.15000000  0.15000000  0.25000000       0.001
  -0.05000000  0.15000000  0.25000000       0.001
   0.05000000  0.25000000  0.25000000       0.001
   0.15000000  0.25000000  0.25000000       0.001
   0.25000000  0.25000000  0.25000000       0.001
   0.35000000  0.25000000  0.25000000       0.001
   0.45000000  0.25000000  0.25000000       0.001
  -0.45000000  0.25000000  0.25000000       0.001
  -0.35000000  0.25000000  0.25000000       0.001
  -0.25000000  0.25000000  0.25000000       0.001
  -0.15000000  0.25000000  0.25000000       0.001
  -0.05000000  0.25000000  0.25000000       0.001
   0.05000000  0.35000000  0.25000000       0.001
   0.15000000  0.35000000  0.25000000       0.001
   0.25000000  0.35000000  0.25000000       0.001
   0.35000000  0.35000000  0.25000000       0.001
   0.45000000  0.35000000  0.25000000       0.001
  -0.45000000  0.35000000  0.25000000       0.001
  -0.35000000  0.35000000  0.25000000       0.001
  -0.25000000  0.35000000  0.25000000       0.001
  -0.15000000  0.35000000  0.25000000       0.001
  -0.05000000  0.35000000  0.25000000       0.001
   0.05000000  0.45000000  0.25000000       0.001
   0.15000000  0.45000000  0.25000000       0.001
   0.25000000  0.45000000  0.25000000       0.001
   0.35000000  0.45000000  0.25000000       0.001
   0.45000000  0.45000000  0.25000000       0.001
  -0.45000000  0.45000000  0.25000000       0.001
  -0.35000000  0.45000000  0.25000000       0.001
  -0.25000000  0.45000000  0.25000000       0.001
  -0.15000000  0.45000000  0.25000000       0.001
  -0.05000000  0.45000000  0.25000000       0.001
   0.05000000 -0.45000000  0.25000000       0.001
   0.15000000 -0.45000000  0.25000000       0.001
   0.25000000 -0.45000000  0.25000000       0.001
   0.35000000 -0.45000000  0.25000000       0.001
   0.45000000 -0.45000000  0.25000000       0.001
  -0.45000000 -0.45000000  0.25000000       0.001
  -0.35000000 -0.45000000  0.25000000       0.001
  -0.25000000 -0.45000000  0.25000000       0.001
  -0.15000000 -0.45000000  0.25000000       0.001
  -0.05000000 -0.45000000  0.25000000       0.001
   0.05000000 -0.35000000  0.25000000       0.001
   0.15000000 -0.35000000  0.25000000       0.001
   0.25000000 -0.35000000  0.25000000       0.001
   0.35000000 -0.35000000  0.25000000       0.001
   0.45000000 -0.35000000  0.25000000       0.001
  -0.45000000 -0.35000000  0.25000000       0.001
  -0.35000000 -0.35000000  0.25000000       0.001
  -0.25000000 -0.35000000  0.25000000       0.001
  -0.15000000 -0.35000000  0.25000000       0.001
  -0.05000000 -0.35000000  0.25000000       0.001
   0.05000000 -0.25000000  0.25000000       0.001
   0.15000000 -0.25000000  0.25000000       0.001
   0.25000000 -0.25000000  0.25000000       0.001
   0.35000000 -0.25000000  0.25000000       0.001
   0.45000000 -0.25000000  0.25000000       0.001
  -0.45000000 -0.25000000  0.25000000       0.001
  -0.35000000 -0.25000000  0.25000000       0.001
  -0.25000000 -0.25000000  0.25000000       0.001
  -0.15000000 -0.25000000  0.25000000       0.001
  -0.05000000 -0.25000000  0.25000000       0.001
   0.05000000 -0.15000000  0.25000000       0.001
   0.15000000 -0.15000000  0.25000000       0.001
   0.25000000 -0.15000000  0.25000000       0.001
   0.35000000 -0.15000000  0.25000000       0.001
   0.45000000 -0.15000000  0.25000000       0.001
  -0.45000000 -0.15000000  0.25000000       0.001
  -0.35000000 -0.15000000  0.25000000       0.001
  -0.25000000 -0.15000000  0.25000000       0.001
  -0.15000000 -0.15000000  0.25000000       0.001
  -0.05000000 -0.15000000  0.25000000       0.001
   0.05000000 -0.05000000  0.25000000       0.001
   0.15000000 -0.05000000  0.25000000       0.001
   0.25000000 -0.05000000  0.25000000       0.001
   0.35000000 -0.05000000  0.25000000       0.001
   0.45000000 -0.05000000  0.25000000       0.001
  -0.45000000 -0.05000000  0.25000000       0.001
  -0.35000000 -0.05000000  0.25000000       0.001
  -0.25000000 -0.05000000  0.25000000       0.001
  -0.15000000 -0.05000000  0.25000000       0.001
  -0.05000000 -0.05000000  0.25000000       0.001
   0.05000000  0.05000000  0.35000000       0.001
   0.15000000  0.05000000  0.35000000       0.001
   0.25000000  0.05000000  0.35000000       0.001
   0.35000000  0.05000000  0.35000000       0.001
   0.45000000  0.05000000  0.35000000       0.001
  -0.45000000  0.05000000  0.35000000       0.001
  -0.35000000  0.05000000  0.35000000       0.001
  -0.25000000  0.05000000  0.35000000       0.001
  -0.15000000  0.05000000  0.35000000       0.001
  -0.05000000  0.05000000  0.35000000       0.001
   0.05000000  0.15000000  0.35000000       0.001
   0.15000000  0.15000000  0.35000000       0.001
   0.25000000  0.15000000  0.35000000       0.001
   0.35000000  0.15000000  0.35000000       0.001
   0.45000000  0.15000000  0.35000000       0.001
  -0.45000000  0.15000000  0.35000000       0.001
  -0.35000000  0.15000000  0.35000000       0.001
  -0.25000000  0.15000000  0.35000000       0.001
  -0.15000000  0.15000000  0.35000000       0.001
  -0.05000000  0.15000000  0.35000000       0.001
   0.05000000  0.25000000  0.35000000       0.001
   0.15000000  0.25000000  0.35000000       0.001
   0.25000000  0.25000000  0.35000000       0.001
   0.35000000  0.25000000  0.35000000       0.001
   0.45000000  0.25000000  0.35000000       0.001
  -0.45000000  0.25000000  0.35000000       0.001
  -0.35000000  0.25000000  0.35000000       0.001
  -0.25000000  0.25000000  0.35000000       0.001
  -0.15000000  0.25000000  0.35000000       0.001
  -0.05000000  0.25000000  0.35000000       0.001
   0.05000000  0.35000000  0.35000000       0.001
   0.15000000  0.35000000  0.35000000       0.001
   0.25000000  0.35000000  0.35000000       0.001
   0.35000000  0.35000000  0.35000000       0.001
   0.45000000  0.35000000  0.35000000       0.001
  -0.45000000  0.35000000  0.35000000       0.001
  -0.35000000  0.35000000  0.35000000       0.001
  -0.25000000  0.35000000  0.35000000       0.001
  -0.15000000  0.35000000  0.35000000       0.001
  -0.05000000  0.35000000  0.35000000       0.001
   0.05000000  0.45000000  0.35000000       0.001
   0.15000000  0.45000000  0.35000000       0.001
   0.25000000  0.45000000  0.35000000       0.001
   0.35000000  0.45000000  0.35000000       0.001
   0.45000000  0.45000000  0.35000000       0.001
  -0.45000000  0.45000000  0.35000000       0.001
  -0.35000000  0.45000000  0.35000000       0.001
  -0.25000000  0.45000000  0.35000000       0.001
  -0.15000000  0.45000000  0.35000000       0.001
  -0.05000000  0.45000000  0.35000000       0.001
   0.05000000 -0.45000000  0.35000000       0.001
   0.15000000 -0.45000000  0.35000000       0.001
   0.25000000 -0.45000000  0.35000000       0.001
   0.35000000 -0.45000000  0.35000000       0.001
   0.45000000 -0.45000000  0.35000000       0.001
  -0.45000000 -0.45000000  0.35000000       0.001
  -0.35000000 -0.45000000  0.35000000       0.001
  -0.25000000 -0.45000000  0.35000000       0.001
  -0.15000000 -0.45000000  0.35000000       0.001
  -0.05000000 -0.45000000  0.35000000       0.001
   0.05000000 -0.35000000  0.35000000       0.001
   0.15000000 -0.35000000  0.35000000       0.001
   0.25000000 -0.35000000  0.35000000       0.001
   0.35000000 -0.35000000  0.35000000       0.001
   0.45000000 -0.35000000  0.35000000       0.001
  -0.45000000 -0.35000000  0.35000000       0.001
  -0.35000000 -0.35000000  0.35000000       0.001
  -0.25000000 -0.35000000  0.35000000       0.001
  -0.15000000 -0.35000000  0.35000000       0.001
  -0.05000000 -0.35000000  0.35000000       0.001
   0.05000000 -0.25000000  0.35000000       0.001
   0.15000000 -0.25000000  0.35000000       0.001
   0.25000000 -0.25000000  0.35000000       0.001
   0.35000000 -0.25000000  0.35000000       0.001
   0.45000000 -0.25000000  0.35000000       0.001
  -0.45000000 -0.25000000  0.35000000       0.001
  -0.35000000 -0.25000000  0.35000000       0.001
  -0.25000000 -0.25000000  0.35000000       0.001
  -0.15000000 -0.25000000  0.35000000       0.001
  -0.05000000 -0.25000000  0.35000000       0.001
   0.05000000 -0.15000000  0.35000000       0.001
   0.15000000 -0.15000000  0.35000000       0.001
   0.25000000 -0.15000000  0.35000000       0.001
   0.35000000 -0.15000000  0.35000000       0.001
   0.45000000 -0.15000000  0.35000000       0.001
  -0.45000000 -0.15000000  0.35000000       0.001
  -0.35000000 -0.15000000  0.35000000       0.001
  -0.25000000 -0.15000000  0.35000000       0.001
  -0.15000000 -0.15000000  0.35000000       0.001
  -0.05000000 -0.15000000  0.35000000       0.001
   0.05000000 -0.05000000  0.35000000       0.001
   0.15000000 -0.05000000  0.35000000       0.001
   0.25000000 -0.05000000  0.35000000       0.001
   0.35000000 -0.05000000  0.35000000       0.001
   0.45000000 -0.05000000  0.35000000       0.001
  -0.45000000 -0.05000000  0.35000000       0.001
  -0.35000000 -0.05000000  0.35000000       0.001
  -0.25000000 -0.05000000  0.35000000       0.001
  -0.15000000 -0.05000000  0.35000000       0.001
  -0.05000000 -0.05000000  0.35000000       0.001
   0.05000000  0.05000000  0.45000000       0.001
   0.15000000  0.05000000  0.45000000       0.001
   0.25000000  0.05000000  0.45000000       0.001
   0.35000000  0.05000000  0.45000000       0.001
   0.45000000  0.05000000  0.45000000       0.001
  -0.45000000  0.05000000  0.45000000       0.001
  -0.35000000  0.05000000  0.45000000       0.001
  -0.25000000  0.05000000  0.45000000       0.001
  -0.15000000  0.05000000  0.45000000       0.001
  -0.05000000  0.05000000  0.45000000       0.001
   0.05000000  0.15000000  0.45000000       0.001
   0.15000000  0.15000000  0.45000000       0.001
   0.25000000  0.15000000  0.45000000       0.001
   0.35000000  0.15000000  0.45000000       0.001
   0.45000000  0.15000000  0.45000000       0.001
  -0.45000000  0.15000000  0.45000000       0.001
  -0.35000000  0.15000000  0.45000000       0.001
  -0.25000000  0.15000000  0.45000000       0.001
  -0.15000000  0.15000000  0.45000000       0.001
  -0.05000000  0.15000000  0.45000000       0.001
   0.05000000  0.25000000  0.45000000       0.001
   0.15000000  0.25000000  0.45000000       0.001
   0.25000000  0.25000000  0.45000000       0.001
   0.35000000  0.25000000  0.45000000       0.001
   0.45000000  0.25000000  0.45000000       0.001
  -0.45000000  0.25000000  0.45000000       0.001
  -0.35000000  0.25000000  0.45000000       0.001
  -0.25000000  0.25000000  0.45000000       0.001
  -0.15000000  0.25000000  0.45000000       0.001
  -0.05000000  0.25000000  0.45000000       0.001
   0.05000000  0.35000000  0.45000000       0.001
   0.15000000  0.35000000  0.45000000       0.001
   0.25000000  0.35000000  0.45000000       0.001
   0.35000000  0.35000000  0.45000000       0.001
   0.45000000  0.35000000  0.45000000       0.001
  -0.45000000  0.35000000  0.45000000       0.001
  -0.35000000  0.35000000  0.45000000       0.001
  -0.25000000  0.35000000  0.45000000       0.001
  -0.15000000  0.35000000  0.45000000       0.001
  -0.05000000  0.35000000  0.45000000       0.001
   0.05000000  0.45000000  0.45000000       0.001
   0.15000000  0.45000000  0.45000000       0.001
   0.25000000  0.45000000  0.45000000       0.001
   0.35000000  0.45000000  0.45000000       0.001
   0.45000000  0.45000000  0.45000000       0.001
  -0.45000000  0.45000000  0.45000000       0.001
  -0.35000000  0.45000000  0.45000000       0.001
  -0.25000000  0.45000000  0.45000000       0.001
  -0.15000000  0.45000000  0.45000000       0.001
  -0.05000000  0.45000000  0.45000000       0.001
   0.05000000 -0.45000000  0.45000000       0.001
   0.15000000 -0.45000000  0.45000000       0.001
   0.25000000 -0.45000000  0.45000000       0.001
   0.35000000 -0.45000000  0.45000000       0.001
   0.45000000 -0.45000000  0.45000000       0.001
  -0.45000000 -0.45000000  0.45000000       0.001
  -0.35000000 -0.45000000  0.45000000       0.001
  -0.25000000 -0.45000000  0.45000000       0.001
  -0.15000000 -0.45000000  0.45000000       0.001
  -0.05000000 -0.45000000  0.45000000       0.001
   0.05000000 -0.35000000  0.45000000       0.001
   0.15000000 -0.35000000  0.45000000       0.001
   0.25000000 -0.35000000  0.45000000       0.001
   0.35000000 -0.35000000  0.45000000       0.001
   0.45000000 -0.35000000  0.45000000       0.001
  -0.45000000 -0.35000000  0.45000000       0.001
  -0.35000000 -0.35000000  0.45000000       0.001
  -0.25000000 -0.35000000  0.45000000       0.001
  -0.15000000 -0.35000000  0.45000000       0.001
  -0.05000000 -0.35000000  0.45000000       0.001
   0.05000000 -0.25000000  0.45000000       0.001
   0.15000000 -0.25000000  0.45000000       0.001
   0.25000000 -0.25000000  0.45000000       0.001
   0.35000000 -0.25000000  0.45000000       0.001
   0.45000000 -0.25000000  0.45000000       0.001
  -0.45000000 -0.25000000  0.45000000       0.001
  -0.35000000 -0.25000000  0.45000000       0.001
  -0.25000000 -0.25000000  0.45000000       0.001
  -0.15000000 -0.25000000  0.45000000       0.001
  -0.05000000 -0.25000000  0.45000000       0.001
   0.05000000 -0.15000000  0.45000000       0.001
   0.15000000 -0.15000000  0.45000000       0.001
   0.25000000 -0.15000000  0.45000000       0.001
   0.35000000 -0.15000000  0.45000000       0.001
   0.45000000 -0.15000000  0.45000000       0.001
  -0.45000000 -0.15000000  0.45000000       0.001
  -0.35000000 -0.15000000  0.45000000       0.001
  -0.25000000 -0.15000000  0.45000000       0.001
  -0.15000000 -0.15000000  0.45000000       0.001
  -0.05000000 -0.15000000  0.45000000       0.001
   0.05000000 -0.05000000  0.45000000       0.001
   0.15000000 -0.05000000  0.45000000       0.001
   0.25000000 -0.05000000  0.45000000       0.001
   0.35000000 -0.05000000  0.45000000       0.001
   0.45000000 -0.05000000  0.45000000       0.001
  -0.45000000 -0.05000000  0.45000000       0.001
  -0.35000000 -0.05000000  0.45000000       0.001
  -0.25000000 -0.05000000  0.45000000       0.001
  -0.15000000 -0.05000000  0.45000000       0.001
  -0.05000000 -0.05000000  0.45000000       0.001
   0.05000000  0.05000000 -0.45000000       0.001
   0.15000000  0.05000000 -0.45000000       0.001
   0.25000000  0.05000000 -0.45000000       0.001
   0.35000000  0.05000000 -0.45000000       0.001
   0.45000000  0.05000000 -0.45000000       0.001
  -0.45000000  0.05000000 -0.45000000       0.001
  -0.35000000  0.05000000 -0.45000000       0.001
  -0.25000000  0.05000000 -0.45000000       0.001
  -0.15000000  0.05000000 -0.45000000       0.001
  -0.05000000  0.05000000 -0.45000000       0.001
   0.05000000  0.15000000 -0.45000000       0.001
   0.15000000  0.15000000 -0.45000000       0.001
   0.25000000  0.15000000 -0.45000000       0.001
   0.35000000  0.15000000 -0.45000000       0.001
   0.45000000  0.15000000 -0.45000000       0.001
  -0.45000000  0.15000000 -0.45000000       0.001
  -0.35000000  0.15000000 -0.45000000       0.001
  -0.25000000  0.15000000 -0.45000000       0.001
  -0.15000000  0.15000000 -0.45000000       0.001
  -0.05000000  0.15000000 -0.45000000       0.001
   0.05000000  0.25000000 -0.45000000       0.001
   0.15000000  0.25000000 -0.45000000       0.001
   0.25000000  0.25000000 -0.45000000       0.001
   0.35000000  0.25000000 -0.45000000       0.001
   0.45000000  0.25000000 -0.45000000       0.001
  -0.45000000  0.25000000 -0.45000000       0.001
  -0.35000000  0.25000000 -0.45000000       0.001
  -0.25000000  0.25000000 -0.45000000       0.001
  -0.15000000  0.25000000 -0.45000000       0.001
  -0.05000000  0.25000000 -0.45000000       0.001
   0.05000000  0.35000000 -0.45000000       0.001
   0.15000000  0.35000000 -0.45000000       0.001
   0.25000000  0.35000000 -0.45000000       0.001
   0.35000000  0.35000000 -0.45000000       0.001
   0.45000000  0.35000000 -0.45000000       0.001
  -0.45000000  0.35000000 -0.45000000       0.001
  -0.35000000  0.35000000 -0.45000000       0.001
  -0.25000000  0.35000000 -0.45000000       0.001
  -0.15000000  0.35000000 -0.45000000       0.001
  -0.05000000  0.35000000 -0.45000000       0.001
   0.05000000  0.45000000 -0.45000000       0.001
   0.15000000  0.45000000 -0.45000000       0.001
   0.25000000  0.45000000 -0.45000000       0.001
   0.35000000  0.45000000 -0.45000000       0.001
   0.45000000  0.45000000 -0.45000000       0.001
  -0.45000000  0.45000000 -0.45000000       0.001
  -0.35000000  0.45000000 -0.45000000       0.001
  -0.25000000  0.45000000 -0.45000000       0.001
  -0.15000000  0.45000000 -0.45000000       0.001
  -0.05000000  0.45000000 -0.45000000       0.001
   0.05000000 -0.45000000 -0.45000000       0.001
   0.15000000 -0.45000000 -0.45000000       0.001
   0.25000000 -0.45000000 -0.45000000       0.001
   0.35000000 -0.45000000 -0.45000000       0.001
   0.45000000 -0.45000000 -0.45000000       0.001
  -0.45000000 -0.45000000 -0.45000000       0.001
  -0.35000000 -0.45000000 -0.45000000       0.001
  -0.25000000 -0.45000000 -0.45000000       0.001
  -0.15000000 -0.45000000 -0.45000000       0.001
  -0.05000000 -0.45000000 -0.45000000       0.001
   0.05000000 -0.35000000 -0.45000000       0.001
   0.15000000 -0.35000000 -0.45000000       0.001
   0.25000000 -0.35000000 -0.45000000       0.001
   0.35000000 -0.35000000 -0.45000000       0.001
   0.45000000 -0.35000000 -0.45000000       0.001
  -0.45000000 -0.35000000 -0.45000000       0.001
  -0.35000000 -0.35000000 -0.45000000       0.001
  -0.25000000 -0.35000000 -0.45000000       0.001
  -0.15000000 -0.35000000 -0.45000000       0.001
  -0.05000000 -0.35000000 -0.45000000       0.001
   0.05000000 -0.25000000 -0.45000000       0.001
   0.15000000 -0.25000000 -0.45000000       0.001
   0.25000000 -0.25000000 -0.45000000       0.001
   0.35000000 -0.25000000 -0.45000000       0.001
   0.45000000 -0.25000000 -0.45000000       0.001
  -0.45000000 -0.25000000 -0.45000000       0.001
  -0.35000000 -0.25000000 -0.45000000       0.001
  -0.25000000 -0.25000000 -0.45000000       0.001
  -0.15000000 -0.25000000 -0.45000000       0.001
  -0.05000000 -0.25000000 -0.45000000       0.001
   0.05000000 -0.15000000 -0.45000000       0.001
   0.15000000 -0.15000000 -0.45000000       0.001
   0.25000000 -0.15000000 -0.45000000       0.001
   0.35000000 -0.15000000 -0.45000000       0.001
   0.45000000 -0.15000000 -0.45000000       0.001
  -0.45000000 -0.15000000 -0.45000000       0.001
  -0.35000000 -0.15000000 -0.45000000       0.001
  -0.25000000 -0.15000000 -0.45000000       0.001
  -0.15000000 -0.15000000 -0.45000000       0.001
  -0.05000000 -0.15000000 -0.45000000       0.001
   0.05000000 -0.05000000 -0.45000000       0.001
   0.15000000 -0.05000000 -0.45000000       0.001
   0.25000000 -0.05000000 -0.45000000       0.001
   0.35000000 -0.05000000 -0.45000000       0.001
   0.45000000 -0.05000000 -0.45000000       0.001
  -0.45000000 -0.05000000 -0.45000000       0.001
  -0.35000000 -0.05000000 -0.45000000       0.001
  -0.25000000 -0.05000000 -0.45000000       0.001
  -0.15000000 -0.05000000 -0.45000000       0.001
  -0.05000000 -0.05000000 -0.45000000       0.001
   0.05000000  0.05000000 -0.35000000       0.001
   0.15000000  0.05000000 -0.35000000       0.001
   0.25000000  0.05000000 -0.35000000       0.001
   0.35000000  0.05000000 -0.35000000       0.001
   0.45000000  0.05000000 -0.35000000       0.001
  -0.45000000  0.05000000 -0.35000000       0.001
  -0.35000000  0.05000000 -0.35000000       0.001
  -0.25000000  0.05000000 -0.35000000       0.001
  -0.15000000  0.05000000 -0.35000000       0.001
  -0.05000000  0.05000000 -0.35000000       0.001
   0.05000000  0.15000000 -0.35000000       0.001
   0.15000000  0.15000000 -0.35000000       0.001
   0.25000000  0.15000000 -0.35000000       0.001
   0.35000000  0.15000000 -0.35000000       0.001
   0.45000000  0.15000000 -0.35000000       0.001
  -0.45000000  0.15000000 -0.35000000       0.001
  -0.35000000  0.15000000 -0.35000000       0.001
  -0.25000000  0.15000000 -0.35000000       0.001
  -0.15000000  0.15000000 -0.35000000       0.001
  -0.05000000  0.15000000 -0.35000000       0.001
   0.05000000  0.25000000 -0.35000000       0.001
   0.15000000  0.25000000 -0.35000000       0.001
   0.25000000  0.25000000 -0.35000000       0.001
   0.35000000  0.25000000 -0.35000000       0.001
   0.45000000  0.25000000 -0.35000000       0.001
  -0.45000000  0.25000000 -0.35000000       0.001
  -0.35000000  0.25000000 -0.35000000       0.001
  -0.25000000  0.25000000 -0.35000000       0.001
  -0.15000000  0.25000000 -0.35000000       0.001
  -0.05000000  0.25000000 -0.35000000       0.001
   0.05000000  0.35000000 -0.35000000       0.001
   0.15000000  0.35000000 -0.35000000       0.001
   0.25000000  0.35000000 -0.35000000       0.001
   0.35000000  0.35000000 -0.35000000       0.001
   0.45000000  0.35000000 -0.35000000       0.001
  -0.45000000  0.35000000 -0.35000000       0.001
  -0.35000000  0.35000000 -0.35000000       0.001
  -0.25000000  0.35000000 -0.35000000       0.001
  -0.15000000  0.35000000 -0.35000000       0.001
  -0.05000000  0.35000000 -0.35000000       0.001
   0.05000000  0.45000000 -0.35000000       0.001
   0.15000000  0.45000000 -0.35000000       0.001
   0.25000000  0.45000000 -0.35000000       0.001
   0.35000000  0.45000000 -0.35000000       0.001
   0.45000000  0.45000000 -0.35000000       0.001
  -0.45000000  0.45000000 -0.35000000       0.001
  -0.35000000  0.45000000 -0.35000000       0.001
  -0.25000000  0.45000000 -0.35000000       0.001
  -0.15000000  0.45000000 -0.35000000       0.001
  -0.05000000  0.45000000 -0.35000000       0.001
   0.05000000 -0.45000000 -0.35000000       0.001
   0.15000000 -0.45000000 -0.35000000       0.001
   0.25000000 -0.45000000 -0.35000000       0.001
   0.35000000 -0.45000000 -0.35000000       0.001
   0.45000000 -0.45000000 -0.35000000       0.001
  -0.45000000 -0.45000000 -0.35000000       0.001
  -0.35000000 -0.45000000 -0.35000000       0.001
  -0.25000000 -0.45000000 -0.35000000       0.001
  -0.15000000 -0.45000000 -0.35000000       0.001
  -0.05000000 -0.45000000 -0.35000000       0.001
   0.05000000 -0.35000000 -0.35000000       0.001
   0.15000000 -0.35000000 -0.35000000       0.001
   0.25000000 -0.35000000 -0.35000000       0.001
   0.35000000 -0.35000000 -0.35000000       0.001
   0.45000000 -0.35000000 -0.35000000       0.001
  -0.45000000 -0.35000000 -0.35000000       0.001
  -0.35000000 -0.35000000 -0.35000000       0.001
  -0.25000000 -0.35000000 -0.35000000       0.001
  -0.15000000 -0.35000000 -0.35000000       0.001
  -0.05000000 -0.35000000 -0.35000000       0.001
   0.05000000 -0.25000000 -0.35000000       0.001
   0.15000000 -0.25000000 -0.35000000       0.001
   0.25000000 -0.25000000 -0.35000000       0.001
   0.35000000 -0.25000000 -0.35000000       0.001
   0.45000000 -0.25000000 -0.35000000       0.001
  -0.45000000 -0.25000000 -0.35000000       0.001
  -0.35000000 -0.25000000 -0.35000000       0.001
  -0.25000000 -0.25000000 -0.35000000       0.001
  -0.15000000 -0.25000000 -0.35000000       0.001
  -0.05000000 -0.25000000 -0.35000000       0.001
   0.05000000 -0.15000000 -0.35000000       0.001
   0.15000000 -0.15000000 -0.35000000       0.001
   0.25000000 -0.15000000 -0.35000000       0.001
   0.35000000 -0.15000000 -0.35000000       0.001
   0.45000000 -0.15000000 -0.35000000       0.001
  -0.45000000 -0.15000000 -0.35000000       0.001
  -0.35000000 -0.15000000 -0.35000000       0.001
  -0.25000000 -0.15000000 -0.35000000       0.001
  -0.15000000 -0.15000000 -0.35000000       0.001
  -0.05000000 -0.15000000 -0.35000000       0.001
   0.05000000 -0.05000000 -0.35000000       0.001
   0.15000000 -0.05000000 -0.35000000       0.001
   0.25000000 -0.05000000 -0.35000000       0.001
   0.35000000 -0.05000000 -0.35000000       0.001
   0.45000000 -0.05000000 -0.35000000       0.001
  -0.45000000 -0.05000000 -0.35000000       0.001
  -0.35000000 -0.05000000 -0.35000000       0.001
  -0.25000000 -0.05000000 -0.35000000       0.001
  -0.15000000 -0.05000000 -0.35000000       0.001
  -0.05000000 -0.05000000 -0.35000000       0.001
   0.05000000  0.05000000 -0.25000000       0.001
   0.15000000  0.05000000 -0.25000000       0.001
   0.25000000  0.05000000 -0.25000000       0.001
   0.35000000  0.05000000 -0.25000000       0.001
   0.45000000  0.05000000 -0.25000000       0.001
  -0.45000000  0.05000000 -0.25000000       0.001
  -0.35000000  0.05000000 -0.25000000       0.001
  -0.25000000  0.05000000 -0.25000000       0.001
  -0.15000000  0.05000000 -0.25000000       0.001
  -0.05000000  0.05000000 -0.25000000       0.001
   0.05000000  0.15000000 -0.25000000       0.001
   0.15000000  0.15000000 -0.25000000       0.001
   0.25000000  0.15000000 -0.25000000       0.001
   0.35000000  0.15000000 -0.25000000       0.001
   0.45000000  0.15000000 -0.25000000       0.001
  -0.45000000  0.15000000 -0.25000000       0.001
  -0.35000000  0.15000000 -0.25000000       0.001
  -0.25000000  0.15000000 -0.25000000       0.001
  -0.15000000  0.15000000 -0.25000000       0.001
  -0.05000000  0.15000000 -0.25000000       0.001
   0.05000000  0.25000000 -0.25000000       0.001
   0.15000000  0.25000000 -0.25000000       0.001
   0.25000000  0.25000000 -0.25000000       0.001
   0.35000000  0.25000000 -0.25000000       0.001
   0.45000000  0.25000000 -0.25000000       0.001
  -0.45000000  0.25000000 -0.25000000       0.001
  -0.35000000  0.25000000 -0.25000000       0.001
  -0.25000000  0.25000000 -0.25000000       0.001
  -0.15000000  0.25000000 -0.25000000       0.001
  -0.05000000  0.25000000 -0.25000000       0.001
   0.05000000  0.35000000 -0.25000000       0.001
   0.15000000  0.35000000 -0.25000000       0.001
   0.25000000  0.35000000 -0.25000000       0.001
   0.35000000  0.35000000 -0.25000000       0.001
   0.45000000  0.35000000 -0.25000000       0.001
  -0.45000000  0.35000000 -0.25000000       0.001
  -0.35000000  0.35000000 -0.25000000       0.001
  -0.25000000  0.35000000 -0.25000000       0.001
  -0.15000000  0.35000000 -0.25000000       0.001
  -0.05000000  0.35000000 -0.25000000       0.001
   0.05000000  0.45000000 -0.25000000       0.001
   0.15000000  0.45000000 -0.25000000       0.001
   0.25000000  0.45000000 -0.25000000       0.001
   0.35000000  0.45000000 -0.25000000       0.001
   0.45000000  0.45000000 -0.25000000       0.001
  -0.45000000  0.45000000 -0.25000000       0.001
  -0.35000000  0.45000000 -0.25000000       0.001
  -0.25000000  0.45000000 -0.25000000       0.001
  -0.15000000  0.45000000 -0.25000000       0.001
  -0.05000000  0.45000000 -0.25000000       0.001
   0.05000000 -0.45000000 -0.25000000       0.001
   0.15000000 -0.45000000 -0.25000000       0.001
   0.25000000 -0.45000000 -0.25000000       0.001
   0.35000000 -0.45000000 -0.25000000       0.001
   0.45000000 -0.45000000 -0.25000000       0.001
  -0.45000000 -0.45000000 -0.25000000       0.001
  -0.35000000 -0.45000000 -0.25000000       0.001
  -0.25000000 -0.45000000 -0.25000000       0.001
  -0.15000000 -0.45000000 -0.25000000       0.001
  -0.05000000 -0.45000000 -0.25000000       0.001
   0.05000000 -0.35000000 -0.25000000       0.001
   0.15000000 -0.35000000 -0.25000000       0.001
   0.25000000 -0.35000000 -0.25000000       0.001
   0.35000000 -0.35000000 -0.25000000       0.001
   0.45000000 -0.35000000 -0.25000000       0.001
  -0.45000000 -0.35000000 -0.25000000       0.001
  -0.35000000 -0.35000000 -0.25000000       0.001
  -0.25000000 -0.35000000 -0.25000000       0.001
  -0.15000000 -0.35000000 -0.25000000       0.001
  -0.05000000 -0.35000000 -0.25000000       0.001
   0.05000000 -0.25000000 -0.25000000       0.001
   0.15000000 -0.25000000 -0.25000000       0.001
   0.25000000 -0.25000000 -0.25000000       0.001
   0.35000000 -0.25000000 -0.25000000       0.001
   0.45000000 -0.25000000 -0.25000000       0.001
  -0.45000000 -0.25000000 -0.25000000       0.001
  -0.35000000 -0.25000000 -0.25000000       0.001
  -0.25000000 -0.25000000 -0.25000000       0.001
  -0.15000000 -0.25000000 -0.25000000       0.001
  -0.05000000 -0.25000000 -0.25000000       0.001
   0.05000000 -0.15000000 -0.25000000       0.001
   0.15000000 -0.15000000 -0.25000000       0.001
   0.25000000 -0.15000000 -0.25000000       0.001
   0.35000000 -0.15000000 -0.25000000       0.001
   0.45000000 -0.15000000 -0.25000000       0.001
  -0.45000000 -0.15000000 -0.25000000       0.001
  -0.35000000 -0.15000000 -0.25000000       0.001
  -0.25000000 -0.15000000 -0.25000000       0.001
  -0.15000000 -0.15000000 -0.25000000       0.001
  -0.05000000 -0.15000000 -0.25000000       0.001
   0.05000000 -0.05000000 -0.25000000       0.001
   0.15000000 -0.05000000 -0.25000000       0.001
   0.25000000 -0.05000000 -0.25000000       0.001
   0.35000000 -0.05000000 -0.25000000       0.001
   0.45000000 -0.05000000 -0.25000000       0.001
  -0.45000000 -0.05000000 -0.25000000       0.001
  -0.35000000 -0.05000000 -0.25000000       0.001
  -0.25000000 -0.05000000 -0.25000000       0.001
  -0.15000000 -0.05000000 -0.25000000       0.001
  -0.05000000 -0.05000000 -0.25000000       0.001
   0.05000000  0.05000000 -0.15000000       0.001
   0.15000000  0.05000000 -0.15000000       0.001
   0.25000000  0.05000000 -0.15000000       0.001
   0.35000000  0.05000000 -0.15000000       0.001
   0.45000000  0.05000000 -0.15000000       0.001
  -0.45000000  0.05000000 -0.15000000       0.001
  -0.35000000  0.05000000 -0.15000000       0.001
  -0.25000000  0.05000000 -0.15000000       0.001
  -0.15000000  0.05000000 -0.15000000       0.001
  -0.05000000  0.05000000 -0.15000000       0.001
   0.05000000  0.15000000 -0.15000000       0.001
   0.15000000  0.15000000 -0.15000000       0.001
   0.25000000  0.15000000 -0.15000000       0.001
   0.35000000  0.15000000 -0.15000000       0.001
   0.45000000  0.15000000 -0.15000000       0.001
  -0.45000000  0.15000000 -0.15000000       0.001
  -0.35000000  0.15000000 -0.15000000       0.001
  -0.25000000  0.15000000 -0.15000000       0.001
  -0.15000000  0.15000000 -0.15000000       0.001
  -0.05000000  0.15000000 -0.15000000       0.001
   0.05000000  0.25000000 -0.15000000       0.001
   0.15000000  0.25000000 -0.15000000       0.001
   0.25000000  0.25000000 -0.15000000       0.001
   0.35000000  0.25000000 -0.15000000       0.001
   0.45000000  0.25000000 -0.15000000       0.001
  -0.45000000  0.25000000 -0.15000000       0.001
  -0.35000000  0.25000000 -0.15000000       0.001
  -0.25000000  0.25000000 -0.15000000       0.001
  -0.15000000  0.25000000 -0.15000000       0.001
  -0.05000000  0.25000000 -0.15000000       0.001
   0.05000000  0.35000000 -0.15000000       0.001
   0.15000000  0.35000000 -0.15000000       0.001
   0.25000000  0.35000000 -0.15000000       0.001
   0.35000000  0.35000000 -0.15000000       0.001
   0.45000000  0.35000000 -0.15000000       0.001
  -0.45000000  0.35000000 -0.15000000       0.001
  -0.35000000  0.35000000 -0.15000000       0.001
  -0.25000000  0.35000000 -0.15000000       0.001
  -0.15000000  0.35000000 -0.15000000       0.001
  -0.05000000  0.35000000 -0.15000000       0.001
   0.05000000  0.45000000 -0.15000000       0.001
   0.15000000  0.45000000 -0.15000000       0.001
   0.25000000  0.45000000 -0.15000000       0.001
   0.35000000  0.45000000 -0.15000000       0.001
   0.45000000  0.45000000 -0.15000000       0.001
  -0.45000000  0.45000000 -0.15000000       0.001
  -0.35000000  0.45000000 -0.15000000       0.001
  -0.25000000  0.45000000 -0.15000000       0.001
  -0.15000000  0.45000000 -0.15000000       0.001
  -0.05000000  0.45000000 -0.15000000       0.001
   0.05000000 -0.45000000 -0.15000000       0.001
   0.15000000 -0.45000000 -0.15000000       0.001
   0.25000000 -0.45000000 -0.15000000       0.001
   0.35000000 -0.45000000 -0.15000000       0.001
   0.45000000 -0.45000000 -0.15000000       0.001
  -0.45000000 -0.45000000 -0.15000000       0.001
  -0.35000000 -0.45000000 -0.15000000       0.001
  -0.25000000 -0.45000000 -0.15000000       0.001
  -0.15000000 -0.45000000 -0.15000000       0.001
  -0.05000000 -0.45000000 -0.15000000       0.001
   0.05000000 -0.35000000 -0.15000000       0.001
   0.15000000 -0.35000000 -0.15000000       0.001
   0.25000000 -0.35000000 -0.15000000       0.001
   0.35000000 -0.35000000 -0.15000000       0.001
   0.45000000 -0.35000000 -0.15000000       0.001
  -0.45000000 -0.35000000 -0.15000000       0.001
  -0.35000000 -0.35000000 -0.15000000       0.001
  -0.25000000 -0.35000000 -0.15000000       0.001
  -0.15000000 -0.35000000 -0.15000000       0.001
  -0.05000000 -0.35000000 -0.15000000       0.001
   0.05000000 -0.25000000 -0.15000000       0.001
   0.15000000 -0.25000000 -0.15000000       0.001
   0.25000000 -0.25000000 -0.15000000       0.001
   0.35000000 -0.25000000 -0.15000000       0.001
   0.45000000 -0.25000000 -0.15000000       0.001
  -0.45000000 -0.25000000 -0.15000000       0.001
  -0.35000000 -0.25000000 -0.15000000       0.001
  -0.25000000 -0.25000000 -0.15000000       0.001
  -0.15000000 -0.25000000 -0.15000000       0.001
  -0.05000000 -0.25000000 -0.15000000       0.001
   0.05000000 -0.15000000 -0.15000000       0.001
   0.15000000 -0.15000000 -0.15000000       0.001
   0.25000000 -0.15000000 -0.15000000       0.001
   0.35000000 -0.15000000 -0.15000000       0.001
   0.45000000 -0.15000000 -0.15000000       0.001
  -0.45000000 -0.15000000 -0.15000000       0.001
  -0.35000000 -0.15000000 -0.15000000       0.001
  -0.25000000 -0.15000000 -0.15000000       0.001
  -0.15000000 -0.15000000 -0.15000000       0.001
  -0.05000000 -0.15000000 -0.15000000       0.001
   0.05000000 -0.05000000 -0.15000000       0.001
   0.15000000 -0.05000000 -0.15000000       0.001
   0.25000000 -0.05000000 -0.15000000       0.001
   0.35000000 -0.05000000 -0.15000000       0.001
   0.45000000 -0.05000000 -0.15000000       0.001
  -0.45000000 -0.05000000 -0.15000000       0.001
  -0.35000000 -0.05000000 -0.15000000       0.001
  -0.25000000 -0.05000000 -0.15000000       0.001
  -0.15000000 -0.05000000 -0.15000000       0.001
  -0.05000000 -0.05000000 -0.15000000       0.001
   0.05000000  0.05000000 -0.05000000       0.001
   0.15000000  0.05000000 -0.05000000       0.001
   0.25000000  0.05000000 -0.05000000       0.001
   0.35000000  0.05000000 -0.05000000       0.001
   0.45000000  0.05000000 -0.05000000       0.001
  -0.45000000  0.05000000 -0.05000000       0.001
  -0.35000000  0.05000000 -0.05000000       0.001
  -0.25000000  0.05000000 -0.05000000       0.001
  -0.15000000  0.05000000 -0.05000000       0.001
  -0.05000000  0.05000000 -0.05000000       0.001
   0.05000000  0.15000000 -0.05000000       0.001
   0.15000000  0.15000000 -0.05000000       0.001
   0.25000000  0.15000000 -0.05000000       0.001
   0.35000000  0.15000000 -0.05000000       0.001
   0.45000000  0.15000000 -0.05000000       0.001
  -0.45000000  0.15000000 -0.05000000       0.001
  -0.35000000  0.15000000 -0.05000000       0.001
  -0.25000000  0.15000000 -0.05000000       0.001
  -0.15000000  0.15000000 -0.05000000       0.001
  -0.05000000  0.15000000 -0.05000000       0.001
   0.05000000  0.25000000 -0.05000000       0.001
   0.15000000  0.25000000 -0.05000000       0.001
   0.25000000  0.25000000 -0.05000000       0.001
   0.35000000  0.25000000 -0.05000000       0.001
   0.45000000  0.25000000 -0.05000000       0.001
  -0.45000000  0.25000000 -0.05000000       0.001
  -0.35000000  0.25000000 -0.05000000       0.001
  -0.25000000  0.25000000 -0.05000000       0.001
  -0.15000000  0.25000000 -0.05000000       0.001
  -0.05000000  0.25000000 -0.05000000       0.001
   0.05000000  0.35000000 -0.05000000       0.001
   0.15000000  0.35000000 -0.05000000       0.001
   0.25000000  0.35000000 -0.05000000       0.001
   0.35000000  0.35000000 -0.05000000       0.001
   0.45000000  0.35000000 -0.05000000       0.001
  -0.45000000  0.35000000 -0.05000000       0.001
  -0.35000000  0.35000000 -0.05000000       0.001
  -0.25000000  0.35000000 -0.05000000       0.001
  -0.15000000  0.35000000 -0.05000000       0.001
  -0.05000000  0.35000000 -0.05000000       0.001
   0.05000000  0.45000000 -0.05000000       0.001
   0.15000000  0.45000000 -0.05000000       0.001
   0.25000000  0.45000000 -0.05000000       0.001
   0.35000000  0.45000000 -0.05000000       0.001
   0.45000000  0.45000000 -0.05000000       0.001
  -0.45000000  0.45000000 -0.05000000       0.001
  -0.35000000  0.45000000 -0.05000000       0.001
  -0.25000000  0.45000000 -0.05000000       0.001
  -0.15000000  0.45000000 -0.05000000       0.001
  -0.05000000  0.45000000 -0.05000000       0.001
   0.05000000 -0.45000000 -0.05000000       0.001
   0.15000000 -0.45000000 -0.05000000       0.001
   0.25000000 -0.45000000 -0.05000000       0.001
   0.35000000 -0.45000000 -0.05000000       0.001
   0.45000000 -0.45000000 -0.05000000       0.001
  -0.45000000 -0.45000000 -0.05000000       0.001
  -0.35000000 -0.45000000 -0.05000000       0.001
  -0.25000000 -0.45000000 -0.05000000       0.001
  -0.15000000 -0.45000000 -0.05000000       0.001
  -0.05000000 -0.45000000 -0.05000000       0.001
   0.05000000 -0.35000000 -0.05000000       0.001
   0.15000000 -0.35000000 -0.05000000       0.001
   0.25000000 -0.35000000 -0.05000000       0.001
   0.35000000 -0.35000000 -0.05000000       0.001
   0.45000000 -0.35000000 -0.05000000       0.001
  -0.45000000 -0.35000000 -0.05000000       0.001
  -0.35000000 -0.35000000 -0.05000000       0.001
  -0.25000000 -0.35000000 -0.05000000       0.001
  -0.15000000 -0.35000000 -0.05000000       0.001
  -0.05000000 -0.35000000 -0.05000000       0.001
   0.05000000 -0.25000000 -0.05000000       0.001
   0.15000000 -0.25000000 -0.05000000       0.001
   0.25000000 -0.25000000 -0.05000000       0.001
   0.35000000 -0.25000000 -0.05000000       0.001
   0.45000000 -0.25000000 -0.05000000       0.001
  -0.45000000 -0.25000000 -0.05000000       0.001
  -0.35000000 -0.25000000 -0.05000000       0.001
  -0.25000000 -0.25000000 -0.05000000       0.001
  -0.15000000 -0.25000000 -0.05000000       0.001
  -0.05000000 -0.25000000 -0.05000000       0.001
   0.05000000 -0.15000000 -0.05000000       0.001
   0.15000000 -0.15000000 -0.05000000       0.001
   0.25000000 -0.15000000 -0.05000000       0.001
   0.35000000 -0.15000000 -0.05000000       0.001
   0.45000000 -0.15000000 -0.05000000       0.001
  -0.45000000 -0.15000000 -0.05000000       0.001
  -0.35000000 -0.15000000 -0.05000000       0.001
  -0.25000000 -0.15000000 -0.05000000       0.001
  -0.15000000 -0.15000000 -0.05000000       0.001
  -0.05000000 -0.15000000 -0.05000000       0.001
   0.05000000 -0.05000000 -0.05000000       0.001
   0.15000000 -0.05000000 -0.05000000       0.001
   0.25000000 -0.05000000 -0.05000000       0.001
   0.35000000 -0.05000000 -0.05000000       0.001
   0.45000000 -0.05000000 -0.05000000       0.001
  -0.45000000 -0.05000000 -0.05000000       0.001
  -0.35000000 -0.05000000 -0.05000000       0.001
  -0.25000000 -0.05000000 -0.05000000       0.001
  -0.15000000 -0.05000000 -0.05000000       0.001
  -0.05000000 -0.05000000 -0.05000000       0.001
 
 position of ions in fractional coordinates (direct lattice) 
   0.00000000  0.00000000  0.00000000
   0.50000000  0.50000000  0.50000000
 
 position of ions in cartesian coordinates  (Angst):
   0.00000000  0.00000000  0.00000000
   1.33623394  1.33623394  1.33623394
 


--------------------------------------------------------------------------------------------------------


 k-point     1 :   0.0500 0.0500 0.0500  plane waves:     631
 k-point     2 :   0.1500 0.0500 0.0500  plane waves:     645
 k-point     3 :   0.2500 0.0500 0.0500  plane waves:     650
 k-point     4 :   0.3500 0.0500 0.0500  plane waves:     640
 k-point     5 :   0.4500 0.0500 0.0500  plane waves:     631
 k-point     6 :  -0.4500 0.0500 0.0500  plane waves:     631
 k-point     7 :  -0.3500 0.0500 0.0500  plane waves:     640
 k-point     8 :  -0.2500 0.0500 0.0500  plane waves:     650
 k-point     9 :  -0.1500 0.0500 0.0500  plane waves:     645
 k-point    10 :  -0.0500 0.0500 0.0500  plane waves:     631
 k-point    11 :   0.0500 0.1500 0.0500  plane waves:     645
 k-point    12 :   0.1500 0.1500 0.0500  plane waves:     647
 k-point    13 :   0.2500 0.1500 0.0500  plane waves:     644
 k-point    14 :   0.3500 0.1500 0.0500  plane waves:     641
 k-point    15 :   0.4500 0.1500 0.0500  plane waves:     635
 k-point    16 :  -0.4500 0.1500 0.0500  plane waves:     635
 k-point    17 :  -0.3500 0.1500 0.0500  plane waves:     641
 k-point    18 :  -0.2500 0.1500 0.0500  plane waves:     644
 k-point    19 :  -0.1500 0.1500 0.0500  plane waves:     647
 k-point    20 :  -0.0500 0.1500 0.0500  plane waves:     645
 k-point    21 :   0.0500 0.2500 0.0500  plane waves:     650
 k-point    22 :   0.1500 0.2500 0.0500  plane waves:     644
 k-point    23 :   0.2500 0.2500 0.0500  plane waves:     637
 k-point    24 :   0.3500 0.2500 0.0500  plane waves:     636
 k-point    25 :   0.4500 0.2500 0.0500  plane waves:     632
 k-point    26 :  -0.4500 0.2500 0.0500  plane waves:     632
 k-point    27 :  -0.3500 0.2500 0.0500  plane waves:     636
 k-point    28 :  -0.2500 0.2500 0.0500  plane waves:     637
 k-point    29 :  -0.1500 0.2500 0.0500  plane waves:     644
 k-point    30 :  -0.0500 0.2500 0.0500  plane waves:     650
 k-point    31 :   0.0500 0.3500 0.0500  plane waves:     640
 k-point    32 :   0.1500 0.3500 0.0500  plane waves:     641
 k-point    33 :   0.2500 0.3500 0.0500  plane waves:     636
 k-point    34 :   0.3500 0.3500 0.0500  plane waves:     635
 k-point    35 :   0.4500 0.3500 0.0500  plane waves:     633
 k-point    36 :  -0.4500 0.3500 0.0500  plane waves:     633
 k-point    37 :  -0.3500 0.3500 0.0500  plane waves:     635
 k-point    38 :  -0.2500 0.3500 0.0500  plane waves:     636
 k-point    39 :  -0.1500 0.3500 0.0500  plane waves:     641
 k-point    40 :  -0.0500 0.3500 0.0500  plane waves:     640
 k-point    41 :   0.0500 0.4500 0.0500  plane waves:     631
 k-point    42 :   0.1500 0.4500 0.0500  plane waves:     635
 k-point    43 :   0.2500 0.4500 0.0500  plane waves:     632
 k-point    44 :   0.3500 0.4500 0.0500  plane waves:     633
 k-point    45 :   0.4500 0.4500 0.0500  plane waves:     638
 k-point    46 :  -0.4500 0.4500 0.0500  plane waves:     638
 k-point    47 :  -0.3500 0.4500 0.0500  plane waves:     633
 k-point    48 :  -0.2500 0.4500 0.0500  plane waves:     632
 k-point    49 :  -0.1500 0.4500 0.0500  plane waves:     635
 k-point    50 :  -0.0500 0.4500 0.0500  plane waves:     631
 k-point    51 :   0.0500-0.4500 0.0500  plane waves:     631
 k-point    52 :   0.1500-0.4500 0.0500  plane waves:     635
 k-point    53 :   0.2500-0.4500 0.0500  plane waves:     632
 k-point    54 :   0.3500-0.4500 0.0500  plane waves:     633
 k-point    55 :   0.4500-0.4500 0.0500  plane waves:     638
 k-point    56 :  -0.4500-0.4500 0.0500  plane waves:     638
 k-point    57 :  -0.3500-0.4500 0.0500  plane waves:     633
 k-point    58 :  -0.2500-0.4500 0.0500  plane waves:     632
 k-point    59 :  -0.1500-0.4500 0.0500  plane waves:     635
 k-point    60 :  -0.0500-0.4500 0.0500  plane waves:     631
 k-point    61 :   0.0500-0.3500 0.0500  plane waves:     640
 k-point    62 :   0.1500-0.3500 0.0500  plane waves:     641
 k-point    63 :   0.2500-0.3500 0.0500  plane waves:     636
 k-point    64 :   0.3500-0.3500 0.0500  plane waves:     635
 k-point    65 :   0.4500-0.3500 0.0500  plane waves:     633
 k-point    66 :  -0.4500-0.3500 0.0500  plane waves:     633
 k-point    67 :  -0.3500-0.3500 0.0500  plane waves:     635
 k-point    68 :  -0.2500-0.3500 0.0500  plane waves:     636
 k-point    69 :  -0.1500-0.3500 0.0500  plane waves:     641
 k-point    70 :  -0.0500-0.3500 0.0500  plane waves:     640
 k-point    71 :   0.0500-0.2500 0.0500  plane waves:     650
 k-point    72 :   0.1500-0.2500 0.0500  plane waves:     644
 k-point    73 :   0.2500-0.2500 0.0500  plane waves:     637
 k-point    74 :   0.3500-0.2500 0.0500  plane waves:     636
 k-point    75 :   0.4500-0.2500 0.0500  plane waves:     632
 k-point    76 :  -0.4500-0.2500 0.0500  plane waves:     632
 k-point    77 :  -0.3500-0.2500 0.0500  plane waves:     636
 k-point    78 :  -0.2500-0.2500 0.0500  plane waves:     637
 k-point    79 :  -0.1500-0.2500 0.0500  plane waves:     644
 k-point    80 :  -0.0500-0.2500 0.0500  plane waves:     650
 k-point    81 :   0.0500-0.1500 0.0500  plane waves:     645
 k-point    82 :   0.1500-0.1500 0.0500  plane waves:     647
 k-point    83 :   0.2500-0.1500 0.0500  plane waves:     644
 k-point    84 :   0.3500-0.1500 0.0500  plane waves:     641
 k-point    85 :   0.4500-0.1500 0.0500  plane waves:     635
 k-point    86 :  -0.4500-0.1500 0.0500  plane waves:     635
 k-point    87 :  -0.3500-0.1500 0.0500  plane waves:     641
 k-point    88 :  -0.2500-0.1500 0.0500  plane waves:     644
 k-point    89 :  -0.1500-0.1500 0.0500  plane waves:     647
 k-point    90 :  -0.0500-0.1500 0.0500  plane waves:     645
 k-point    91 :   0.0500-0.0500 0.0500  plane waves:     631
 k-point    92 :   0.1500-0.0500 0.0500  plane waves:     645
 k-point    93 :   0.2500-0.0500 0.0500  plane waves:     650
 k-point    94 :   0.3500-0.0500 0.0500  plane waves:     640
 k-point    95 :   0.4500-0.0500 0.0500  plane waves:     631
 k-point    96 :  -0.4500-0.0500 0.0500  plane waves:     631
 k-point    97 :  -0.3500-0.0500 0.0500  plane waves:     640
 k-point    98 :  -0.2500-0.0500 0.0500  plane waves:     650
 k-point    99 :  -0.1500-0.0500 0.0500  plane waves:     645
 k-point   100 :  -0.0500-0.0500 0.0500  plane waves:     631
 k-point   101 :   0.0500 0.0500 0.1500  plane waves:     645
 k-point   102 :   0.1500 0.0500 0.1500  plane waves:     647
 k-point   103 :   0.2500 0.0500 0.1500  plane waves:     644
 k-point   104 :   0.3500 0.0500 0.1500  plane waves:     641
 k-point   105 :   0.4500 0.0500 0.1500  plane waves:     635
 k-point   106 :  -0.4500 0.0500 0.1500  plane waves:     635
 k-point   107 :  -0.3500 0.0500 0.1500  plane waves:     641
 k-point   108 :  -0.2500 0.0500 0.1500  plane waves:     644
 k-point   109 :  -0.1500 0.0500 0.1500  plane waves:     647
 k-point   110 :  -0.0500 0.0500 0.1500  plane waves:     645
 k-point   111 :   0.0500 0.1500 0.1500  plane waves:     647
 k-point   112 :   0.1500 0.1500 0.1500  plane waves:     651
 k-point   113 :   0.2500 0.1500 0.1500  plane waves:     638
 k-point   114 :   0.3500 0.1500 0.1500  plane waves:     640
 k-point   115 :   0.4500 0.1500 0.1500  plane waves:     635
 k-point   116 :  -0.4500 0.1500 0.1500  plane waves:     635
 k-point   117 :  -0.3500 0.1500 0.1500  plane waves:     640
 k-point   118 :  -0.2500 0.1500 0.1500  plane waves:     638
 k-point   119 :  -0.1500 0.1500 0.1500  plane waves:     651
 k-point   120 :  -0.0500 0.1500 0.1500  plane waves:     647
 k-point   121 :   0.0500 0.2500 0.1500  plane waves:     644
 k-point   122 :   0.1500 0.2500 0.1500  plane waves:     638
 k-point   123 :   0.2500 0.2500 0.1500  plane waves:     637
 k-point   124 :   0.3500 0.2500 0.1500  plane waves:     632
 k-point   125 :   0.4500 0.2500 0.1500  plane waves:     636
 k-point   126 :  -0.4500 0.2500 0.1500  plane waves:     636
 k-point   127 :  -0.3500 0.2500 0.1500  plane waves:     632
 k-point   128 :  -0.2500 0.2500 0.1500  plane waves:     637
 k-point   129 :  -0.1500 0.2500 0.1500  plane waves:     638
 k-point   130 :  -0.0500 0.2500 0.1500  plane waves:     644
 k-point   131 :   0.0500 0.3500 0.1500  plane waves:     641
 k-point   132 :   0.1500 0.3500 0.1500  plane waves:     640
 k-point   133 :   0.2500 0.3500 0.1500  plane waves:     632
 k-point   134 :   0.3500 0.3500 0.1500  plane waves:     631
 k-point   135 :   0.4500 0.3500 0.1500  plane waves:     633
 k-point   136 :  -0.4500 0.3500 0.1500  plane waves:     633
 k-point   137 :  -0.3500 0.3500 0.1500  plane waves:     631
 k-point   138 :  -0.2500 0.3500 0.1500  plane waves:     632
 k-point   139 :  -0.1500 0.3500 0.1500  plane waves:     640
 k-point   140 :  -0.0500 0.3500 0.1500  plane waves:     641
 k-point   141 :   0.0500 0.4500 0.1500  plane waves:     635
 k-point   142 :   0.1500 0.4500 0.1500  plane waves:     635
 k-point   143 :   0.2500 0.4500 0.1500  plane waves:     636
 k-point   144 :   0.3500 0.4500 0.1500  plane waves:     633
 k-point   145 :   0.4500 0.4500 0.1500  plane waves:     634
 k-point   146 :  -0.4500 0.4500 0.1500  plane waves:     634
 k-point   147 :  -0.3500 0.4500 0.1500  plane waves:     633
 k-point   148 :  -0.2500 0.4500 0.1500  plane waves:     636
 k-point   149 :  -0.1500 0.4500 0.1500  plane waves:     635
 k-point   150 :  -0.0500 0.4500 0.1500  plane waves:     635
 k-point   151 :   0.0500-0.4500 0.1500  plane waves:     635
 k-point   152 :   0.1500-0.4500 0.1500  plane waves:     635
 k-point   153 :   0.2500-0.4500 0.1500  plane waves:     636
 k-point   154 :   0.3500-0.4500 0.1500  plane waves:     633
 k-point   155 :   0.4500-0.4500 0.1500  plane waves:     634
 k-point   156 :  -0.4500-0.4500 0.1500  plane waves:     634
 k-point   157 :  -0.3500-0.4500 0.1500  plane waves:     633
 k-point   158 :  -0.2500-0.4500 0.1500  plane waves:     636
 k-point   159 :  -0.1500-0.4500 0.1500  plane waves:     635
 k-point   160 :  -0.0500-0.4500 0.1500  plane waves:     635
 k-point   161 :   0.0500-0.3500 0.1500  plane waves:     641
 k-point   162 :   0.1500-0.3500 0.1500  plane waves:     640
 k-point   163 :   0.2500-0.3500 0.1500  plane waves:     632
 k-point   164 :   0.3500-0.3500 0.1500  plane waves:     631
 k-point   165 :   0.4500-0.3500 0.1500  plane waves:     633
 k-point   166 :  -0.4500-0.3500 0.1500  plane waves:     633
 k-point   167 :  -0.3500-0.3500 0.1500  plane waves:     631
 k-point   168 :  -0.2500-0.3500 0.1500  plane waves:     632
 k-point   169 :  -0.1500-0.3500 0.1500  plane waves:     640
 k-point   170 :  -0.0500-0.3500 0.1500  plane waves:     641
 k-point   171 :   0.0500-0.2500 0.1500  plane waves:     644
 k-point   172 :   0.1500-0.2500 0.1500  plane waves:     638
 k-point   173 :   0.2500-0.2500 0.1500  plane waves:     637
 k-point   174 :   0.3500-0.2500 0.1500  plane waves:     632
 k-point   175 :   0.4500-0.2500 0.1500  plane waves:     636
 k-point   176 :  -0.4500-0.2500 0.1500  plane waves:     636
 k-point   177 :  -0.3500-0.2500 0.1500  plane waves:     632
 k-point   178 :  -0.2500-0.2500 0.1500  plane waves:     637
 k-point   179 :  -0.1500-0.2500 0.1500  plane waves:     638
 k-point   180 :  -0.0500-0.2500 0.1500  plane waves:     644
 k-point   181 :   0.0500-0.1500 0.1500  plane waves:     647
 k-point   182 :   0.1500-0.1500 0.1500  plane waves:     651
 k-point   183 :   0.2500-0.1500 0.1500  plane waves:     638
 k-point   184 :   0.3500-0.1500 0.1500  plane waves:     640
 k-point   185 :   0.4500-0.1500 0.1500  plane waves:     635
 k-point   186 :  -0.4500-0.1500 0.1500  plane waves:     635
 k-point   187 :  -0.3500-0.1500 0.1500  plane waves:     640
 k-point   188 :  -0.2500-0.1500 0.1500  plane waves:     638
 k-point   189 :  -0.1500-0.1500 0.1500  plane waves:     651
 k-point   190 :  -0.0500-0.1500 0.1500  plane waves:     647
 k-point   191 :   0.0500-0.0500 0.1500  plane waves:     645
 k-point   192 :   0.1500-0.0500 0.1500  plane waves:     647
 k-point   193 :   0.2500-0.0500 0.1500  plane waves:     644
 k-point   194 :   0.3500-0.0500 0.1500  plane waves:     641
 k-point   195 :   0.4500-0.0500 0.1500  plane waves:     635
 k-point   196 :  -0.4500-0.0500 0.1500  plane waves:     635
 k-point   197 :  -0.3500-0.0500 0.1500  plane waves:     641
 k-point   198 :  -0.2500-0.0500 0.1500  plane waves:     644
 k-point   199 :  -0.1500-0.0500 0.1500  plane waves:     647
 k-point   200 :  -0.0500-0.0500 0.1500  plane waves:     645
 k-point   201 :   0.0500 0.0500 0.2500  plane waves:     650
 k-point   202 :   0.1500 0.0500 0.2500  plane waves:     644
 k-point   203 :   0.2500 0.0500 0.2500  plane waves:     637
 k-point   204 :   0.3500 0.0500 0.2500  plane waves:     636
 k-point   205 :   0.4500 0.0500 0.2500  plane waves:     632
 k-point   206 :  -0.4500 0.0500 0.2500  plane waves:     632
 k-point   207 :  -0.3500 0.0500 0.2500  plane waves:     636
 k-point   208 :  -0.2500 0.0500 0.2500  plane waves:     637
 k-point   209 :  -0.1500 0.0500 0.2500  plane waves:     644
 k-point   210 :  -0.0500 0.0500 0.2500  plane waves:     650
 k-point   211 :   0.0500 0.1500 0.2500  plane waves:     644
 k-point   212 :   0.1500 0.1500 0.2500  plane waves:     638
 k-point   213 :   0.2500 0.1500 0.2500  plane waves:     637
 k-point   214 :   0.3500 0.1500 0.2500  plane waves:     632
 k-point   215 :   0.4500 0.1500 0.2500  plane waves:     636
 k-point   216 :  -0.4500 0.1500 0.2500  plane waves:     636
 k-point   217 :  -0.3500 0.1500 0.2500  plane waves:     632
 k-point   218 :  -0.2500 0.1500 0.2500  plane waves:     637
 k-point   219 :  -0.1500 0.1500 0.2500  plane waves:     638
 k-point   220 :  -0.0500 0.1500 0.2500  plane waves:     644
 k-point   221 :   0.0500 0.2500 0.2500  plane waves:     637
 k-point   222 :   0.1500 0.2500 0.2500  plane waves:     637
 k-point   223 :   0.2500 0.2500 0.2500  plane waves:     630
 k-point   224 :   0.3500 0.2500 0.2500  plane waves:     635
 k-point   225 :   0.4500 0.2500 0.2500  plane waves:     640
 k-point   226 :  -0.4500 0.2500 0.2500  plane waves:     640
 k-point   227 :  -0.3500 0.2500 0.2500  plane waves:     635
 k-point   228 :  -0.2500 0.2500 0.2500  plane waves:     630
 k-point   229 :  -0.1500 0.2500 0.2500  plane waves:     637
 k-point   230 :  -0.0500 0.2500 0.2500  plane waves:     637
 k-point   231 :   0.0500 0.3500 0.2500  plane waves:     636
 k-point   232 :   0.1500 0.3500 0.2500  plane waves:     632
 k-point   233 :   0.2500 0.3500 0.2500  plane waves:     635
 k-point   234 :   0.3500 0.3500 0.2500  plane waves:     632
 k-point   235 :   0.4500 0.3500 0.2500  plane waves:     639
 k-point   236 :  -0.4500 0.3500 0.2500  plane waves:     639
 k-point   237 :  -0.3500 0.3500 0.2500  plane waves:     632
 k-point   238 :  -0.2500 0.3500 0.2500  plane waves:     635
 k-point   239 :  -0.1500 0.3500 0.2500  plane waves:     632
 k-point   240 :  -0.0500 0.3500 0.2500  plane waves:     636
 k-point   241 :   0.0500 0.4500 0.2500  plane waves:     632
 k-point   242 :   0.1500 0.4500 0.2500  plane waves:     636
 k-point   243 :   0.2500 0.4500 0.2500  plane waves:     640
 k-point   244 :   0.3500 0.4500 0.2500  plane waves:     639
 k-point   245 :   0.4500 0.4500 0.2500  plane waves:     638
 k-point   246 :  -0.4500 0.4500 0.2500  plane waves:     638
 k-point   247 :  -0.3500 0.4500 0.2500  plane waves:     639
 k-point   248 :  -0.2500 0.4500 0.2500  plane waves:     640
 k-point   249 :  -0.1500 0.4500 0.2500  plane waves:     636
 k-point   250 :  -0.0500 0.4500 0.2500  plane waves:     632
 k-point   251 :   0.0500-0.4500 0.2500  plane waves:     632
 k-point   252 :   0.1500-0.4500 0.2500  plane waves:     636
 k-point   253 :   0.2500-0.4500 0.2500  plane waves:     640
 k-point   254 :   0.3500-0.4500 0.2500  plane waves:     639
 k-point   255 :   0.4500-0.4500 0.2500  plane waves:     638
 k-point   256 :  -0.4500-0.4500 0.2500  plane waves:     638
 k-point   257 :  -0.3500-0.4500 0.2500  plane waves:     639
 k-point   258 :  -0.2500-0.4500 0.2500  plane waves:     640
 k-point   259 :  -0.1500-0.4500 0.2500  plane waves:     636
 k-point   260 :  -0.0500-0.4500 0.2500  plane waves:     632
 k-point   261 :   0.0500-0.3500 0.2500  plane waves:     636
 k-point   262 :   0.1500-0.3500 0.2500  plane waves:     632
 k-point   263 :   0.2500-0.3500 0.2500  plane waves:     635
 k-point   264 :   0.3500-0.3500 0.2500  plane waves:     632
 k-point   265 :   0.4500-0.3500 0.2500  plane waves:     639
 k-point   266 :  -0.4500-0.3500 0.2500  plane waves:     639
 k-point   267 :  -0.3500-0.3500 0.2500  plane waves:     632
 k-point   268 :  -0.2500-0.3500 0.2500  plane waves:     635
 k-point   269 :  -0.1500-0.3500 0.2500  plane waves:     632
 k-point   270 :  -0.0500-0.3500 0.2500  plane waves:     636
 k-point   271 :   0.0500-0.2500 0.2500  plane waves:     637
 k-point   272 :   0.1500-0.2500 0.2500  plane waves:     637
 k-point   273 :   0.2500-0.2500 0.2500  plane waves:     630
 k-point   274 :   0.3500-0.2500 0.2500  plane waves:     635
 k-point   275 :   0.4500-0.2500 0.2500  plane waves:     640
 k-point   276 :  -0.4500-0.2500 0.2500  plane waves:     640
 k-point   277 :  -0.3500-0.2500 0.2500  plane waves:     635
 k-point   278 :  -0.2500-0.2500 0.2500  plane waves:     630
 k-point   279 :  -0.1500-0.2500 0.2500  plane waves:     637
 k-point   280 :  -0.0500-0.2500 0.2500  plane waves:     637
 k-point   281 :   0.0500-0.1500 0.2500  plane waves:     644
 k-point   282 :   0.1500-0.1500 0.2500  plane waves:     638
 k-point   283 :   0.2500-0.1500 0.2500  plane waves:     637
 k-point   284 :   0.3500-0.1500 0.2500  plane waves:     632
 k-point   285 :   0.4500-0.1500 0.2500  plane waves:     636
 k-point   286 :  -0.4500-0.1500 0.2500  plane waves:     636
 k-point   287 :  -0.3500-0.1500 0.2500  plane waves:     632
 k-point   288 :  -0.2500-0.1500 0.2500  plane waves:     637
 k-point   289 :  -0.1500-0.1500 0.2500  plane waves:     638
 k-point   290 :  -0.0500-0.1500 0.2500  plane waves:     644
 k-point   291 :   0.0500-0.0500 0.2500  plane waves:     650
 k-point   292 :   0.1500-0.0500 0.2500  plane waves:     644
 k-point   293 :   0.2500-0.0500 0.2500  plane waves:     637
 k-point   294 :   0.3500-0.0500 0.2500  plane waves:     636
 k-point   295 :   0.4500-0.0500 0.2500  plane waves:     632
 k-point   296 :  -0.4500-0.0500 0.2500  plane waves:     632
 k-point   297 :  -0.3500-0.0500 0.2500  plane waves:     636
 k-point   298 :  -0.2500-0.0500 0.2500  plane waves:     637
 k-point   299 :  -0.1500-0.0500 0.2500  plane waves:     644
 k-point   300 :  -0.0500-0.0500 0.2500  plane waves:     650
 k-point   301 :   0.0500 0.0500 0.3500  plane waves:     640
 k-point   302 :   0.1500 0.0500 0.3500  plane waves:     641
 k-point   303 :   0.2500 0.0500 0.3500  plane waves:     636
 k-point   304 :   0.3500 0.0500 0.3500  plane waves:     635
 k-point   305 :   0.4500 0.0500 0.3500  plane waves:     633
 k-point   306 :  -0.4500 0.0500 0.3500  plane waves:     633
 k-point   307 :  -0.3500 0.0500 0.3500  plane waves:     635
 k-point   308 :  -0.2500 0.0500 0.3500  plane waves:     636
 k-point   309 :  -0.1500 0.0500 0.3500  plane waves:     641
 k-point   310 :  -0.0500 0.0500 0.3500  plane waves:     640
 k-point   311 :   0.0500 0.1500 0.3500  plane waves:     641
 k-point   312 :   0.1500 0.1500 0.3500  plane waves:     640
 k-point   313 :   0.2500 0.1500 0.3500  plane waves:     632
 k-point   314 :   0.3500 0.1500 0.3500  plane waves:     631
 k-point   315 :   0.4500 0.1500 0.3500  plane waves:     633
 k-point   316 :  -0.4500 0.1500 0.3500  plane waves:     633
 k-point   317 :  -0.3500 0.1500 0.3500  plane waves:     631
 k-point   318 :  -0.2500 0.1500 0.3500  plane waves:     632
 k-point   319 :  -0.1500 0.1500 0.3500  plane waves:     640
 k-point   320 :  -0.0500 0.1500 0.3500  plane waves:     641
 k-point   321 :   0.0500 0.2500 0.3500  plane waves:     636
 k-point   322 :   0.1500 0.2500 0.3500  plane waves:     632
 k-point   323 :   0.2500 0.2500 0.3500  plane waves:     635
 k-point   324 :   0.3500 0.2500 0.3500  plane waves:     632
 k-point   325 :   0.4500 0.2500 0.3500  plane waves:     639
 k-point   326 :  -0.4500 0.2500 0.3500  plane waves:     639
 k-point   327 :  -0.3500 0.2500 0.3500  plane waves:     632
 k-point   328 :  -0.2500 0.2500 0.3500  plane waves:     635
 k-point   329 :  -0.1500 0.2500 0.3500  plane waves:     632
 k-point   330 :  -0.0500 0.2500 0.3500  plane waves:     636
 k-point   331 :   0.0500 0.3500 0.3500  plane waves:     635
 k-point   332 :   0.1500 0.3500 0.3500  plane waves:     631
 k-point   333 :   0.2500 0.3500 0.3500  plane waves:     632
 k-point   334 :   0.3500 0.3500 0.3500  plane waves:     630
 k-point   335 :   0.4500 0.3500 0.3500  plane waves:     637
 k-point   336 :  -0.4500 0.3500 0.3500  plane waves:     637
 k-point   337 :  -0.3500 0.3500 0.3500  plane waves:     630
 k-point   338 :  -0.2500 0.3500 0.3500  plane waves:     632
 k-point   339 :  -0.1500 0.3500 0.3500  plane waves:     631
 k-point   340 :  -0.0500 0.3500 0.3500  plane waves:     635
 k-point   341 :   0.0500 0.4500 0.3500  plane waves:     633
 k-point   342 :   0.1500 0.4500 0.3500  plane waves:     633
 k-point   343 :   0.2500 0.4500 0.3500  plane waves:     639
 k-point   344 :   0.3500 0.4500 0.3500  plane waves:     637
 k-point   345 :   0.4500 0.4500 0.3500  plane waves:     642
 k-point   346 :  -0.4500 0.4500 0.3500  plane waves:     642
 k-point   347 :  -0.3500 0.4500 0.3500  plane waves:     637
 k-point   348 :  -0.2500 0.4500 0.3500  plane waves:     639
 k-point   349 :  -0.1500 0.4500 0.3500  plane waves:     633
 k-point   350 :  -0.0500 0.4500 0.3500  plane waves:     633
 k-point   351 :   0.0500-0.4500 0.3500  plane waves:     633
 k-point   352 :   0.1500-0.4500 0.3500  plane waves:     633
 k-point   353 :   0.2500-0.4500 0.3500  plane waves:     639
 k-point   354 :   0.3500-0.4500 0.3500  plane waves:     637
 k-point   355 :   0.4500-0.4500 0.3500  plane waves:     642
 k-point   356 :  -0.4500-0.4500 0.3500  plane waves:     642
 k-point   357 :  -0.3500-0.4500 0.3500  plane waves:     637
 k-point   358 :  -0.2500-0.4500 0.3500  plane waves:     639
 k-point   359 :  -0.1500-0.4500 0.3500  plane waves:     633
 k-point   360 :  -0.0500-0.4500 0.3500  plane waves:     633
 k-point   361 :   0.0500-0.3500 0.3500  plane waves:     635
 k-point   362 :   0.1500-0.3500 0.3500  plane waves:     631
 k-point   363 :   0.2500-0.3500 0.3500  plane waves:     632
 k-point   364 :   0.3500-0.3500 0.3500  plane waves:     630
 k-point   365 :   0.4500-0.3500 0.3500  plane waves:     637
 k-point   366 :  -0.4500-0.3500 0.3500  plane waves:     637
 k-point   367 :  -0.3500-0.3500 0.3500  plane waves:     630
 k-point   368 :  -0.2500-0.3500 0.3500  plane waves:     632
 k-point   369 :  -0.1500-0.3500 0.3500  plane waves:     631
 k-point   370 :  -0.0500-0.3500 0.3500  plane waves:     635
 k-point   371 :   0.0500-0.2500 0.3500  plane waves:     636
 k-point   372 :   0.1500-0.2500 0.3500  plane waves:     632
 k-point   373 :   0.2500-0.2500 0.3500  plane waves:     635
 k-point   374 :   0.3500-0.2500 0.3500  plane waves:     632
 k-point   375 :   0.4500-0.2500 0.3500  plane waves:     639
 k-point   376 :  -0.4500-0.2500 0.3500  plane waves:     639
 k-point   377 :  -0.3500-0.2500 0.3500  plane waves:     632
 k-point   378 :  -0.2500-0.2500 0.3500  plane waves:     635
 k-point   379 :  -0.1500-0.2500 0.3500  plane waves:     632
 k-point   380 :  -0.0500-0.2500 0.3500  plane waves:     636
 k-point   381 :   0.0500-0.1500 0.3500  plane waves:     641
 k-point   382 :   0.1500-0.1500 0.3500  plane waves:     640
 k-point   383 :   0.2500-0.1500 0.3500  plane waves:     632
 k-point   384 :   0.3500-0.1500 0.3500  plane waves:     631
 k-point   385 :   0.4500-0.1500 0.3500  plane waves:     633
 k-point   386 :  -0.4500-0.1500 0.3500  plane waves:     633
 k-point   387 :  -0.3500-0.1500 0.3500  plane waves:     631
 k-point   388 :  -0.2500-0.1500 0.3500  plane waves:     632
 k-point   389 :  -0.1500-0.1500 0.3500  plane waves:     640
 k-point   390 :  -0.0500-0.1500 0.3500  plane waves:     641
 k-point   391 :   0.0500-0.0500 0.3500  plane waves:     640
 k-point   392 :   0.1500-0.0500 0.3500  plane waves:     641
 k-point   393 :   0.2500-0.0500 0.3500  plane waves:     636
 k-point   394 :   0.3500-0.0500 0.3500  plane waves:     635
 k-point   395 :   0.4500-0.0500 0.3500  plane waves:     633
 k-point   396 :  -0.4500-0.0500 0.3500  plane waves:     633
 k-point   397 :  -0.3500-0.0500 0.3500  plane waves:     635
 k-point   398 :  -0.2500-0.0500 0.3500  plane waves:     636
 k-point   399 :  -0.1500-0.0500 0.3500  plane waves:     641
 k-point   400 :  -0.0500-0.0500 0.3500  plane waves:     640
 k-point   401 :   0.0500 0.0500 0.4500  plane waves:     631
 k-point   402 :   0.1500 0.0500 0.4500  plane waves:     635
 k-point   403 :   0.2500 0.0500 0.4500  plane waves:     632
 k-point   404 :   0.3500 0.0500 0.4500  plane waves:     633
 k-point   405 :   0.4500 0.0500 0.4500  plane waves:     638
 k-point   406 :  -0.4500 0.0500 0.4500  plane waves:     638
 k-point   407 :  -0.3500 0.0500 0.4500  plane waves:     633
 k-point   408 :  -0.2500 0.0500 0.4500  plane waves:     632
 k-point   409 :  -0.1500 0.0500 0.4500  plane waves:     635
 k-point   410 :  -0.0500 0.0500 0.4500  plane waves:     631
 k-point   411 :   0.0500 0.1500 0.4500  plane waves:     635
 k-point   412 :   0.1500 0.1500 0.4500  plane waves:     635
 k-point   413 :   0.2500 0.1500 0.4500  plane waves:     636
 k-point   414 :   0.3500 0.1500 0.4500  plane waves:     633
 k-point   415 :   0.4500 0.1500 0.4500  plane waves:     634
 k-point   416 :  -0.4500 0.1500 0.4500  plane waves:     634
 k-point   417 :  -0.3500 0.1500 0.4500  plane waves:     633
 k-point   418 :  -0.2500 0.1500 0.4500  plane waves:     636
 k-point   419 :  -0.1500 0.1500 0.4500  plane waves:     635
 k-point   420 :  -0.0500 0.1500 0.4500  plane waves:     635
 k-point   421 :   0.0500 0.2500 0.4500  plane waves:     632
 k-point   422 :   0.1500 0.2500 0.4500  plane waves:     636
 k-point   423 :   0.2500 0.2500 0.4500  plane waves:     640
 k-point   424 :   0.3500 0.2500 0.4500  plane waves:     639
 k-point   425 :   0.4500 0.2500 0.4500  plane waves:     638
 k-point   426 :  -0.4500 0.2500 0.4500  plane waves:     638
 k-point   427 :  -0.3500 0.2500 0.4500  plane waves:     639
 k-point   428 :  -0.2500 0.2500 0.4500  plane waves:     640
 k-point   429 :  -0.1500 0.2500 0.4500  plane waves:     636
 k-point   430 :  -0.0500 0.2500 0.4500  plane waves:     632
 k-point   431 :   0.0500 0.3500 0.4500  plane waves:     633
 k-point   432 :   0.1500 0.3500 0.4500  plane waves:     633
 k-point   433 :   0.2500 0.3500 0.4500  plane waves:     639
 k-point   434 :   0.3500 0.3500 0.4500  plane waves:     637
 k-point   435 :   0.4500 0.3500 0.4500  plane waves:     642
 k-point   436 :  -0.4500 0.3500 0.4500  plane waves:     642
 k-point   437 :  -0.3500 0.3500 0.4500  plane waves:     637
 k-point   438 :  -0.2500 0.3500 0.4500  plane waves:     639
 k-point   439 :  -0.1500 0.3500 0.4500  plane waves:     633
 k-point   440 :  -0.0500 0.3500 0.4500  plane waves:     633
 k-point   441 :   0.0500 0.4500 0.4500  plane waves:     638
 k-point   442 :   0.1500 0.4500 0.4500  plane waves:     634
 k-point   443 :   0.2500 0.4500 0.4500  plane waves:     638
 k-point   444 :   0.3500 0.4500 0.4500  plane waves:     642
 k-point   445 :   0.4500 0.4500 0.4500  plane waves:     642
 k-point   446 :  -0.4500 0.4500 0.4500  plane waves:     642
 k-point   447 :  -0.3500 0.4500 0.4500  plane waves:     642
 k-point   448 :  -0.2500 0.4500 0.4500  plane waves:     638
 k-point   449 :  -0.1500 0.4500 0.4500  plane waves:     634
 k-point   450 :  -0.0500 0.4500 0.4500  plane waves:     638
 k-point   451 :   0.0500-0.4500 0.4500  plane waves:     638
 k-point   452 :   0.1500-0.4500 0.4500  plane waves:     634
 k-point   453 :   0.2500-0.4500 0.4500  plane waves:     638
 k-point   454 :   0.3500-0.4500 0.4500  plane waves:     642
 k-point   455 :   0.4500-0.4500 0.4500  plane waves:     642
 k-point   456 :  -0.4500-0.4500 0.4500  plane waves:     642
 k-point   457 :  -0.3500-0.4500 0.4500  plane waves:     642
 k-point   458 :  -0.2500-0.4500 0.4500  plane waves:     638
 k-point   459 :  -0.1500-0.4500 0.4500  plane waves:     634
 k-point   460 :  -0.0500-0.4500 0.4500  plane waves:     638
 k-point   461 :   0.0500-0.3500 0.4500  plane waves:     633
 k-point   462 :   0.1500-0.3500 0.4500  plane waves:     633
 k-point   463 :   0.2500-0.3500 0.4500  plane waves:     639
 k-point   464 :   0.3500-0.3500 0.4500  plane waves:     637
 k-point   465 :   0.4500-0.3500 0.4500  plane waves:     642
 k-point   466 :  -0.4500-0.3500 0.4500  plane waves:     642
 k-point   467 :  -0.3500-0.3500 0.4500  plane waves:     637
 k-point   468 :  -0.2500-0.3500 0.4500  plane waves:     639
 k-point   469 :  -0.1500-0.3500 0.4500  plane waves:     633
 k-point   470 :  -0.0500-0.3500 0.4500  plane waves:     633
 k-point   471 :   0.0500-0.2500 0.4500  plane waves:     632
 k-point   472 :   0.1500-0.2500 0.4500  plane waves:     636
 k-point   473 :   0.2500-0.2500 0.4500  plane waves:     640
 k-point   474 :   0.3500-0.2500 0.4500  plane waves:     639
 k-point   475 :   0.4500-0.2500 0.4500  plane waves:     638
 k-point   476 :  -0.4500-0.2500 0.4500  plane waves:     638
 k-point   477 :  -0.3500-0.2500 0.4500  plane waves:     639
 k-point   478 :  -0.2500-0.2500 0.4500  plane waves:     640
 k-point   479 :  -0.1500-0.2500 0.4500  plane waves:     636
 k-point   480 :  -0.0500-0.2500 0.4500  plane waves:     632
 k-point   481 :   0.0500-0.1500 0.4500  plane waves:     635
 k-point   482 :   0.1500-0.1500 0.4500  plane waves:     635
 k-point   483 :   0.2500-0.1500 0.4500  plane waves:     636
 k-point   484 :   0.3500-0.1500 0.4500  plane waves:     633
 k-point   485 :   0.4500-0.1500 0.4500  plane waves:     634
 k-point   486 :  -0.4500-0.1500 0.4500  plane waves:     634
 k-point   487 :  -0.3500-0.1500 0.4500  plane waves:     633
 k-point   488 :  -0.2500-0.1500 0.4500  plane waves:     636
 k-point   489 :  -0.1500-0.1500 0.4500  plane waves:     635
 k-point   490 :  -0.0500-0.1500 0.4500  plane waves:     635
 k-point   491 :   0.0500-0.0500 0.4500  plane waves:     631
 k-point   492 :   0.1500-0.0500 0.4500  plane waves:     635
 k-point   493 :   0.2500-0.0500 0.4500  plane waves:     632
 k-point   494 :   0.3500-0.0500 0.4500  plane waves:     633
 k-point   495 :   0.4500-0.0500 0.4500  plane waves:     638
 k-point   496 :  -0.4500-0.0500 0.4500  plane waves:     638
 k-point   497 :  -0.3500-0.0500 0.4500  plane waves:     633
 k-point   498 :  -0.2500-0.0500 0.4500  plane waves:     632
 k-point   499 :  -0.1500-0.0500 0.4500  plane waves:     635
 k-point   500 :  -0.0500-0.0500 0.4500  plane waves:     631
 k-point   501 :   0.0500 0.0500-0.4500  plane waves:     631
 k-point   502 :   0.1500 0.0500-0.4500  plane waves:     635
 k-point   503 :   0.2500 0.0500-0.4500  plane waves:     632
 k-point   504 :   0.3500 0.0500-0.4500  plane waves:     633
 k-point   505 :   0.4500 0.0500-0.4500  plane waves:     638
 k-point   506 :  -0.4500 0.0500-0.4500  plane waves:     638
 k-point   507 :  -0.3500 0.0500-0.4500  plane waves:     633
 k-point   508 :  -0.2500 0.0500-0.4500  plane waves:     632
 k-point   509 :  -0.1500 0.0500-0.4500  plane waves:     635
 k-point   510 :  -0.0500 0.0500-0.4500  plane waves:     631
 k-point   511 :   0.0500 0.1500-0.4500  plane waves:     635
 k-point   512 :   0.1500 0.1500-0.4500  plane waves:     635
 k-point   513 :   0.2500 0.1500-0.4500  plane waves:     636
 k-point   514 :   0.3500 0.1500-0.4500  plane waves:     633
 k-point   515 :   0.4500 0.1500-0.4500  plane waves:     634
 k-point   516 :  -0.4500 0.1500-0.4500  plane waves:     634
 k-point   517 :  -0.3500 0.1500-0.4500  plane waves:     633
 k-point   518 :  -0.2500 0.1500-0.4500  plane waves:     636
 k-point   519 :  -0.1500 0.1500-0.4500  plane waves:     635
 k-point   520 :  -0.0500 0.1500-0.4500  plane waves:     635
 k-point   521 :   0.0500 0.2500-0.4500  plane waves:     632
 k-point   522 :   0.1500 0.2500-0.4500  plane waves:     636
 k-point   523 :   0.2500 0.2500-0.4500  plane waves:     640
 k-point   524 :   0.3500 0.2500-0.4500  plane waves:     639
 k-point   525 :   0.4500 0.2500-0.4500  plane waves:     638
 k-point   526 :  -0.4500 0.2500-0.4500  plane waves:     638
 k-point   527 :  -0.3500 0.2500-0.4500  plane waves:     639
 k-point   528 :  -0.2500 0.2500-0.4500  plane waves:     640
 k-point   529 :  -0.1500 0.2500-0.4500  plane waves:     636
 k-point   530 :  -0.0500 0.2500-0.4500  plane waves:     632
 k-point   531 :   0.0500 0.3500-0.4500  plane waves:     633
 k-point   532 :   0.1500 0.3500-0.4500  plane waves:     633
 k-point   533 :   0.2500 0.3500-0.4500  plane waves:     639
 k-point   534 :   0.3500 0.3500-0.4500  plane waves:     637
 k-point   535 :   0.4500 0.3500-0.4500  plane waves:     642
 k-point   536 :  -0.4500 0.3500-0.4500  plane waves:     642
 k-point   537 :  -0.3500 0.3500-0.4500  plane waves:     637
 k-point   538 :  -0.2500 0.3500-0.4500  plane waves:     639
 k-point   539 :  -0.1500 0.3500-0.4500  plane waves:     633
 k-point   540 :  -0.0500 0.3500-0.4500  plane waves:     633
 k-point   541 :   0.0500 0.4500-0.4500  plane waves:     638
 k-point   542 :   0.1500 0.4500-0.4500  plane waves:     634
 k-point   543 :   0.2500 0.4500-0.4500  plane waves:     638
 k-point   544 :   0.3500 0.4500-0.4500  plane waves:     642
 k-point   545 :   0.4500 0.4500-0.4500  plane waves:     642
 k-point   546 :  -0.4500 0.4500-0.4500  plane waves:     642
 k-point   547 :  -0.3500 0.4500-0.4500  plane waves:     642
 k-point   548 :  -0.2500 0.4500-0.4500  plane waves:     638
 k-point   549 :  -0.1500 0.4500-0.4500  plane waves:     634
 k-point   550 :  -0.0500 0.4500-0.4500  plane waves:     638
 k-point   551 :   0.0500-0.4500-0.4500  plane waves:     638
 k-point   552 :   0.1500-0.4500-0.4500  plane waves:     634
 k-point   553 :   0.2500-0.4500-0.4500  plane waves:     638
 k-point   554 :   0.3500-0.4500-0.4500  plane waves:     642
 k-point   555 :   0.4500-0.4500-0.4500  plane waves:     642
 k-point   556 :  -0.4500-0.4500-0.4500  plane waves:     642
 k-point   557 :  -0.3500-0.4500-0.4500  plane waves:     642
 k-point   558 :  -0.2500-0.4500-0.4500  plane waves:     638
 k-point   559 :  -0.1500-0.4500-0.4500  plane waves:     634
 k-point   560 :  -0.0500-0.4500-0.4500  plane waves:     638
 k-point   561 :   0.0500-0.3500-0.4500  plane waves:     633
 k-point   562 :   0.1500-0.3500-0.4500  plane waves:     633
 k-point   563 :   0.2500-0.3500-0.4500  plane waves:     639
 k-point   564 :   0.3500-0.3500-0.4500  plane waves:     637
 k-point   565 :   0.4500-0.3500-0.4500  plane waves:     642
 k-point   566 :  -0.4500-0.3500-0.4500  plane waves:     642
 k-point   567 :  -0.3500-0.3500-0.4500  plane waves:     637
 k-point   568 :  -0.2500-0.3500-0.4500  plane waves:     639
 k-point   569 :  -0.1500-0.3500-0.4500  plane waves:     633
 k-point   570 :  -0.0500-0.3500-0.4500  plane waves:     633
 k-point   571 :   0.0500-0.2500-0.4500  plane waves:     632
 k-point   572 :   0.1500-0.2500-0.4500  plane waves:     636
 k-point   573 :   0.2500-0.2500-0.4500  plane waves:     640
 k-point   574 :   0.3500-0.2500-0.4500  plane waves:     639
 k-point   575 :   0.4500-0.2500-0.4500  plane waves:     638
 k-point   576 :  -0.4500-0.2500-0.4500  plane waves:     638
 k-point   577 :  -0.3500-0.2500-0.4500  plane waves:     639
 k-point   578 :  -0.2500-0.2500-0.4500  plane waves:     640
 k-point   579 :  -0.1500-0.2500-0.4500  plane waves:     636
 k-point   580 :  -0.0500-0.2500-0.4500  plane waves:     632
 k-point   581 :   0.0500-0.1500-0.4500  plane waves:     635
 k-point   582 :   0.1500-0.1500-0.4500  plane waves:     635
 k-point   583 :   0.2500-0.1500-0.4500  plane waves:     636
 k-point   584 :   0.3500-0.1500-0.4500  plane waves:     633
 k-point   585 :   0.4500-0.1500-0.4500  plane waves:     634
 k-point   586 :  -0.4500-0.1500-0.4500  plane waves:     634
 k-point   587 :  -0.3500-0.1500-0.4500  plane waves:     633
 k-point   588 :  -0.2500-0.1500-0.4500  plane waves:     636
 k-point   589 :  -0.1500-0.1500-0.4500  plane waves:     635
 k-point   590 :  -0.0500-0.1500-0.4500  plane waves:     635
 k-point   591 :   0.0500-0.0500-0.4500  plane waves:     631
 k-point   592 :   0.1500-0.0500-0.4500  plane waves:     635
 k-point   593 :   0.2500-0.0500-0.4500  plane waves:     632
 k-point   594 :   0.3500-0.0500-0.4500  plane waves:     633
 k-point   595 :   0.4500-0.0500-0.4500  plane waves:     638
 k-point   596 :  -0.4500-0.0500-0.4500  plane waves:     638
 k-point   597 :  -0.3500-0.0500-0.4500  plane waves:     633
 k-point   598 :  -0.2500-0.0500-0.4500  plane waves:     632
 k-point   599 :  -0.1500-0.0500-0.4500  plane waves:     635
 k-point   600 :  -0.0500-0.0500-0.4500  plane waves:     631
 k-point   601 :   0.0500 0.0500-0.3500  plane waves:     640
 k-point   602 :   0.1500 0.0500-0.3500  plane waves:     641
 k-point   603 :   0.2500 0.0500-0.3500  plane waves:     636
 k-point   604 :   0.3500 0.0500-0.3500  plane waves:     635
 k-point   605 :   0.4500 0.0500-0.3500  plane waves:     633
 k-point   606 :  -0.4500 0.0500-0.3500  plane waves:     633
 k-point   607 :  -0.3500 0.0500-0.3500  plane waves:     635
 k-point   608 :  -0.2500 0.0500-0.3500  plane waves:     636
 k-point   609 :  -0.1500 0.0500-0.3500  plane waves:     641
 k-point   610 :  -0.0500 0.0500-0.3500  plane waves:     640
 k-point   611 :   0.0500 0.1500-0.3500  plane waves:     641
 k-point   612 :   0.1500 0.1500-0.3500  plane waves:     640
 k-point   613 :   0.2500 0.1500-0.3500  plane waves:     632
 k-point   614 :   0.3500 0.1500-0.3500  plane waves:     631
 k-point   615 :   0.4500 0.1500-0.3500  plane waves:     633
 k-point   616 :  -0.4500 0.1500-0.3500  plane waves:     633
 k-point   617 :  -0.3500 0.1500-0.3500  plane waves:     631
 k-point   618 :  -0.2500 0.1500-0.3500  plane waves:     632
 k-point   619 :  -0.1500 0.1500-0.3500  plane waves:     640
 k-point   620 :  -0.0500 0.1500-0.3500  plane waves:     641
 k-point   621 :   0.0500 0.2500-0.3500  plane waves:     636
 k-point   622 :   0.1500 0.2500-0.3500  plane waves:     632
 k-point   623 :   0.2500 0.2500-0.3500  plane waves:     635
 k-point   624 :   0.3500 0.2500-0.3500  plane waves:     632
 k-point   625 :   0.4500 0.2500-0.3500  plane waves:     639
 k-point   626 :  -0.4500 0.2500-0.3500  plane waves:     639
 k-point   627 :  -0.3500 0.2500-0.3500  plane waves:     632
 k-point   628 :  -0.2500 0.2500-0.3500  plane waves:     635
 k-point   629 :  -0.1500 0.2500-0.3500  plane waves:     632
 k-point   630 :  -0.0500 0.2500-0.3500  plane waves:     636
 k-point   631 :   0.0500 0.3500-0.3500  plane waves:     635
 k-point   632 :   0.1500 0.3500-0.3500  plane waves:     631
 k-point   633 :   0.2500 0.3500-0.3500  plane waves:     632
 k-point   634 :   0.3500 0.3500-0.3500  plane waves:     630
 k-point   635 :   0.4500 0.3500-0.3500  plane waves:     637
 k-point   636 :  -0.4500 0.3500-0.3500  plane waves:     637
 k-point   637 :  -0.3500 0.3500-0.3500  plane waves:     630
 k-point   638 :  -0.2500 0.3500-0.3500  plane waves:     632
 k-point   639 :  -0.1500 0.3500-0.3500  plane waves:     631
 k-point   640 :  -0.0500 0.3500-0.3500  plane waves:     635
 k-point   641 :   0.0500 0.4500-0.3500  plane waves:     633
 k-point   642 :   0.1500 0.4500-0.3500  plane waves:     633
 k-point   643 :   0.2500 0.4500-0.3500  plane waves:     639
 k-point   644 :   0.3500 0.4500-0.3500  plane waves:     637
 k-point   645 :   0.4500 0.4500-0.3500  plane waves:     642
 k-point   646 :  -0.4500 0.4500-0.3500  plane waves:     642
 k-point   647 :  -0.3500 0.4500-0.3500  plane waves:     637
 k-point   648 :  -0.2500 0.4500-0.3500  plane waves:     639
 k-point   649 :  -0.1500 0.4500-0.3500  plane waves:     633
 k-point   650 :  -0.0500 0.4500-0.3500  plane waves:     633
 k-point   651 :   0.0500-0.4500-0.3500  plane waves:     633
 k-point   652 :   0.1500-0.4500-0.3500  plane waves:     633
 k-point   653 :   0.2500-0.4500-0.3500  plane waves:     639
 k-point   654 :   0.3500-0.4500-0.3500  plane waves:     637
 k-point   655 :   0.4500-0.4500-0.3500  plane waves:     642
 k-point   656 :  -0.4500-0.4500-0.3500  plane waves:     642
 k-point   657 :  -0.3500-0.4500-0.3500  plane waves:     637
 k-point   658 :  -0.2500-0.4500-0.3500  plane waves:     639
 k-point   659 :  -0.1500-0.4500-0.3500  plane waves:     633
 k-point   660 :  -0.0500-0.4500-0.3500  plane waves:     633
 k-point   661 :   0.0500-0.3500-0.3500  plane waves:     635
 k-point   662 :   0.1500-0.3500-0.3500  plane waves:     631
 k-point   663 :   0.2500-0.3500-0.3500  plane waves:     632
 k-point   664 :   0.3500-0.3500-0.3500  plane waves:     630
 k-point   665 :   0.4500-0.3500-0.3500  plane waves:     637
 k-point   666 :  -0.4500-0.3500-0.3500  plane waves:     637
 k-point   667 :  -0.3500-0.3500-0.3500  plane waves:     630
 k-point   668 :  -0.2500-0.3500-0.3500  plane waves:     632
 k-point   669 :  -0.1500-0.3500-0.3500  plane waves:     631
 k-point   670 :  -0.0500-0.3500-0.3500  plane waves:     635
 k-point   671 :   0.0500-0.2500-0.3500  plane waves:     636
 k-point   672 :   0.1500-0.2500-0.3500  plane waves:     632
 k-point   673 :   0.2500-0.2500-0.3500  plane waves:     635
 k-point   674 :   0.3500-0.2500-0.3500  plane waves:     632
 k-point   675 :   0.4500-0.2500-0.3500  plane waves:     639
 k-point   676 :  -0.4500-0.2500-0.3500  plane waves:     639
 k-point   677 :  -0.3500-0.2500-0.3500  plane waves:     632
 k-point   678 :  -0.2500-0.2500-0.3500  plane waves:     635
 k-point   679 :  -0.1500-0.2500-0.3500  plane waves:     632
 k-point   680 :  -0.0500-0.2500-0.3500  plane waves:     636
 k-point   681 :   0.0500-0.1500-0.3500  plane waves:     641
 k-point   682 :   0.1500-0.1500-0.3500  plane waves:     640
 k-point   683 :   0.2500-0.1500-0.3500  plane waves:     632
 k-point   684 :   0.3500-0.1500-0.3500  plane waves:     631
 k-point   685 :   0.4500-0.1500-0.3500  plane waves:     633
 k-point   686 :  -0.4500-0.1500-0.3500  plane waves:     633
 k-point   687 :  -0.3500-0.1500-0.3500  plane waves:     631
 k-point   688 :  -0.2500-0.1500-0.3500  plane waves:     632
 k-point   689 :  -0.1500-0.1500-0.3500  plane waves:     640
 k-point   690 :  -0.0500-0.1500-0.3500  plane waves:     641
 k-point   691 :   0.0500-0.0500-0.3500  plane waves:     640
 k-point   692 :   0.1500-0.0500-0.3500  plane waves:     641
 k-point   693 :   0.2500-0.0500-0.3500  plane waves:     636
 k-point   694 :   0.3500-0.0500-0.3500  plane waves:     635
 k-point   695 :   0.4500-0.0500-0.3500  plane waves:     633
 k-point   696 :  -0.4500-0.0500-0.3500  plane waves:     633
 k-point   697 :  -0.3500-0.0500-0.3500  plane waves:     635
 k-point   698 :  -0.2500-0.0500-0.3500  plane waves:     636
 k-point   699 :  -0.1500-0.0500-0.3500  plane waves:     641
 k-point   700 :  -0.0500-0.0500-0.3500  plane waves:     640
 k-point   701 :   0.0500 0.0500-0.2500  plane waves:     650
 k-point   702 :   0.1500 0.0500-0.2500  plane waves:     644
 k-point   703 :   0.2500 0.0500-0.2500  plane waves:     637
 k-point   704 :   0.3500 0.0500-0.2500  plane waves:     636
 k-point   705 :   0.4500 0.0500-0.2500  plane waves:     632
 k-point   706 :  -0.4500 0.0500-0.2500  plane waves:     632
 k-point   707 :  -0.3500 0.0500-0.2500  plane waves:     636
 k-point   708 :  -0.2500 0.0500-0.2500  plane waves:     637
 k-point   709 :  -0.1500 0.0500-0.2500  plane waves:     644
 k-point   710 :  -0.0500 0.0500-0.2500  plane waves:     650
 k-point   711 :   0.0500 0.1500-0.2500  plane waves:     644
 k-point   712 :   0.1500 0.1500-0.2500  plane waves:     638
 k-point   713 :   0.2500 0.1500-0.2500  plane waves:     637
 k-point   714 :   0.3500 0.1500-0.2500  plane waves:     632
 k-point   715 :   0.4500 0.1500-0.2500  plane waves:     636
 k-point   716 :  -0.4500 0.1500-0.2500  plane waves:     636
 k-point   717 :  -0.3500 0.1500-0.2500  plane waves:     632
 k-point   718 :  -0.2500 0.1500-0.2500  plane waves:     637
 k-point   719 :  -0.1500 0.1500-0.2500  plane waves:     638
 k-point   720 :  -0.0500 0.1500-0.2500  plane waves:     644
 k-point   721 :   0.0500 0.2500-0.2500  plane waves:     637
 k-point   722 :   0.1500 0.2500-0.2500  plane waves:     637
 k-point   723 :   0.2500 0.2500-0.2500  plane waves:     630
 k-point   724 :   0.3500 0.2500-0.2500  plane waves:     635
 k-point   725 :   0.4500 0.2500-0.2500  plane waves:     640
 k-point   726 :  -0.4500 0.2500-0.2500  plane waves:     640
 k-point   727 :  -0.3500 0.2500-0.2500  plane waves:     635
 k-point   728 :  -0.2500 0.2500-0.2500  plane waves:     630
 k-point   729 :  -0.1500 0.2500-0.2500  plane waves:     637
 k-point   730 :  -0.0500 0.2500-0.2500  plane waves:     637
 k-point   731 :   0.0500 0.3500-0.2500  plane waves:     636
 k-point   732 :   0.1500 0.3500-0.2500  plane waves:     632
 k-point   733 :   0.2500 0.3500-0.2500  plane waves:     635
 k-point   734 :   0.3500 0.3500-0.2500  plane waves:     632
 k-point   735 :   0.4500 0.3500-0.2500  plane waves:     639
 k-point   736 :  -0.4500 0.3500-0.2500  plane waves:     639
 k-point   737 :  -0.3500 0.3500-0.2500  plane waves:     632
 k-point   738 :  -0.2500 0.3500-0.2500  plane waves:     635
 k-point   739 :  -0.1500 0.3500-0.2500  plane waves:     632
 k-point   740 :  -0.0500 0.3500-0.2500  plane waves:     636
 k-point   741 :   0.0500 0.4500-0.2500  plane waves:     632
 k-point   742 :   0.1500 0.4500-0.2500  plane waves:     636
 k-point   743 :   0.2500 0.4500-0.2500  plane waves:     640
 k-point   744 :   0.3500 0.4500-0.2500  plane waves:     639
 k-point   745 :   0.4500 0.4500-0.2500  plane waves:     638
 k-point   746 :  -0.4500 0.4500-0.2500  plane waves:     638
 k-point   747 :  -0.3500 0.4500-0.2500  plane waves:     639
 k-point   748 :  -0.2500 0.4500-0.2500  plane waves:     640
 k-point   749 :  -0.1500 0.4500-0.2500  plane waves:     636
 k-point   750 :  -0.0500 0.4500-0.2500  plane waves:     632
 k-point   751 :   0.0500-0.4500-0.2500  plane waves:     632
 k-point   752 :   0.1500-0.4500-0.2500  plane waves:     636
 k-point   753 :   0.2500-0.4500-0.2500  plane waves:     640
 k-point   754 :   0.3500-0.4500-0.2500  plane waves:     639
 k-point   755 :   0.4500-0.4500-0.2500  plane waves:     638
 k-point   756 :  -0.4500-0.4500-0.2500  plane waves:     638
 k-point   757 :  -0.3500-0.4500-0.2500  plane waves:     639
 k-point   758 :  -0.2500-0.4500-0.2500  plane waves:     640
 k-point   759 :  -0.1500-0.4500-0.2500  plane waves:     636
 k-point   760 :  -0.0500-0.4500-0.2500  plane waves:     632
 k-point   761 :   0.0500-0.3500-0.2500  plane waves:     636
 k-point   762 :   0.1500-0.3500-0.2500  plane waves:     632
 k-point   763 :   0.2500-0.3500-0.2500  plane waves:     635
 k-point   764 :   0.3500-0.3500-0.2500  plane waves:     632
 k-point   765 :   0.4500-0.3500-0.2500  plane waves:     639
 k-point   766 :  -0.4500-0.3500-0.2500  plane waves:     639
 k-point   767 :  -0.3500-0.3500-0.2500  plane waves:     632
 k-point   768 :  -0.2500-0.3500-0.2500  plane waves:     635
 k-point   769 :  -0.1500-0.3500-0.2500  plane waves:     632
 k-point   770 :  -0.0500-0.3500-0.2500  plane waves:     636
 k-point   771 :   0.0500-0.2500-0.2500  plane waves:     637
 k-point   772 :   0.1500-0.2500-0.2500  plane waves:     637
 k-point   773 :   0.2500-0.2500-0.2500  plane waves:     630
 k-point   774 :   0.3500-0.2500-0.2500  plane waves:     635
 k-point   775 :   0.4500-0.2500-0.2500  plane waves:     640
 k-point   776 :  -0.4500-0.2500-0.2500  plane waves:     640
 k-point   777 :  -0.3500-0.2500-0.2500  plane waves:     635
 k-point   778 :  -0.2500-0.2500-0.2500  plane waves:     630
 k-point   779 :  -0.1500-0.2500-0.2500  plane waves:     637
 k-point   780 :  -0.0500-0.2500-0.2500  plane waves:     637
 k-point   781 :   0.0500-0.1500-0.2500  plane waves:     644
 k-point   782 :   0.1500-0.1500-0.2500  plane waves:     638
 k-point   783 :   0.2500-0.1500-0.2500  plane waves:     637
 k-point   784 :   0.3500-0.1500-0.2500  plane waves:     632
 k-point   785 :   0.4500-0.1500-0.2500  plane waves:     636
 k-point   786 :  -0.4500-0.1500-0.2500  plane waves:     636
 k-point   787 :  -0.3500-0.1500-0.2500  plane waves:     632
 k-point   788 :  -0.2500-0.1500-0.2500  plane waves:     637
 k-point   789 :  -0.1500-0.1500-0.2500  plane waves:     638
 k-point   790 :  -0.0500-0.1500-0.2500  plane waves:     644
 k-point   791 :   0.0500-0.0500-0.2500  plane waves:     650
 k-point   792 :   0.1500-0.0500-0.2500  plane waves:     644
 k-point   793 :   0.2500-0.0500-0.2500  plane waves:     637
 k-point   794 :   0.3500-0.0500-0.2500  plane waves:     636
 k-point   795 :   0.4500-0.0500-0.2500  plane waves:     632
 k-point   796 :  -0.4500-0.0500-0.2500  plane waves:     632
 k-point   797 :  -0.3500-0.0500-0.2500  plane waves:     636
 k-point   798 :  -0.2500-0.0500-0.2500  plane waves:     637
 k-point   799 :  -0.1500-0.0500-0.2500  plane waves:     644
 k-point   800 :  -0.0500-0.0500-0.2500  plane waves:     650
 k-point   801 :   0.0500 0.0500-0.1500  plane waves:     645
 k-point   802 :   0.1500 0.0500-0.1500  plane waves:     647
 k-point   803 :   0.2500 0.0500-0.1500  plane waves:     644
 k-point   804 :   0.3500 0.0500-0.1500  plane waves:     641
 k-point   805 :   0.4500 0.0500-0.1500  plane waves:     635
 k-point   806 :  -0.4500 0.0500-0.1500  plane waves:     635
 k-point   807 :  -0.3500 0.0500-0.1500  plane waves:     641
 k-point   808 :  -0.2500 0.0500-0.1500  plane waves:     644
 k-point   809 :  -0.1500 0.0500-0.1500  plane waves:     647
 k-point   810 :  -0.0500 0.0500-0.1500  plane waves:     645
 k-point   811 :   0.0500 0.1500-0.1500  plane waves:     647
 k-point   812 :   0.1500 0.1500-0.1500  plane waves:     651
 k-point   813 :   0.2500 0.1500-0.1500  plane waves:     638
 k-point   814 :   0.3500 0.1500-0.1500  plane waves:     640
 k-point   815 :   0.4500 0.1500-0.1500  plane waves:     635
 k-point   816 :  -0.4500 0.1500-0.1500  plane waves:     635
 k-point   817 :  -0.3500 0.1500-0.1500  plane waves:     640
 k-point   818 :  -0.2500 0.1500-0.1500  plane waves:     638
 k-point   819 :  -0.1500 0.1500-0.1500  plane waves:     651
 k-point   820 :  -0.0500 0.1500-0.1500  plane waves:     647
 k-point   821 :   0.0500 0.2500-0.1500  plane waves:     644
 k-point   822 :   0.1500 0.2500-0.1500  plane waves:     638
 k-point   823 :   0.2500 0.2500-0.1500  plane waves:     637
 k-point   824 :   0.3500 0.2500-0.1500  plane waves:     632
 k-point   825 :   0.4500 0.2500-0.1500  plane waves:     636
 k-point   826 :  -0.4500 0.2500-0.1500  plane waves:     636
 k-point   827 :  -0.3500 0.2500-0.1500  plane waves:     632
 k-point   828 :  -0.2500 0.2500-0.1500  plane waves:     637
 k-point   829 :  -0.1500 0.2500-0.1500  plane waves:     638
 k-point   830 :  -0.0500 0.2500-0.1500  plane waves:     644
 k-point   831 :   0.0500 0.3500-0.1500  plane waves:     641
 k-point   832 :   0.1500 0.3500-0.1500  plane waves:     640
 k-point   833 :   0.2500 0.3500-0.1500  plane waves:     632
 k-point   834 :   0.3500 0.3500-0.1500  plane waves:     631
 k-point   835 :   0.4500 0.3500-0.1500  plane waves:     633
 k-point   836 :  -0.4500 0.3500-0.1500  plane waves:     633
 k-point   837 :  -0.3500 0.3500-0.1500  plane waves:     631
 k-point   838 :  -0.2500 0.3500-0.1500  plane waves:     632
 k-point   839 :  -0.1500 0.3500-0.1500  plane waves:     640
 k-point   840 :  -0.0500 0.3500-0.1500  plane waves:     641
 k-point   841 :   0.0500 0.4500-0.1500  plane waves:     635
 k-point   842 :   0.1500 0.4500-0.1500  plane waves:     635
 k-point   843 :   0.2500 0.4500-0.1500  plane waves:     636
 k-point   844 :   0.3500 0.4500-0.1500  plane waves:     633
 k-point   845 :   0.4500 0.4500-0.1500  plane waves:     634
 k-point   846 :  -0.4500 0.4500-0.1500  plane waves:     634
 k-point   847 :  -0.3500 0.4500-0.1500  plane waves:     633
 k-point   848 :  -0.2500 0.4500-0.1500  plane waves:     636
 k-point   849 :  -0.1500 0.4500-0.1500  plane waves:     635
 k-point   850 :  -0.0500 0.4500-0.1500  plane waves:     635
 k-point   851 :   0.0500-0.4500-0.1500  plane waves:     635
 k-point   852 :   0.1500-0.4500-0.1500  plane waves:     635
 k-point   853 :   0.2500-0.4500-0.1500  plane waves:     636
 k-point   854 :   0.3500-0.4500-0.1500  plane waves:     633
 k-point   855 :   0.4500-0.4500-0.1500  plane waves:     634
 k-point   856 :  -0.4500-0.4500-0.1500  plane waves:     634
 k-point   857 :  -0.3500-0.4500-0.1500  plane waves:     633
 k-point   858 :  -0.2500-0.4500-0.1500  plane waves:     636
 k-point   859 :  -0.1500-0.4500-0.1500  plane waves:     635
 k-point   860 :  -0.0500-0.4500-0.1500  plane waves:     635
 k-point   861 :   0.0500-0.3500-0.1500  plane waves:     641
 k-point   862 :   0.1500-0.3500-0.1500  plane waves:     640
 k-point   863 :   0.2500-0.3500-0.1500  plane waves:     632
 k-point   864 :   0.3500-0.3500-0.1500  plane waves:     631
 k-point   865 :   0.4500-0.3500-0.1500  plane waves:     633
 k-point   866 :  -0.4500-0.3500-0.1500  plane waves:     633
 k-point   867 :  -0.3500-0.3500-0.1500  plane waves:     631
 k-point   868 :  -0.2500-0.3500-0.1500  plane waves:     632
 k-point   869 :  -0.1500-0.3500-0.1500  plane waves:     640
 k-point   870 :  -0.0500-0.3500-0.1500  plane waves:     641
 k-point   871 :   0.0500-0.2500-0.1500  plane waves:     644
 k-point   872 :   0.1500-0.2500-0.1500  plane waves:     638
 k-point   873 :   0.2500-0.2500-0.1500  plane waves:     637
 k-point   874 :   0.3500-0.2500-0.1500  plane waves:     632
 k-point   875 :   0.4500-0.2500-0.1500  plane waves:     636
 k-point   876 :  -0.4500-0.2500-0.1500  plane waves:     636
 k-point   877 :  -0.3500-0.2500-0.1500  plane waves:     632
 k-point   878 :  -0.2500-0.2500-0.1500  plane waves:     637
 k-point   879 :  -0.1500-0.2500-0.1500  plane waves:     638
 k-point   880 :  -0.0500-0.2500-0.1500  plane waves:     644
 k-point   881 :   0.0500-0.1500-0.1500  plane waves:     647
 k-point   882 :   0.1500-0.1500-0.1500  plane waves:     651
 k-point   883 :   0.2500-0.1500-0.1500  plane waves:     638
 k-point   884 :   0.3500-0.1500-0.1500  plane waves:     640
 k-point   885 :   0.4500-0.1500-0.1500  plane waves:     635
 k-point   886 :  -0.4500-0.1500-0.1500  plane waves:     635
 k-point   887 :  -0.3500-0.1500-0.1500  plane waves:     640
 k-point   888 :  -0.2500-0.1500-0.1500  plane waves:     638
 k-point   889 :  -0.1500-0.1500-0.1500  plane waves:     651
 k-point   890 :  -0.0500-0.1500-0.1500  plane waves:     647
 k-point   891 :   0.0500-0.0500-0.1500  plane waves:     645
 k-point   892 :   0.1500-0.0500-0.1500  plane waves:     647
 k-point   893 :   0.2500-0.0500-0.1500  plane waves:     644
 k-point   894 :   0.3500-0.0500-0.1500  plane waves:     641
 k-point   895 :   0.4500-0.0500-0.1500  plane waves:     635
 k-point   896 :  -0.4500-0.0500-0.1500  plane waves:     635
 k-point   897 :  -0.3500-0.0500-0.1500  plane waves:     641
 k-point   898 :  -0.2500-0.0500-0.1500  plane waves:     644
 k-point   899 :  -0.1500-0.0500-0.1500  plane waves:     647
 k-point   900 :  -0.0500-0.0500-0.1500  plane waves:     645
 k-point   901 :   0.0500 0.0500-0.0500  plane waves:     631
 k-point   902 :   0.1500 0.0500-0.0500  plane waves:     645
 k-point   903 :   0.2500 0.0500-0.0500  plane waves:     650
 k-point   904 :   0.3500 0.0500-0.0500  plane waves:     640
 k-point   905 :   0.4500 0.0500-0.0500  plane waves:     631
 k-point   906 :  -0.4500 0.0500-0.0500  plane waves:     631
 k-point   907 :  -0.3500 0.0500-0.0500  plane waves:     640
 k-point   908 :  -0.2500 0.0500-0.0500  plane waves:     650
 k-point   909 :  -0.1500 0.0500-0.0500  plane waves:     645
 k-point   910 :  -0.0500 0.0500-0.0500  plane waves:     631
 k-point   911 :   0.0500 0.1500-0.0500  plane waves:     645
 k-point   912 :   0.1500 0.1500-0.0500  plane waves:     647
 k-point   913 :   0.2500 0.1500-0.0500  plane waves:     644
 k-point   914 :   0.3500 0.1500-0.0500  plane waves:     641
 k-point   915 :   0.4500 0.1500-0.0500  plane waves:     635
 k-point   916 :  -0.4500 0.1500-0.0500  plane waves:     635
 k-point   917 :  -0.3500 0.1500-0.0500  plane waves:     641
 k-point   918 :  -0.2500 0.1500-0.0500  plane waves:     644
 k-point   919 :  -0.1500 0.1500-0.0500  plane waves:     647
 k-point   920 :  -0.0500 0.1500-0.0500  plane waves:     645
 k-point   921 :   0.0500 0.2500-0.0500  plane waves:     650
 k-point   922 :   0.1500 0.2500-0.0500  plane waves:     644
 k-point   923 :   0.2500 0.2500-0.0500  plane waves:     637
 k-point   924 :   0.3500 0.2500-0.0500  plane waves:     636
 k-point   925 :   0.4500 0.2500-0.0500  plane waves:     632
 k-point   926 :  -0.4500 0.2500-0.0500  plane waves:     632
 k-point   927 :  -0.3500 0.2500-0.0500  plane waves:     636
 k-point   928 :  -0.2500 0.2500-0.0500  plane waves:     637
 k-point   929 :  -0.1500 0.2500-0.0500  plane waves:     644
 k-point   930 :  -0.0500 0.2500-0.0500  plane waves:     650
 k-point   931 :   0.0500 0.3500-0.0500  plane waves:     640
 k-point   932 :   0.1500 0.3500-0.0500  plane waves:     641
 k-point   933 :   0.2500 0.3500-0.0500  plane waves:     636
 k-point   934 :   0.3500 0.3500-0.0500  plane waves:     635
 k-point   935 :   0.4500 0.3500-0.0500  plane waves:     633
 k-point   936 :  -0.4500 0.3500-0.0500  plane waves:     633
 k-point   937 :  -0.3500 0.3500-0.0500  plane waves:     635
 k-point   938 :  -0.2500 0.3500-0.0500  plane waves:     636
 k-point   939 :  -0.1500 0.3500-0.0500  plane waves:     641
 k-point   940 :  -0.0500 0.3500-0.0500  plane waves:     640
 k-point   941 :   0.0500 0.4500-0.0500  plane waves:     631
 k-point   942 :   0.1500 0.4500-0.0500  plane waves:     635
 k-point   943 :   0.2500 0.4500-0.0500  plane waves:     632
 k-point   944 :   0.3500 0.4500-0.0500  plane waves:     633
 k-point   945 :   0.4500 0.4500-0.0500  plane waves:     638
 k-point   946 :  -0.4500 0.4500-0.0500  plane waves:     638
 k-point   947 :  -0.3500 0.4500-0.0500  plane waves:     633
 k-point   948 :  -0.2500 0.4500-0.0500  plane waves:     632
 k-point   949 :  -0.1500 0.4500-0.0500  plane waves:     635
 k-point   950 :  -0.0500 0.4500-0.0500  plane waves:     631
 k-point   951 :   0.0500-0.4500-0.0500  plane waves:     631
 k-point   952 :   0.1500-0.4500-0.0500  plane waves:     635
 k-point   953 :   0.2500-0.4500-0.0500  plane waves:     632
 k-point   954 :   0.3500-0.4500-0.0500  plane waves:     633
 k-point   955 :   0.4500-0.4500-0.0500  plane waves:     638
 k-point   956 :  -0.4500-0.4500-0.0500  plane waves:     638
 k-point   957 :  -0.3500-0.4500-0.0500  plane waves:     633
 k-point   958 :  -0.2500-0.4500-0.0500  plane waves:     632
 k-point   959 :  -0.1500-0.4500-0.0500  plane waves:     635
 k-point   960 :  -0.0500-0.4500-0.0500  plane waves:     631
 k-point   961 :   0.0500-0.3500-0.0500  plane waves:     640
 k-point   962 :   0.1500-0.3500-0.0500  plane waves:     641
 k-point   963 :   0.2500-0.3500-0.0500  plane waves:     636
 k-point   964 :   0.3500-0.3500-0.0500  plane waves:     635
 k-point   965 :   0.4500-0.3500-0.0500  plane waves:     633
 k-point   966 :  -0.4500-0.3500-0.0500  plane waves:     633
 k-point   967 :  -0.3500-0.3500-0.0500  plane waves:     635
 k-point   968 :  -0.2500-0.3500-0.0500  plane waves:     636
 k-point   969 :  -0.1500-0.3500-0.0500  plane waves:     641
 k-point   970 :  -0.0500-0.3500-0.0500  plane waves:     640
 k-point   971 :   0.0500-0.2500-0.0500  plane waves:     650
 k-point   972 :   0.1500-0.2500-0.0500  plane waves:     644
 k-point   973 :   0.2500-0.2500-0.0500  plane waves:     637
 k-point   974 :   0.3500-0.2500-0.0500  plane waves:     636
 k-point   975 :   0.4500-0.2500-0.0500  plane waves:     632
 k-point   976 :  -0.4500-0.2500-0.0500  plane waves:     632
 k-point   977 :  -0.3500-0.2500-0.0500  plane waves:     636
 k-point   978 :  -0.2500-0.2500-0.0500  plane waves:     637
 k-point   979 :  -0.1500-0.2500-0.0500  plane waves:     644
 k-point   980 :  -0.0500-0.2500-0.0500  plane waves:     650
 k-point   981 :   0.0500-0.1500-0.0500  plane waves:     645
 k-point   982 :   0.1500-0.1500-0.0500  plane waves:     647
 k-point   983 :   0.2500-0.1500-0.0500  plane waves:     644
 k-point   984 :   0.3500-0.1500-0.0500  plane waves:     641
 k-point   985 :   0.4500-0.1500-0.0500  plane waves:     635
 k-point   986 :  -0.4500-0.1500-0.0500  plane waves:     635
 k-point   987 :  -0.3500-0.1500-0.0500  plane waves:     641
 k-point   988 :  -0.2500-0.1500-0.0500  plane waves:     644
 k-point   989 :  -0.1500-0.1500-0.0500  plane waves:     647
 k-point   990 :  -0.0500-0.1500-0.0500  plane waves:     645
 k-point   991 :   0.0500-0.0500-0.0500  plane waves:     631
 k-point   992 :   0.1500-0.0500-0.0500  plane waves:     645
 k-point   993 :   0.2500-0.0500-0.0500  plane waves:     650
 k-point   994 :   0.3500-0.0500-0.0500  plane waves:     640
 k-point   995 :   0.4500-0.0500-0.0500  plane waves:     631
 k-point   996 :  -0.4500-0.0500-0.0500  plane waves:     631
 k-point   997 :  -0.3500-0.0500-0.0500  plane waves:     640
 k-point   998 :  -0.2500-0.0500-0.0500  plane waves:     650
 k-point   999 :  -0.1500-0.0500-0.0500  plane waves:     645
 k-point  1000 :  -0.0500-0.0500-0.0500  plane waves:     631

 maximum and minimum number of plane-waves per node :       332      305

 maximum number of plane-waves:       651
 maximum index in each direction: 
   IXMAX=    5   IYMAX=    5   IZMAX=    5
   IXMIN=   -5   IYMIN=   -5   IZMIN=   -5


 parallel 3D FFT for wavefunctions:
    minimum data exchange during FFTs selected (reduces bandwidth)
 parallel 3D FFT for charge:
    minimum data exchange during FFTs selected (reduces bandwidth)


 total amount of memory used by VASP MPI-rank0   268201. kBytes
=======================================================================

   base                                    :      30000. kBytes
   nonl-proj                               :      95626. kBytes
   fftplans                                :        682. kBytes
   grid                                    :       1078. kBytes
   one-center                              :         15. kBytes
   wavefun                                 :     140800. kBytes
 
     INWAV:  cpu time      0.0000: real time      0.0002
 Broyden mixing: mesh for mixing (old mesh)
   NGX = 11   NGY = 11   NGZ = 11
  (NGX  = 48   NGY  = 48   NGZ  = 48)
  gives a total of   1331 points

 initial charge density was supplied:
 charge density of overlapping atoms calculated
 number of electron      13.0000000 magnetization 
 keeping initial charge density in first step


--------------------------------------------------------------------------------------------------------


 Maximum index for augmentation-charges         2969 (set IRDMAX)


--------------------------------------------------------------------------------------------------------


 First call to EWALD:  gamma=   0.663
 Maximum number of real-space cells   3x   3x   3
 Maximum number of reciprocal cells   3x   3x   3

    FEWALD:  cpu time      0.0004: real time      0.0004


--------------------------------------- Ionic step        1  -------------------------------------------




--------------------------------------- Iteration      1(   1)  ---------------------------------------


    POTLOK:  cpu time      0.0079: real time      0.0192
    SETDIJ:  cpu time      0.0776: real time      0.0785
     EDDAV:  cpu time     15.0155: real time     15.0930
       DOS:  cpu time      0.0074: real time      0.0077
    --------------------------------------------
      LOOP:  cpu time     15.1085: real time     15.1984

 eigenvalue-minimisations  :268700
 total energy-change (2. order) : 0.8367053E+02  (-0.2654220E+03)
 number of electron      13.0000000 magnetization 
 augmentation part       13.0000000 magnetization 

 Free energy of the ion-electron system (eV)
  ---------------------------------------------------
  alpha Z        PSCENC =        51.23101473
  Ewald energy   TEWEN  =     -1050.55689710
  -Hartree energ DENC   =      -453.81882592
  -exchange      EXHF   =         0.00000000
  -V(xc)+E(xc)   XCENC  =        49.99093178
  PAW double counting   =      1243.46289121    -1348.67104330
  entropy T*S    EENTRO =        -0.00116578
  eigenvalues    EBANDS =       173.57691317
  atomic energy  EATOM  =      1418.45671353
  Solvation  Ediel_sol  =         0.00000000
  ---------------------------------------------------
  free energy    TOTEN  =        83.67053232 eV

  energy without entropy =       83.67169810  energy(sigma->0) =       83.67111521


--------------------------------------------------------------------------------------------------------




--------------------------------------- Iteration      1(   2)  ---------------------------------------


     EDDAV:  cpu time     12.8869: real time     12.9478
       DOS:  cpu time      0.0071: real time      0.0071
    --------------------------------------------
      LOOP:  cpu time     12.8940: real time     12.9549

 eigenvalue-minimisations  :220088
 total energy-change (2. order) :-0.8660816E+02  (-0.7137294E+02)
 number of electron      13.0000000 magnetization 
 augmentation part       13.0000000 magnetization 

 Free energy of the ion-electron system (eV)
  ---------------------------------------------------
  alpha Z        PSCENC =        51.23101473
  Ewald energy   TEWEN  =     -1050.55689710
  -Hartree energ DENC   =      -453.81882592
  -exchange      EXHF   =         0.00000000
  -V(xc)+E(xc)   XCENC  =        49.99093178
  PAW double counting   =      1243.46289121    -1348.67104330
  entropy T*S    EENTRO =        -0.00177436
  eigenvalues    EBANDS =        86.96936255
  atomic energy  EATOM  =      1418.45671353
  Solvation  Ediel_sol  =         0.00000000
  ---------------------------------------------------
  free energy    TOTEN  =        -2.93762688 eV

  energy without entropy =       -2.93585252  energy(sigma->0) =       -2.93673970


--------------------------------------------------------------------------------------------------------




--------------------------------------- Iteration      1(   3)  ---------------------------------------


     EDDAV:  cpu time     13.5248: real time     13.5949
       DOS:  cpu time      0.0071: real time      0.0071
    --------------------------------------------
      LOOP:  cpu time     13.5319: real time     13.6020

 eigenvalue-minimisations  :233724
 total energy-change (2. order) :-0.7390888E+01  (-0.7206471E+01)
 number of electron      13.0000000 magnetization 
 augmentation part       13.0000000 magnetization 

 Free energy of the ion-electron system (eV)
  ---------------------------------------------------
  alpha Z        PSCENC =        51.23101473
  Ewald energy   TEWEN  =     -1050.55689710
  -Hartree energ DENC   =      -453.81882592
  -exchange      EXHF   =         0.00000000
  -V(xc)+E(xc)   XCENC  =        49.99093178
  PAW double counting   =      1243.46289121    -1348.67104330
  entropy T*S    EENTRO =        -0.00128545
  eigenvalues    EBANDS =        79.57798586
  atomic energy  EATOM  =      1418.45671353
  Solvation  Ediel_sol  =         0.00000000
  ---------------------------------------------------
  free energy    TOTEN  =       -10.32851466 eV

  energy without entropy =      -10.32722921  energy(sigma->0) =      -10.32787193


--------------------------------------------------------------------------------------------------------




--------------------------------------- Iteration      1(   4)  ---------------------------------------


     EDDAV:  cpu time     13.2856: real time     13.3479
       DOS:  cpu time      0.0071: real time      0.0071
    --------------------------------------------
      LOOP:  cpu time     13.2927: real time     13.3550

 eigenvalue-minimisations  :228272
 total energy-change (2. order) :-0.5814584E-01  (-0.5812065E-01)
 number of electron      13.0000000 magnetization 
 augmentation part       13.0000000 magnetization 

 Free energy of the ion-electron system (eV)
  ---------------------------------------------------
  alpha Z        PSCENC =        51.23101473
  Ewald energy   TEWEN  =     -1050.55689710
  -Hartree energ DENC   =      -453.81882592
  -exchange      EXHF   =         0.00000000
  -V(xc)+E(xc)   XCENC  =        49.99093178
  PAW double counting   =      1243.46289121    -1348.67104330
  entropy T*S    EENTRO =        -0.00125955
  eigenvalues    EBANDS =        79.51981412
  atomic energy  EATOM  =      1418.45671353
  Solvation  Ediel_sol  =         0.00000000
  ---------------------------------------------------
  free energy    TOTEN  =       -10.38666050 eV

  energy without entropy =      -10.38540095  energy(sigma->0) =      -10.38603073


--------------------------------------------------------------------------------------------------------




--------------------------------------- Iteration      1(   5)  ---------------------------------------


     EDDAV:  cpu time     13.2201: real time     13.2820
       DOS:  cpu time      0.0069: real time      0.0070
    CHARGE:  cpu time      0.0601: real time      0.0689
    MIXING:  cpu time      0.0007: real time      0.0014
    --------------------------------------------
      LOOP:  cpu time     13.2879: real time     13.3592

 eigenvalue-minimisations  :228400
 total energy-change (2. order) :-0.1418057E-04  (-0.1418146E-04)
 number of electron      12.9999995 magnetization 
 augmentation part        5.9170959 magnetization 

 Broyden mixing:
  rms(total) = 0.13679E+01    rms(broyden)= 0.13679E+01
  rms(prec ) = 0.45191E+01
  weight for this iteration     100.00

 Free energy of the ion-electron system (eV)
  ---------------------------------------------------
  alpha Z        PSCENC =        51.23101473
  Ewald energy   TEWEN  =     -1050.55689710
  -Hartree energ DENC   =      -453.81882592
  -exchange      EXHF   =         0.00000000
  -V(xc)+E(xc)   XCENC  =        49.99093178
  PAW double counting   =      1243.46289121    -1348.67104330
  entropy T*S    EENTRO =        -0.00125954
  eigenvalues    EBANDS =        79.51979993
  atomic energy  EATOM  =      1418.45671353
  Solvation  Ediel_sol  =         0.00000000
  ---------------------------------------------------
  free energy    TOTEN  =       -10.38667468 eV

  energy without entropy =      -10.38541514  energy(sigma->0) =      -10.38604491


--------------------------------------------------------------------------------------------------------




--------------------------------------- Iteration      1(   6)  ---------------------------------------


    POTLOK:  cpu time      0.0073: real time      0.0074
    SETDIJ:  cpu time      0.0762: real time      0.0765
     EDDAV:  cpu time     13.1853: real time     13.2469
       DOS:  cpu time      0.0069: real time      0.0070
    CHARGE:  cpu time      0.0584: real time      0.0586
    MIXING:  cpu time      0.0006: real time      0.0012
    --------------------------------------------
      LOOP:  cpu time     13.3348: real time     13.3975

 eigenvalue-minimisations  :226408
 total energy-change (2. order) :-0.2025576E+00  (-0.4623656E+01)
 number of electron      12.9999994 magnetization 
 augmentation part        7.6814462 magnetization 

 Broyden mixing:
  rms(total) = 0.10227E+01    rms(broyden)= 0.10226E+01
  rms(prec ) = 0.31362E+01
  weight for this iteration     100.00

 eigenvalues of (default mixing * dielectric matrix)
  average eigenvalue GAMMA=   0.5712
  0.5712

 Free energy of the ion-electron system (eV)
  ---------------------------------------------------
  alpha Z        PSCENC =        51.23101473
  Ewald energy   TEWEN  =     -1050.55689710
  -Hartree energ DENC   =      -395.37119659
  -exchange      EXHF   =         0.00000000
  -V(xc)+E(xc)   XCENC  =        47.47527732
  PAW double counting   =      1246.30095324    -1339.81037232
  entropy T*S    EENTRO =        -0.00158914
  eigenvalues    EBANDS =        11.68686400
  atomic energy  EATOM  =      1418.45671353
  Solvation  Ediel_sol  =         0.00000000
  ---------------------------------------------------
  free energy    TOTEN  =       -10.58923232 eV

  energy without entropy =      -10.58764319  energy(sigma->0) =      -10.58843776


--------------------------------------------------------------------------------------------------------




--------------------------------------- Iteration      1(   7)  ---------------------------------------


    POTLOK:  cpu time      0.0069: real time      0.0069
    SETDIJ:  cpu time      0.0749: real time      0.0751
     EDDAV:  cpu time     12.8170: real time     12.8758
       DOS:  cpu time      0.0071: real time      0.0071
    CHARGE:  cpu time      0.0582: real time      0.0584
    MIXING:  cpu time      0.0005: real time      0.0005
    --------------------------------------------
      LOOP:  cpu time     12.9646: real time     13.0239

 eigenvalue-minimisations  :218648
 total energy-change (2. order) : 0.2870432E+01  (-0.5711606E+00)
 number of electron      12.9999994 magnetization 
 augmentation part        7.0239533 magnetization 

 Broyden mixing:
  rms(total) = 0.10897E+00    rms(broyden)= 0.10897E+00
  rms(prec ) = 0.30359E+00
  weight for this iteration     100.00

 eigenvalues of (default mixing * dielectric matrix)
  average eigenvalue GAMMA=   0.9819
  1.3323  0.6315

 Free energy of the ion-electron system (eV)
  ---------------------------------------------------
  alpha Z        PSCENC =        51.23101473
  Ewald energy   TEWEN  =     -1050.55689710
  -Hartree energ DENC   =      -418.63876483
  -exchange      EXHF   =         0.00000000
  -V(xc)+E(xc)   XCENC  =        48.52681013
  PAW double counting   =      1302.74050414    -1406.30379429
  entropy T*S    EENTRO =        -0.00160950
  eigenvalues    EBANDS =        46.82722287
  atomic energy  EATOM  =      1418.45671353
  Solvation  Ediel_sol  =         0.00000000
  ---------------------------------------------------
  free energy    TOTEN  =        -7.71880033 eV

  energy without entropy =       -7.71719083  energy(sigma->0) =       -7.71799558


--------------------------------------------------------------------------------------------------------




--------------------------------------- Iteration      1(   8)  ---------------------------------------


    POTLOK:  cpu time      0.0070: real time      0.0086
    SETDIJ:  cpu time      0.0746: real time      0.0747
     EDDAV:  cpu time     13.9337: real time     13.9980
       DOS:  cpu time      0.0071: real time      0.0071
    CHARGE:  cpu time      0.0580: real time      0.0582
    MIXING:  cpu time      0.0005: real time      0.0005
    --------------------------------------------
      LOOP:  cpu time     14.0809: real time     14.1471

 eigenvalue-minimisations  :242968
 total energy-change (2. order) : 0.4031879E-01  (-0.2574860E-01)
 number of electron      12.9999994 magnetization 
 augmentation part        6.8751940 magnetization 

 Broyden mixing:
  rms(total) = 0.88005E-01    rms(broyden)= 0.88001E-01
  rms(prec ) = 0.28164E+00
  weight for this iteration     100.00

 eigenvalues of (default mixing * dielectric matrix)
  average eigenvalue GAMMA=   1.3875
  0.7514  0.8210  2.5900

 Free energy of the ion-electron system (eV)
  ---------------------------------------------------
  alpha Z        PSCENC =        51.23101473
  Ewald energy   TEWEN  =     -1050.55689710
  -Hartree energ DENC   =      -421.18111153
  -exchange      EXHF   =         0.00000000
  -V(xc)+E(xc)   XCENC  =        48.64850809
  PAW double counting   =      1353.45725740    -1459.96852777
  entropy T*S    EENTRO =        -0.00192709
  eigenvalues    EBANDS =        52.23648820
  atomic energy  EATOM  =      1418.45671353
  Solvation  Ediel_sol  =         0.00000000
  ---------------------------------------------------
  free energy    TOTEN  =        -7.67848154 eV

  energy without entropy =       -7.67655445  energy(sigma->0) =       -7.67751800


--------------------------------------------------------------------------------------------------------




--------------------------------------- Iteration      1(   9)  ---------------------------------------


    POTLOK:  cpu time      0.0068: real time      0.0069
    SETDIJ:  cpu time      0.0733: real time      0.0734
     EDDAV:  cpu time     14.5246: real time     14.5911
       DOS:  cpu time      0.0067: real time      0.0067
    CHARGE:  cpu time      0.0581: real time      0.0583
    MIXING:  cpu time      0.0006: real time      0.0088
    --------------------------------------------
      LOOP:  cpu time     14.6702: real time     14.7453

 eigenvalue-minimisations  :258712
 total energy-change (2. order) : 0.8195652E-02  (-0.1336509E-01)
 number of electron      12.9999994 magnetization 
 augmentation part        6.9693664 magnetization 

 Broyden mixing:
  rms(total) = 0.60139E-01    rms(broyden)= 0.60138E-01
  rms(prec ) = 0.19691E+00
  weight for this iteration     100.00

 eigenvalues of (default mixing * dielectric matrix)
  average eigenvalue GAMMA=   1.3568
  2.5140  0.7415  0.7415  1.4301

 Free energy of the ion-electron system (eV)
  ---------------------------------------------------
  alpha Z        PSCENC =        51.23101473
  Ewald energy   TEWEN  =     -1050.55689710
  -Hartree energ DENC   =      -415.79993721
  -exchange      EXHF   =         0.00000000
  -V(xc)+E(xc)   XCENC  =        48.42457607
  PAW double counting   =      1416.31921355    -1524.24412203
  entropy T*S    EENTRO =        -0.00175565
  eigenvalues    EBANDS =        48.50090821
  atomic energy  EATOM  =      1418.45671353
  Solvation  Ediel_sol  =         0.00000000
  ---------------------------------------------------
  free energy    TOTEN  =        -7.67028589 eV

  energy without entropy =       -7.66853024  energy(sigma->0) =       -7.66940807


--------------------------------------------------------------------------------------------------------




--------------------------------------- Iteration      1(  10)  ---------------------------------------


    POTLOK:  cpu time      0.0069: real time      0.0070
    SETDIJ:  cpu time      0.0753: real time      0.0754
     EDDAV:  cpu time     14.2393: real time     14.3115
       DOS:  cpu time      0.0071: real time      0.0071
    CHARGE:  cpu time      0.0581: real time      0.0582
    MIXING:  cpu time      0.0005: real time      0.0005
    --------------------------------------------
      LOOP:  cpu time     14.3872: real time     14.4598

 eigenvalue-minimisations  :251704
 total energy-change (2. order) : 0.6522773E-02  (-0.1796802E-02)
 number of electron      12.9999994 magnetization 
 augmentation part        6.9330608 magnetization 

 Broyden mixing:
  rms(total) = 0.10069E-01    rms(broyden)= 0.10069E-01
  rms(prec ) = 0.34352E-01
  weight for this iteration     100.00

 eigenvalues of (default mixing * dielectric matrix)
  average eigenvalue GAMMA=   1.4732
  2.5816  2.2624  0.7445  0.7445  1.0329

 Free energy of the ion-electron system (eV)
  ---------------------------------------------------
  alpha Z        PSCENC =        51.23101473
  Ewald energy   TEWEN  =     -1050.55689710
  -Hartree energ DENC   =      -417.18984522
  -exchange      EXHF   =         0.00000000
  -V(xc)+E(xc)   XCENC  =        48.48271534
  PAW double counting   =      1412.58492367    -1520.58421928
  entropy T*S    EENTRO =        -0.00183022
  eigenvalues    EBANDS =        49.91366142
  atomic energy  EATOM  =      1418.45671353
  Solvation  Ediel_sol  =         0.00000000
  ---------------------------------------------------
  free energy    TOTEN  =        -7.66376312 eV

  energy without entropy =       -7.66193290  energy(sigma->0) =       -7.66284801


--------------------------------------------------------------------------------------------------------




--------------------------------------- Iteration      1(  11)  ---------------------------------------


    POTLOK:  cpu time      0.0068: real time      0.0071
    SETDIJ:  cpu time      0.0737: real time      0.0738
