Cs1 O2                                  
   1.00000000000000     
     2.2202449999999998   -3.4034409999999999    0.0000000000000000
     2.2202449999999998    3.4034409999999999    0.0000000000000000
     0.0000000000000000    0.0000000000000000    4.1493039999999999
   Cs   O 
     1     2
Direct
     0.5000000000000000    0.5000000000000000    0.0000000000000000
     0.0997079999999997    0.9002920000000003    0.5000000000000000
     0.9002920000000003    0.0997079999999997    0.5000000000000000
 
  0.00000000E+00  0.00000000E+00  0.00000000E+00
  0.00000000E+00  0.00000000E+00  0.00000000E+00
  0.00000000E+00  0.00000000E+00  0.00000000E+00
