   3   3   0   0
  0.2090274E+02  0.4063607E-09  0.4063607E-09  0.4149304E-09  0.5000000E-15
  1.000000000000000E-004
  CAR 
 unknown system                          
     12.36068949    -23.49160635  301      1.70767262      1.00000000
    -23.492  0.0000E+00  0.0000E+00  0.0000E+00  0.0000E+00
    -23.372  0.0000E+00  0.0000E+00  0.0000E+00  0.0000E+00
    -23.253  0.0000E+00  0.0000E+00  0.0000E+00  0.0000E+00
    -23.133  0.0000E+00  0.0000E+00  0.0000E+00  0.0000E+00
    -23.014  0.0000E+00  0.0000E+00  0.0000E+00  0.0000E+00
    -22.894  0.0000E+00  0.0000E+00  0.0000E+00  0.0000E+00
    -22.775  0.0000E+00  0.0000E+00  0.0000E+00  0.0000E+00
    -22.655  0.0000E+00  0.0000E+00  0.0000E+00  0.0000E+00
    -22.536  0.0000E+00  0.0000E+00  0.0000E+00  0.0000E+00
    -22.416  0.0000E+00  0.0000E+00  0.0000E+00  0.0000E+00
    -22.297  0.0000E+00  0.0000E+00  0.0000E+00  0.0000E+00
    -22.177  0.0000E+00  0.0000E+00  0.0000E+00  0.0000E+00
    -22.058  0.5290E-09  0.0000E+00  0.6322E-10  0.0000E+00
    -21.938  0.1384E-02  0.0000E+00  0.1653E-03  0.0000E+00
    -21.818  0.8504E+00  0.0000E+00  0.1018E+00  0.0000E+00
    -21.699  0.6661E+01  0.0000E+00  0.8979E+00  0.0000E+00
    -21.579  0.8546E+00  0.0000E+00  0.1000E+01  0.0000E+00
    -21.460  0.7930E-04  0.1766E-08  0.1000E+01  0.2110E-09
    -21.340  0.4119E-12  0.1850E-02  0.1000E+01  0.2211E-03
    -21.221  0.0000E+00  0.6158E+00  0.1000E+01  0.7381E-01
    -21.101  0.0000E+00  0.5786E+01  0.1000E+01  0.7653E+00
    -20.982  0.0000E+00  0.1963E+01  0.1000E+01  0.9999E+00
    -20.862  0.0000E+00  0.1229E-02  0.1000E+01  0.1000E+01
    -20.743  0.0000E+00  0.6352E-10  0.1000E+01  0.1000E+01
    -20.623  0.0000E+00  0.0000E+00  0.1000E+01  0.1000E+01
    -20.504  0.0000E+00  0.0000E+00  0.1000E+01  0.1000E+01
    -20.384  0.0000E+00  0.0000E+00  0.1000E+01  0.1000E+01
    -20.265  0.0000E+00  0.0000E+00  0.1000E+01  0.1000E+01
    -20.145  0.0000E+00  0.0000E+00  0.1000E+01  0.1000E+01
    -20.026  0.0000E+00  0.0000E+00  0.1000E+01  0.1000E+01
    -19.906  0.0000E+00  0.0000E+00  0.1000E+01  0.1000E+01
    -19.787  0.0000E+00  0.0000E+00  0.1000E+01  0.1000E+01
    -19.667  0.1106E-11  0.1037E-11  0.1000E+01  0.1000E+01
    -19.548  0.5813E-04  0.5116E-04  0.1000E+01  0.1000E+01
    -19.428  0.4407E+00  0.3481E+00  0.1053E+01  0.1042E+01
    -19.309  0.5939E+01  0.5775E+01  0.1762E+01  0.1732E+01
    -19.189  0.1982E+01  0.2235E+01  0.1999E+01  0.1999E+01
    -19.070  0.5314E-02  0.1020E-01  0.2000E+01  0.2000E+01
    -18.950  0.1583E-08  0.1141E-07  0.2000E+01  0.2000E+01
    -18.831  0.0000E+00  0.0000E+00  0.2000E+01  0.2000E+01
    -18.711  0.0000E+00  0.0000E+00  0.2000E+01  0.2000E+01
    -18.592  0.0000E+00  0.0000E+00  0.2000E+01  0.2000E+01
    -18.472  0.0000E+00  0.0000E+00  0.2000E+01  0.2000E+01
    -18.353  0.0000E+00  0.0000E+00  0.2000E+01  0.2000E+01
    -18.233  0.0000E+00  0.0000E+00  0.2000E+01  0.2000E+01
    -18.114  0.0000E+00  0.0000E+00  0.2000E+01  0.2000E+01
    -17.994  0.0000E+00  0.0000E+00  0.2000E+01  0.2000E+01
    -17.875  0.0000E+00  0.0000E+00  0.2000E+01  0.2000E+01
    -17.755  0.0000E+00  0.0000E+00  0.2000E+01  0.2000E+01
    -17.636  0.0000E+00  0.0000E+00  0.2000E+01  0.2000E+01
    -17.516  0.0000E+00  0.0000E+00  0.2000E+01  0.2000E+01
    -17.397  0.0000E+00  0.0000E+00  0.2000E+01  0.2000E+01
    -17.277  0.0000E+00  0.0000E+00  0.2000E+01  0.2000E+01
    -17.158  0.0000E+00  0.0000E+00  0.2000E+01  0.2000E+01
    -17.038  0.0000E+00  0.0000E+00  0.2000E+01  0.2000E+01
    -16.919  0.0000E+00  0.0000E+00  0.2000E+01  0.2000E+01
    -16.799  0.0000E+00  0.0000E+00  0.2000E+01  0.2000E+01
    -16.680  0.0000E+00  0.0000E+00  0.2000E+01  0.2000E+01
    -16.560  0.0000E+00  0.0000E+00  0.2000E+01  0.2000E+01
    -16.441  0.0000E+00  0.0000E+00  0.2000E+01  0.2000E+01
    -16.321  0.0000E+00  0.0000E+00  0.2000E+01  0.2000E+01
    -16.202  0.0000E+00  0.0000E+00  0.2000E+01  0.2000E+01
    -16.082  0.0000E+00  0.0000E+00  0.2000E+01  0.2000E+01
    -15.963  0.0000E+00  0.0000E+00  0.2000E+01  0.2000E+01
    -15.843  0.0000E+00  0.0000E+00  0.2000E+01  0.2000E+01
    -15.724  0.0000E+00  0.0000E+00  0.2000E+01  0.2000E+01
    -15.604  0.0000E+00  0.0000E+00  0.2000E+01  0.2000E+01
    -15.485  0.0000E+00  0.0000E+00  0.2000E+01  0.2000E+01
    -15.365  0.0000E+00  0.0000E+00  0.2000E+01  0.2000E+01
    -15.246  0.0000E+00  0.0000E+00  0.2000E+01  0.2000E+01
    -15.126  0.0000E+00  0.0000E+00  0.2000E+01  0.2000E+01
    -15.007  0.0000E+00  0.0000E+00  0.2000E+01  0.2000E+01
    -14.887  0.0000E+00  0.0000E+00  0.2000E+01  0.2000E+01
    -14.768  0.0000E+00  0.0000E+00  0.2000E+01  0.2000E+01
    -14.648  0.0000E+00  0.0000E+00  0.2000E+01  0.2000E+01
    -14.529  0.0000E+00  0.0000E+00  0.2000E+01  0.2000E+01
    -14.409  0.0000E+00  0.0000E+00  0.2000E+01  0.2000E+01
    -14.290  0.0000E+00  0.0000E+00  0.2000E+01  0.2000E+01
    -14.170  0.0000E+00  0.0000E+00  0.2000E+01  0.2000E+01
    -14.051  0.0000E+00  0.0000E+00  0.2000E+01  0.2000E+01
    -13.931  0.0000E+00  0.0000E+00  0.2000E+01  0.2000E+01
    -13.811  0.0000E+00  0.0000E+00  0.2000E+01  0.2000E+01
    -13.692  0.0000E+00  0.0000E+00  0.2000E+01  0.2000E+01
    -13.572  0.0000E+00  0.0000E+00  0.2000E+01  0.2000E+01
    -13.453  0.8004E-08  0.0000E+00  0.2000E+01  0.2000E+01
    -13.333  0.5667E-02  0.0000E+00  0.2001E+01  0.2000E+01
    -13.214  0.5554E+00  0.0000E+00  0.2067E+01  0.2000E+01
    -13.094  0.1756E+01  0.0000E+00  0.2277E+01  0.2000E+01
    -12.975  0.3013E+01  0.0000E+00  0.2637E+01  0.2000E+01
    -12.855  0.2176E+01  0.0000E+00  0.2897E+01  0.2000E+01
    -12.736  0.8490E+00  0.2167E-16  0.2999E+01  0.2000E+01
    -12.616  0.1246E-01  0.1358E-06  0.3000E+01  0.2000E+01
    -12.497  0.8182E-07  0.1718E-01  0.3000E+01  0.2002E+01
    -12.377  0.0000E+00  0.6167E+00  0.3000E+01  0.2076E+01
    -12.258  0.0000E+00  0.1629E+01  0.3000E+01  0.2270E+01
    -12.138  0.0000E+00  0.2749E+01  0.3000E+01  0.2599E+01
    -12.019  0.0000E+00  0.2186E+01  0.3000E+01  0.2860E+01
    -11.899  0.0000E+00  0.1115E+01  0.3000E+01  0.2993E+01
    -11.780  0.0000E+00  0.5449E-01  0.3000E+01  0.3000E+01
    -11.660  0.0000E+00  0.3985E-05  0.3000E+01  0.3000E+01
    -11.541  0.0000E+00  0.9653E-14  0.3000E+01  0.3000E+01
    -11.421  0.0000E+00  0.0000E+00  0.3000E+01  0.3000E+01
    -11.302  0.0000E+00  0.0000E+00  0.3000E+01  0.3000E+01
    -11.182  0.0000E+00  0.0000E+00  0.3000E+01  0.3000E+01
    -11.063  0.0000E+00  0.0000E+00  0.3000E+01  0.3000E+01
    -10.943  0.0000E+00  0.0000E+00  0.3000E+01  0.3000E+01
    -10.824  0.0000E+00  0.0000E+00  0.3000E+01  0.3000E+01
    -10.704  0.0000E+00  0.0000E+00  0.3000E+01  0.3000E+01
    -10.585  0.0000E+00  0.0000E+00  0.3000E+01  0.3000E+01
    -10.465  0.0000E+00  0.0000E+00  0.3000E+01  0.3000E+01
    -10.346  0.0000E+00  0.0000E+00  0.3000E+01  0.3000E+01
    -10.226  0.0000E+00  0.0000E+00  0.3000E+01  0.3000E+01
    -10.107  0.0000E+00  0.0000E+00  0.3000E+01  0.3000E+01
     -9.987  0.0000E+00  0.0000E+00  0.3000E+01  0.3000E+01
     -9.868  0.0000E+00  0.0000E+00  0.3000E+01  0.3000E+01
     -9.748  0.0000E+00  0.0000E+00  0.3000E+01  0.3000E+01
     -9.629  0.0000E+00  0.0000E+00  0.3000E+01  0.3000E+01
     -9.509  0.0000E+00  0.0000E+00  0.3000E+01  0.3000E+01
     -9.390  0.0000E+00  0.0000E+00  0.3000E+01  0.3000E+01
     -9.270  0.0000E+00  0.0000E+00  0.3000E+01  0.3000E+01
     -9.151  0.0000E+00  0.0000E+00  0.3000E+01  0.3000E+01
     -9.031  0.0000E+00  0.0000E+00  0.3000E+01  0.3000E+01
     -8.912  0.0000E+00  0.0000E+00  0.3000E+01  0.3000E+01
     -8.792  0.0000E+00  0.0000E+00  0.3000E+01  0.3000E+01
     -8.673  0.0000E+00  0.0000E+00  0.3000E+01  0.3000E+01
     -8.553  0.0000E+00  0.0000E+00  0.3000E+01  0.3000E+01
     -8.434  0.0000E+00  0.0000E+00  0.3000E+01  0.3000E+01
     -8.314  0.0000E+00  0.0000E+00  0.3000E+01  0.3000E+01
     -8.195  0.0000E+00  0.0000E+00  0.3000E+01  0.3000E+01
     -8.075  0.0000E+00  0.0000E+00  0.3000E+01  0.3000E+01
     -7.956  0.0000E+00  0.0000E+00  0.3000E+01  0.3000E+01
     -7.836  0.0000E+00  0.0000E+00  0.3000E+01  0.3000E+01
     -7.717  0.0000E+00  0.0000E+00  0.3000E+01  0.3000E+01
     -7.597  0.0000E+00  0.0000E+00  0.3000E+01  0.3000E+01
     -7.478  0.0000E+00  0.0000E+00  0.3000E+01  0.3000E+01
     -7.358  0.5477E-09  0.5959E-15  0.3000E+01  0.3000E+01
     -7.239  0.2239E-02  0.9779E-06  0.3000E+01  0.3000E+01
     -7.119  0.5008E+00  0.3677E-01  0.3060E+01  0.3004E+01
     -7.000  0.1119E+01  0.6208E+00  0.3194E+01  0.3079E+01
     -6.880  0.2016E+01  0.1532E+01  0.3435E+01  0.3262E+01
     -6.761  0.2541E+01  0.2593E+01  0.3738E+01  0.3572E+01
     -6.641  0.2547E+01  0.2334E+01  0.4043E+01  0.3851E+01
     -6.522  0.2080E+01  0.2578E+01  0.4291E+01  0.4159E+01
     -6.402  0.2310E+01  0.2478E+01  0.4568E+01  0.4455E+01
     -6.283  0.1860E+01  0.1916E+01  0.4790E+01  0.4684E+01
     -6.163  0.2194E+01  0.2064E+01  0.5052E+01  0.4930E+01
     -6.043  0.2980E+01  0.3422E+01  0.5408E+01  0.5339E+01
     -5.924  0.2537E+01  0.2805E+01  0.5711E+01  0.5675E+01
     -5.804  0.1804E+01  0.2060E+01  0.5927E+01  0.5921E+01
     -5.685  0.5479E+00  0.5977E+00  0.5992E+01  0.5992E+01
     -5.565  0.6352E-01  0.6506E-01  0.6000E+01  0.6000E+01
     -5.446  0.6301E-04  0.6623E-04  0.6000E+01  0.6000E+01
     -5.326  0.9890E-04  0.3827E-11  0.6000E+01  0.6000E+01
     -5.207  0.2453E-01  0.0000E+00  0.6003E+01  0.6000E+01
     -5.087  0.1338E+00  0.4053E-11  0.6019E+01  0.6000E+01
     -4.968  0.3456E+00  0.4513E-04  0.6060E+01  0.6000E+01
     -4.848  0.5407E+00  0.1831E-01  0.6125E+01  0.6002E+01
     -4.729  0.2504E+01  0.1234E+00  0.6424E+01  0.6017E+01
     -4.609  0.2159E+01  0.3193E+00  0.6682E+01  0.6055E+01
     -4.490  0.1823E+01  0.5133E+00  0.6900E+01  0.6116E+01
     -4.370  0.9382E+00  0.2286E+01  0.7012E+01  0.6390E+01
     -4.251  0.2779E+00  0.2055E+01  0.7045E+01  0.6635E+01
     -4.131  0.1034E+01  0.1806E+01  0.7169E+01  0.6851E+01
     -4.012  0.2089E+01  0.9963E+00  0.7419E+01  0.6970E+01
     -3.892  0.1802E+01  0.2496E+00  0.7634E+01  0.7000E+01
     -3.773  0.1163E+01  0.7440E-04  0.7773E+01  0.7000E+01
     -3.653  0.2414E+01  0.5783E-07  0.8061E+01  0.7000E+01
     -3.534  0.1416E+01  0.7917E-02  0.8230E+01  0.7001E+01
     -3.414  0.1759E+01  0.2290E+00  0.8441E+01  0.7028E+01
     -3.295  0.2162E+01  0.1262E+01  0.8699E+01  0.7179E+01
     -3.175  0.1708E+01  0.2692E+01  0.8903E+01  0.7501E+01
     -3.056  0.5387E+00  0.1880E+01  0.8968E+01  0.7725E+01
     -2.936  0.2714E+00  0.1387E+01  0.9000E+01  0.7891E+01
     -2.817  0.1223E-03  0.2550E+01  0.9000E+01  0.8196E+01
     -2.697  0.1834E-11  0.1575E+01  0.9000E+01  0.8384E+01
     -2.578  0.0000E+00  0.1901E+01  0.9000E+01  0.8611E+01
     -2.458  0.0000E+00  0.2138E+01  0.9000E+01  0.8867E+01
     -2.339  0.0000E+00  0.1001E+01  0.9000E+01  0.8987E+01
     -2.219  0.0000E+00  0.1122E+00  0.9000E+01  0.9000E+01
     -2.100  0.0000E+00  0.3048E-04  0.9000E+01  0.9000E+01
     -1.980  0.0000E+00  0.2614E-12  0.9000E+01  0.9000E+01
     -1.861  0.0000E+00  0.0000E+00  0.9000E+01  0.9000E+01
     -1.741  0.0000E+00  0.0000E+00  0.9000E+01  0.9000E+01
     -1.622  0.0000E+00  0.0000E+00  0.9000E+01  0.9000E+01
     -1.502  0.0000E+00  0.0000E+00  0.9000E+01  0.9000E+01
     -1.383  0.0000E+00  0.0000E+00  0.9000E+01  0.9000E+01
     -1.263  0.0000E+00  0.0000E+00  0.9000E+01  0.9000E+01
     -1.144  0.0000E+00  0.0000E+00  0.9000E+01  0.9000E+01
     -1.024  0.0000E+00  0.0000E+00  0.9000E+01  0.9000E+01
     -0.905  0.0000E+00  0.0000E+00  0.9000E+01  0.9000E+01
     -0.785  0.0000E+00  0.0000E+00  0.9000E+01  0.9000E+01
     -0.666  0.0000E+00  0.0000E+00  0.9000E+01  0.9000E+01
     -0.546  0.0000E+00  0.0000E+00  0.9000E+01  0.9000E+01
     -0.427  0.0000E+00  0.0000E+00  0.9000E+01  0.9000E+01
     -0.307  0.0000E+00  0.0000E+00  0.9000E+01  0.9000E+01
     -0.188  0.1872E-11  0.0000E+00  0.9000E+01  0.9000E+01
     -0.068  0.3562E-04  0.0000E+00  0.9000E+01  0.9000E+01
      0.051  0.3544E-01  0.0000E+00  0.9004E+01  0.9000E+01
      0.171  0.3200E+00  0.0000E+00  0.9042E+01  0.9000E+01
      0.290  0.8911E+00  0.0000E+00  0.9149E+01  0.9000E+01
      0.410  0.8955E+00  0.0000E+00  0.9256E+01  0.9000E+01
      0.529  0.1397E+01  0.0000E+00  0.9423E+01  0.9000E+01
      0.649  0.1643E+01  0.0000E+00  0.9619E+01  0.9000E+01
      0.768  0.2522E+01  0.0000E+00  0.9921E+01  0.9000E+01
      0.888  0.2708E+01  0.0000E+00  0.1024E+02  0.9000E+01
      1.007  0.3643E+01  0.1561E-12  0.1068E+02  0.9000E+01
      1.127  0.2044E+01  0.1680E-04  0.1092E+02  0.9000E+01
      1.246  0.5909E+00  0.7713E-01  0.1099E+02  0.9009E+01
      1.366  0.4443E-01  0.4216E+00  0.1100E+02  0.9060E+01
      1.485  0.1551E-04  0.2063E+01  0.1100E+02  0.9306E+01
      1.605  0.4150E-12  0.3312E+01  0.1100E+02  0.9702E+01
      1.725  0.0000E+00  0.2876E+01  0.1100E+02  0.1005E+02
      1.844  0.0000E+00  0.2368E+01  0.1100E+02  0.1033E+02
      1.964  0.0000E+00  0.1850E+01  0.1100E+02  0.1055E+02
      2.083  0.0000E+00  0.1477E+01  0.1100E+02  0.1073E+02
      2.203  0.0000E+00  0.6769E+00  0.1100E+02  0.1081E+02
      2.322  0.0000E+00  0.9134E+00  0.1100E+02  0.1092E+02
      2.442  0.0000E+00  0.4229E+00  0.1100E+02  0.1097E+02
      2.561  0.0000E+00  0.2771E+00  0.1100E+02  0.1100E+02
      2.681  0.0000E+00  0.5456E-03  0.1100E+02  0.1100E+02
      2.800  0.0000E+00  0.9041E-10  0.1100E+02  0.1100E+02
      2.920  0.0000E+00  0.0000E+00  0.1100E+02  0.1100E+02
      3.039  0.0000E+00  0.0000E+00  0.1100E+02  0.1100E+02
      3.159  0.0000E+00  0.0000E+00  0.1100E+02  0.1100E+02
      3.278  0.0000E+00  0.0000E+00  0.1100E+02  0.1100E+02
      3.398  0.0000E+00  0.0000E+00  0.1100E+02  0.1100E+02
      3.517  0.0000E+00  0.0000E+00  0.1100E+02  0.1100E+02
      3.637  0.0000E+00  0.0000E+00  0.1100E+02  0.1100E+02
      3.756  0.0000E+00  0.0000E+00  0.1100E+02  0.1100E+02
      3.876  0.0000E+00  0.0000E+00  0.1100E+02  0.1100E+02
      3.995  0.0000E+00  0.0000E+00  0.1100E+02  0.1100E+02
      4.115  0.0000E+00  0.0000E+00  0.1100E+02  0.1100E+02
      4.234  0.0000E+00  0.0000E+00  0.1100E+02  0.1100E+02
      4.354  0.0000E+00  0.0000E+00  0.1100E+02  0.1100E+02
      4.473  0.0000E+00  0.0000E+00  0.1100E+02  0.1100E+02
      4.593  0.0000E+00  0.0000E+00  0.1100E+02  0.1100E+02
      4.712  0.0000E+00  0.0000E+00  0.1100E+02  0.1100E+02
      4.832  0.2613E-13  0.2420E-14  0.1100E+02  0.1100E+02
      4.951  0.3265E-05  0.8779E-06  0.1100E+02  0.1100E+02
      5.071  0.9650E-02  0.6775E-02  0.1100E+02  0.1100E+02
      5.190  0.1537E-01  0.1764E-01  0.1100E+02  0.1100E+02
      5.310  0.4221E-01  0.3329E-01  0.1101E+02  0.1101E+02
      5.429  0.1059E-01  0.1783E-01  0.1101E+02  0.1101E+02
      5.549  0.1978E+00  0.1109E+00  0.1103E+02  0.1102E+02
      5.668  0.3152E+00  0.1965E+00  0.1107E+02  0.1105E+02
      5.788  0.6163E+00  0.3100E+00  0.1114E+02  0.1108E+02
      5.907  0.3746E+00  0.3650E+00  0.1119E+02  0.1113E+02
      6.027  0.6346E+00  0.5877E+00  0.1126E+02  0.1120E+02
      6.146  0.9607E+00  0.6219E+00  0.1138E+02  0.1127E+02
      6.266  0.9235E+00  0.5556E+00  0.1149E+02  0.1134E+02
      6.385  0.1021E+01  0.1122E+01  0.1161E+02  0.1147E+02
      6.505  0.1216E+01  0.6980E+00  0.1176E+02  0.1155E+02
      6.624  0.1074E+01  0.1198E+01  0.1189E+02  0.1170E+02
      6.744  0.1146E+01  0.1043E+01  0.1202E+02  0.1182E+02
      6.863  0.1237E+01  0.1389E+01  0.1217E+02  0.1199E+02
      6.983  0.8806E+00  0.1019E+01  0.1228E+02  0.1211E+02
      7.102  0.8119E+00  0.5373E+00  0.1237E+02  0.1217E+02
      7.222  0.1228E+01  0.1464E+01  0.1252E+02  0.1235E+02
      7.341  0.1465E+01  0.8319E+00  0.1269E+02  0.1245E+02
      7.461  0.1843E+01  0.1194E+01  0.1291E+02  0.1259E+02
      7.580  0.2301E+01  0.1599E+01  0.1319E+02  0.1278E+02
      7.700  0.5165E+00  0.2601E+01  0.1325E+02  0.1309E+02
      7.819  0.4095E+00  0.9410E+00  0.1330E+02  0.1321E+02
      7.939  0.7071E+00  0.6030E+00  0.1339E+02  0.1328E+02
      8.058  0.9469E+00  0.8688E+00  0.1350E+02  0.1338E+02
      8.178  0.1287E+01  0.9861E+00  0.1365E+02  0.1350E+02
      8.297  0.1190E+01  0.1056E+01  0.1379E+02  0.1363E+02
      8.417  0.1199E+01  0.1179E+01  0.1394E+02  0.1377E+02
      8.536  0.1278E+01  0.1189E+01  0.1409E+02  0.1391E+02
      8.656  0.1482E+01  0.1699E+01  0.1427E+02  0.1411E+02
      8.775  0.1331E+01  0.1328E+01  0.1443E+02  0.1427E+02
      8.895  0.1543E+01  0.1080E+01  0.1461E+02  0.1440E+02
      9.014  0.1382E+01  0.1691E+01  0.1478E+02  0.1460E+02
      9.134  0.1685E+01  0.1171E+01  0.1498E+02  0.1474E+02
      9.253  0.2079E+01  0.2269E+01  0.1523E+02  0.1501E+02
      9.373  0.1581E+01  0.1739E+01  0.1541E+02  0.1522E+02
      9.493  0.1325E+01  0.1271E+01  0.1557E+02  0.1537E+02
      9.612  0.1033E+01  0.1453E+01  0.1570E+02  0.1555E+02
      9.732  0.1160E+01  0.1153E+01  0.1584E+02  0.1568E+02
      9.851  0.4460E+00  0.1191E+01  0.1589E+02  0.1583E+02
      9.971  0.4331E+00  0.6322E+00  0.1594E+02  0.1590E+02
     10.090  0.6027E-01  0.8598E-01  0.1595E+02  0.1591E+02
     10.210  0.3764E-05  0.1697E+00  0.1595E+02  0.1593E+02
     10.329  0.5215E-02  0.1229E+00  0.1595E+02  0.1595E+02
     10.449  0.2184E+00  0.1073E+00  0.1597E+02  0.1596E+02
     10.568  0.1176E+00  0.1689E+00  0.1599E+02  0.1598E+02
     10.688  0.6044E-01  0.7469E-01  0.1600E+02  0.1599E+02
     10.807  0.3750E-01  0.8658E-01  0.1600E+02  0.1600E+02
     10.927  0.1165E-04  0.1536E-02  0.1600E+02  0.1600E+02
     11.046  0.8470E-13  0.1552E-08  0.1600E+02  0.1600E+02
     11.166  0.0000E+00  0.0000E+00  0.1600E+02  0.1600E+02
     11.285  0.0000E+00  0.0000E+00  0.1600E+02  0.1600E+02
     11.405  0.0000E+00  0.0000E+00  0.1600E+02  0.1600E+02
     11.524  0.0000E+00  0.0000E+00  0.1600E+02  0.1600E+02
     11.644  0.0000E+00  0.0000E+00  0.1600E+02  0.1600E+02
     11.763  0.0000E+00  0.0000E+00  0.1600E+02  0.1600E+02
     11.883  0.0000E+00  0.0000E+00  0.1600E+02  0.1600E+02
     12.002  0.0000E+00  0.0000E+00  0.1600E+02  0.1600E+02
     12.122  0.0000E+00  0.0000E+00  0.1600E+02  0.1600E+02
     12.241  0.0000E+00  0.0000E+00  0.1600E+02  0.1600E+02
     12.361  0.0000E+00  0.0000E+00  0.1600E+02  0.1600E+02
