Rb1 Cl1                                 
   1.00000000000000     
     3.9359705100000002    0.0000000000000000    0.0000000000000000
     0.0000000000000000    3.9359705100000002    0.0000000000000000
     0.0000000000000000    0.0000000000000000    3.9359705100000002
   Rb   Cl
     1     1
Direct
     0.0000000000000000    0.0000000000000000    0.0000000000000000
     0.5000000000000000    0.5000000000000000    0.5000000000000000
 
  0.00000000E+00  0.00000000E+00  0.00000000E+00
  0.00000000E+00  0.00000000E+00  0.00000000E+00
