       N       E                     dE             d eps       ncg     rms          rms(c)
DAV:   1     0.947013244310E+02    0.94701E+02   -0.79134E+03  8232   0.133E+03
DAV:   2    -0.141815803650E+01   -0.96119E+02   -0.89858E+02 12248   0.209E+02
DAV:   3    -0.678583972342E+01   -0.53677E+01   -0.53474E+01 10536   0.549E+01
DAV:   4    -0.690704116889E+01   -0.12120E+00   -0.12112E+00 12480   0.807E+00
DAV:   5    -0.690808794335E+01   -0.10468E-02   -0.10467E-02 10640   0.738E-01    0.297E+00
DAV:   6    -0.658187261211E+01    0.32622E+00   -0.56952E-01  9496   0.417E+00    0.235E+00
DAV:   7    -0.654197492056E+01    0.39898E-01   -0.16216E-01 10076   0.238E+00    0.138E+00
DAV:   8    -0.654375372955E+01   -0.17788E-02   -0.18871E-02 11252   0.105E+00    0.187E-01
DAV:   9    -0.654399318941E+01   -0.23946E-03   -0.23925E-03 10644   0.301E-01    0.971E-02
DAV:  10    -0.654414243327E+01   -0.14924E-03   -0.32794E-04 10140   0.154E-01    0.148E-02
DAV:  11    -0.654414959276E+01   -0.71595E-05   -0.13551E-05 10680   0.340E-02    0.720E-03
DAV:  12    -0.654414987937E+01   -0.28661E-06   -0.37233E-06  9996   0.140E-02
   1 F= -.65441499E+01 E0= -.65441499E+01  d E =-.204463E-17
