       N       E                     dE             d eps       ncg     rms          rms(c)
DAV:   1     0.340292516277E+01    0.34029E+01   -0.46910E+03 18616   0.100E+03
DAV:   2    -0.193957075268E+02   -0.22799E+02   -0.21722E+02 28544   0.124E+02
DAV:   3    -0.196755238186E+02   -0.27982E+00   -0.27982E+00 22312   0.163E+01
DAV:   4    -0.196765757479E+02   -0.10519E-02   -0.10519E-02 30984   0.992E-01
DAV:   5    -0.196765760762E+02   -0.32826E-06   -0.32826E-06 21952   0.146E-02    0.638E+00
DAV:   6    -0.187377958198E+02    0.93878E+00   -0.99841E-01 21952   0.710E+00    0.373E+00
DAV:   7    -0.184359283944E+02    0.30187E+00   -0.10790E+00 24896   0.732E+00    0.103E+00
DAV:   8    -0.184389160873E+02   -0.29877E-02   -0.10357E-02 23528   0.915E-01    0.646E-02
DAV:   9    -0.184389468962E+02   -0.30809E-04   -0.32285E-04 27848   0.152E-01    0.455E-02
DAV:  10    -0.184390531091E+02   -0.10621E-03   -0.12798E-04 20200   0.999E-02    0.166E-02
DAV:  11    -0.184390535539E+02   -0.44483E-06   -0.45958E-06 27288   0.165E-02
   1 F= -.18439054E+02 E0= -.18439054E+02  d E =-.102417E-15
