Ba1 Cl2                                 
   1.00000000000000     
     4.5164657999999998    0.0000000000000000    2.6075819899999999
     1.5054889400000000    4.2581624500000004    2.6075819899999999
     0.0000000000000000    0.0000000000000000    5.2151639799999998
   Ba   Cl
     1     2
Direct
     0.0000000000000000    0.0000000000000000    0.0000000000000000
     0.7500000000000000    0.7500000000000000    0.7500000000000000
     0.2500000000000000    0.2500000000000000    0.2500000000000000
 
  0.00000000E+00  0.00000000E+00  0.00000000E+00
  0.00000000E+00  0.00000000E+00  0.00000000E+00
  0.00000000E+00  0.00000000E+00  0.00000000E+00
