       N       E                     dE             d eps       ncg     rms          rms(c)
DAV:   1     0.864919407108E+02    0.86492E+02   -0.82983E+03  8232   0.196E+03
DAV:   2    -0.179593810338E+01   -0.88288E+02   -0.86128E+02 11808   0.265E+02
DAV:   3    -0.683755704380E+01   -0.50416E+01   -0.49707E+01  8368   0.791E+01
DAV:   4    -0.695778805304E+01   -0.12023E+00   -0.12023E+00 12920   0.139E+01
DAV:   5    -0.695927583111E+01   -0.14878E-02   -0.14878E-02 11176   0.980E-01    0.216E+00
DAV:   6    -0.677220952336E+01    0.18707E+00   -0.52487E-01  9464   0.580E+00    0.170E+00
DAV:   7    -0.676051080994E+01    0.11699E-01   -0.11598E-01 11752   0.285E+00    0.108E+00
DAV:   8    -0.676586461638E+01   -0.53538E-02   -0.95856E-03 10120   0.137E+00    0.177E-01
DAV:   9    -0.676593215653E+01   -0.67540E-04   -0.14334E-04 12688   0.169E-01    0.105E-01
DAV:  10    -0.676612562394E+01   -0.19347E-03   -0.28385E-04 10072   0.194E-01    0.167E-02
DAV:  11    -0.676612520014E+01    0.42380E-06   -0.14961E-05 11776   0.390E-02    0.157E-03
DAV:  12    -0.676612554502E+01   -0.34488E-06   -0.31580E-07 10032   0.764E-03
   1 F= -.67661255E+01 E0= -.67661255E+01  d E =-.182138E-11
