Ti2                                     
   1.00000000000000     
     2.9357312400000000    0.0000000000000000    0.0000000000000000
    -1.4678656200000000    2.5424194099999999    0.0000000000000000
     0.0000000000000000    0.0000000000000000    4.6408561500000003
   Ti
     2
Direct
     0.3333330000000032    0.6666669999999968    0.2500000000000000
     0.6666669999999968    0.3333330000000032    0.7500000000000000
 
  0.00000000E+00  0.00000000E+00  0.00000000E+00
  0.00000000E+00  0.00000000E+00  0.00000000E+00
