       N       E                     dE             d eps       ncg     rms          rms(c)
DAV:   1     0.171969399080E+03    0.17197E+03   -0.11273E+04 24032   0.122E+03
DAV:   2    -0.125877434958E+02   -0.18456E+03   -0.18039E+03 24056   0.346E+02
DAV:   3    -0.178202420631E+02   -0.52325E+01   -0.51372E+01 26088   0.644E+01
DAV:   4    -0.178834199763E+02   -0.63178E-01   -0.63146E-01 26624   0.730E+00
DAV:   5    -0.178846099342E+02   -0.11900E-02   -0.11899E-02 26480   0.104E+00    0.164E+01
DAV:   6    -0.157321219354E+02    0.21525E+01   -0.43552E+00 26012   0.223E+01    0.280E+00
DAV:   7    -0.156153254514E+02    0.11680E+00   -0.39746E-01 27328   0.571E+00    0.915E-01
DAV:   8    -0.156036526219E+02    0.11673E-01   -0.19552E-02 24312   0.144E+00    0.316E-01
DAV:   9    -0.156023212919E+02    0.13313E-02   -0.25445E-03 28072   0.470E-01    0.545E-02
DAV:  10    -0.156023122787E+02    0.90132E-05   -0.27140E-04 28468   0.168E-01    0.438E-02
DAV:  11    -0.156022811840E+02    0.31095E-04   -0.12918E-04 26500   0.121E-01    0.170E-02
DAV:  12    -0.156022737566E+02    0.74274E-05   -0.46646E-06 25864   0.240E-02    0.296E-03
DAV:  13    -0.156022729875E+02    0.76907E-06   -0.16258E-07 12744   0.452E-03
   1 F= -.15602273E+02 E0= -.15600415E+02  d E =-.371690E-02
