   6   6   0   0
  0.2176877E+02  0.5695083E-09  0.5695083E-09  0.5695083E-09  0.5000000E-15
  1.000000000000000E-004
  CAR 
 unknown system                          
     10.10954717    -41.77599686  301      3.42585726      1.00000000
    -41.776  0.0000E+00  0.0000E+00
    -41.603  0.0000E+00  0.0000E+00
    -41.430  0.0000E+00  0.0000E+00
    -41.257  0.0000E+00  0.0000E+00
    -41.084  0.0000E+00  0.0000E+00
    -40.911  0.0000E+00  0.0000E+00
    -40.738  0.0000E+00  0.0000E+00
    -40.565  0.0000E+00  0.0000E+00
    -40.392  0.0000E+00  0.0000E+00
    -40.219  0.0000E+00  0.0000E+00
    -40.046  0.0000E+00  0.0000E+00
    -39.874  0.0000E+00  0.0000E+00
    -39.701  0.3441E-15  0.5951E-16
    -39.528  0.4104E-02  0.7099E-03
    -39.355  0.8759E+02  0.1515E+02
    -39.182  0.5117E+02  0.2400E+02
    -39.009  0.3544E-03  0.2400E+02
    -38.836  0.0000E+00  0.2400E+02
    -38.663  0.0000E+00  0.2400E+02
    -38.490  0.0000E+00  0.2400E+02
    -38.317  0.0000E+00  0.2400E+02
    -38.144  0.0000E+00  0.2400E+02
    -37.971  0.0000E+00  0.2400E+02
    -37.798  0.0000E+00  0.2400E+02
    -37.625  0.0000E+00  0.2400E+02
    -37.452  0.0000E+00  0.2400E+02
    -37.279  0.0000E+00  0.2400E+02
    -37.106  0.0000E+00  0.2400E+02
    -36.933  0.0000E+00  0.2400E+02
    -36.760  0.0000E+00  0.2400E+02
    -36.587  0.0000E+00  0.2400E+02
    -36.414  0.0000E+00  0.2400E+02
    -36.242  0.0000E+00  0.2400E+02
    -36.069  0.0000E+00  0.2400E+02
    -35.896  0.0000E+00  0.2400E+02
    -35.723  0.0000E+00  0.2400E+02
    -35.550  0.0000E+00  0.2400E+02
    -35.377  0.0000E+00  0.2400E+02
    -35.204  0.0000E+00  0.2400E+02
    -35.031  0.0000E+00  0.2400E+02
    -34.858  0.0000E+00  0.2400E+02
    -34.685  0.0000E+00  0.2400E+02
    -34.512  0.0000E+00  0.2400E+02
    -34.339  0.0000E+00  0.2400E+02
    -34.166  0.0000E+00  0.2400E+02
    -33.993  0.0000E+00  0.2400E+02
    -33.820  0.0000E+00  0.2400E+02
    -33.647  0.0000E+00  0.2400E+02
    -33.474  0.0000E+00  0.2400E+02
    -33.301  0.0000E+00  0.2400E+02
    -33.128  0.0000E+00  0.2400E+02
    -32.955  0.0000E+00  0.2400E+02
    -32.783  0.0000E+00  0.2400E+02
    -32.610  0.0000E+00  0.2400E+02
    -32.437  0.0000E+00  0.2400E+02
    -32.264  0.0000E+00  0.2400E+02
    -32.091  0.0000E+00  0.2400E+02
    -31.918  0.0000E+00  0.2400E+02
    -31.745  0.0000E+00  0.2400E+02
    -31.572  0.0000E+00  0.2400E+02
    -31.399  0.0000E+00  0.2400E+02
    -31.226  0.0000E+00  0.2400E+02
    -31.053  0.0000E+00  0.2400E+02
    -30.880  0.0000E+00  0.2400E+02
    -30.707  0.0000E+00  0.2400E+02
    -30.534  0.0000E+00  0.2400E+02
    -30.361  0.0000E+00  0.2400E+02
    -30.188  0.0000E+00  0.2400E+02
    -30.015  0.0000E+00  0.2400E+02
    -29.842  0.0000E+00  0.2400E+02
    -29.669  0.0000E+00  0.2400E+02
    -29.496  0.0000E+00  0.2400E+02
    -29.323  0.0000E+00  0.2400E+02
    -29.151  0.0000E+00  0.2400E+02
    -28.978  0.0000E+00  0.2400E+02
    -28.805  0.0000E+00  0.2400E+02
    -28.632  0.0000E+00  0.2400E+02
    -28.459  0.0000E+00  0.2400E+02
    -28.286  0.0000E+00  0.2400E+02
    -28.113  0.0000E+00  0.2400E+02
    -27.940  0.0000E+00  0.2400E+02
    -27.767  0.0000E+00  0.2400E+02
    -27.594  0.0000E+00  0.2400E+02
    -27.421  0.0000E+00  0.2400E+02
    -27.248  0.0000E+00  0.2400E+02
    -27.075  0.0000E+00  0.2400E+02
    -26.902  0.0000E+00  0.2400E+02
    -26.729  0.0000E+00  0.2400E+02
    -26.556  0.0000E+00  0.2400E+02
    -26.383  0.0000E+00  0.2400E+02
    -26.210  0.0000E+00  0.2400E+02
    -26.037  0.0000E+00  0.2400E+02
    -25.864  0.0000E+00  0.2400E+02
    -25.691  0.0000E+00  0.2400E+02
    -25.519  0.0000E+00  0.2400E+02
    -25.346  0.0000E+00  0.2400E+02
    -25.173  0.0000E+00  0.2400E+02
    -25.000  0.0000E+00  0.2400E+02
    -24.827  0.0000E+00  0.2400E+02
    -24.654  0.0000E+00  0.2400E+02
    -24.481  0.0000E+00  0.2400E+02
    -24.308  0.0000E+00  0.2400E+02
    -24.135  0.0000E+00  0.2400E+02
    -23.962  0.0000E+00  0.2400E+02
    -23.789  0.0000E+00  0.2400E+02
    -23.616  0.0000E+00  0.2400E+02
    -23.443  0.0000E+00  0.2400E+02
    -23.270  0.0000E+00  0.2400E+02
    -23.097  0.0000E+00  0.2400E+02
    -22.924  0.0000E+00  0.2400E+02
    -22.751  0.0000E+00  0.2400E+02
    -22.578  0.0000E+00  0.2400E+02
    -22.405  0.0000E+00  0.2400E+02
    -22.232  0.0000E+00  0.2400E+02
    -22.059  0.0000E+00  0.2400E+02
    -21.887  0.0000E+00  0.2400E+02
    -21.714  0.0000E+00  0.2400E+02
    -21.541  0.0000E+00  0.2400E+02
    -21.368  0.0000E+00  0.2400E+02
    -21.195  0.3775E-05  0.2400E+02
    -21.022  0.3345E+02  0.2979E+02
    -20.849  0.8218E+02  0.4400E+02
    -20.676  0.1064E-02  0.4400E+02
    -20.503  0.0000E+00  0.4400E+02
    -20.330  0.0000E+00  0.4400E+02
    -20.157  0.0000E+00  0.4400E+02
    -19.984  0.0000E+00  0.4400E+02
    -19.811  0.0000E+00  0.4400E+02
    -19.638  0.0000E+00  0.4400E+02
    -19.465  0.0000E+00  0.4400E+02
    -19.292  0.0000E+00  0.4400E+02
    -19.119  0.0000E+00  0.4400E+02
    -18.946  0.0000E+00  0.4400E+02
    -18.773  0.0000E+00  0.4400E+02
    -18.600  0.0000E+00  0.4400E+02
    -18.428  0.0000E+00  0.4400E+02
    -18.255  0.0000E+00  0.4400E+02
    -18.082  0.0000E+00  0.4400E+02
    -17.909  0.0000E+00  0.4400E+02
    -17.736  0.0000E+00  0.4400E+02
    -17.563  0.0000E+00  0.4400E+02
    -17.390  0.0000E+00  0.4400E+02
    -17.217  0.0000E+00  0.4400E+02
    -17.044  0.0000E+00  0.4400E+02
    -16.871  0.0000E+00  0.4400E+02
    -16.698  0.0000E+00  0.4400E+02
    -16.525  0.0000E+00  0.4400E+02
    -16.352  0.0000E+00  0.4400E+02
    -16.179  0.0000E+00  0.4400E+02
    -16.006  0.0000E+00  0.4400E+02
    -15.833  0.0000E+00  0.4400E+02
    -15.660  0.0000E+00  0.4400E+02
    -15.487  0.0000E+00  0.4400E+02
    -15.314  0.0000E+00  0.4400E+02
    -15.141  0.0000E+00  0.4400E+02
    -14.968  0.0000E+00  0.4400E+02
    -14.796  0.0000E+00  0.4400E+02
    -14.623  0.0000E+00  0.4400E+02
    -14.450  0.0000E+00  0.4400E+02
    -14.277  0.0000E+00  0.4400E+02
    -14.104  0.0000E+00  0.4400E+02
    -13.931  0.0000E+00  0.4400E+02
    -13.758  0.0000E+00  0.4400E+02
    -13.585  0.0000E+00  0.4400E+02
    -13.412  0.0000E+00  0.4400E+02
    -13.239  0.0000E+00  0.4400E+02
    -13.066  0.0000E+00  0.4400E+02
    -12.893  0.0000E+00  0.4400E+02
    -12.720  0.0000E+00  0.4400E+02
    -12.547  0.0000E+00  0.4400E+02
    -12.374  0.0000E+00  0.4400E+02
    -12.201  0.0000E+00  0.4400E+02
    -12.028  0.0000E+00  0.4400E+02
    -11.855  0.0000E+00  0.4400E+02
    -11.682  0.0000E+00  0.4400E+02
    -11.509  0.0000E+00  0.4400E+02
    -11.336  0.0000E+00  0.4400E+02
    -11.164  0.0000E+00  0.4400E+02
    -10.991  0.0000E+00  0.4400E+02
    -10.818  0.0000E+00  0.4400E+02
    -10.645  0.0000E+00  0.4400E+02
    -10.472  0.0000E+00  0.4400E+02
    -10.299  0.0000E+00  0.4400E+02
    -10.126  0.0000E+00  0.4400E+02
     -9.953  0.0000E+00  0.4400E+02
     -9.780  0.0000E+00  0.4400E+02
     -9.607  0.0000E+00  0.4400E+02
     -9.434  0.0000E+00  0.4400E+02
     -9.261  0.0000E+00  0.4400E+02
     -9.088  0.0000E+00  0.4400E+02
     -8.915  0.0000E+00  0.4400E+02
     -8.742  0.0000E+00  0.4400E+02
     -8.569  0.0000E+00  0.4400E+02
     -8.396  0.0000E+00  0.4400E+02
     -8.223  0.0000E+00  0.4400E+02
     -8.050  0.0000E+00  0.4400E+02
     -7.877  0.0000E+00  0.4400E+02
     -7.704  0.0000E+00  0.4400E+02
     -7.532  0.0000E+00  0.4400E+02
     -7.359  0.0000E+00  0.4400E+02
     -7.186  0.0000E+00  0.4400E+02
     -7.013  0.0000E+00  0.4400E+02
     -6.840  0.0000E+00  0.4400E+02
     -6.667  0.0000E+00  0.4400E+02
     -6.494  0.2054E-15  0.4400E+02
     -6.321  0.1475E-03  0.4400E+02
     -6.148  0.8997E-01  0.4402E+02
     -5.975  0.6338E+00  0.4413E+02
     -5.802  0.6637E+00  0.4424E+02
     -5.629  0.9651E+00  0.4441E+02
     -5.456  0.2302E+01  0.4481E+02
     -5.283  0.8049E+00  0.4494E+02
     -5.110  0.2577E+01  0.4539E+02
     -4.937  0.2337E+01  0.4579E+02
     -4.764  0.3955E+00  0.4586E+02
     -4.591  0.8025E+00  0.4600E+02
     -4.418  0.1094E+01  0.4619E+02
     -4.245  0.8947E+00  0.4635E+02
     -4.073  0.3976E+01  0.4703E+02
     -3.900  0.5073E+00  0.4712E+02
     -3.727  0.2474E+01  0.4755E+02
     -3.554  0.8259E+00  0.4769E+02
     -3.381  0.3967E+00  0.4776E+02
     -3.208  0.4465E+00  0.4784E+02
     -3.035  0.8482E+00  0.4798E+02
     -2.862  0.1071E-01  0.4799E+02
     -2.689  0.8220E-01  0.4800E+02
     -2.516  0.1111E-04  0.4800E+02
     -2.343  0.0000E+00  0.4800E+02
     -2.170  0.0000E+00  0.4800E+02
     -1.997  0.1053E-05  0.4800E+02
     -1.824  0.1109E+01  0.4819E+02
     -1.651  0.4059E+01  0.4889E+02
     -1.478  0.1124E+01  0.4909E+02
     -1.305  0.3328E+01  0.4966E+02
     -1.132  0.4241E-02  0.4966E+02
     -0.959  0.1783E+01  0.4997E+02
     -0.786  0.1144E+01  0.5017E+02
     -0.613  0.2193E+01  0.5055E+02
     -0.441  0.4422E+00  0.5063E+02
     -0.268  0.1723E+00  0.5066E+02
     -0.095  0.1978E+00  0.5069E+02
      0.078  0.4334E+01  0.5144E+02
      0.251  0.2222E+01  0.5182E+02
      0.424  0.2457E+01  0.5225E+02
      0.597  0.2843E+01  0.5274E+02
      0.770  0.1360E+01  0.5298E+02
      0.943  0.1143E-01  0.5298E+02
      1.116  0.2070E+01  0.5334E+02
      1.289  0.3698E+01  0.5398E+02
      1.462  0.5190E+01  0.5487E+02
      1.635  0.3306E+01  0.5544E+02
      1.808  0.4079E+01  0.5615E+02
      1.981  0.2865E+01  0.5665E+02
      2.154  0.2575E+01  0.5709E+02
      2.327  0.1748E+01  0.5739E+02
      2.500  0.1896E+01  0.5772E+02
      2.673  0.1334E+01  0.5795E+02
      2.846  0.5633E-03  0.5795E+02
      3.019  0.2111E+01  0.5832E+02
      3.191  0.3452E+01  0.5891E+02
      3.364  0.3073E+01  0.5945E+02
      3.537  0.6404E+01  0.6055E+02
      3.710  0.1367E+01  0.6079E+02
      3.883  0.3208E+01  0.6134E+02
      4.056  0.8706E+00  0.6150E+02
      4.229  0.3682E+01  0.6213E+02
      4.402  0.3191E+01  0.6268E+02
      4.575  0.4840E+00  0.6277E+02
      4.748  0.3541E+01  0.6338E+02
      4.921  0.1357E+01  0.6361E+02
      5.094  0.4195E+01  0.6434E+02
      5.267  0.6283E+01  0.6543E+02
      5.440  0.1031E+01  0.6561E+02
      5.613  0.6546E+00  0.6572E+02
      5.786  0.3305E+01  0.6629E+02
      5.959  0.3926E+01  0.6697E+02
      6.132  0.7343E+01  0.6824E+02
      6.305  0.1000E+00  0.6826E+02
      6.478  0.1116E+01  0.6845E+02
      6.651  0.3205E+01  0.6900E+02
      6.823  0.2267E+01  0.6940E+02
      6.996  0.3334E+01  0.6997E+02
      7.169  0.6762E+01  0.7114E+02
      7.342  0.1291E+01  0.7136E+02
      7.515  0.4012E+00  0.7143E+02
      7.688  0.2238E+01  0.7182E+02
      7.861  0.1032E+01  0.7200E+02
      8.034  0.3400E-03  0.7200E+02
      8.207  0.0000E+00  0.7200E+02
      8.380  0.0000E+00  0.7200E+02
      8.553  0.0000E+00  0.7200E+02
      8.726  0.0000E+00  0.7200E+02
      8.899  0.0000E+00  0.7200E+02
      9.072  0.0000E+00  0.7200E+02
      9.245  0.0000E+00  0.7200E+02
      9.418  0.0000E+00  0.7200E+02
      9.591  0.0000E+00  0.7200E+02
      9.764  0.0000E+00  0.7200E+02
      9.937  0.0000E+00  0.7200E+02
     10.110  0.0000E+00  0.7200E+02
