As6 W4                                  
   1.00000000000000     
     3.2610866700000001    0.0000000000000000    0.6697628400000000
     1.4297176000000000    6.5877497600000003    1.3127052299999999
     0.0250073900000000   -0.0066804400000000    8.1522607899999997
   As   W 
     6     4
Direct
     0.8941689999999980    0.5801900800000013    0.6314719300000036
     0.1058310000000020    0.4198099199999987    0.3685280699999964
     0.5853705899999966    0.1427239400000033    0.6865348799999964
     0.4146294100000034    0.8572760599999967    0.3134651199999965
     0.1241665299999966    0.7971225000000004    0.9545434300000011
     0.8758334700000034    0.2028774999999996    0.0454565699999989
     0.6530745900000028    0.5671744400000023    0.1266783800000013
     0.3469254099999972    0.4328255599999977    0.8733216199999987
     0.7521740500000007    0.1230904299999978    0.3725624699999983
     0.2478259499999993    0.8769085699999977    0.6274375300000017
 
  0.00000000E+00  0.00000000E+00  0.00000000E+00
  0.00000000E+00  0.00000000E+00  0.00000000E+00
  0.00000000E+00  0.00000000E+00  0.00000000E+00
  0.00000000E+00  0.00000000E+00  0.00000000E+00
  0.00000000E+00  0.00000000E+00  0.00000000E+00
  0.00000000E+00  0.00000000E+00  0.00000000E+00
  0.00000000E+00  0.00000000E+00  0.00000000E+00
  0.00000000E+00  0.00000000E+00  0.00000000E+00
  0.00000000E+00  0.00000000E+00  0.00000000E+00
  0.00000000E+00  0.00000000E+00  0.00000000E+00
