       N       E                     dE             d eps       ncg     rms          rms(c)
DAV:   1     0.213467975965E+03    0.21347E+03   -0.23585E+04 11520   0.884E+02
DAV:   2    -0.654123730171E+02   -0.27888E+03   -0.25800E+03 13188   0.198E+02
DAV:   3    -0.839226674707E+02   -0.18510E+02   -0.17949E+02 14464   0.447E+01
DAV:   4    -0.841403365201E+02   -0.21767E+00   -0.21684E+00 13584   0.536E+00
DAV:   5    -0.841415632552E+02   -0.12267E-02   -0.12262E-02 14052   0.400E-01    0.409E+01
DAV:   6    -0.813915341685E+02    0.27500E+01   -0.39648E+00 15832   0.775E+00    0.157E+01
DAV:   7    -0.809540128689E+02    0.43752E+00   -0.16695E+00 12660   0.507E+00    0.920E+00
DAV:   8    -0.808415293527E+02    0.11248E+00   -0.61208E-01 15484   0.316E+00    0.213E+00
DAV:   9    -0.807974633342E+02    0.44066E-01   -0.18780E-01 15120   0.179E+00    0.637E-01
DAV:  10    -0.807922286577E+02    0.52347E-02   -0.17479E-02 12872   0.467E-01    0.371E-01
DAV:  11    -0.807922767145E+02   -0.48057E-04   -0.30399E-03 15004   0.163E-01    0.136E-01
DAV:  12    -0.807922181421E+02    0.58572E-04   -0.36222E-04 13472   0.689E-02    0.493E-02
DAV:  13    -0.807922224418E+02   -0.42997E-05   -0.38037E-05 13208   0.201E-02    0.144E-02
DAV:  14    -0.807922198816E+02    0.25603E-05   -0.35802E-06 13388   0.592E-03    0.662E-03
DAV:  15    -0.807922191199E+02    0.76170E-06   -0.53899E-07  7188   0.269E-03
   1 F= -.80792219E+02 E0= -.80789139E+02  d E =-.616009E-02
