As6W4
1.0
      3.2610867       0.0000000       0.6697628
      1.4297176       6.5877498       1.3127052
      0.0250074      -0.0066804       8.1522608
  As    W   
  6     4   
Direct
      0.8941690       0.5801901       0.6314719
      0.1058310       0.4198099       0.3685281
      0.5853706       0.1427239       0.6865349
      0.4146294       0.8572761       0.3134651
      0.1241665       0.7971225       0.9545434
      0.8758335       0.2028775       0.0454566
      0.6530746       0.5671744       0.1266784
      0.3469254       0.4328256       0.8733216
      0.7521741       0.1230904       0.3725625
      0.2478259       0.8769086       0.6274375
