Mg3 Cl6                                 
   1.00000000000000     
     3.6381342962299237    0.0000000000000000    0.0000000000000002
    -1.8190671481149614    3.1507167229145345    0.0000000000000002
     0.0000000000000000    0.0000000000000000   18.1865601838573205
   Mg   Cl
     3     6
Direct
     0.0000000000000000    0.0000000000000000    0.0000000000000000
     0.6666666666666643    0.3333333333333357    0.3333333333333357
     0.3333333333333357    0.6666666666666643    0.6666666666666643
     0.0000000000000000    0.0000000000000000    0.2580665429159694
     0.6666666666666643    0.3333333333333357    0.0752667870840256
     0.6666666666666643    0.3333333333333357    0.5913998729159715
     0.3333333333333357    0.6666666666666643    0.4086001270840285
     0.3333333333333357    0.6666666666666643    0.9247332129159744
     0.0000000000000000    0.0000000000000000    0.7419334570840306
 
  0.00000000E+00  0.00000000E+00  0.00000000E+00
  0.00000000E+00  0.00000000E+00  0.00000000E+00
  0.00000000E+00  0.00000000E+00  0.00000000E+00
  0.00000000E+00  0.00000000E+00  0.00000000E+00
  0.00000000E+00  0.00000000E+00  0.00000000E+00
  0.00000000E+00  0.00000000E+00  0.00000000E+00
  0.00000000E+00  0.00000000E+00  0.00000000E+00
  0.00000000E+00  0.00000000E+00  0.00000000E+00
  0.00000000E+00  0.00000000E+00  0.00000000E+00
