unknown system                          
           1
     3.638134    0.000000    0.000000
    -1.819067    3.150717    0.000000
     0.000000    0.000000   18.186560
   Mg   Cl
     3     6
Direct configuration=     1
   0.00000000  0.00000000  0.00000000
   0.66666667  0.33333333  0.33333333
   0.33333333  0.66666667  0.66666667
   0.00000000  0.00000000  0.25806654
   0.66666667  0.33333333  0.07526679
   0.66666667  0.33333333  0.59139987
   0.33333333  0.66666667  0.40860013
   0.33333333  0.66666667  0.92473321
   0.00000000  0.00000000  0.74193346
