   2   2   0   0
  0.5000000E+03  0.1000000E-08  0.1000000E-08  0.1000000E-08  0.5000000E-15
  1.000000000000000E-004
  CAR 
 unknown system                          
      1.68227441    -34.05094934  301     -6.64058895      1.00000000
    -34.051  0.0000E+00  0.0000E+00  0.0000E+00  0.0000E+00
    -33.932  0.0000E+00  0.0000E+00  0.0000E+00  0.0000E+00
    -33.813  0.0000E+00  0.0000E+00  0.0000E+00  0.0000E+00
    -33.694  0.0000E+00  0.0000E+00  0.0000E+00  0.0000E+00
    -33.575  0.0000E+00  0.0000E+00  0.0000E+00  0.0000E+00
    -33.455  0.0000E+00  0.0000E+00  0.0000E+00  0.0000E+00
    -33.336  0.0000E+00  0.0000E+00  0.0000E+00  0.0000E+00
    -33.217  0.0000E+00  0.0000E+00  0.0000E+00  0.0000E+00
    -33.098  0.0000E+00  0.0000E+00  0.0000E+00  0.0000E+00
    -32.979  0.0000E+00  0.0000E+00  0.0000E+00  0.0000E+00
    -32.860  0.0000E+00  0.0000E+00  0.0000E+00  0.0000E+00
    -32.741  0.0000E+00  0.0000E+00  0.0000E+00  0.0000E+00
    -32.622  0.1482E-06  0.0000E+00  0.1765E-07  0.0000E+00
    -32.503  0.1345E+00  0.0000E+00  0.1602E-01  0.0000E+00
    -32.383  0.7335E+01  0.0000E+00  0.8897E+00  0.0000E+00
    -32.264  0.9258E+00  0.0000E+00  0.1000E+01  0.0000E+00
    -32.145  0.1825E-04  0.0000E+00  0.1000E+01  0.0000E+00
    -32.026  0.0000E+00  0.0000E+00  0.1000E+01  0.0000E+00
    -31.907  0.0000E+00  0.0000E+00  0.1000E+01  0.0000E+00
    -31.788  0.0000E+00  0.0000E+00  0.1000E+01  0.0000E+00
    -31.669  0.0000E+00  0.0000E+00  0.1000E+01  0.0000E+00
    -31.550  0.0000E+00  0.0000E+00  0.1000E+01  0.0000E+00
    -31.431  0.0000E+00  0.3156E-08  0.1000E+01  0.3759E-09
    -31.311  0.0000E+00  0.2241E-01  0.1000E+01  0.2670E-02
    -31.192  0.0000E+00  0.6023E+01  0.1000E+01  0.7201E+00
    -31.073  0.0000E+00  0.2350E+01  0.1000E+01  0.1000E+01
    -30.954  0.0000E+00  0.3252E-03  0.1000E+01  0.1000E+01
    -30.835  0.0000E+00  0.1033E-11  0.1000E+01  0.1000E+01
    -30.716  0.0000E+00  0.0000E+00  0.1000E+01  0.1000E+01
    -30.597  0.0000E+00  0.0000E+00  0.1000E+01  0.1000E+01
    -30.478  0.0000E+00  0.0000E+00  0.1000E+01  0.1000E+01
    -30.359  0.0000E+00  0.0000E+00  0.1000E+01  0.1000E+01
    -30.239  0.0000E+00  0.0000E+00  0.1000E+01  0.1000E+01
    -30.120  0.0000E+00  0.0000E+00  0.1000E+01  0.1000E+01
    -30.001  0.0000E+00  0.0000E+00  0.1000E+01  0.1000E+01
    -29.882  0.0000E+00  0.0000E+00  0.1000E+01  0.1000E+01
    -29.763  0.0000E+00  0.0000E+00  0.1000E+01  0.1000E+01
    -29.644  0.0000E+00  0.0000E+00  0.1000E+01  0.1000E+01
    -29.525  0.0000E+00  0.0000E+00  0.1000E+01  0.1000E+01
    -29.406  0.0000E+00  0.0000E+00  0.1000E+01  0.1000E+01
    -29.287  0.0000E+00  0.0000E+00  0.1000E+01  0.1000E+01
    -29.167  0.0000E+00  0.0000E+00  0.1000E+01  0.1000E+01
    -29.048  0.0000E+00  0.0000E+00  0.1000E+01  0.1000E+01
    -28.929  0.0000E+00  0.0000E+00  0.1000E+01  0.1000E+01
    -28.810  0.0000E+00  0.0000E+00  0.1000E+01  0.1000E+01
    -28.691  0.0000E+00  0.0000E+00  0.1000E+01  0.1000E+01
    -28.572  0.0000E+00  0.0000E+00  0.1000E+01  0.1000E+01
    -28.453  0.0000E+00  0.0000E+00  0.1000E+01  0.1000E+01
    -28.334  0.0000E+00  0.0000E+00  0.1000E+01  0.1000E+01
    -28.215  0.0000E+00  0.0000E+00  0.1000E+01  0.1000E+01
    -28.095  0.0000E+00  0.0000E+00  0.1000E+01  0.1000E+01
    -27.976  0.0000E+00  0.0000E+00  0.1000E+01  0.1000E+01
    -27.857  0.0000E+00  0.0000E+00  0.1000E+01  0.1000E+01
    -27.738  0.0000E+00  0.0000E+00  0.1000E+01  0.1000E+01
    -27.619  0.0000E+00  0.0000E+00  0.1000E+01  0.1000E+01
    -27.500  0.0000E+00  0.0000E+00  0.1000E+01  0.1000E+01
    -27.381  0.0000E+00  0.0000E+00  0.1000E+01  0.1000E+01
    -27.262  0.0000E+00  0.0000E+00  0.1000E+01  0.1000E+01
    -27.143  0.0000E+00  0.0000E+00  0.1000E+01  0.1000E+01
    -27.023  0.0000E+00  0.0000E+00  0.1000E+01  0.1000E+01
    -26.904  0.0000E+00  0.0000E+00  0.1000E+01  0.1000E+01
    -26.785  0.0000E+00  0.0000E+00  0.1000E+01  0.1000E+01
    -26.666  0.0000E+00  0.0000E+00  0.1000E+01  0.1000E+01
    -26.547  0.0000E+00  0.0000E+00  0.1000E+01  0.1000E+01
    -26.428  0.0000E+00  0.0000E+00  0.1000E+01  0.1000E+01
    -26.309  0.0000E+00  0.0000E+00  0.1000E+01  0.1000E+01
    -26.190  0.0000E+00  0.0000E+00  0.1000E+01  0.1000E+01
    -26.071  0.0000E+00  0.0000E+00  0.1000E+01  0.1000E+01
    -25.951  0.0000E+00  0.0000E+00  0.1000E+01  0.1000E+01
    -25.832  0.0000E+00  0.0000E+00  0.1000E+01  0.1000E+01
    -25.713  0.0000E+00  0.0000E+00  0.1000E+01  0.1000E+01
    -25.594  0.0000E+00  0.0000E+00  0.1000E+01  0.1000E+01
    -25.475  0.0000E+00  0.0000E+00  0.1000E+01  0.1000E+01
    -25.356  0.0000E+00  0.0000E+00  0.1000E+01  0.1000E+01
    -25.237  0.0000E+00  0.0000E+00  0.1000E+01  0.1000E+01
    -25.118  0.0000E+00  0.0000E+00  0.1000E+01  0.1000E+01
    -24.999  0.0000E+00  0.0000E+00  0.1000E+01  0.1000E+01
    -24.879  0.0000E+00  0.0000E+00  0.1000E+01  0.1000E+01
    -24.760  0.0000E+00  0.0000E+00  0.1000E+01  0.1000E+01
    -24.641  0.0000E+00  0.0000E+00  0.1000E+01  0.1000E+01
    -24.522  0.0000E+00  0.0000E+00  0.1000E+01  0.1000E+01
    -24.403  0.0000E+00  0.0000E+00  0.1000E+01  0.1000E+01
    -24.284  0.0000E+00  0.0000E+00  0.1000E+01  0.1000E+01
    -24.165  0.0000E+00  0.0000E+00  0.1000E+01  0.1000E+01
    -24.046  0.0000E+00  0.0000E+00  0.1000E+01  0.1000E+01
    -23.927  0.0000E+00  0.0000E+00  0.1000E+01  0.1000E+01
    -23.807  0.0000E+00  0.0000E+00  0.1000E+01  0.1000E+01
    -23.688  0.0000E+00  0.0000E+00  0.1000E+01  0.1000E+01
    -23.569  0.0000E+00  0.0000E+00  0.1000E+01  0.1000E+01
    -23.450  0.0000E+00  0.0000E+00  0.1000E+01  0.1000E+01
    -23.331  0.0000E+00  0.0000E+00  0.1000E+01  0.1000E+01
    -23.212  0.0000E+00  0.0000E+00  0.1000E+01  0.1000E+01
    -23.093  0.0000E+00  0.0000E+00  0.1000E+01  0.1000E+01
    -22.974  0.0000E+00  0.0000E+00  0.1000E+01  0.1000E+01
    -22.855  0.0000E+00  0.0000E+00  0.1000E+01  0.1000E+01
    -22.735  0.0000E+00  0.0000E+00  0.1000E+01  0.1000E+01
    -22.616  0.0000E+00  0.0000E+00  0.1000E+01  0.1000E+01
    -22.497  0.0000E+00  0.0000E+00  0.1000E+01  0.1000E+01
    -22.378  0.0000E+00  0.0000E+00  0.1000E+01  0.1000E+01
    -22.259  0.0000E+00  0.0000E+00  0.1000E+01  0.1000E+01
    -22.140  0.0000E+00  0.0000E+00  0.1000E+01  0.1000E+01
    -22.021  0.0000E+00  0.0000E+00  0.1000E+01  0.1000E+01
    -21.902  0.0000E+00  0.0000E+00  0.1000E+01  0.1000E+01
    -21.783  0.0000E+00  0.0000E+00  0.1000E+01  0.1000E+01
    -21.663  0.0000E+00  0.0000E+00  0.1000E+01  0.1000E+01
    -21.544  0.0000E+00  0.0000E+00  0.1000E+01  0.1000E+01
    -21.425  0.0000E+00  0.0000E+00  0.1000E+01  0.1000E+01
    -21.306  0.0000E+00  0.0000E+00  0.1000E+01  0.1000E+01
    -21.187  0.0000E+00  0.0000E+00  0.1000E+01  0.1000E+01
    -21.068  0.0000E+00  0.0000E+00  0.1000E+01  0.1000E+01
    -20.949  0.0000E+00  0.0000E+00  0.1000E+01  0.1000E+01
    -20.830  0.2144E-12  0.0000E+00  0.1000E+01  0.1000E+01
    -20.711  0.1335E-03  0.0000E+00  0.1000E+01  0.1000E+01
    -20.591  0.1800E+01  0.0000E+00  0.1214E+01  0.1000E+01
    -20.472  0.6554E+01  0.0000E+00  0.1995E+01  0.1000E+01
    -20.353  0.4174E-01  0.0000E+00  0.2000E+01  0.1000E+01
    -20.234  0.1148E-07  0.0000E+00  0.2000E+01  0.1000E+01
    -20.115  0.0000E+00  0.0000E+00  0.2000E+01  0.1000E+01
    -19.996  0.0000E+00  0.0000E+00  0.2000E+01  0.1000E+01
    -19.877  0.0000E+00  0.0000E+00  0.2000E+01  0.1000E+01
    -19.758  0.0000E+00  0.0000E+00  0.2000E+01  0.1000E+01
    -19.639  0.0000E+00  0.0000E+00  0.2000E+01  0.1000E+01
    -19.519  0.0000E+00  0.0000E+00  0.2000E+01  0.1000E+01
    -19.400  0.0000E+00  0.0000E+00  0.2000E+01  0.1000E+01
    -19.281  0.0000E+00  0.0000E+00  0.2000E+01  0.1000E+01
    -19.162  0.0000E+00  0.0000E+00  0.2000E+01  0.1000E+01
    -19.043  0.0000E+00  0.2423E-13  0.2000E+01  0.1000E+01
    -18.924  0.0000E+00  0.3764E-04  0.2000E+01  0.1000E+01
    -18.805  0.0000E+00  0.1191E+01  0.2000E+01  0.1142E+01
    -18.686  0.0000E+00  0.7113E+01  0.2000E+01  0.1989E+01
    -18.567  0.0000E+00  0.9069E-01  0.2000E+01  0.2000E+01
    -18.447  0.0000E+00  0.6129E-07  0.2000E+01  0.2000E+01
    -18.328  0.0000E+00  0.0000E+00  0.2000E+01  0.2000E+01
    -18.209  0.0000E+00  0.0000E+00  0.2000E+01  0.2000E+01
    -18.090  0.0000E+00  0.0000E+00  0.2000E+01  0.2000E+01
    -17.971  0.0000E+00  0.0000E+00  0.2000E+01  0.2000E+01
    -17.852  0.0000E+00  0.0000E+00  0.2000E+01  0.2000E+01
    -17.733  0.0000E+00  0.0000E+00  0.2000E+01  0.2000E+01
    -17.614  0.0000E+00  0.0000E+00  0.2000E+01  0.2000E+01
    -17.495  0.0000E+00  0.0000E+00  0.2000E+01  0.2000E+01
    -17.375  0.0000E+00  0.0000E+00  0.2000E+01  0.2000E+01
    -17.256  0.0000E+00  0.0000E+00  0.2000E+01  0.2000E+01
    -17.137  0.0000E+00  0.0000E+00  0.2000E+01  0.2000E+01
    -17.018  0.0000E+00  0.0000E+00  0.2000E+01  0.2000E+01
    -16.899  0.0000E+00  0.0000E+00  0.2000E+01  0.2000E+01
    -16.780  0.0000E+00  0.0000E+00  0.2000E+01  0.2000E+01
    -16.661  0.0000E+00  0.0000E+00  0.2000E+01  0.2000E+01
    -16.542  0.0000E+00  0.0000E+00  0.2000E+01  0.2000E+01
    -16.423  0.0000E+00  0.0000E+00  0.2000E+01  0.2000E+01
    -16.303  0.0000E+00  0.0000E+00  0.2000E+01  0.2000E+01
    -16.184  0.0000E+00  0.0000E+00  0.2000E+01  0.2000E+01
    -16.065  0.0000E+00  0.0000E+00  0.2000E+01  0.2000E+01
    -15.946  0.0000E+00  0.0000E+00  0.2000E+01  0.2000E+01
    -15.827  0.0000E+00  0.0000E+00  0.2000E+01  0.2000E+01
    -15.708  0.0000E+00  0.0000E+00  0.2000E+01  0.2000E+01
    -15.589  0.0000E+00  0.0000E+00  0.2000E+01  0.2000E+01
    -15.470  0.0000E+00  0.0000E+00  0.2000E+01  0.2000E+01
    -15.351  0.0000E+00  0.0000E+00  0.2000E+01  0.2000E+01
    -15.231  0.0000E+00  0.0000E+00  0.2000E+01  0.2000E+01
    -15.112  0.0000E+00  0.0000E+00  0.2000E+01  0.2000E+01
    -14.993  0.0000E+00  0.0000E+00  0.2000E+01  0.2000E+01
    -14.874  0.0000E+00  0.0000E+00  0.2000E+01  0.2000E+01
    -14.755  0.0000E+00  0.0000E+00  0.2000E+01  0.2000E+01
    -14.636  0.0000E+00  0.0000E+00  0.2000E+01  0.2000E+01
    -14.517  0.0000E+00  0.0000E+00  0.2000E+01  0.2000E+01
    -14.398  0.0000E+00  0.0000E+00  0.2000E+01  0.2000E+01
    -14.279  0.0000E+00  0.0000E+00  0.2000E+01  0.2000E+01
    -14.159  0.0000E+00  0.0000E+00  0.2000E+01  0.2000E+01
    -14.040  0.0000E+00  0.0000E+00  0.2000E+01  0.2000E+01
    -13.921  0.0000E+00  0.0000E+00  0.2000E+01  0.2000E+01
    -13.802  0.0000E+00  0.0000E+00  0.2000E+01  0.2000E+01
    -13.683  0.0000E+00  0.0000E+00  0.2000E+01  0.2000E+01
    -13.564  0.1692E-11  0.0000E+00  0.2000E+01  0.2000E+01
    -13.445  0.4285E-03  0.0000E+00  0.2000E+01  0.2000E+01
    -13.326  0.2548E+01  0.0000E+00  0.2304E+01  0.2000E+01
    -13.207  0.1432E+02  0.0000E+00  0.4009E+01  0.2000E+01
    -13.087  0.8313E+01  0.0000E+00  0.4999E+01  0.2000E+01
    -12.968  0.6016E-02  0.0000E+00  0.5000E+01  0.2000E+01
    -12.849  0.1223E-09  0.0000E+00  0.5000E+01  0.2000E+01
    -12.730  0.0000E+00  0.0000E+00  0.5000E+01  0.2000E+01
    -12.611  0.0000E+00  0.9455E-07  0.5000E+01  0.2000E+01
    -12.492  0.0000E+00  0.1102E+00  0.5000E+01  0.2013E+01
    -12.373  0.0000E+00  0.7229E+01  0.5000E+01  0.2874E+01
    -12.254  0.0000E+00  0.1056E+01  0.5000E+01  0.3000E+01
    -12.135  0.0000E+00  0.2652E-04  0.5000E+01  0.3000E+01
    -12.015  0.0000E+00  0.1305E-13  0.5000E+01  0.3000E+01
    -11.896  0.0000E+00  0.0000E+00  0.5000E+01  0.3000E+01
    -11.777  0.0000E+00  0.0000E+00  0.5000E+01  0.3000E+01
    -11.658  0.0000E+00  0.0000E+00  0.5000E+01  0.3000E+01
    -11.539  0.0000E+00  0.2188E-06  0.5000E+01  0.3000E+01
    -11.420  0.0000E+00  0.2352E+00  0.5000E+01  0.3028E+01
    -11.301  0.0000E+00  0.1453E+02  0.5000E+01  0.4759E+01
    -11.182  0.0000E+00  0.2025E+01  0.5000E+01  0.5000E+01
    -11.063  0.0000E+00  0.4704E-04  0.5000E+01  0.5000E+01
    -10.943  0.0000E+00  0.2237E-13  0.5000E+01  0.5000E+01
    -10.824  0.0000E+00  0.0000E+00  0.5000E+01  0.5000E+01
    -10.705  0.0000E+00  0.0000E+00  0.5000E+01  0.5000E+01
    -10.586  0.0000E+00  0.0000E+00  0.5000E+01  0.5000E+01
    -10.467  0.0000E+00  0.0000E+00  0.5000E+01  0.5000E+01
    -10.348  0.0000E+00  0.0000E+00  0.5000E+01  0.5000E+01
    -10.229  0.0000E+00  0.0000E+00  0.5000E+01  0.5000E+01
    -10.110  0.0000E+00  0.0000E+00  0.5000E+01  0.5000E+01
     -9.991  0.0000E+00  0.0000E+00  0.5000E+01  0.5000E+01
     -9.871  0.0000E+00  0.0000E+00  0.5000E+01  0.5000E+01
     -9.752  0.0000E+00  0.0000E+00  0.5000E+01  0.5000E+01
     -9.633  0.0000E+00  0.0000E+00  0.5000E+01  0.5000E+01
     -9.514  0.0000E+00  0.0000E+00  0.5000E+01  0.5000E+01
     -9.395  0.0000E+00  0.0000E+00  0.5000E+01  0.5000E+01
     -9.276  0.0000E+00  0.0000E+00  0.5000E+01  0.5000E+01
     -9.157  0.0000E+00  0.0000E+00  0.5000E+01  0.5000E+01
     -9.038  0.0000E+00  0.0000E+00  0.5000E+01  0.5000E+01
     -8.919  0.0000E+00  0.0000E+00  0.5000E+01  0.5000E+01
     -8.799  0.0000E+00  0.0000E+00  0.5000E+01  0.5000E+01
     -8.680  0.0000E+00  0.0000E+00  0.5000E+01  0.5000E+01
     -8.561  0.0000E+00  0.0000E+00  0.5000E+01  0.5000E+01
     -8.442  0.0000E+00  0.0000E+00  0.5000E+01  0.5000E+01
     -8.323  0.0000E+00  0.0000E+00  0.5000E+01  0.5000E+01
     -8.204  0.0000E+00  0.0000E+00  0.5000E+01  0.5000E+01
     -8.085  0.0000E+00  0.0000E+00  0.5000E+01  0.5000E+01
     -7.966  0.0000E+00  0.0000E+00  0.5000E+01  0.5000E+01
     -7.847  0.0000E+00  0.0000E+00  0.5000E+01  0.5000E+01
     -7.727  0.0000E+00  0.0000E+00  0.5000E+01  0.5000E+01
     -7.608  0.0000E+00  0.0000E+00  0.5000E+01  0.5000E+01
     -7.489  0.0000E+00  0.0000E+00  0.5000E+01  0.5000E+01
     -7.370  0.0000E+00  0.0000E+00  0.5000E+01  0.5000E+01
     -7.251  0.0000E+00  0.0000E+00  0.5000E+01  0.5000E+01
     -7.132  0.7481E-10  0.0000E+00  0.5000E+01  0.5000E+01
     -7.013  0.4635E-02  0.0000E+00  0.5001E+01  0.5000E+01
     -6.894  0.7821E+01  0.0000E+00  0.5932E+01  0.5000E+01
     -6.775  0.8957E+01  0.0000E+00  0.6999E+01  0.5000E+01
     -6.655  0.8598E-02  0.0000E+00  0.7000E+01  0.5000E+01
     -6.536  0.2415E-09  0.0000E+00  0.7000E+01  0.5000E+01
     -6.417  0.0000E+00  0.0000E+00  0.7000E+01  0.5000E+01
     -6.298  0.0000E+00  0.0000E+00  0.7000E+01  0.5000E+01
     -6.179  0.0000E+00  0.0000E+00  0.7000E+01  0.5000E+01
     -6.060  0.0000E+00  0.0000E+00  0.7000E+01  0.5000E+01
     -5.941  0.0000E+00  0.0000E+00  0.7000E+01  0.5000E+01
     -5.822  0.0000E+00  0.0000E+00  0.7000E+01  0.5000E+01
     -5.703  0.0000E+00  0.0000E+00  0.7000E+01  0.5000E+01
     -5.583  0.0000E+00  0.0000E+00  0.7000E+01  0.5000E+01
     -5.464  0.0000E+00  0.0000E+00  0.7000E+01  0.5000E+01
     -5.345  0.0000E+00  0.0000E+00  0.7000E+01  0.5000E+01
     -5.226  0.0000E+00  0.0000E+00  0.7000E+01  0.5000E+01
     -5.107  0.0000E+00  0.0000E+00  0.7000E+01  0.5000E+01
     -4.988  0.0000E+00  0.0000E+00  0.7000E+01  0.5000E+01
     -4.869  0.0000E+00  0.8389E-14  0.7000E+01  0.5000E+01
     -4.750  0.0000E+00  0.2682E-04  0.7000E+01  0.5000E+01
     -4.631  0.0000E+00  0.1657E+01  0.7000E+01  0.5197E+01
     -4.511  0.0000E+00  0.1482E+02  0.7000E+01  0.6962E+01
     -4.392  0.0000E+00  0.3150E+00  0.7000E+01  0.7000E+01
     -4.273  0.0000E+00  0.4253E-06  0.7000E+01  0.7000E+01
     -4.154  0.0000E+00  0.0000E+00  0.7000E+01  0.7000E+01
     -4.035  0.0000E+00  0.0000E+00  0.7000E+01  0.7000E+01
     -3.916  0.0000E+00  0.0000E+00  0.7000E+01  0.7000E+01
     -3.797  0.0000E+00  0.0000E+00  0.7000E+01  0.7000E+01
     -3.678  0.0000E+00  0.0000E+00  0.7000E+01  0.7000E+01
     -3.559  0.0000E+00  0.0000E+00  0.7000E+01  0.7000E+01
     -3.439  0.0000E+00  0.0000E+00  0.7000E+01  0.7000E+01
     -3.320  0.0000E+00  0.0000E+00  0.7000E+01  0.7000E+01
     -3.201  0.0000E+00  0.0000E+00  0.7000E+01  0.7000E+01
     -3.082  0.0000E+00  0.0000E+00  0.7000E+01  0.7000E+01
     -2.963  0.0000E+00  0.0000E+00  0.7000E+01  0.7000E+01
     -2.844  0.0000E+00  0.0000E+00  0.7000E+01  0.7000E+01
     -2.725  0.0000E+00  0.0000E+00  0.7000E+01  0.7000E+01
     -2.606  0.0000E+00  0.0000E+00  0.7000E+01  0.7000E+01
     -2.487  0.0000E+00  0.0000E+00  0.7000E+01  0.7000E+01
     -2.367  0.0000E+00  0.0000E+00  0.7000E+01  0.7000E+01
     -2.248  0.0000E+00  0.0000E+00  0.7000E+01  0.7000E+01
     -2.129  0.0000E+00  0.0000E+00  0.7000E+01  0.7000E+01
     -2.010  0.0000E+00  0.0000E+00  0.7000E+01  0.7000E+01
     -1.891  0.0000E+00  0.0000E+00  0.7000E+01  0.7000E+01
     -1.772  0.0000E+00  0.0000E+00  0.7000E+01  0.7000E+01
     -1.653  0.0000E+00  0.0000E+00  0.7000E+01  0.7000E+01
     -1.534  0.0000E+00  0.0000E+00  0.7000E+01  0.7000E+01
     -1.415  0.0000E+00  0.0000E+00  0.7000E+01  0.7000E+01
     -1.295  0.0000E+00  0.0000E+00  0.7000E+01  0.7000E+01
     -1.176  0.0000E+00  0.0000E+00  0.7000E+01  0.7000E+01
     -1.057  0.0000E+00  0.0000E+00  0.7000E+01  0.7000E+01
     -0.938  0.0000E+00  0.0000E+00  0.7000E+01  0.7000E+01
     -0.819  0.0000E+00  0.0000E+00  0.7000E+01  0.7000E+01
     -0.700  0.0000E+00  0.0000E+00  0.7000E+01  0.7000E+01
     -0.581  0.0000E+00  0.0000E+00  0.7000E+01  0.7000E+01
     -0.462  0.0000E+00  0.0000E+00  0.7000E+01  0.7000E+01
     -0.343  0.6431E-13  0.0000E+00  0.7000E+01  0.7000E+01
     -0.223  0.6666E-04  0.6991E-14  0.7000E+01  0.7000E+01
     -0.104  0.1442E+01  0.1825E-04  0.7172E+01  0.7000E+01
      0.015  0.6889E+01  0.9258E+00  0.7992E+01  0.7110E+01
      0.134  0.6483E-01  0.7335E+01  0.8000E+01  0.7984E+01
      0.253  0.2941E-07  0.1345E+00  0.8000E+01  0.8000E+01
      0.372  0.0000E+00  0.1482E-06  0.8000E+01  0.8000E+01
      0.491  0.0000E+00  0.0000E+00  0.8000E+01  0.8000E+01
      0.610  0.0000E+00  0.0000E+00  0.8000E+01  0.8000E+01
      0.729  0.0000E+00  0.0000E+00  0.8000E+01  0.8000E+01
      0.848  0.0000E+00  0.0000E+00  0.8000E+01  0.8000E+01
      0.968  0.0000E+00  0.0000E+00  0.8000E+01  0.8000E+01
      1.087  0.0000E+00  0.0000E+00  0.8000E+01  0.8000E+01
      1.206  0.0000E+00  0.0000E+00  0.8000E+01  0.8000E+01
      1.325  0.0000E+00  0.0000E+00  0.8000E+01  0.8000E+01
      1.444  0.0000E+00  0.0000E+00  0.8000E+01  0.8000E+01
      1.563  0.0000E+00  0.0000E+00  0.8000E+01  0.8000E+01
      1.682  0.0000E+00  0.0000E+00  0.8000E+01  0.8000E+01
