unknown system                          
           1
    10.000000    0.000000    0.000000
     0.000000   10.000000    0.000000
     0.000000    0.000000   10.000000
   O 
     2
Direct configuration=     1
   0.50000000  0.50000000  0.43950000
   0.50000000  0.50000000  0.56050000
Direct configuration=     2
   0.50000000  0.50000000  0.43082741
   0.50000000  0.50000000  0.56917259
Direct configuration=     3
   0.50000000  0.50000000  0.43828662
   0.50000000  0.50000000  0.56171338
Direct configuration=     4
   0.50000000  0.50000000  0.43835018
   0.50000000  0.50000000  0.56164982
