   3   3   0   0
  0.2418742E+02  0.4236474E-09  0.4236474E-09  0.4322573E-09  0.5000000E-15
  1.000000000000000E-004
  CAR 
 unknown system                          
     11.25857545    -39.02731060  301      4.60675491      1.00000000
    -39.027  0.0000E+00  0.0000E+00
    -38.860  0.0000E+00  0.0000E+00
    -38.692  0.0000E+00  0.0000E+00
    -38.524  0.0000E+00  0.0000E+00
    -38.357  0.0000E+00  0.0000E+00
    -38.189  0.0000E+00  0.0000E+00
    -38.022  0.0000E+00  0.0000E+00
    -37.854  0.0000E+00  0.0000E+00
    -37.686  0.0000E+00  0.0000E+00
    -37.519  0.0000E+00  0.0000E+00
    -37.351  0.0000E+00  0.0000E+00
    -37.183  0.0000E+00  0.0000E+00
    -37.016  0.3036E-13  0.5089E-14
    -36.848  0.1213E-01  0.2033E-02
    -36.681  0.1133E+02  0.1902E+01
    -36.513  0.5855E+00  0.2000E+01
    -36.345  0.9690E-09  0.2000E+01
    -36.178  0.0000E+00  0.2000E+01
    -36.010  0.0000E+00  0.2000E+01
    -35.843  0.0000E+00  0.2000E+01
    -35.675  0.0000E+00  0.2000E+01
    -35.507  0.0000E+00  0.2000E+01
    -35.340  0.0000E+00  0.2000E+01
    -35.172  0.0000E+00  0.2000E+01
    -35.004  0.0000E+00  0.2000E+01
    -34.837  0.0000E+00  0.2000E+01
    -34.669  0.0000E+00  0.2000E+01
    -34.502  0.0000E+00  0.2000E+01
    -34.334  0.0000E+00  0.2000E+01
    -34.166  0.0000E+00  0.2000E+01
    -33.999  0.0000E+00  0.2000E+01
    -33.831  0.0000E+00  0.2000E+01
    -33.663  0.0000E+00  0.2000E+01
    -33.496  0.0000E+00  0.2000E+01
    -33.328  0.0000E+00  0.2000E+01
    -33.161  0.0000E+00  0.2000E+01
    -32.993  0.0000E+00  0.2000E+01
    -32.825  0.0000E+00  0.2000E+01
    -32.658  0.0000E+00  0.2000E+01
    -32.490  0.0000E+00  0.2000E+01
    -32.323  0.0000E+00  0.2000E+01
    -32.155  0.0000E+00  0.2000E+01
    -31.987  0.0000E+00  0.2000E+01
    -31.820  0.0000E+00  0.2000E+01
    -31.652  0.0000E+00  0.2000E+01
    -31.484  0.0000E+00  0.2000E+01
    -31.317  0.0000E+00  0.2000E+01
    -31.149  0.0000E+00  0.2000E+01
    -30.982  0.0000E+00  0.2000E+01
    -30.814  0.0000E+00  0.2000E+01
    -30.646  0.0000E+00  0.2000E+01
    -30.479  0.0000E+00  0.2000E+01
    -30.311  0.0000E+00  0.2000E+01
    -30.143  0.0000E+00  0.2000E+01
    -29.976  0.0000E+00  0.2000E+01
    -29.808  0.0000E+00  0.2000E+01
    -29.641  0.0000E+00  0.2000E+01
    -29.473  0.0000E+00  0.2000E+01
    -29.305  0.0000E+00  0.2000E+01
    -29.138  0.0000E+00  0.2000E+01
    -28.970  0.0000E+00  0.2000E+01
    -28.803  0.0000E+00  0.2000E+01
    -28.635  0.0000E+00  0.2000E+01
    -28.467  0.0000E+00  0.2000E+01
    -28.300  0.0000E+00  0.2000E+01
    -28.132  0.0000E+00  0.2000E+01
    -27.964  0.0000E+00  0.2000E+01
    -27.797  0.0000E+00  0.2000E+01
    -27.629  0.0000E+00  0.2000E+01
    -27.462  0.0000E+00  0.2000E+01
    -27.294  0.0000E+00  0.2000E+01
    -27.126  0.0000E+00  0.2000E+01
    -26.959  0.0000E+00  0.2000E+01
    -26.791  0.0000E+00  0.2000E+01
    -26.623  0.0000E+00  0.2000E+01
    -26.456  0.0000E+00  0.2000E+01
    -26.288  0.0000E+00  0.2000E+01
    -26.121  0.0000E+00  0.2000E+01
    -25.953  0.0000E+00  0.2000E+01
    -25.785  0.0000E+00  0.2000E+01
    -25.618  0.0000E+00  0.2000E+01
    -25.450  0.0000E+00  0.2000E+01
    -25.283  0.0000E+00  0.2000E+01
    -25.115  0.0000E+00  0.2000E+01
    -24.947  0.0000E+00  0.2000E+01
    -24.780  0.0000E+00  0.2000E+01
    -24.612  0.0000E+00  0.2000E+01
    -24.444  0.0000E+00  0.2000E+01
    -24.277  0.0000E+00  0.2000E+01
    -24.109  0.0000E+00  0.2000E+01
    -23.942  0.0000E+00  0.2000E+01
    -23.774  0.0000E+00  0.2000E+01
    -23.606  0.0000E+00  0.2000E+01
    -23.439  0.0000E+00  0.2000E+01
    -23.271  0.0000E+00  0.2000E+01
    -23.103  0.0000E+00  0.2000E+01
    -22.936  0.0000E+00  0.2000E+01
    -22.768  0.0000E+00  0.2000E+01
    -22.601  0.0000E+00  0.2000E+01
    -22.433  0.0000E+00  0.2000E+01
    -22.265  0.0000E+00  0.2000E+01
    -22.098  0.0000E+00  0.2000E+01
    -21.930  0.0000E+00  0.2000E+01
    -21.762  0.0000E+00  0.2000E+01
    -21.595  0.0000E+00  0.2000E+01
    -21.427  0.0000E+00  0.2000E+01
    -21.260  0.0000E+00  0.2000E+01
    -21.092  0.0000E+00  0.2000E+01
    -20.924  0.0000E+00  0.2000E+01
    -20.757  0.0000E+00  0.2000E+01
    -20.589  0.0000E+00  0.2000E+01
    -20.422  0.0000E+00  0.2000E+01
    -20.254  0.2087E-06  0.2000E+01
    -20.086  0.2057E+01  0.2345E+01
    -19.919  0.4656E+02  0.1015E+02
    -19.751  0.6916E+02  0.2174E+02
    -19.583  0.1547E+01  0.2200E+02
    -19.416  0.1464E-07  0.2200E+02
    -19.248  0.0000E+00  0.2200E+02
    -19.081  0.0000E+00  0.2200E+02
    -18.913  0.0000E+00  0.2200E+02
    -18.745  0.0000E+00  0.2200E+02
    -18.578  0.0000E+00  0.2200E+02
    -18.410  0.0000E+00  0.2200E+02
    -18.242  0.0000E+00  0.2200E+02
    -18.075  0.1231E-12  0.2200E+02
    -17.907  0.1410E-01  0.2200E+02
    -17.740  0.2539E+02  0.2626E+02
    -17.572  0.1039E+02  0.2800E+02
    -17.404  0.2070E-03  0.2800E+02
    -17.237  0.0000E+00  0.2800E+02
    -17.069  0.0000E+00  0.2800E+02
    -16.902  0.0000E+00  0.2800E+02
    -16.734  0.0000E+00  0.2800E+02
    -16.566  0.0000E+00  0.2800E+02
    -16.399  0.0000E+00  0.2800E+02
    -16.231  0.0000E+00  0.2800E+02
    -16.063  0.0000E+00  0.2800E+02
    -15.896  0.0000E+00  0.2800E+02
    -15.728  0.0000E+00  0.2800E+02
    -15.561  0.0000E+00  0.2800E+02
    -15.393  0.0000E+00  0.2800E+02
    -15.225  0.0000E+00  0.2800E+02
    -15.058  0.0000E+00  0.2800E+02
    -14.890  0.0000E+00  0.2800E+02
    -14.722  0.0000E+00  0.2800E+02
    -14.555  0.0000E+00  0.2800E+02
    -14.387  0.0000E+00  0.2800E+02
    -14.220  0.0000E+00  0.2800E+02
    -14.052  0.0000E+00  0.2800E+02
    -13.884  0.0000E+00  0.2800E+02
    -13.717  0.0000E+00  0.2800E+02
    -13.549  0.0000E+00  0.2800E+02
    -13.382  0.0000E+00  0.2800E+02
    -13.214  0.0000E+00  0.2800E+02
    -13.046  0.0000E+00  0.2800E+02
    -12.879  0.0000E+00  0.2800E+02
    -12.711  0.0000E+00  0.2800E+02
    -12.543  0.0000E+00  0.2800E+02
    -12.376  0.0000E+00  0.2800E+02
    -12.208  0.0000E+00  0.2800E+02
    -12.041  0.0000E+00  0.2800E+02
    -11.873  0.0000E+00  0.2800E+02
    -11.705  0.0000E+00  0.2800E+02
    -11.538  0.0000E+00  0.2800E+02
    -11.370  0.0000E+00  0.2800E+02
    -11.202  0.0000E+00  0.2800E+02
    -11.035  0.0000E+00  0.2800E+02
    -10.867  0.0000E+00  0.2800E+02
    -10.700  0.0000E+00  0.2800E+02
    -10.532  0.0000E+00  0.2800E+02
    -10.364  0.0000E+00  0.2800E+02
    -10.197  0.0000E+00  0.2800E+02
    -10.029  0.0000E+00  0.2800E+02
     -9.861  0.0000E+00  0.2800E+02
     -9.694  0.0000E+00  0.2800E+02
     -9.526  0.0000E+00  0.2800E+02
     -9.359  0.0000E+00  0.2800E+02
     -9.191  0.0000E+00  0.2800E+02
     -9.023  0.0000E+00  0.2800E+02
     -8.856  0.0000E+00  0.2800E+02
     -8.688  0.0000E+00  0.2800E+02
     -8.521  0.0000E+00  0.2800E+02
     -8.353  0.0000E+00  0.2800E+02
     -8.185  0.0000E+00  0.2800E+02
     -8.018  0.0000E+00  0.2800E+02
     -7.850  0.0000E+00  0.2800E+02
     -7.682  0.0000E+00  0.2800E+02
     -7.515  0.0000E+00  0.2800E+02
     -7.347  0.0000E+00  0.2800E+02
     -7.180  0.0000E+00  0.2800E+02
     -7.012  0.1950E-12  0.2800E+02
     -6.844  0.7779E-03  0.2800E+02
     -6.677  0.7097E-01  0.2801E+02
     -6.509  0.3791E+00  0.2808E+02
     -6.341  0.5007E+00  0.2816E+02
     -6.174  0.7694E+00  0.2829E+02
     -6.006  0.1002E+01  0.2846E+02
     -5.839  0.8660E+00  0.2860E+02
     -5.671  0.8785E+00  0.2875E+02
     -5.503  0.6594E+00  0.2886E+02
     -5.336  0.1053E+01  0.2904E+02
     -5.168  0.1633E+01  0.2931E+02
     -5.001  0.8876E+00  0.2946E+02
     -4.833  0.1141E+01  0.2965E+02
     -4.665  0.6188E+00  0.2975E+02
     -4.498  0.5589E+00  0.2985E+02
     -4.330  0.8838E+00  0.3000E+02
     -4.162  0.2887E-01  0.3000E+02
     -3.995  0.1193E-08  0.3000E+02
     -3.827  0.4036E-03  0.3000E+02
     -3.660  0.4492E+00  0.3008E+02
     -3.492  0.1165E+01  0.3027E+02
     -3.324  0.1202E+01  0.3047E+02
     -3.157  0.5953E+00  0.3057E+02
     -2.989  0.5329E+00  0.3066E+02
     -2.821  0.7341E+00  0.3078E+02
     -2.654  0.9815E+00  0.3095E+02
     -2.486  0.1201E+01  0.3115E+02
     -2.319  0.4394E+00  0.3122E+02
     -2.151  0.4362E-02  0.3122E+02
     -1.983  0.2816E+00  0.3127E+02
     -1.816  0.3478E+00  0.3133E+02
     -1.648  0.3695E+00  0.3139E+02
     -1.481  0.2943E+00  0.3144E+02
     -1.313  0.9469E+00  0.3160E+02
     -1.145  0.5118E+00  0.3169E+02
     -0.978  0.1699E+00  0.3171E+02
     -0.810  0.3065E-04  0.3171E+02
     -0.642  0.1442E-15  0.3171E+02
     -0.475  0.1068E-03  0.3171E+02
     -0.307  0.4409E+00  0.3179E+02
     -0.140  0.5768E+00  0.3188E+02
      0.028  0.4897E+00  0.3197E+02
      0.196  0.7776E+00  0.3210E+02
      0.363  0.3865E+00  0.3216E+02
      0.531  0.8097E+00  0.3230E+02
      0.699  0.8410E+00  0.3244E+02
      0.866  0.1608E+01  0.3271E+02
      1.034  0.1053E+01  0.3288E+02
      1.201  0.1736E+01  0.3318E+02
      1.369  0.1623E+01  0.3345E+02
      1.537  0.8014E+00  0.3358E+02
      1.704  0.1169E+01  0.3378E+02
      1.872  0.1326E+01  0.3400E+02
      2.039  0.2573E+01  0.3443E+02
      2.207  0.1105E+01  0.3462E+02
      2.375  0.2307E+01  0.3500E+02
      2.542  0.4322E+00  0.3508E+02
      2.710  0.1406E+01  0.3531E+02
      2.878  0.2150E+01  0.3567E+02
      3.045  0.1159E+01  0.3587E+02
      3.213  0.1390E+01  0.3610E+02
      3.380  0.1815E+01  0.3640E+02
      3.548  0.1886E+01  0.3672E+02
      3.716  0.1582E+01  0.3698E+02
      3.883  0.1750E+01  0.3728E+02
      4.051  0.1257E+01  0.3749E+02
      4.219  0.1111E+01  0.3768E+02
      4.386  0.9434E+00  0.3783E+02
      4.554  0.4930E+00  0.3792E+02
      4.721  0.1445E+01  0.3816E+02
      4.889  0.1192E+01  0.3836E+02
      5.057  0.1285E+01  0.3857E+02
      5.224  0.1774E+01  0.3887E+02
      5.392  0.1465E+01  0.3912E+02
      5.560  0.1254E+01  0.3933E+02
      5.727  0.1526E+01  0.3958E+02
      5.895  0.1042E+01  0.3976E+02
      6.062  0.1572E+01  0.4002E+02
      6.230  0.1748E+01  0.4031E+02
      6.398  0.1175E+01  0.4051E+02
      6.565  0.1466E+01  0.4076E+02
      6.733  0.1732E+01  0.4105E+02
      6.900  0.1791E+01  0.4135E+02
      7.068  0.1433E+01  0.4159E+02
      7.236  0.3167E+01  0.4212E+02
      7.403  0.3074E+01  0.4263E+02
      7.571  0.2680E+01  0.4308E+02
      7.739  0.3793E+01  0.4372E+02
      7.906  0.3628E+01  0.4433E+02
      8.074  0.3984E+01  0.4499E+02
      8.241  0.3368E+01  0.4556E+02
      8.409  0.3966E+01  0.4622E+02
      8.577  0.4619E+01  0.4700E+02
      8.744  0.2511E+01  0.4742E+02
      8.912  0.2855E+01  0.4790E+02
      9.080  0.6167E+00  0.4800E+02
      9.247  0.1489E-03  0.4800E+02
      9.415  0.0000E+00  0.4800E+02
      9.582  0.0000E+00  0.4800E+02
      9.750  0.0000E+00  0.4800E+02
      9.918  0.0000E+00  0.4800E+02
     10.085  0.0000E+00  0.4800E+02
     10.253  0.0000E+00  0.4800E+02
     10.420  0.0000E+00  0.4800E+02
     10.588  0.0000E+00  0.4800E+02
     10.756  0.0000E+00  0.4800E+02
     10.923  0.0000E+00  0.4800E+02
     11.091  0.0000E+00  0.4800E+02
     11.259  0.0000E+00  0.4800E+02
