   1   1   0   0
  0.1825807E+02  0.2873155E-09  0.2873154E-09  0.2873153E-09  0.5000000E-15
  1.000000000000000E-004
  CAR 
 unknown system                          
     27.29010361    -28.70342161  301      4.81096583      1.00000000
    -28.703  0.0000E+00  0.0000E+00
    -28.517  0.0000E+00  0.0000E+00
    -28.330  0.0000E+00  0.0000E+00
    -28.143  0.0000E+00  0.0000E+00
    -27.957  0.0000E+00  0.0000E+00
    -27.770  0.0000E+00  0.0000E+00
    -27.584  0.0000E+00  0.0000E+00
    -27.397  0.0000E+00  0.0000E+00
    -27.210  0.0000E+00  0.0000E+00
    -27.024  0.0000E+00  0.0000E+00
    -26.837  0.0000E+00  0.0000E+00
    -26.650  0.0000E+00  0.0000E+00
    -26.464  0.0000E+00  0.0000E+00
    -26.277  0.6839E-04  0.1276E-04
    -26.090  0.7293E+00  0.1361E+00
    -25.904  0.4569E+01  0.9890E+00
    -25.717  0.3857E+01  0.1709E+01
    -25.530  0.3308E+01  0.2326E+01
    -25.344  0.4723E+01  0.3208E+01
    -25.157  0.5367E+01  0.4210E+01
    -24.971  0.6640E+01  0.5449E+01
    -24.784  0.2952E+01  0.6000E+01
    -24.597  0.5581E-03  0.6000E+01
    -24.411  0.0000E+00  0.6000E+01
    -24.224  0.0000E+00  0.6000E+01
    -24.037  0.0000E+00  0.6000E+01
    -23.851  0.0000E+00  0.6000E+01
    -23.664  0.0000E+00  0.6000E+01
    -23.477  0.0000E+00  0.6000E+01
    -23.291  0.0000E+00  0.6000E+01
    -23.104  0.0000E+00  0.6000E+01
    -22.917  0.0000E+00  0.6000E+01
    -22.731  0.0000E+00  0.6000E+01
    -22.544  0.0000E+00  0.6000E+01
    -22.357  0.0000E+00  0.6000E+01
    -22.171  0.0000E+00  0.6000E+01
    -21.984  0.0000E+00  0.6000E+01
    -21.798  0.0000E+00  0.6000E+01
    -21.611  0.0000E+00  0.6000E+01
    -21.424  0.0000E+00  0.6000E+01
    -21.238  0.0000E+00  0.6000E+01
    -21.051  0.0000E+00  0.6000E+01
    -20.864  0.0000E+00  0.6000E+01
    -20.678  0.0000E+00  0.6000E+01
    -20.491  0.0000E+00  0.6000E+01
    -20.304  0.0000E+00  0.6000E+01
    -20.118  0.0000E+00  0.6000E+01
    -19.931  0.0000E+00  0.6000E+01
    -19.744  0.0000E+00  0.6000E+01
    -19.558  0.0000E+00  0.6000E+01
    -19.371  0.0000E+00  0.6000E+01
    -19.185  0.0000E+00  0.6000E+01
    -18.998  0.0000E+00  0.6000E+01
    -18.811  0.0000E+00  0.6000E+01
    -18.625  0.0000E+00  0.6000E+01
    -18.438  0.0000E+00  0.6000E+01
    -18.251  0.0000E+00  0.6000E+01
    -18.065  0.0000E+00  0.6000E+01
    -17.878  0.0000E+00  0.6000E+01
    -17.691  0.0000E+00  0.6000E+01
    -17.505  0.0000E+00  0.6000E+01
    -17.318  0.0000E+00  0.6000E+01
    -17.131  0.0000E+00  0.6000E+01
    -16.945  0.0000E+00  0.6000E+01
    -16.758  0.0000E+00  0.6000E+01
    -16.571  0.0000E+00  0.6000E+01
    -16.385  0.0000E+00  0.6000E+01
    -16.198  0.0000E+00  0.6000E+01
    -16.012  0.0000E+00  0.6000E+01
    -15.825  0.0000E+00  0.6000E+01
    -15.638  0.0000E+00  0.6000E+01
    -15.452  0.0000E+00  0.6000E+01
    -15.265  0.0000E+00  0.6000E+01
    -15.078  0.0000E+00  0.6000E+01
    -14.892  0.0000E+00  0.6000E+01
    -14.705  0.0000E+00  0.6000E+01
    -14.518  0.0000E+00  0.6000E+01
    -14.332  0.0000E+00  0.6000E+01
    -14.145  0.0000E+00  0.6000E+01
    -13.958  0.0000E+00  0.6000E+01
    -13.772  0.0000E+00  0.6000E+01
    -13.585  0.0000E+00  0.6000E+01
    -13.399  0.0000E+00  0.6000E+01
    -13.212  0.0000E+00  0.6000E+01
    -13.025  0.0000E+00  0.6000E+01
    -12.839  0.0000E+00  0.6000E+01
    -12.652  0.0000E+00  0.6000E+01
    -12.465  0.0000E+00  0.6000E+01
    -12.279  0.0000E+00  0.6000E+01
    -12.092  0.0000E+00  0.6000E+01
    -11.905  0.0000E+00  0.6000E+01
    -11.719  0.0000E+00  0.6000E+01
    -11.532  0.0000E+00  0.6000E+01
    -11.345  0.0000E+00  0.6000E+01
    -11.159  0.0000E+00  0.6000E+01
    -10.972  0.0000E+00  0.6000E+01
    -10.785  0.0000E+00  0.6000E+01
    -10.599  0.0000E+00  0.6000E+01
    -10.412  0.0000E+00  0.6000E+01
    -10.226  0.0000E+00  0.6000E+01
    -10.039  0.0000E+00  0.6000E+01
     -9.852  0.0000E+00  0.6000E+01
     -9.666  0.0000E+00  0.6000E+01
     -9.479  0.0000E+00  0.6000E+01
     -9.292  0.0000E+00  0.6000E+01
     -9.106  0.0000E+00  0.6000E+01
     -8.919  0.0000E+00  0.6000E+01
     -8.732  0.0000E+00  0.6000E+01
     -8.546  0.0000E+00  0.6000E+01
     -8.359  0.0000E+00  0.6000E+01
     -8.172  0.0000E+00  0.6000E+01
     -7.986  0.0000E+00  0.6000E+01
     -7.799  0.0000E+00  0.6000E+01
     -7.613  0.0000E+00  0.6000E+01
     -7.426  0.0000E+00  0.6000E+01
     -7.239  0.0000E+00  0.6000E+01
     -7.053  0.0000E+00  0.6000E+01
     -6.866  0.0000E+00  0.6000E+01
     -6.679  0.0000E+00  0.6000E+01
     -6.493  0.0000E+00  0.6000E+01
     -6.306  0.0000E+00  0.6000E+01
     -6.119  0.0000E+00  0.6000E+01
     -5.933  0.0000E+00  0.6000E+01
     -5.746  0.0000E+00  0.6000E+01
     -5.559  0.0000E+00  0.6000E+01
     -5.373  0.0000E+00  0.6000E+01
     -5.186  0.0000E+00  0.6000E+01
     -4.999  0.0000E+00  0.6000E+01
     -4.813  0.0000E+00  0.6000E+01
     -4.626  0.0000E+00  0.6000E+01
     -4.440  0.0000E+00  0.6000E+01
     -4.253  0.0000E+00  0.6000E+01
     -4.066  0.0000E+00  0.6000E+01
     -3.880  0.0000E+00  0.6000E+01
     -3.693  0.0000E+00  0.6000E+01
     -3.506  0.0000E+00  0.6000E+01
     -3.320  0.0000E+00  0.6000E+01
     -3.133  0.0000E+00  0.6000E+01
     -2.946  0.0000E+00  0.6000E+01
     -2.760  0.0000E+00  0.6000E+01
     -2.573  0.0000E+00  0.6000E+01
     -2.386  0.0000E+00  0.6000E+01
     -2.200  0.0000E+00  0.6000E+01
     -2.013  0.0000E+00  0.6000E+01
     -1.827  0.0000E+00  0.6000E+01
     -1.640  0.0000E+00  0.6000E+01
     -1.453  0.0000E+00  0.6000E+01
     -1.267  0.5860E-12  0.6000E+01
     -1.080  0.1039E-02  0.6000E+01
     -0.893  0.7012E-02  0.6002E+01
     -0.707  0.4922E-01  0.6011E+01
     -0.520  0.4739E-01  0.6020E+01
     -0.333  0.4488E-01  0.6028E+01
     -0.147  0.1897E-01  0.6031E+01
      0.040  0.1777E+00  0.6065E+01
      0.227  0.9359E-01  0.6082E+01
      0.413  0.2381E-01  0.6087E+01
      0.600  0.1725E+00  0.6119E+01
      0.787  0.6600E-01  0.6131E+01
      0.973  0.3839E+00  0.6203E+01
      1.160  0.1043E+00  0.6222E+01
      1.346  0.4345E+00  0.6303E+01
      1.533  0.1129E+01  0.6514E+01
      1.720  0.9753E+00  0.6696E+01
      1.906  0.7308E+00  0.6832E+01
      2.093  0.1964E+01  0.7199E+01
      2.280  0.1068E+01  0.7398E+01
      2.466  0.6523E+00  0.7520E+01
      2.653  0.2411E+01  0.7970E+01
      2.840  0.8121E+00  0.8122E+01
      3.026  0.2807E+00  0.8174E+01
      3.213  0.1618E+00  0.8204E+01
      3.400  0.2338E+01  0.8640E+01
      3.586  0.2226E+01  0.9056E+01
      3.773  0.1349E+01  0.9308E+01
      3.959  0.1912E+01  0.9665E+01
      4.146  0.6174E+00  0.9780E+01
      4.333  0.1429E+01  0.1005E+02
      4.519  0.1042E+01  0.1024E+02
      4.706  0.2463E+01  0.1070E+02
      4.893  0.2164E+01  0.1110E+02
      5.079  0.1177E+01  0.1132E+02
      5.266  0.8646E+00  0.1149E+02
      5.453  0.4785E+00  0.1157E+02
      5.639  0.1790E+00  0.1161E+02
      5.826  0.6101E+00  0.1172E+02
      6.013  0.3365E+00  0.1179E+02
      6.199  0.4869E+00  0.1188E+02
      6.386  0.1053E+01  0.1207E+02
      6.572  0.5455E+00  0.1217E+02
      6.759  0.9073E+00  0.1234E+02
      6.946  0.7387E+00  0.1248E+02
      7.132  0.5932E+00  0.1259E+02
      7.319  0.1195E+01  0.1282E+02
      7.506  0.9434E+00  0.1299E+02
      7.692  0.2006E+01  0.1337E+02
      7.879  0.7343E+00  0.1350E+02
      8.066  0.1683E+01  0.1382E+02
      8.252  0.1390E+01  0.1408E+02
      8.439  0.1674E+01  0.1439E+02
      8.626  0.1492E+01  0.1467E+02
      8.812  0.2128E+01  0.1506E+02
      8.999  0.2177E+01  0.1547E+02
      9.186  0.1536E+01  0.1576E+02
      9.372  0.1212E+01  0.1598E+02
      9.559  0.1392E+01  0.1624E+02
      9.745  0.3875E+00  0.1632E+02
      9.932  0.3930E+00  0.1639E+02
     10.119  0.8254E+00  0.1654E+02
     10.305  0.3958E+00  0.1662E+02
     10.492  0.1929E+00  0.1665E+02
     10.679  0.3530E+00  0.1672E+02
     10.865  0.5997E+00  0.1683E+02
     11.052  0.5382E+00  0.1693E+02
     11.239  0.7351E+00  0.1707E+02
     11.425  0.2842E+00  0.1712E+02
     11.612  0.3265E+00  0.1718E+02
     11.799  0.3012E+00  0.1724E+02
     11.985  0.1018E+00  0.1726E+02
     12.172  0.1886E+00  0.1729E+02
     12.358  0.3806E+00  0.1736E+02
     12.545  0.2054E+00  0.1740E+02
     12.732  0.3845E+00  0.1747E+02
     12.918  0.2463E+00  0.1752E+02
     13.105  0.4132E+00  0.1760E+02
     13.292  0.3216E+00  0.1766E+02
     13.478  0.3702E+00  0.1773E+02
     13.665  0.1044E+00  0.1775E+02
     13.852  0.1676E+00  0.1778E+02
     14.038  0.3518E-01  0.1778E+02
     14.225  0.1833E+00  0.1782E+02
     14.412  0.2031E+00  0.1786E+02
     14.598  0.3163E+00  0.1791E+02
     14.785  0.4489E+00  0.1800E+02
     14.972  0.1042E+00  0.1802E+02
     15.158  0.4287E-01  0.1803E+02
     15.345  0.5102E+00  0.1812E+02
     15.531  0.5395E+00  0.1822E+02
     15.718  0.2398E-02  0.1822E+02
     15.905  0.2073E+00  0.1826E+02
     16.091  0.6809E+00  0.1839E+02
     16.278  0.8520E+00  0.1855E+02
     16.465  0.5874E+00  0.1866E+02
     16.651  0.7279E+00  0.1879E+02
     16.838  0.4004E+00  0.1887E+02
     17.025  0.7255E+00  0.1900E+02
     17.211  0.1250E+00  0.1903E+02
     17.398  0.8596E+00  0.1919E+02
     17.585  0.7631E+00  0.1933E+02
     17.771  0.3937E+00  0.1940E+02
     17.958  0.9217E+00  0.1957E+02
     18.144  0.5600E+00  0.1968E+02
     18.331  0.1679E+01  0.1999E+02
     18.518  0.9008E+00  0.2016E+02
     18.704  0.4955E+00  0.2025E+02
     18.891  0.7352E+00  0.2039E+02
     19.078  0.6662E+00  0.2051E+02
     19.264  0.5017E+00  0.2061E+02
     19.451  0.1723E+00  0.2064E+02
     19.638  0.1397E+01  0.2090E+02
     19.824  0.1208E+01  0.2113E+02
     20.011  0.7984E+00  0.2128E+02
     20.198  0.5530E-01  0.2129E+02
     20.384  0.2480E+00  0.2133E+02
     20.571  0.9983E+00  0.2152E+02
     20.758  0.8936E+00  0.2169E+02
     20.944  0.4096E+00  0.2176E+02
     21.131  0.8642E+00  0.2192E+02
     21.317  0.8084E+00  0.2207E+02
     21.504  0.7453E+00  0.2221E+02
     21.691  0.1017E+01  0.2240E+02
     21.877  0.8237E+00  0.2256E+02
     22.064  0.1222E+01  0.2278E+02
     22.251  0.2794E+00  0.2284E+02
     22.437  0.7340E+00  0.2297E+02
     22.624  0.1065E+01  0.2317E+02
     22.811  0.4580E+00  0.2326E+02
     22.997  0.6038E+00  0.2337E+02
     23.184  0.4617E+00  0.2346E+02
     23.371  0.1715E+00  0.2349E+02
     23.557  0.5808E-02  0.2349E+02
     23.744  0.3391E+00  0.2355E+02
     23.930  0.9635E+00  0.2373E+02
     24.117  0.5261E+00  0.2383E+02
     24.304  0.1044E-02  0.2383E+02
     24.490  0.2171E+00  0.2387E+02
     24.677  0.5220E+00  0.2397E+02
     24.864  0.1625E+00  0.2400E+02
     25.050  0.3772E-04  0.2400E+02
     25.237  0.0000E+00  0.2400E+02
     25.424  0.0000E+00  0.2400E+02
     25.610  0.0000E+00  0.2400E+02
     25.797  0.0000E+00  0.2400E+02
     25.984  0.0000E+00  0.2400E+02
     26.170  0.0000E+00  0.2400E+02
     26.357  0.0000E+00  0.2400E+02
     26.544  0.0000E+00  0.2400E+02
     26.730  0.0000E+00  0.2400E+02
     26.917  0.0000E+00  0.2400E+02
     27.103  0.0000E+00  0.2400E+02
     27.290  0.0000E+00  0.2400E+02
