       N       E                     dE             d eps       ncg     rms          rms(c)
DAV:   1     0.109495375283E+04    0.10950E+04   -0.65502E+04 12800   0.150E+03
DAV:   2     0.217041356677E+02   -0.10732E+04   -0.10227E+04 11884   0.377E+02
DAV:   3    -0.735565534536E+02   -0.95261E+02   -0.90604E+02 13008   0.123E+02
DAV:   4    -0.773740337522E+02   -0.38175E+01   -0.37735E+01 12128   0.242E+01
DAV:   5    -0.774776152594E+02   -0.10358E+00   -0.10337E+00 13536   0.461E+00    0.233E+01
DAV:   6    -0.918443969001E+02   -0.14367E+02   -0.98244E+01 12132   0.100E+02    0.483E+01
DAV:   7    -0.752237619486E+02    0.16621E+02   -0.31350E+01 13080   0.590E+01    0.131E+01
DAV:   8    -0.740592337770E+02    0.11645E+01   -0.94909E+00 14784   0.236E+01    0.671E+00
DAV:   9    -0.739444665315E+02    0.11477E+00   -0.15394E+00 12412   0.905E+00    0.219E+00
DAV:  10    -0.739411435672E+02    0.33230E-02   -0.49167E-02 12360   0.139E+00    0.129E+00
DAV:  11    -0.739455171636E+02   -0.43736E-02   -0.17485E-02 13088   0.185E+00    0.976E-01
DAV:  12    -0.739412531630E+02    0.42640E-02   -0.15374E-02 12580   0.192E+00    0.271E-01
DAV:  13    -0.739414589958E+02   -0.20583E-03   -0.30738E-03 11796   0.365E-01    0.168E-01
DAV:  14    -0.739414950421E+02   -0.36046E-04   -0.31810E-04 13816   0.195E-01    0.131E-01
DAV:  15    -0.739416833829E+02   -0.18834E-03   -0.36925E-04 11656   0.161E-01    0.602E-02
DAV:  16    -0.739417991171E+02   -0.11573E-03   -0.23389E-04 11756   0.110E-01    0.454E-02
DAV:  17    -0.739417968383E+02    0.22788E-05   -0.31056E-05 12812   0.677E-02    0.323E-02
DAV:  18    -0.739417969189E+02   -0.80556E-07   -0.12004E-05 11316   0.204E-02    0.155E-02
DAV:  19    -0.739418010441E+02   -0.41252E-05   -0.96302E-06 10956   0.124E-02    0.751E-03
DAV:  20    -0.739418011721E+02   -0.12797E-06   -0.11164E-06  9136   0.825E-03
   1 F= -.73941801E+02 E0= -.73935162E+02  d E =-.132778E-01
