Ni4 Sb12
1.0
  -4.5927300600000001   -4.5927300600000001    4.5927300600000001
  -4.5927300600000001    4.5927300600000001   -4.5927300600000001
   4.5927300600000001   -4.5927300600000001   -4.5927300600000001
Ni Sb
4 12
direct
  -0.0000000000000000   -0.0000000000000000    0.5000000000000000 Ni
   0.5000000000000000   -0.0000000000000000   -0.0000000000000000 Ni
  -0.0000000000000000    0.5000000000000000   -0.0000000000000000 Ni
   0.5000000000000000    0.5000000000000000    0.5000000000000000 Ni
   0.1587290700000000    0.8217823500000000    0.6630542800000000 Sb
   0.8412709300000000    0.1782176500000000    0.3369457200000000 Sb
   0.8412709300000000    0.5043272100000000    0.6630542800000000 Sb
   0.1587290700000000    0.4956727900000000    0.3369457200000000 Sb
   0.8217823500000000    0.6630542800000000    0.1587290700000000 Sb
   0.1782176500000000    0.3369457200000000    0.8412709300000000 Sb
   0.5043272100000000    0.6630542800000000    0.8412709300000000 Sb
   0.4956727900000000    0.3369457200000000    0.1587290700000000 Sb
   0.6630542800000000    0.1587290700000000    0.8217823500000000 Sb
   0.3369457200000000    0.8412709300000000    0.1782176500000000 Sb
   0.6630542800000000    0.8412709300000000    0.5043272100000000 Sb
   0.3369457200000000    0.1587290700000000    0.4956727900000000 Sb
