unknown system                          
           1
    -4.592730   -4.592730    4.592730
    -4.592730    4.592730   -4.592730
     4.592730   -4.592730   -4.592730
   Ni   Sb
     4    12
Direct configuration=     1
   0.00000000  0.00000000  0.50000000
   0.50000000  0.00000000  0.00000000
   0.00000000  0.50000000  0.00000000
   0.50000000  0.50000000  0.50000000
   0.15872907  0.82178235  0.66305428
   0.84127093  0.17821765  0.33694572
   0.84127093  0.50432721  0.66305428
   0.15872907  0.49567279  0.33694572
   0.82178235  0.66305428  0.15872907
   0.17821765  0.33694572  0.84127093
   0.50432721  0.66305428  0.84127093
   0.49567279  0.33694572  0.15872907
   0.66305428  0.15872907  0.82178235
   0.33694572  0.84127093  0.17821765
   0.66305428  0.84127093  0.50432721
   0.33694572  0.15872907  0.49567279
