       N       E                     dE             d eps       ncg     rms          rms(c)
DAV:   1     0.319595172113E+03    0.31960E+03   -0.23045E+04 24720   0.130E+03
DAV:   2    -0.530870854654E+01   -0.32490E+03   -0.30317E+03 26096   0.314E+02
DAV:   3    -0.152850307867E+02   -0.99763E+01   -0.98746E+01 27800   0.606E+01
DAV:   4    -0.153407388884E+02   -0.55708E-01   -0.55692E-01 27468   0.437E+00
DAV:   5    -0.153413082564E+02   -0.56937E-03   -0.56936E-03 26784   0.479E-01    0.126E+01
DAV:   6    -0.143277601216E+02    0.10135E+01   -0.30425E+00 27512   0.179E+01    0.911E+00
DAV:   7    -0.142650058298E+02    0.62754E-01   -0.10967E+00 26012   0.623E+00    0.459E+00
DAV:   8    -0.142060977940E+02    0.58908E-01   -0.18648E-01 26424   0.380E+00    0.253E+00
DAV:   9    -0.142018968964E+02    0.42009E-02   -0.86406E-03 27572   0.596E-01    0.180E-01
DAV:  10    -0.142013796788E+02    0.51722E-03   -0.39659E-03 26420   0.390E-01    0.878E-02
DAV:  11    -0.142013344685E+02    0.45210E-04   -0.47068E-04 26992   0.151E-01    0.181E-02
DAV:  12    -0.142013314094E+02    0.30591E-05   -0.20380E-05 26824   0.320E-02    0.555E-03
DAV:  13    -0.142013307294E+02    0.68008E-06   -0.87930E-07 18232   0.652E-03
   1 F= -.14201331E+02 E0= -.14199986E+02  d E =-.268887E-02
