Mg5 Sc1                                 
   1.00000000000000     
     5.5309773099999999   -2.7392574999999999   -0.0004216000000000
     5.5309773099999999    2.7392574999999999   -0.0004216000000000
     4.1746873799999999    0.0000000000000000    4.5461231499999997
   Mg   Sc
     5     1
Direct
     0.3380107799999976    0.0000000000000000    0.6619892200000024
     0.6619892200000024    0.3380107799999976    0.0000000000000000
     0.0000000000000000    0.6619892200000024    0.3380107799999976
     0.1646931599999988    0.1646931599999988    0.1646931599999988
     0.8353068400000012    0.8353068400000012    0.8353068400000012
     0.5000000000000000    0.5000000000000000    0.5000000000000000
 
  0.00000000E+00  0.00000000E+00  0.00000000E+00
  0.00000000E+00  0.00000000E+00  0.00000000E+00
  0.00000000E+00  0.00000000E+00  0.00000000E+00
  0.00000000E+00  0.00000000E+00  0.00000000E+00
  0.00000000E+00  0.00000000E+00  0.00000000E+00
  0.00000000E+00  0.00000000E+00  0.00000000E+00
