   6   6   0   0
  0.2296070E+02  0.6172134E-09  0.6172134E-09  0.6172135E-09  0.5000000E-15
  1.000000000000000E-004
  CAR 
 unknown system                          
      8.66740855    -50.05584913  301      2.54576984      1.00000000
    -50.056  0.0000E+00  0.0000E+00
    -49.860  0.0000E+00  0.0000E+00
    -49.664  0.0000E+00  0.0000E+00
    -49.469  0.0000E+00  0.0000E+00
    -49.273  0.0000E+00  0.0000E+00
    -49.077  0.0000E+00  0.0000E+00
    -48.881  0.0000E+00  0.0000E+00
    -48.686  0.0000E+00  0.0000E+00
    -48.490  0.0000E+00  0.0000E+00
    -48.294  0.0000E+00  0.0000E+00
    -48.098  0.0000E+00  0.0000E+00
    -47.903  0.0000E+00  0.0000E+00
    -47.707  0.0000E+00  0.0000E+00
    -47.511  0.2177E-02  0.4261E-03
    -47.315  0.9990E+01  0.1956E+01
    -47.120  0.2253E+00  0.2000E+01
    -46.924  0.0000E+00  0.2000E+01
    -46.728  0.0000E+00  0.2000E+01
    -46.532  0.0000E+00  0.2000E+01
    -46.337  0.0000E+00  0.2000E+01
    -46.141  0.0000E+00  0.2000E+01
    -45.945  0.0000E+00  0.2000E+01
    -45.749  0.0000E+00  0.2000E+01
    -45.554  0.0000E+00  0.2000E+01
    -45.358  0.0000E+00  0.2000E+01
    -45.162  0.0000E+00  0.2000E+01
    -44.967  0.0000E+00  0.2000E+01
    -44.771  0.0000E+00  0.2000E+01
    -44.575  0.0000E+00  0.2000E+01
    -44.379  0.0000E+00  0.2000E+01
    -44.184  0.0000E+00  0.2000E+01
    -43.988  0.0000E+00  0.2000E+01
    -43.792  0.0000E+00  0.2000E+01
    -43.596  0.0000E+00  0.2000E+01
    -43.401  0.0000E+00  0.2000E+01
    -43.205  0.0000E+00  0.2000E+01
    -43.009  0.0000E+00  0.2000E+01
    -42.813  0.0000E+00  0.2000E+01
    -42.618  0.0000E+00  0.2000E+01
    -42.422  0.0000E+00  0.2000E+01
    -42.226  0.0000E+00  0.2000E+01
    -42.030  0.0000E+00  0.2000E+01
    -41.835  0.0000E+00  0.2000E+01
    -41.639  0.0000E+00  0.2000E+01
    -41.443  0.0000E+00  0.2000E+01
    -41.247  0.0000E+00  0.2000E+01
    -41.052  0.0000E+00  0.2000E+01
    -40.856  0.0000E+00  0.2000E+01
    -40.660  0.0000E+00  0.2000E+01
    -40.464  0.0000E+00  0.2000E+01
    -40.269  0.0000E+00  0.2000E+01
    -40.073  0.1882E-01  0.2004E+01
    -39.877  0.8901E+02  0.1943E+02
    -39.681  0.6421E+02  0.3200E+02
    -39.486  0.2069E-01  0.3200E+02
    -39.290  0.0000E+00  0.3200E+02
    -39.094  0.0000E+00  0.3200E+02
    -38.898  0.0000E+00  0.3200E+02
    -38.703  0.0000E+00  0.3200E+02
    -38.507  0.0000E+00  0.3200E+02
    -38.311  0.0000E+00  0.3200E+02
    -38.115  0.0000E+00  0.3200E+02
    -37.920  0.0000E+00  0.3200E+02
    -37.724  0.0000E+00  0.3200E+02
    -37.528  0.0000E+00  0.3200E+02
    -37.332  0.0000E+00  0.3200E+02
    -37.137  0.0000E+00  0.3200E+02
    -36.941  0.0000E+00  0.3200E+02
    -36.745  0.0000E+00  0.3200E+02
    -36.549  0.0000E+00  0.3200E+02
    -36.354  0.0000E+00  0.3200E+02
    -36.158  0.0000E+00  0.3200E+02
    -35.962  0.0000E+00  0.3200E+02
    -35.767  0.0000E+00  0.3200E+02
    -35.571  0.0000E+00  0.3200E+02
    -35.375  0.0000E+00  0.3200E+02
    -35.179  0.0000E+00  0.3200E+02
    -34.984  0.0000E+00  0.3200E+02
    -34.788  0.0000E+00  0.3200E+02
    -34.592  0.0000E+00  0.3200E+02
    -34.396  0.0000E+00  0.3200E+02
    -34.201  0.0000E+00  0.3200E+02
    -34.005  0.0000E+00  0.3200E+02
    -33.809  0.0000E+00  0.3200E+02
    -33.613  0.0000E+00  0.3200E+02
    -33.418  0.0000E+00  0.3200E+02
    -33.222  0.0000E+00  0.3200E+02
    -33.026  0.0000E+00  0.3200E+02
    -32.830  0.0000E+00  0.3200E+02
    -32.635  0.0000E+00  0.3200E+02
    -32.439  0.0000E+00  0.3200E+02
    -32.243  0.0000E+00  0.3200E+02
    -32.047  0.0000E+00  0.3200E+02
    -31.852  0.0000E+00  0.3200E+02
    -31.656  0.0000E+00  0.3200E+02
    -31.460  0.0000E+00  0.3200E+02
    -31.264  0.0000E+00  0.3200E+02
    -31.069  0.0000E+00  0.3200E+02
    -30.873  0.0000E+00  0.3200E+02
    -30.677  0.0000E+00  0.3200E+02
    -30.481  0.0000E+00  0.3200E+02
    -30.286  0.0000E+00  0.3200E+02
    -30.090  0.0000E+00  0.3200E+02
    -29.894  0.0000E+00  0.3200E+02
    -29.698  0.0000E+00  0.3200E+02
    -29.503  0.0000E+00  0.3200E+02
    -29.307  0.0000E+00  0.3200E+02
    -29.111  0.0000E+00  0.3200E+02
    -28.915  0.0000E+00  0.3200E+02
    -28.720  0.0000E+00  0.3200E+02
    -28.524  0.0000E+00  0.3200E+02
    -28.328  0.0000E+00  0.3200E+02
    -28.132  0.0000E+00  0.3200E+02
    -27.937  0.0000E+00  0.3200E+02
    -27.741  0.0000E+00  0.3200E+02
    -27.545  0.0000E+00  0.3200E+02
    -27.350  0.0000E+00  0.3200E+02
    -27.154  0.0000E+00  0.3200E+02
    -26.958  0.0000E+00  0.3200E+02
    -26.762  0.0000E+00  0.3200E+02
    -26.567  0.0000E+00  0.3200E+02
    -26.371  0.0000E+00  0.3200E+02
    -26.175  0.7084E-02  0.3200E+02
    -25.979  0.2223E+02  0.3635E+02
    -25.784  0.8413E+01  0.3800E+02
    -25.588  0.1174E-04  0.3800E+02
    -25.392  0.0000E+00  0.3800E+02
    -25.196  0.0000E+00  0.3800E+02
    -25.001  0.0000E+00  0.3800E+02
    -24.805  0.0000E+00  0.3800E+02
    -24.609  0.0000E+00  0.3800E+02
    -24.413  0.0000E+00  0.3800E+02
    -24.218  0.0000E+00  0.3800E+02
    -24.022  0.0000E+00  0.3800E+02
    -23.826  0.0000E+00  0.3800E+02
    -23.630  0.0000E+00  0.3800E+02
    -23.435  0.0000E+00  0.3800E+02
    -23.239  0.0000E+00  0.3800E+02
    -23.043  0.0000E+00  0.3800E+02
    -22.847  0.0000E+00  0.3800E+02
    -22.652  0.0000E+00  0.3800E+02
    -22.456  0.0000E+00  0.3800E+02
    -22.260  0.0000E+00  0.3800E+02
    -22.064  0.0000E+00  0.3800E+02
    -21.869  0.0000E+00  0.3800E+02
    -21.673  0.0000E+00  0.3800E+02
    -21.477  0.0000E+00  0.3800E+02
    -21.281  0.0000E+00  0.3800E+02
    -21.086  0.0000E+00  0.3800E+02
    -20.890  0.0000E+00  0.3800E+02
    -20.694  0.0000E+00  0.3800E+02
    -20.498  0.0000E+00  0.3800E+02
    -20.303  0.0000E+00  0.3800E+02
    -20.107  0.0000E+00  0.3800E+02
    -19.911  0.0000E+00  0.3800E+02
    -19.715  0.0000E+00  0.3800E+02
    -19.520  0.0000E+00  0.3800E+02
    -19.324  0.0000E+00  0.3800E+02
    -19.128  0.0000E+00  0.3800E+02
    -18.933  0.0000E+00  0.3800E+02
    -18.737  0.0000E+00  0.3800E+02
    -18.541  0.0000E+00  0.3800E+02
    -18.345  0.0000E+00  0.3800E+02
    -18.150  0.0000E+00  0.3800E+02
    -17.954  0.0000E+00  0.3800E+02
    -17.758  0.0000E+00  0.3800E+02
    -17.562  0.0000E+00  0.3800E+02
    -17.367  0.0000E+00  0.3800E+02
    -17.171  0.0000E+00  0.3800E+02
    -16.975  0.0000E+00  0.3800E+02
    -16.779  0.0000E+00  0.3800E+02
    -16.584  0.0000E+00  0.3800E+02
    -16.388  0.0000E+00  0.3800E+02
    -16.192  0.0000E+00  0.3800E+02
    -15.996  0.0000E+00  0.3800E+02
    -15.801  0.0000E+00  0.3800E+02
    -15.605  0.0000E+00  0.3800E+02
    -15.409  0.0000E+00  0.3800E+02
    -15.213  0.0000E+00  0.3800E+02
    -15.018  0.0000E+00  0.3800E+02
    -14.822  0.0000E+00  0.3800E+02
    -14.626  0.0000E+00  0.3800E+02
    -14.430  0.0000E+00  0.3800E+02
    -14.235  0.0000E+00  0.3800E+02
    -14.039  0.0000E+00  0.3800E+02
    -13.843  0.0000E+00  0.3800E+02
    -13.647  0.0000E+00  0.3800E+02
    -13.452  0.0000E+00  0.3800E+02
    -13.256  0.0000E+00  0.3800E+02
    -13.060  0.0000E+00  0.3800E+02
    -12.864  0.0000E+00  0.3800E+02
    -12.669  0.0000E+00  0.3800E+02
    -12.473  0.0000E+00  0.3800E+02
    -12.277  0.0000E+00  0.3800E+02
    -12.081  0.0000E+00  0.3800E+02
    -11.886  0.0000E+00  0.3800E+02
    -11.690  0.0000E+00  0.3800E+02
    -11.494  0.0000E+00  0.3800E+02
    -11.298  0.0000E+00  0.3800E+02
    -11.103  0.0000E+00  0.3800E+02
    -10.907  0.0000E+00  0.3800E+02
    -10.711  0.0000E+00  0.3800E+02
    -10.516  0.0000E+00  0.3800E+02
    -10.320  0.0000E+00  0.3800E+02
    -10.124  0.0000E+00  0.3800E+02
     -9.928  0.0000E+00  0.3800E+02
     -9.733  0.0000E+00  0.3800E+02
     -9.537  0.0000E+00  0.3800E+02
     -9.341  0.0000E+00  0.3800E+02
     -9.145  0.0000E+00  0.3800E+02
     -8.950  0.0000E+00  0.3800E+02
     -8.754  0.0000E+00  0.3800E+02
     -8.558  0.0000E+00  0.3800E+02
     -8.362  0.0000E+00  0.3800E+02
     -8.167  0.0000E+00  0.3800E+02
     -7.971  0.0000E+00  0.3800E+02
     -7.775  0.0000E+00  0.3800E+02
     -7.579  0.0000E+00  0.3800E+02
     -7.384  0.0000E+00  0.3800E+02
     -7.188  0.0000E+00  0.3800E+02
     -6.992  0.0000E+00  0.3800E+02
     -6.796  0.0000E+00  0.3800E+02
     -6.601  0.0000E+00  0.3800E+02
     -6.405  0.0000E+00  0.3800E+02
     -6.209  0.0000E+00  0.3800E+02
     -6.013  0.0000E+00  0.3800E+02
     -5.818  0.0000E+00  0.3800E+02
     -5.622  0.0000E+00  0.3800E+02
     -5.426  0.0000E+00  0.3800E+02
     -5.230  0.0000E+00  0.3800E+02
     -5.035  0.0000E+00  0.3800E+02
     -4.839  0.0000E+00  0.3800E+02
     -4.643  0.0000E+00  0.3800E+02
     -4.447  0.0000E+00  0.3800E+02
     -4.252  0.2527E-07  0.3800E+02
     -4.056  0.5797E-01  0.3801E+02
     -3.860  0.1002E+00  0.3803E+02
     -3.664  0.9992E+00  0.3823E+02
     -3.469  0.9730E-01  0.3825E+02
     -3.273  0.6345E+00  0.3837E+02
     -3.077  0.1133E+01  0.3859E+02
     -2.881  0.1623E+01  0.3891E+02
     -2.686  0.2803E+00  0.3896E+02
     -2.490  0.9023E+00  0.3914E+02
     -2.294  0.1478E+01  0.3943E+02
     -2.099  0.2242E+01  0.3987E+02
     -1.903  0.5307E+00  0.3997E+02
     -1.707  0.1466E+01  0.4026E+02
     -1.511  0.1872E+01  0.4063E+02
     -1.316  0.2205E+01  0.4106E+02
     -1.120  0.8483E+00  0.4122E+02
     -0.924  0.1382E+01  0.4149E+02
     -0.728  0.2244E+01  0.4193E+02
     -0.533  0.2291E+01  0.4238E+02
     -0.337  0.9495E+00  0.4257E+02
     -0.141  0.2778E+01  0.4311E+02
      0.055  0.2608E+01  0.4362E+02
      0.250  0.2548E+01  0.4412E+02
      0.446  0.1272E+01  0.4437E+02
      0.642  0.1905E+01  0.4474E+02
      0.838  0.2169E+01  0.4517E+02
      1.033  0.3425E+01  0.4584E+02
      1.229  0.2728E+01  0.4637E+02
      1.425  0.3132E+01  0.4698E+02
      1.621  0.3459E+01  0.4766E+02
      1.816  0.3491E+01  0.4835E+02
      2.012  0.3506E+01  0.4903E+02
      2.208  0.1937E+01  0.4941E+02
      2.404  0.3946E+01  0.5018E+02
      2.599  0.5987E+01  0.5135E+02
      2.795  0.2830E+01  0.5191E+02
      2.991  0.3596E+01  0.5261E+02
      3.187  0.7521E+01  0.5408E+02
      3.382  0.1025E+02  0.5609E+02
      3.578  0.6027E+01  0.5727E+02
      3.774  0.3507E+01  0.5796E+02
      3.970  0.1592E+01  0.5827E+02
      4.165  0.9319E+00  0.5845E+02
      4.361  0.1856E+01  0.5881E+02
      4.557  0.4791E+01  0.5975E+02
      4.753  0.2513E+01  0.6024E+02
      4.948  0.2757E+01  0.6078E+02
      5.144  0.4154E+01  0.6160E+02
      5.340  0.4423E+01  0.6246E+02
      5.536  0.2925E+01  0.6304E+02
      5.731  0.3790E+01  0.6378E+02
      5.927  0.6574E+00  0.6391E+02
      6.123  0.4783E+00  0.6400E+02
      6.318  0.8728E-04  0.6400E+02
      6.514  0.0000E+00  0.6400E+02
      6.710  0.0000E+00  0.6400E+02
      6.906  0.0000E+00  0.6400E+02
      7.101  0.0000E+00  0.6400E+02
      7.297  0.0000E+00  0.6400E+02
      7.493  0.0000E+00  0.6400E+02
      7.689  0.0000E+00  0.6400E+02
      7.884  0.0000E+00  0.6400E+02
      8.080  0.0000E+00  0.6400E+02
      8.276  0.0000E+00  0.6400E+02
      8.472  0.0000E+00  0.6400E+02
      8.667  0.0000E+00  0.6400E+02
