Na2 P30                                 
   1.00000000000000     
     7.1218089200000003   -0.0089392900000000    0.0326853400000000
    -2.8793559700000002    8.7482641999999995   -0.0354035300000000
    -1.8910786799999999   -1.1282846600000001   11.5423366299999994
   Na   P 
     2    30
Direct
     0.7901099299999998    0.7873340299999967    0.0025727000000018
     0.2098900700000002    0.2126659700000033    0.9974272999999982
     0.6613510000000034    0.3128872899999990    0.5726988500000019
     0.3386489999999966    0.6871127100000010    0.4273011499999981
     0.7065288699999996    0.1357398600000010    0.8315134699999973
     0.2934711300000004    0.8642601399999990    0.1684865300000027
     0.3408126599999974    0.8076222400000006    0.8542373599999991
     0.6591873400000026    0.1923777599999994    0.1457626400000009
     0.7420815700000034    0.5164886399999986    0.8309368800000030
     0.2579184299999966    0.4835113600000014    0.1690631199999970
     0.5263247899999968    0.9206495000000032    0.7280796399999971
     0.4736752100000032    0.0793504999999968    0.2719203600000029
     0.5074361499999966    0.2817144899999988    0.8295919600000019
     0.4925638500000034    0.7182855100000012    0.1704080399999981
     0.9861384800000010    0.5567054099999993    0.1666434400000014
     0.0138615199999990    0.4432945900000007    0.8333565599999986
     0.0239672000000013    0.9013203599999997    0.6682963599999994
     0.9760327999999987    0.0986796400000003    0.3317036400000006
     0.2055587899999978    0.5968657399999984    0.7312703699999972
     0.7944412100000022    0.4031342600000016    0.2687296300000028
     0.8860859899999980    0.2433129400000027    0.7040504599999977
     0.1139140100000020    0.7566870599999973    0.2959495400000023
     0.6186917100000002    0.7639338099999975    0.3587468599999966
     0.3813082899999998    0.2360661900000025    0.6412531400000034
     0.1096319500000007    0.9123729900000015    0.8534268100000020
     0.8903680499999993    0.0876270099999985    0.1465731899999980
     0.6916226700000010    0.5450092800000021    0.6427652200000011
     0.3083773299999990    0.4549907199999979    0.3572347799999989
     0.9866876399999995    0.6633249599999971    0.6022622999999996
     0.0133123600000005    0.3366750400000029    0.3977377000000004
     0.3072566600000002    0.9888169199999979    0.6000843899999992
     0.6927433399999998    0.0111830800000021    0.3999156100000008
 
  0.00000000E+00  0.00000000E+00  0.00000000E+00
  0.00000000E+00  0.00000000E+00  0.00000000E+00
  0.00000000E+00  0.00000000E+00  0.00000000E+00
  0.00000000E+00  0.00000000E+00  0.00000000E+00
  0.00000000E+00  0.00000000E+00  0.00000000E+00
  0.00000000E+00  0.00000000E+00  0.00000000E+00
  0.00000000E+00  0.00000000E+00  0.00000000E+00
  0.00000000E+00  0.00000000E+00  0.00000000E+00
  0.00000000E+00  0.00000000E+00  0.00000000E+00
  0.00000000E+00  0.00000000E+00  0.00000000E+00
  0.00000000E+00  0.00000000E+00  0.00000000E+00
  0.00000000E+00  0.00000000E+00  0.00000000E+00
  0.00000000E+00  0.00000000E+00  0.00000000E+00
  0.00000000E+00  0.00000000E+00  0.00000000E+00
  0.00000000E+00  0.00000000E+00  0.00000000E+00
  0.00000000E+00  0.00000000E+00  0.00000000E+00
  0.00000000E+00  0.00000000E+00  0.00000000E+00
  0.00000000E+00  0.00000000E+00  0.00000000E+00
  0.00000000E+00  0.00000000E+00  0.00000000E+00
  0.00000000E+00  0.00000000E+00  0.00000000E+00
  0.00000000E+00  0.00000000E+00  0.00000000E+00
  0.00000000E+00  0.00000000E+00  0.00000000E+00
  0.00000000E+00  0.00000000E+00  0.00000000E+00
  0.00000000E+00  0.00000000E+00  0.00000000E+00
  0.00000000E+00  0.00000000E+00  0.00000000E+00
  0.00000000E+00  0.00000000E+00  0.00000000E+00
  0.00000000E+00  0.00000000E+00  0.00000000E+00
  0.00000000E+00  0.00000000E+00  0.00000000E+00
  0.00000000E+00  0.00000000E+00  0.00000000E+00
  0.00000000E+00  0.00000000E+00  0.00000000E+00
  0.00000000E+00  0.00000000E+00  0.00000000E+00
  0.00000000E+00  0.00000000E+00  0.00000000E+00
