  32  32   0   0
  0.2247476E+02  0.7121890E-09  0.9209999E-09  0.1175052E-08  0.5000000E-15
  1.000000000000000E-004
  CAR 
 unknown system                          
     11.54184413    -21.25026835  301      4.11579699      1.00000000
    -21.250  0.0000E+00  0.0000E+00
    -21.141  0.0000E+00  0.0000E+00
    -21.032  0.0000E+00  0.0000E+00
    -20.922  0.0000E+00  0.0000E+00
    -20.813  0.0000E+00  0.0000E+00
    -20.704  0.0000E+00  0.0000E+00
    -20.594  0.0000E+00  0.0000E+00
    -20.485  0.0000E+00  0.0000E+00
    -20.376  0.0000E+00  0.0000E+00
    -20.267  0.0000E+00  0.0000E+00
    -20.157  0.0000E+00  0.0000E+00
    -20.048  0.6094E-14  0.6661E-15
    -19.939  0.7668E-05  0.8381E-06
    -19.829  0.1025E+01  0.1120E+00
    -19.720  0.6697E+02  0.7433E+01
    -19.611  0.4164E+02  0.1198E+02
    -19.501  0.1460E+00  0.1200E+02
    -19.392  0.1479E-06  0.1200E+02
    -19.283  0.0000E+00  0.1200E+02
    -19.173  0.0000E+00  0.1200E+02
    -19.064  0.0000E+00  0.1200E+02
    -18.955  0.0000E+00  0.1200E+02
    -18.846  0.0000E+00  0.1200E+02
    -18.736  0.0000E+00  0.1200E+02
    -18.627  0.0000E+00  0.1200E+02
    -18.518  0.0000E+00  0.1200E+02
    -18.408  0.0000E+00  0.1200E+02
    -18.299  0.0000E+00  0.1200E+02
    -18.190  0.0000E+00  0.1200E+02
    -18.080  0.0000E+00  0.1200E+02
    -17.971  0.0000E+00  0.1200E+02
    -17.862  0.0000E+00  0.1200E+02
    -17.752  0.0000E+00  0.1200E+02
    -17.643  0.0000E+00  0.1200E+02
    -17.534  0.0000E+00  0.1200E+02
    -17.425  0.0000E+00  0.1200E+02
    -17.315  0.0000E+00  0.1200E+02
    -17.206  0.0000E+00  0.1200E+02
    -17.097  0.0000E+00  0.1200E+02
    -16.987  0.0000E+00  0.1200E+02
    -16.878  0.0000E+00  0.1200E+02
    -16.769  0.0000E+00  0.1200E+02
    -16.659  0.0000E+00  0.1200E+02
    -16.550  0.0000E+00  0.1200E+02
    -16.441  0.0000E+00  0.1200E+02
    -16.331  0.0000E+00  0.1200E+02
    -16.222  0.0000E+00  0.1200E+02
    -16.113  0.0000E+00  0.1200E+02
    -16.004  0.0000E+00  0.1200E+02
    -15.894  0.0000E+00  0.1200E+02
    -15.785  0.0000E+00  0.1200E+02
    -15.676  0.0000E+00  0.1200E+02
    -15.566  0.0000E+00  0.1200E+02
    -15.457  0.0000E+00  0.1200E+02
    -15.348  0.0000E+00  0.1200E+02
    -15.238  0.0000E+00  0.1200E+02
    -15.129  0.0000E+00  0.1200E+02
    -15.020  0.0000E+00  0.1200E+02
    -14.910  0.0000E+00  0.1200E+02
    -14.801  0.0000E+00  0.1200E+02
    -14.692  0.0000E+00  0.1200E+02
    -14.583  0.0000E+00  0.1200E+02
    -14.473  0.0000E+00  0.1200E+02
    -14.364  0.0000E+00  0.1200E+02
    -14.255  0.0000E+00  0.1200E+02
    -14.145  0.0000E+00  0.1200E+02
    -14.036  0.0000E+00  0.1200E+02
    -13.927  0.0000E+00  0.1200E+02
    -13.817  0.0000E+00  0.1200E+02
    -13.708  0.0000E+00  0.1200E+02
    -13.599  0.0000E+00  0.1200E+02
    -13.489  0.0000E+00  0.1200E+02
    -13.380  0.0000E+00  0.1200E+02
    -13.271  0.0000E+00  0.1200E+02
    -13.162  0.0000E+00  0.1200E+02
    -13.052  0.0000E+00  0.1200E+02
    -12.943  0.0000E+00  0.1200E+02
    -12.834  0.0000E+00  0.1200E+02
    -12.724  0.0000E+00  0.1200E+02
    -12.615  0.0000E+00  0.1200E+02
    -12.506  0.0000E+00  0.1200E+02
    -12.396  0.0000E+00  0.1200E+02
    -12.287  0.0000E+00  0.1200E+02
    -12.178  0.0000E+00  0.1200E+02
    -12.068  0.0000E+00  0.1200E+02
    -11.959  0.0000E+00  0.1200E+02
    -11.850  0.0000E+00  0.1200E+02
    -11.741  0.0000E+00  0.1200E+02
    -11.631  0.0000E+00  0.1200E+02
    -11.522  0.0000E+00  0.1200E+02
    -11.413  0.0000E+00  0.1200E+02
    -11.303  0.3326E-13  0.1200E+02
    -11.194  0.5011E-05  0.1200E+02
    -11.085  0.1063E+00  0.1201E+02
    -10.975  0.4826E+01  0.1254E+02
    -10.866  0.1915E+02  0.1463E+02
    -10.757  0.1190E+02  0.1593E+02
    -10.647  0.6091E+00  0.1600E+02
    -10.538  0.7523E-04  0.1600E+02
    -10.429  0.6599E-02  0.1600E+02
    -10.320  0.3344E+01  0.1637E+02
    -10.210  0.9045E+01  0.1735E+02
    -10.101  0.3793E+01  0.1777E+02
     -9.992  0.5866E+01  0.1841E+02
     -9.882  0.5258E+01  0.1899E+02
     -9.773  0.4960E+01  0.1953E+02
     -9.664  0.3714E+01  0.1993E+02
     -9.554  0.6090E+00  0.2000E+02
     -9.445  0.3196E-01  0.2000E+02
     -9.336  0.2111E+01  0.2023E+02
     -9.226  0.5027E+01  0.2078E+02
     -9.117  0.5287E+01  0.2136E+02
     -9.008  0.1599E+02  0.2311E+02
     -8.899  0.1742E+02  0.2501E+02
     -8.789  0.1162E+02  0.2628E+02
     -8.680  0.5437E+00  0.2634E+02
     -8.571  0.4256E+01  0.2681E+02
     -8.461  0.4219E+01  0.2727E+02
     -8.352  0.1002E+02  0.2836E+02
     -8.243  0.1187E+02  0.2966E+02
     -8.133  0.5782E+01  0.3029E+02
     -8.024  0.4558E+01  0.3079E+02
     -7.915  0.1319E+02  0.3223E+02
     -7.806  0.2409E+02  0.3487E+02
     -7.696  0.1199E+02  0.3618E+02
     -7.587  0.7991E+01  0.3705E+02
     -7.478  0.7552E+01  0.3788E+02
     -7.368  0.7076E+01  0.3865E+02
     -7.259  0.6825E+01  0.3940E+02
     -7.150  0.5487E+01  0.4000E+02
     -7.040  0.1112E+02  0.4121E+02
     -6.931  0.4803E+01  0.4174E+02
     -6.822  0.4845E+01  0.4227E+02
     -6.712  0.2349E+02  0.4483E+02
     -6.603  0.1931E+02  0.4694E+02
     -6.494  0.1681E+01  0.4713E+02
     -6.385  0.4580E+01  0.4763E+02
     -6.275  0.2662E+01  0.4792E+02
     -6.166  0.7408E+00  0.4800E+02
     -6.057  0.9756E-03  0.4800E+02
     -5.947  0.2301E-09  0.4800E+02
     -5.838  0.0000E+00  0.4800E+02
     -5.729  0.4232E-16  0.4800E+02
     -5.619  0.1403E-06  0.4800E+02
     -5.510  0.3617E-01  0.4800E+02
     -5.401  0.3288E+01  0.4836E+02
     -5.291  0.5502E+01  0.4896E+02
     -5.182  0.1645E+01  0.4914E+02
     -5.073  0.4450E+01  0.4963E+02
     -4.964  0.3329E+00  0.4967E+02
     -4.854  0.1806E+01  0.4986E+02
     -4.745  0.4421E+01  0.5035E+02
     -4.636  0.5085E+01  0.5090E+02
     -4.526  0.1080E+02  0.5208E+02
     -4.417  0.1126E+02  0.5331E+02
     -4.308  0.9114E+01  0.5431E+02
     -4.198  0.1157E+02  0.5558E+02
     -4.089  0.9760E+01  0.5664E+02
     -3.980  0.7800E+01  0.5749E+02
     -3.870  0.7947E+01  0.5836E+02
     -3.761  0.1073E+02  0.5954E+02
     -3.652  0.7729E+01  0.6038E+02
     -3.543  0.1676E+02  0.6221E+02
     -3.433  0.2417E+02  0.6485E+02
     -3.324  0.1379E+02  0.6636E+02
     -3.215  0.1790E+02  0.6832E+02
     -3.105  0.1648E+02  0.7012E+02
     -2.996  0.9696E+01  0.7118E+02
     -2.887  0.5545E+01  0.7179E+02
     -2.777  0.1938E+01  0.7200E+02
     -2.668  0.1773E-01  0.7200E+02
     -2.559  0.1230E-06  0.7200E+02
     -2.449  0.8464E-16  0.7200E+02
     -2.340  0.1100E-14  0.7200E+02
     -2.231  0.6840E-06  0.7200E+02
     -2.122  0.5226E-01  0.7201E+02
     -2.012  0.2983E+01  0.7233E+02
     -1.903  0.4514E+01  0.7283E+02
     -1.794  0.5717E+01  0.7345E+02
     -1.684  0.1371E+02  0.7495E+02
     -1.575  0.1099E+02  0.7615E+02
     -1.466  0.8369E+01  0.7706E+02
     -1.356  0.1267E+02  0.7845E+02
     -1.247  0.1563E+02  0.8016E+02
     -1.138  0.1675E+02  0.8199E+02
     -1.028  0.1800E+02  0.8396E+02
     -0.919  0.1025E+02  0.8508E+02
     -0.810  0.6080E+01  0.8574E+02
     -0.701  0.6075E+01  0.8641E+02
     -0.591  0.1658E+02  0.8822E+02
     -0.482  0.1567E+02  0.8993E+02
     -0.373  0.1111E+02  0.9115E+02
     -0.263  0.9232E+01  0.9215E+02
     -0.154  0.7536E+01  0.9298E+02
     -0.045  0.1450E+02  0.9456E+02
      0.065  0.1716E+02  0.9644E+02
      0.174  0.1681E+02  0.9828E+02
      0.283  0.1271E+02  0.9966E+02
      0.393  0.1469E+02  0.1013E+03
      0.502  0.1140E+02  0.1025E+03
      0.611  0.1318E+02  0.1040E+03
      0.720  0.2082E+02  0.1062E+03
      0.830  0.1854E+02  0.1083E+03
      0.939  0.1082E+02  0.1094E+03
      1.048  0.1675E+02  0.1113E+03
      1.158  0.2208E+02  0.1137E+03
      1.267  0.2368E+02  0.1163E+03
      1.376  0.2092E+02  0.1186E+03
      1.486  0.2357E+02  0.1211E+03
      1.595  0.3113E+02  0.1245E+03
      1.704  0.3212E+02  0.1281E+03
      1.814  0.2596E+02  0.1309E+03
      1.923  0.2178E+02  0.1333E+03
      2.032  0.1551E+02  0.1350E+03
      2.141  0.2246E+02  0.1374E+03
      2.251  0.2445E+02  0.1401E+03
      2.360  0.2337E+02  0.1426E+03
      2.469  0.1577E+02  0.1444E+03
      2.579  0.1035E+02  0.1455E+03
      2.688  0.1094E+02  0.1467E+03
      2.797  0.1512E+02  0.1483E+03
      2.907  0.1591E+02  0.1501E+03
      3.016  0.2031E+02  0.1523E+03
      3.125  0.2117E+02  0.1546E+03
      3.235  0.2282E+02  0.1571E+03
      3.344  0.1656E+02  0.1589E+03
      3.453  0.5802E+01  0.1596E+03
      3.562  0.9802E+01  0.1606E+03
      3.672  0.1206E+02  0.1619E+03
      3.781  0.1083E+02  0.1631E+03
      3.890  0.7839E+01  0.1640E+03
      4.000  0.8719E-01  0.1640E+03
      4.109  0.5237E-06  0.1640E+03
      4.218  0.3386E-15  0.1640E+03
      4.328  0.0000E+00  0.1640E+03
      4.437  0.0000E+00  0.1640E+03
      4.546  0.0000E+00  0.1640E+03
      4.656  0.0000E+00  0.1640E+03
      4.765  0.0000E+00  0.1640E+03
      4.874  0.0000E+00  0.1640E+03
      4.983  0.0000E+00  0.1640E+03
      5.093  0.4232E-16  0.1640E+03
      5.202  0.8102E-07  0.1640E+03
      5.311  0.2236E-01  0.1640E+03
      5.421  0.3224E+01  0.1644E+03
      5.530  0.1144E+02  0.1656E+03
      5.639  0.1718E+02  0.1675E+03
      5.749  0.2667E+02  0.1704E+03
      5.858  0.1744E+02  0.1723E+03
      5.967  0.1884E+02  0.1744E+03
      6.076  0.1176E+02  0.1757E+03
      6.186  0.1739E+02  0.1776E+03
      6.295  0.1509E+02  0.1792E+03
      6.404  0.1513E+02  0.1809E+03
      6.514  0.1978E+02  0.1830E+03
      6.623  0.2422E+02  0.1857E+03
      6.732  0.2781E+02  0.1887E+03
      6.842  0.2711E+02  0.1917E+03
      6.951  0.2428E+02  0.1943E+03
      7.060  0.2224E+02  0.1968E+03
      7.170  0.1980E+02  0.1989E+03
      7.279  0.2149E+02  0.2013E+03
      7.388  0.2533E+02  0.2040E+03
      7.497  0.2574E+02  0.2068E+03
      7.607  0.2419E+02  0.2095E+03
      7.716  0.2008E+02  0.2117E+03
      7.825  0.2844E+02  0.2148E+03
      7.935  0.2486E+02  0.2175E+03
      8.044  0.2486E+02  0.2202E+03
      8.153  0.2250E+02  0.2227E+03
      8.263  0.2183E+02  0.2251E+03
      8.372  0.2571E+02  0.2279E+03
      8.481  0.1925E+02  0.2300E+03
      8.591  0.1965E+02  0.2321E+03
      8.700  0.1735E+02  0.2340E+03
      8.809  0.1972E+02  0.2362E+03
      8.918  0.2069E+02  0.2384E+03
      9.028  0.2085E+02  0.2407E+03
      9.137  0.1381E+02  0.2422E+03
      9.246  0.1731E+02  0.2441E+03
      9.356  0.1810E+02  0.2461E+03
      9.465  0.1514E+02  0.2478E+03
      9.574  0.1897E+02  0.2498E+03
      9.684  0.1388E+02  0.2514E+03
      9.793  0.1542E+02  0.2530E+03
      9.902  0.1354E+02  0.2545E+03
     10.012  0.1121E+02  0.2557E+03
     10.121  0.2313E+01  0.2560E+03
     10.230  0.2974E-01  0.2560E+03
     10.339  0.2039E-06  0.2560E+03
     10.449  0.1693E-15  0.2560E+03
     10.558  0.0000E+00  0.2560E+03
     10.667  0.0000E+00  0.2560E+03
     10.777  0.0000E+00  0.2560E+03
     10.886  0.0000E+00  0.2560E+03
     10.995  0.0000E+00  0.2560E+03
     11.105  0.0000E+00  0.2560E+03
     11.214  0.0000E+00  0.2560E+03
     11.323  0.0000E+00  0.2560E+03
     11.433  0.0000E+00  0.2560E+03
     11.542  0.0000E+00  0.2560E+03
