unknown system                          
           1
     7.121809   -0.008939    0.032685
    -2.879356    8.748264   -0.035404
    -1.891079   -1.128285   11.542337
   Na   P 
     2    30
Direct configuration=     1
   0.79010993  0.78733403  0.00257270
   0.20989007  0.21266597  0.99742730
   0.66135100  0.31288729  0.57269885
   0.33864900  0.68711271  0.42730115
   0.70652887  0.13573986  0.83151347
   0.29347113  0.86426014  0.16848653
   0.34081266  0.80762224  0.85423736
   0.65918734  0.19237776  0.14576264
   0.74208157  0.51648864  0.83093688
   0.25791843  0.48351136  0.16906312
   0.52632479  0.92064950  0.72807964
   0.47367521  0.07935050  0.27192036
   0.50743615  0.28171449  0.82959196
   0.49256385  0.71828551  0.17040804
   0.98613848  0.55670541  0.16664344
   0.01386152  0.44329459  0.83335656
   0.02396720  0.90132036  0.66829636
   0.97603280  0.09867964  0.33170364
   0.20555879  0.59686574  0.73127037
   0.79444121  0.40313426  0.26872963
   0.88608599  0.24331294  0.70405046
   0.11391401  0.75668706  0.29594954
   0.61869171  0.76393381  0.35874686
   0.38130829  0.23606619  0.64125314
   0.10963195  0.91237299  0.85342681
   0.89036805  0.08762701  0.14657319
   0.69162267  0.54500928  0.64276522
   0.30837733  0.45499072  0.35723478
   0.98668764  0.66332496  0.60226230
   0.01331236  0.33667504  0.39773770
   0.30725666  0.98881692  0.60008439
   0.69274334  0.01118308  0.39991561
