  16  16   0   0
  0.7138358E+01  0.3458366E-09  0.5805126E-09  0.5688998E-09  0.5000000E-15
  1.000000000000000E-004
  CAR 
 unknown system                          
     12.81859069    -19.21345115  301     -1.48238132      1.00000000
    -19.213  0.0000E+00  0.0000E+00
    -19.107  0.0000E+00  0.0000E+00
    -19.000  0.0000E+00  0.0000E+00
    -18.893  0.0000E+00  0.0000E+00
    -18.786  0.0000E+00  0.0000E+00
    -18.680  0.0000E+00  0.0000E+00
    -18.573  0.0000E+00  0.0000E+00
    -18.466  0.0000E+00  0.0000E+00
    -18.359  0.0000E+00  0.0000E+00
    -18.252  0.0000E+00  0.0000E+00
    -18.146  0.0000E+00  0.0000E+00
    -18.039  0.7798E-16  0.8327E-17
    -17.932  0.3626E-07  0.3872E-08
    -17.825  0.2686E-02  0.2868E-03
    -17.719  0.2792E+00  0.3010E-01
    -17.612  0.1583E+01  0.1991E+00
    -17.505  0.2337E+01  0.4486E+00
    -17.398  0.3634E+01  0.8367E+00
    -17.292  0.5370E+01  0.1410E+01
    -17.185  0.7152E+01  0.2174E+01
    -17.078  0.1193E+02  0.3447E+01
    -16.971  0.1700E+02  0.5262E+01
    -16.864  0.1990E+02  0.7386E+01
    -16.758  0.5714E+01  0.7996E+01
    -16.651  0.3323E-01  0.8000E+01
    -16.544  0.1558E-06  0.8000E+01
    -16.437  0.1456E-15  0.8000E+01
    -16.331  0.0000E+00  0.8000E+01
    -16.224  0.0000E+00  0.8000E+01
    -16.117  0.0000E+00  0.8000E+01
    -16.010  0.0000E+00  0.8000E+01
    -15.903  0.0000E+00  0.8000E+01
    -15.797  0.0000E+00  0.8000E+01
    -15.690  0.0000E+00  0.8000E+01
    -15.583  0.0000E+00  0.8000E+01
    -15.476  0.0000E+00  0.8000E+01
    -15.370  0.0000E+00  0.8000E+01
    -15.263  0.0000E+00  0.8000E+01
    -15.156  0.0000E+00  0.8000E+01
    -15.049  0.0000E+00  0.8000E+01
    -14.943  0.0000E+00  0.8000E+01
    -14.836  0.0000E+00  0.8000E+01
    -14.729  0.0000E+00  0.8000E+01
    -14.622  0.0000E+00  0.8000E+01
    -14.515  0.0000E+00  0.8000E+01
    -14.409  0.0000E+00  0.8000E+01
    -14.302  0.0000E+00  0.8000E+01
    -14.195  0.0000E+00  0.8000E+01
    -14.088  0.0000E+00  0.8000E+01
    -13.982  0.0000E+00  0.8000E+01
    -13.875  0.0000E+00  0.8000E+01
    -13.768  0.0000E+00  0.8000E+01
    -13.661  0.0000E+00  0.8000E+01
    -13.554  0.0000E+00  0.8000E+01
    -13.448  0.0000E+00  0.8000E+01
    -13.341  0.0000E+00  0.8000E+01
    -13.234  0.0000E+00  0.8000E+01
    -13.127  0.0000E+00  0.8000E+01
    -13.021  0.0000E+00  0.8000E+01
    -12.914  0.0000E+00  0.8000E+01
    -12.807  0.0000E+00  0.8000E+01
    -12.700  0.0000E+00  0.8000E+01
    -12.593  0.0000E+00  0.8000E+01
    -12.487  0.0000E+00  0.8000E+01
    -12.380  0.0000E+00  0.8000E+01
    -12.273  0.0000E+00  0.8000E+01
    -12.166  0.0000E+00  0.8000E+01
    -12.060  0.0000E+00  0.8000E+01
    -11.953  0.0000E+00  0.8000E+01
    -11.846  0.0000E+00  0.8000E+01
    -11.739  0.0000E+00  0.8000E+01
    -11.633  0.0000E+00  0.8000E+01
    -11.526  0.0000E+00  0.8000E+01
    -11.419  0.0000E+00  0.8000E+01
    -11.312  0.0000E+00  0.8000E+01
    -11.205  0.0000E+00  0.8000E+01
    -11.099  0.0000E+00  0.8000E+01
    -10.992  0.0000E+00  0.8000E+01
    -10.885  0.0000E+00  0.8000E+01
    -10.778  0.0000E+00  0.8000E+01
    -10.672  0.0000E+00  0.8000E+01
    -10.565  0.0000E+00  0.8000E+01
    -10.458  0.0000E+00  0.8000E+01
    -10.351  0.0000E+00  0.8000E+01
    -10.244  0.0000E+00  0.8000E+01
    -10.138  0.0000E+00  0.8000E+01
    -10.031  0.0000E+00  0.8000E+01
     -9.924  0.0000E+00  0.8000E+01
     -9.817  0.0000E+00  0.8000E+01
     -9.711  0.0000E+00  0.8000E+01
     -9.604  0.0000E+00  0.8000E+01
     -9.497  0.0000E+00  0.8000E+01
     -9.390  0.0000E+00  0.8000E+01
     -9.284  0.0000E+00  0.8000E+01
     -9.177  0.0000E+00  0.8000E+01
     -9.070  0.0000E+00  0.8000E+01
     -8.963  0.0000E+00  0.8000E+01
     -8.856  0.0000E+00  0.8000E+01
     -8.750  0.0000E+00  0.8000E+01
     -8.643  0.0000E+00  0.8000E+01
     -8.536  0.0000E+00  0.8000E+01
     -8.429  0.3119E-16  0.8000E+01
     -8.323  0.1947E-07  0.8000E+01
     -8.216  0.1975E-02  0.8000E+01
     -8.109  0.2178E+00  0.8023E+01
     -8.002  0.3895E+01  0.8439E+01
     -7.895  0.1330E+02  0.9859E+01
     -7.789  0.1393E+02  0.1135E+02
     -7.682  0.1050E+02  0.1247E+02
     -7.575  0.7187E+01  0.1324E+02
     -7.468  0.6062E+01  0.1388E+02
     -7.362  0.4781E+01  0.1439E+02
     -7.255  0.5698E+01  0.1500E+02
     -7.148  0.4810E+01  0.1552E+02
     -7.041  0.6139E+01  0.1617E+02
     -6.935  0.1038E+02  0.1728E+02
     -6.828  0.1095E+02  0.1845E+02
     -6.721  0.1501E+02  0.2005E+02
     -6.614  0.1787E+02  0.2196E+02
     -6.507  0.1232E+02  0.2327E+02
     -6.401  0.5837E+01  0.2390E+02
     -6.294  0.9290E+00  0.2400E+02
     -6.187  0.3352E-01  0.2400E+02
     -6.080  0.7571E-05  0.2400E+02
     -5.974  0.4630E-12  0.2400E+02
     -5.867  0.0000E+00  0.2400E+02
     -5.760  0.0000E+00  0.2400E+02
     -5.653  0.0000E+00  0.2400E+02
     -5.546  0.0000E+00  0.2400E+02
     -5.440  0.0000E+00  0.2400E+02
     -5.333  0.0000E+00  0.2400E+02
     -5.226  0.0000E+00  0.2400E+02
     -5.119  0.0000E+00  0.2400E+02
     -5.013  0.0000E+00  0.2400E+02
     -4.906  0.0000E+00  0.2400E+02
     -4.799  0.0000E+00  0.2400E+02
     -4.692  0.0000E+00  0.2400E+02
     -4.585  0.0000E+00  0.2400E+02
     -4.479  0.0000E+00  0.2400E+02
     -4.372  0.0000E+00  0.2400E+02
     -4.265  0.0000E+00  0.2400E+02
     -4.158  0.0000E+00  0.2400E+02
     -4.052  0.0000E+00  0.2400E+02
     -3.945  0.0000E+00  0.2400E+02
     -3.838  0.0000E+00  0.2400E+02
     -3.731  0.0000E+00  0.2400E+02
     -3.625  0.0000E+00  0.2400E+02
     -3.518  0.0000E+00  0.2400E+02
     -3.411  0.6313E-08  0.2400E+02
     -3.304  0.2080E-02  0.2400E+02
     -3.197  0.3190E+00  0.2403E+02
     -3.091  0.1701E+01  0.2422E+02
     -2.984  0.1986E+01  0.2443E+02
     -2.877  0.4864E+01  0.2495E+02
     -2.770  0.5721E+01  0.2556E+02
     -2.664  0.7211E+01  0.2633E+02
     -2.557  0.7249E+01  0.2710E+02
     -2.450  0.4589E+01  0.2759E+02
     -2.343  0.8020E+01  0.2845E+02
     -2.236  0.9716E+01  0.2949E+02
     -2.130  0.6965E+01  0.3023E+02
     -2.023  0.8020E+01  0.3109E+02
     -1.916  0.4929E+01  0.3161E+02
     -1.809  0.3160E+01  0.3195E+02
     -1.703  0.4705E+00  0.3200E+02
     -1.596  0.3737E-02  0.3200E+02
     -1.489  0.2341E-07  0.3200E+02
     -1.382  0.2080E-16  0.3200E+02
     -1.276  0.0000E+00  0.3200E+02
     -1.169  0.0000E+00  0.3200E+02
     -1.062  0.0000E+00  0.3200E+02
     -0.955  0.0000E+00  0.3200E+02
     -0.848  0.0000E+00  0.3200E+02
     -0.742  0.0000E+00  0.3200E+02
     -0.635  0.0000E+00  0.3200E+02
     -0.528  0.0000E+00  0.3200E+02
     -0.421  0.0000E+00  0.3200E+02
     -0.315  0.0000E+00  0.3200E+02
     -0.208  0.0000E+00  0.3200E+02
     -0.101  0.0000E+00  0.3200E+02
      0.006  0.0000E+00  0.3200E+02
      0.113  0.0000E+00  0.3200E+02
      0.219  0.0000E+00  0.3200E+02
      0.326  0.0000E+00  0.3200E+02
      0.433  0.0000E+00  0.3200E+02
      0.540  0.0000E+00  0.3200E+02
      0.646  0.0000E+00  0.3200E+02
      0.753  0.0000E+00  0.3200E+02
      0.860  0.0000E+00  0.3200E+02
      0.967  0.0000E+00  0.3200E+02
      1.074  0.0000E+00  0.3200E+02
      1.180  0.0000E+00  0.3200E+02
      1.287  0.0000E+00  0.3200E+02
      1.394  0.0000E+00  0.3200E+02
      1.501  0.0000E+00  0.3200E+02
      1.607  0.0000E+00  0.3200E+02
      1.714  0.0000E+00  0.3200E+02
      1.821  0.0000E+00  0.3200E+02
      1.928  0.0000E+00  0.3200E+02
      2.034  0.0000E+00  0.3200E+02
      2.141  0.0000E+00  0.3200E+02
      2.248  0.0000E+00  0.3200E+02
      2.355  0.0000E+00  0.3200E+02
      2.462  0.1637E-13  0.3200E+02
      2.568  0.9843E-06  0.3200E+02
      2.675  0.1017E-01  0.3200E+02
      2.782  0.8001E-01  0.3201E+02
      2.889  0.3469E-02  0.3201E+02
      2.995  0.2779E-01  0.3201E+02
      3.102  0.4713E+00  0.3206E+02
      3.209  0.6281E-01  0.3207E+02
      3.316  0.1114E+00  0.3208E+02
      3.423  0.9396E+00  0.3218E+02
      3.529  0.7318E-01  0.3219E+02
      3.636  0.2860E+00  0.3222E+02
      3.743  0.4656E+00  0.3227E+02
      3.850  0.2785E+00  0.3230E+02
      3.956  0.1968E+00  0.3232E+02
      4.063  0.5493E+00  0.3238E+02
      4.170  0.1316E+01  0.3252E+02
      4.277  0.6140E+00  0.3259E+02
      4.383  0.1720E+01  0.3277E+02
      4.490  0.3805E+00  0.3281E+02
      4.597  0.1239E+00  0.3282E+02
      4.704  0.5135E+00  0.3288E+02
      4.811  0.9103E+00  0.3298E+02
      4.917  0.2324E+01  0.3322E+02
      5.024  0.1325E+01  0.3336E+02
      5.131  0.1890E+01  0.3357E+02
      5.238  0.1804E+01  0.3376E+02
      5.344  0.1469E+01  0.3392E+02
      5.451  0.2624E+01  0.3420E+02
      5.558  0.2489E+01  0.3446E+02
      5.665  0.4907E+01  0.3499E+02
      5.772  0.3846E+01  0.3540E+02
      5.878  0.2803E+01  0.3570E+02
      5.985  0.4437E+01  0.3617E+02
      6.092  0.4677E+01  0.3667E+02
      6.199  0.2701E+01  0.3696E+02
      6.305  0.2087E+01  0.3718E+02
      6.412  0.5410E+01  0.3776E+02
      6.519  0.4264E+01  0.3821E+02
      6.626  0.4572E+01  0.3870E+02
      6.733  0.4765E+01  0.3921E+02
      6.839  0.4233E+01  0.3966E+02
      6.946  0.1734E+01  0.3985E+02
      7.053  0.1144E+01  0.3997E+02
      7.160  0.2711E+01  0.4026E+02
      7.266  0.2350E+01  0.4051E+02
      7.373  0.3165E+01  0.4085E+02
      7.480  0.3494E+01  0.4122E+02
      7.587  0.5033E+01  0.4176E+02
      7.693  0.5173E+01  0.4231E+02
      7.800  0.3449E+01  0.4268E+02
      7.907  0.7197E+01  0.4345E+02
      8.014  0.1028E+02  0.4454E+02
      8.121  0.6134E+01  0.4520E+02
      8.227  0.7083E+01  0.4596E+02
      8.334  0.7625E+01  0.4677E+02
      8.441  0.2953E+01  0.4709E+02
      8.548  0.1929E+01  0.4729E+02
      8.654  0.2863E+01  0.4760E+02
      8.761  0.2833E+01  0.4790E+02
      8.868  0.2863E+01  0.4821E+02
      8.975  0.6028E+01  0.4885E+02
      9.082  0.6152E+01  0.4951E+02
      9.188  0.4281E+01  0.4996E+02
      9.295  0.7277E+01  0.5074E+02
      9.402  0.8434E+01  0.5164E+02
      9.509  0.6853E+01  0.5237E+02
      9.615  0.5962E+01  0.5301E+02
      9.722  0.4162E+01  0.5345E+02
      9.829  0.3520E+01  0.5383E+02
      9.936  0.4052E+01  0.5426E+02
     10.042  0.4326E+01  0.5472E+02
     10.149  0.3935E+01  0.5514E+02
     10.256  0.3113E+01  0.5548E+02
     10.363  0.7931E+00  0.5556E+02
     10.470  0.5146E+00  0.5562E+02
     10.576  0.7932E+00  0.5570E+02
     10.683  0.1222E+01  0.5583E+02
     10.790  0.7062E+00  0.5591E+02
     10.897  0.2060E+00  0.5593E+02
     11.003  0.1857E+00  0.5595E+02
     11.110  0.2003E+00  0.5597E+02
     11.217  0.1902E+00  0.5599E+02
     11.324  0.1380E-01  0.5599E+02
     11.431  0.7836E-01  0.5600E+02
     11.537  0.2558E-02  0.5600E+02
     11.644  0.3624E-07  0.5600E+02
     11.751  0.8318E-16  0.5600E+02
     11.858  0.0000E+00  0.5600E+02
     11.964  0.0000E+00  0.5600E+02
     12.071  0.0000E+00  0.5600E+02
     12.178  0.0000E+00  0.5600E+02
     12.285  0.0000E+00  0.5600E+02
     12.391  0.0000E+00  0.5600E+02
     12.498  0.0000E+00  0.5600E+02
     12.605  0.0000E+00  0.5600E+02
     12.712  0.0000E+00  0.5600E+02
     12.819  0.0000E+00  0.5600E+02
