H12N4
1.0
      3.4583655       0.0000000       0.0000000
      0.0000000       5.8051261       0.0000000
      0.0000000       0.0000000       5.6889978
  H     N   
  12    4   
Direct
      0.6222426       0.7000982       0.2668449
      0.8777574       0.2999018       0.7668449
      0.1222426       0.7999018       0.7331551
      0.3777574       0.2000982       0.2331551
      0.0104015       0.8364693       0.1818385
      0.4895985       0.1635307       0.6818385
      0.5104015       0.6635307       0.8181615
      0.9895985       0.3364693       0.3181615
      0.7712200       0.9285402       0.4093175
      0.7287800       0.0714598       0.9093175
      0.2712200       0.5714598       0.5906825
      0.2287800       0.4285402       0.0906825
      0.7378264       0.8604401       0.2448960
      0.7621736       0.1395599       0.7448960
      0.2378264       0.6395599       0.7551040
      0.2621736       0.3604401       0.2551040
