unknown system                          
           1
     3.458366    0.000000    0.000000
     0.000000    5.805126    0.000000
     0.000000    0.000000    5.688998
   H    N 
    12     4
Direct configuration=     1
   0.62224258  0.70009816  0.26684493
   0.87775742  0.29990184  0.76684493
   0.12224258  0.79990184  0.73315507
   0.37775742  0.20009816  0.23315507
   0.01040153  0.83646925  0.18183847
   0.48959847  0.16353075  0.68183847
   0.51040153  0.66353075  0.81816153
   0.98959847  0.33646925  0.31816153
   0.77122001  0.92854016  0.40931745
   0.72877999  0.07145984  0.90931745
   0.27122001  0.57145984  0.59068255
   0.22877999  0.42854016  0.09068255
   0.73782643  0.86044013  0.24489601
   0.76217357  0.13955987  0.74489601
   0.23782643  0.63955987  0.75510399
   0.26217357  0.36044013  0.25510399
