       N       E                     dE             d eps       ncg     rms          rms(c)
DAV:   1     0.105448289043E+03    0.10545E+03   -0.91572E+03 32008   0.116E+03
DAV:   2    -0.199567661953E+02   -0.12541E+03   -0.11740E+03 39672   0.318E+02
DAV:   3    -0.231089848095E+02   -0.31522E+01   -0.31364E+01 35160   0.489E+01
DAV:   4    -0.231189981493E+02   -0.10013E-01   -0.10012E-01 42528   0.302E+00
DAV:   5    -0.231190330695E+02   -0.34920E-04   -0.34919E-04 35640   0.173E-01    0.202E+01
DAV:   6    -0.209299651776E+02    0.21891E+01   -0.33599E+00 39176   0.210E+01    0.871E+00
DAV:   7    -0.208326225121E+02    0.97343E-01   -0.41393E-01 35024   0.584E+00    0.630E+00
DAV:   8    -0.208055421931E+02    0.27080E-01   -0.13410E-01 36928   0.339E+00    0.153E+00
DAV:   9    -0.208010703600E+02    0.44718E-02   -0.80322E-03 35576   0.800E-01    0.164E-01
DAV:  10    -0.208010118535E+02    0.58506E-04   -0.56520E-04 38672   0.240E-01    0.100E-01
DAV:  11    -0.208009990590E+02    0.12794E-04   -0.22179E-05 37224   0.443E-02    0.201E-02
DAV:  12    -0.208009978018E+02    0.12572E-05   -0.96965E-07 25000   0.100E-02    0.103E-03
DAV:  13    -0.208009977710E+02    0.30784E-07   -0.37950E-08 17544   0.231E-03
   1 F= -.20800998E+02 E0= -.20799994E+02  d E =-.200744E-02
