Li1 Tl3                                 
   1.00000000000000     
    -2.3257048199999999    2.3257048199999999    4.8302207900000003
     2.3257048199999999   -2.3257048199999999    4.8302207900000003
     2.3257048199999999    2.3257048199999999   -4.8302207900000003
   Li   Tl
     1     3
Direct
     0.0000000000000000    0.0000000000000000    0.0000000000000000
     0.7500000000000000    0.2500000000000000    0.5000000000000000
     0.2500000000000000    0.7500000000000000    0.5000000000000000
     0.5000000000000000    0.5000000000000000    0.0000000000000000
 
  0.00000000E+00  0.00000000E+00  0.00000000E+00
  0.00000000E+00  0.00000000E+00  0.00000000E+00
  0.00000000E+00  0.00000000E+00  0.00000000E+00
  0.00000000E+00  0.00000000E+00  0.00000000E+00
