   4   4   0   0
  0.2612620E+02  0.5843701E-09  0.5843701E-09  0.5843701E-09  0.5000000E-15
  1.000000000000000E-004
  CAR 
 unknown system                          
     19.66069953    -44.54989135  301      5.58911557      1.00000000
    -44.550  0.0000E+00  0.0000E+00
    -44.336  0.0000E+00  0.0000E+00
    -44.122  0.0000E+00  0.0000E+00
    -43.908  0.0000E+00  0.0000E+00
    -43.694  0.0000E+00  0.0000E+00
    -43.480  0.0000E+00  0.0000E+00
    -43.266  0.0000E+00  0.0000E+00
    -43.052  0.0000E+00  0.0000E+00
    -42.838  0.0000E+00  0.0000E+00
    -42.624  0.0000E+00  0.0000E+00
    -42.410  0.0000E+00  0.0000E+00
    -42.196  0.0000E+00  0.0000E+00
    -41.981  0.0000E+00  0.0000E+00
    -41.767  0.5434E-03  0.1163E-03
    -41.553  0.9214E+01  0.1972E+01
    -41.339  0.1299E+00  0.2000E+01
    -41.125  0.0000E+00  0.2000E+01
    -40.911  0.0000E+00  0.2000E+01
    -40.697  0.0000E+00  0.2000E+01
    -40.483  0.0000E+00  0.2000E+01
    -40.269  0.0000E+00  0.2000E+01
    -40.055  0.0000E+00  0.2000E+01
    -39.841  0.0000E+00  0.2000E+01
    -39.627  0.0000E+00  0.2000E+01
    -39.413  0.0000E+00  0.2000E+01
    -39.199  0.0000E+00  0.2000E+01
    -38.985  0.0000E+00  0.2000E+01
    -38.771  0.0000E+00  0.2000E+01
    -38.557  0.0000E+00  0.2000E+01
    -38.343  0.0000E+00  0.2000E+01
    -38.129  0.0000E+00  0.2000E+01
    -37.915  0.0000E+00  0.2000E+01
    -37.701  0.0000E+00  0.2000E+01
    -37.487  0.0000E+00  0.2000E+01
    -37.273  0.0000E+00  0.2000E+01
    -37.059  0.0000E+00  0.2000E+01
    -36.845  0.0000E+00  0.2000E+01
    -36.631  0.0000E+00  0.2000E+01
    -36.417  0.0000E+00  0.2000E+01
    -36.203  0.0000E+00  0.2000E+01
    -35.988  0.0000E+00  0.2000E+01
    -35.774  0.0000E+00  0.2000E+01
    -35.560  0.0000E+00  0.2000E+01
    -35.346  0.0000E+00  0.2000E+01
    -35.132  0.0000E+00  0.2000E+01
    -34.918  0.0000E+00  0.2000E+01
    -34.704  0.0000E+00  0.2000E+01
    -34.490  0.0000E+00  0.2000E+01
    -34.276  0.0000E+00  0.2000E+01
    -34.062  0.0000E+00  0.2000E+01
    -33.848  0.0000E+00  0.2000E+01
    -33.634  0.0000E+00  0.2000E+01
    -33.420  0.0000E+00  0.2000E+01
    -33.206  0.0000E+00  0.2000E+01
    -32.992  0.0000E+00  0.2000E+01
    -32.778  0.0000E+00  0.2000E+01
    -32.564  0.0000E+00  0.2000E+01
    -32.350  0.0000E+00  0.2000E+01
    -32.136  0.0000E+00  0.2000E+01
    -31.922  0.0000E+00  0.2000E+01
    -31.708  0.0000E+00  0.2000E+01
    -31.494  0.0000E+00  0.2000E+01
    -31.280  0.0000E+00  0.2000E+01
    -31.066  0.0000E+00  0.2000E+01
    -30.852  0.0000E+00  0.2000E+01
    -30.638  0.0000E+00  0.2000E+01
    -30.424  0.0000E+00  0.2000E+01
    -30.210  0.0000E+00  0.2000E+01
    -29.995  0.0000E+00  0.2000E+01
    -29.781  0.0000E+00  0.2000E+01
    -29.567  0.0000E+00  0.2000E+01
    -29.353  0.0000E+00  0.2000E+01
    -29.139  0.0000E+00  0.2000E+01
    -28.925  0.0000E+00  0.2000E+01
    -28.711  0.0000E+00  0.2000E+01
    -28.497  0.0000E+00  0.2000E+01
    -28.283  0.0000E+00  0.2000E+01
    -28.069  0.0000E+00  0.2000E+01
    -27.855  0.0000E+00  0.2000E+01
    -27.641  0.0000E+00  0.2000E+01
    -27.427  0.0000E+00  0.2000E+01
    -27.213  0.0000E+00  0.2000E+01
    -26.999  0.0000E+00  0.2000E+01
    -26.785  0.0000E+00  0.2000E+01
    -26.571  0.0000E+00  0.2000E+01
    -26.357  0.0000E+00  0.2000E+01
    -26.143  0.0000E+00  0.2000E+01
    -25.929  0.0000E+00  0.2000E+01
    -25.715  0.0000E+00  0.2000E+01
    -25.501  0.0000E+00  0.2000E+01
    -25.287  0.0000E+00  0.2000E+01
    -25.073  0.0000E+00  0.2000E+01
    -24.859  0.0000E+00  0.2000E+01
    -24.645  0.0000E+00  0.2000E+01
    -24.431  0.0000E+00  0.2000E+01
    -24.217  0.0000E+00  0.2000E+01
    -24.003  0.0000E+00  0.2000E+01
    -23.788  0.0000E+00  0.2000E+01
    -23.574  0.0000E+00  0.2000E+01
    -23.360  0.0000E+00  0.2000E+01
    -23.146  0.0000E+00  0.2000E+01
    -22.932  0.0000E+00  0.2000E+01
    -22.718  0.0000E+00  0.2000E+01
    -22.504  0.0000E+00  0.2000E+01
    -22.290  0.0000E+00  0.2000E+01
    -22.076  0.0000E+00  0.2000E+01
    -21.862  0.0000E+00  0.2000E+01
    -21.648  0.0000E+00  0.2000E+01
    -21.434  0.0000E+00  0.2000E+01
    -21.220  0.0000E+00  0.2000E+01
    -21.006  0.0000E+00  0.2000E+01
    -20.792  0.0000E+00  0.2000E+01
    -20.578  0.0000E+00  0.2000E+01
    -20.364  0.0000E+00  0.2000E+01
    -20.150  0.0000E+00  0.2000E+01
    -19.936  0.0000E+00  0.2000E+01
    -19.722  0.0000E+00  0.2000E+01
    -19.508  0.0000E+00  0.2000E+01
    -19.294  0.0000E+00  0.2000E+01
    -19.080  0.0000E+00  0.2000E+01
    -18.866  0.0000E+00  0.2000E+01
    -18.652  0.0000E+00  0.2000E+01
    -18.438  0.0000E+00  0.2000E+01
    -18.224  0.0000E+00  0.2000E+01
    -18.010  0.0000E+00  0.2000E+01
    -17.795  0.0000E+00  0.2000E+01
    -17.581  0.0000E+00  0.2000E+01
    -17.367  0.0000E+00  0.2000E+01
    -17.153  0.0000E+00  0.2000E+01
    -16.939  0.0000E+00  0.2000E+01
    -16.725  0.0000E+00  0.2000E+01
    -16.511  0.0000E+00  0.2000E+01
    -16.297  0.0000E+00  0.2000E+01
    -16.083  0.0000E+00  0.2000E+01
    -15.869  0.0000E+00  0.2000E+01
    -15.655  0.0000E+00  0.2000E+01
    -15.441  0.0000E+00  0.2000E+01
    -15.227  0.0000E+00  0.2000E+01
    -15.013  0.0000E+00  0.2000E+01
    -14.799  0.0000E+00  0.2000E+01
    -14.585  0.0000E+00  0.2000E+01
    -14.371  0.0000E+00  0.2000E+01
    -14.157  0.0000E+00  0.2000E+01
    -13.943  0.0000E+00  0.2000E+01
    -13.729  0.0000E+00  0.2000E+01
    -13.515  0.0000E+00  0.2000E+01
    -13.301  0.0000E+00  0.2000E+01
    -13.087  0.0000E+00  0.2000E+01
    -12.873  0.0000E+00  0.2000E+01
    -12.659  0.0000E+00  0.2000E+01
    -12.445  0.0000E+00  0.2000E+01
    -12.231  0.0000E+00  0.2000E+01
    -12.017  0.0000E+00  0.2000E+01
    -11.802  0.0000E+00  0.2000E+01
    -11.588  0.0000E+00  0.2000E+01
    -11.374  0.0000E+00  0.2000E+01
    -11.160  0.0000E+00  0.2000E+01
    -10.946  0.0000E+00  0.2000E+01
    -10.732  0.0000E+00  0.2000E+01
    -10.518  0.0000E+00  0.2000E+01
    -10.304  0.0000E+00  0.2000E+01
    -10.090  0.0000E+00  0.2000E+01
     -9.876  0.0000E+00  0.2000E+01
     -9.662  0.0000E+00  0.2000E+01
     -9.448  0.0000E+00  0.2000E+01
     -9.234  0.0000E+00  0.2000E+01
     -9.020  0.0000E+00  0.2000E+01
     -8.806  0.0000E+00  0.2000E+01
     -8.592  0.0000E+00  0.2000E+01
     -8.378  0.0000E+00  0.2000E+01
     -8.164  0.0000E+00  0.2000E+01
     -7.950  0.0000E+00  0.2000E+01
     -7.736  0.0000E+00  0.2000E+01
     -7.522  0.0000E+00  0.2000E+01
     -7.308  0.0000E+00  0.2000E+01
     -7.094  0.0000E+00  0.2000E+01
     -6.880  0.0000E+00  0.2000E+01
     -6.666  0.0000E+00  0.2000E+01
     -6.452  0.1010E-02  0.2000E+01
     -6.238  0.4129E+01  0.2884E+01
     -6.024  0.3067E+02  0.9449E+01
     -5.810  0.3514E+02  0.1697E+02
     -5.595  0.4172E+02  0.2590E+02
     -5.381  0.2676E+02  0.3163E+02
     -5.167  0.1736E+01  0.3200E+02
     -4.953  0.4686E-04  0.3200E+02
     -4.739  0.0000E+00  0.3200E+02
     -4.525  0.0000E+00  0.3200E+02
     -4.311  0.0000E+00  0.3200E+02
     -4.097  0.3506E-07  0.3200E+02
     -3.883  0.7529E-01  0.3202E+02
     -3.669  0.1886E+00  0.3206E+02
     -3.455  0.7649E+00  0.3222E+02
     -3.241  0.1486E-01  0.3222E+02
     -3.027  0.1017E+01  0.3244E+02
     -2.813  0.6310E+00  0.3258E+02
     -2.599  0.9088E+00  0.3277E+02
     -2.385  0.4692E+00  0.3287E+02
     -2.171  0.1322E+01  0.3315E+02
     -1.957  0.1276E+01  0.3343E+02
     -1.743  0.7561E+00  0.3359E+02
     -1.529  0.2762E+00  0.3365E+02
     -1.315  0.9018E+00  0.3384E+02
     -1.101  0.1677E+01  0.3420E+02
     -0.887  0.8933E+00  0.3439E+02
     -0.673  0.7675E+00  0.3456E+02
     -0.459  0.1447E+01  0.3487E+02
     -0.245  0.1409E+01  0.3517E+02
     -0.031  0.8346E+00  0.3535E+02
      0.183  0.6212E+00  0.3548E+02
      0.398  0.1900E+01  0.3589E+02
      0.612  0.1528E+01  0.3621E+02
      0.826  0.1764E+01  0.3659E+02
      1.040  0.9014E+00  0.3678E+02
      1.254  0.1591E+01  0.3712E+02
      1.468  0.1294E+01  0.3740E+02
      1.682  0.1697E+01  0.3776E+02
      1.896  0.4478E+00  0.3786E+02
      2.110  0.3944E+00  0.3794E+02
      2.324  0.2904E-02  0.3794E+02
      2.538  0.3989E-01  0.3795E+02
      2.752  0.2511E+00  0.3801E+02
      2.966  0.2281E+00  0.3806E+02
      3.180  0.3404E+00  0.3813E+02
      3.394  0.1686E+00  0.3816E+02
      3.608  0.1385E+01  0.3846E+02
      3.822  0.1395E+01  0.3876E+02
      4.036  0.1428E+01  0.3907E+02
      4.250  0.1620E+01  0.3941E+02
      4.464  0.1648E+01  0.3976E+02
      4.678  0.2656E+01  0.4033E+02
      4.892  0.7905E+00  0.4050E+02
      5.106  0.3064E+01  0.4116E+02
      5.320  0.1559E+01  0.4149E+02
      5.534  0.1786E+01  0.4187E+02
      5.748  0.1918E+01  0.4228E+02
      5.962  0.1405E+01  0.4259E+02
      6.176  0.2106E+01  0.4304E+02
      6.391  0.1280E+01  0.4331E+02
      6.605  0.7226E+00  0.4346E+02
      6.819  0.3037E+01  0.4411E+02
      7.033  0.1295E+01  0.4439E+02
      7.247  0.1308E+01  0.4467E+02
      7.461  0.1764E+01  0.4505E+02
      7.675  0.1978E+01  0.4547E+02
      7.889  0.7142E+00  0.4563E+02
      8.103  0.2279E+01  0.4611E+02
      8.317  0.2666E+01  0.4668E+02
      8.531  0.1404E+01  0.4698E+02
      8.745  0.1887E+01  0.4739E+02
      8.959  0.2304E+01  0.4788E+02
      9.173  0.2340E+01  0.4838E+02
      9.387  0.1517E+01  0.4871E+02
      9.601  0.1822E+01  0.4910E+02
      9.815  0.2930E+01  0.4972E+02
     10.029  0.2384E+01  0.5023E+02
     10.243  0.2486E+01  0.5077E+02
     10.457  0.3129E+01  0.5144E+02
     10.671  0.3089E+01  0.5210E+02
     10.885  0.2311E+01  0.5259E+02
     11.099  0.2848E+01  0.5320E+02
     11.313  0.2001E+01  0.5363E+02
     11.527  0.1754E+01  0.5401E+02
     11.741  0.2752E+01  0.5459E+02
     11.955  0.1925E+01  0.5501E+02
     12.169  0.4766E+01  0.5603E+02
     12.383  0.2895E+01  0.5665E+02
     12.598  0.2099E+01  0.5710E+02
     12.812  0.2776E+01  0.5769E+02
     13.026  0.2651E+01  0.5826E+02
     13.240  0.1728E+01  0.5863E+02
     13.454  0.2826E+01  0.5923E+02
     13.668  0.1750E+01  0.5961E+02
     13.882  0.3269E+00  0.5968E+02
     14.096  0.2854E+01  0.6029E+02
     14.310  0.1287E+01  0.6056E+02
     14.524  0.2548E+01  0.6111E+02
     14.738  0.1964E+01  0.6153E+02
     14.952  0.3246E+01  0.6222E+02
     15.166  0.2897E+01  0.6284E+02
     15.380  0.2273E+01  0.6333E+02
     15.594  0.7504E+00  0.6349E+02
     15.808  0.1463E+01  0.6380E+02
     16.022  0.2963E+00  0.6387E+02
     16.236  0.1875E+00  0.6391E+02
     16.450  0.2850E+00  0.6397E+02
     16.664  0.6238E-01  0.6398E+02
     16.878  0.8531E-01  0.6400E+02
     17.092  0.5044E-05  0.6400E+02
     17.306  0.0000E+00  0.6400E+02
     17.520  0.0000E+00  0.6400E+02
     17.734  0.0000E+00  0.6400E+02
     17.948  0.0000E+00  0.6400E+02
     18.162  0.0000E+00  0.6400E+02
     18.376  0.0000E+00  0.6400E+02
     18.591  0.0000E+00  0.6400E+02
     18.805  0.0000E+00  0.6400E+02
     19.019  0.0000E+00  0.6400E+02
     19.233  0.0000E+00  0.6400E+02
     19.447  0.0000E+00  0.6400E+02
     19.661  0.0000E+00  0.6400E+02
