       N       E                     dE             d eps       ncg     rms          rms(c)
DAV:   1     0.148855442163E+03    0.14886E+03   -0.11574E+04  9800   0.115E+03
DAV:   2    -0.164688943388E+02   -0.16532E+03   -0.16001E+03 13032   0.232E+02
DAV:   3    -0.287810252536E+02   -0.12312E+02   -0.12266E+02 12720   0.696E+01
DAV:   4    -0.288854945060E+02   -0.10447E+00   -0.10439E+00 12460   0.727E+00
DAV:   5    -0.288865751807E+02   -0.10807E-02   -0.10805E-02 12696   0.691E-01    0.994E+00
DAV:   6    -0.266780396878E+02    0.22085E+01   -0.46496E+00 12448   0.154E+01    0.501E+00
DAV:   7    -0.264665177513E+02    0.21152E+00   -0.10273E+00 13000   0.784E+00    0.289E+00
DAV:   8    -0.264508518815E+02    0.15666E-01   -0.23315E-01 12624   0.284E+00    0.112E+00
DAV:   9    -0.264517593731E+02   -0.90749E-03   -0.22761E-02 11084   0.116E+00    0.286E-01
DAV:  10    -0.264528564240E+02   -0.10971E-02   -0.41388E-03 10700   0.623E-01    0.974E-02
DAV:  11    -0.264533551271E+02   -0.49870E-03   -0.15828E-03 10908   0.244E-01    0.539E-02
DAV:  12    -0.264532640607E+02    0.91066E-04   -0.37773E-04 12148   0.154E-01    0.161E-02
DAV:  13    -0.264532569656E+02    0.70952E-05   -0.41076E-05 10736   0.486E-02    0.880E-03
DAV:  14    -0.264532552526E+02    0.17129E-05   -0.58991E-06 12448   0.167E-02    0.322E-03
DAV:  15    -0.264532552733E+02   -0.20706E-07   -0.61301E-07  8856   0.638E-03
   1 F= -.26453255E+02 E0= -.26453255E+02  d E =-.191892E-18
