Sb2                                     
   1.00000000000000     
     3.8357714600000001    0.0059445900000000    2.5048549400000000
     1.3589486700000000    3.5869829800000002    2.5048549699999998
     0.0085938000000000    0.0059445800000000    4.5811968700000003
   Sb
     2
Direct
     0.2682562500000003    0.2682562500000003    0.2682562500000003
     0.7317437499999997    0.7317437499999997    0.7317437499999997
 
  0.00000000E+00  0.00000000E+00  0.00000000E+00
  0.00000000E+00  0.00000000E+00  0.00000000E+00
