   2   2   0   0
  0.3144051E+02  0.4581209E-09  0.4581210E-09  0.4581209E-09  0.5000000E-15
  1.000000000000000E-004
  CAR 
 unknown system                          
     12.98412278     -6.54959323  301      6.75122302      1.00000000
     -6.550  0.0000E+00  0.0000E+00
     -6.484  0.0000E+00  0.0000E+00
     -6.419  0.0000E+00  0.0000E+00
     -6.354  0.0000E+00  0.0000E+00
     -6.289  0.0000E+00  0.0000E+00
     -6.224  0.0000E+00  0.0000E+00
     -6.159  0.0000E+00  0.0000E+00
     -6.094  0.0000E+00  0.0000E+00
     -6.029  0.0000E+00  0.0000E+00
     -5.964  0.0000E+00  0.0000E+00
     -5.898  0.9530E-12  0.6205E-13
     -5.833  0.5383E-07  0.3505E-08
     -5.768  0.1155E-03  0.7526E-05
     -5.703  0.1068E-01  0.7032E-03
     -5.638  0.5623E-01  0.4365E-02
     -5.573  0.2416E-01  0.5938E-02
     -5.508  0.7938E-01  0.1111E-01
     -5.443  0.4060E+00  0.3754E-01
     -5.378  0.5595E+00  0.7397E-01
     -5.312  0.1998E+00  0.8698E-01
     -5.247  0.1507E-01  0.8796E-01
     -5.182  0.1888E+00  0.1003E+00
     -5.117  0.3679E+00  0.1242E+00
     -5.052  0.4840E+00  0.1557E+00
     -4.987  0.6174E+00  0.1959E+00
     -4.922  0.6020E+00  0.2351E+00
     -4.857  0.9261E+00  0.2954E+00
     -4.792  0.5564E+00  0.3317E+00
     -4.726  0.1860E+00  0.3438E+00
     -4.661  0.1771E+00  0.3553E+00
     -4.596  0.6881E+00  0.4001E+00
     -4.531  0.2523E+00  0.4165E+00
     -4.466  0.7784E+00  0.4672E+00
     -4.401  0.1293E+01  0.5514E+00
     -4.336  0.4181E+00  0.5786E+00
     -4.271  0.1173E+01  0.6550E+00
     -4.206  0.7835E+00  0.7060E+00
     -4.140  0.5970E+00  0.7449E+00
     -4.075  0.7084E+00  0.7910E+00
     -4.010  0.9767E+00  0.8546E+00
     -3.945  0.1615E+01  0.9597E+00
     -3.880  0.1648E+01  0.1067E+01
     -3.815  0.5945E+00  0.1106E+01
     -3.750  0.3184E+00  0.1126E+01
     -3.685  0.4339E+00  0.1155E+01
     -3.620  0.8423E+00  0.1210E+01
     -3.554  0.1086E+01  0.1280E+01
     -3.489  0.9431E+00  0.1342E+01
     -3.424  0.8585E+00  0.1398E+01
     -3.359  0.1708E+01  0.1509E+01
     -3.294  0.3452E+01  0.1734E+01
     -3.229  0.1807E+01  0.1851E+01
     -3.164  0.1450E+00  0.1861E+01
     -3.099  0.3270E+00  0.1882E+01
     -3.034  0.6435E+00  0.1924E+01
     -2.968  0.9399E-01  0.1930E+01
     -2.903  0.8641E-01  0.1936E+01
     -2.838  0.6332E+00  0.1977E+01
     -2.773  0.3430E+00  0.1999E+01
     -2.708  0.1212E-01  0.2000E+01
     -2.643  0.2195E-02  0.2000E+01
     -2.578  0.1600E+00  0.2011E+01
     -2.513  0.6879E+00  0.2055E+01
     -2.448  0.2609E+00  0.2072E+01
     -2.382  0.3629E+00  0.2096E+01
     -2.317  0.7579E+00  0.2145E+01
     -2.252  0.9891E+00  0.2210E+01
     -2.187  0.9620E+00  0.2272E+01
     -2.122  0.1778E+01  0.2388E+01
     -2.057  0.1311E+01  0.2473E+01
     -1.992  0.2451E+00  0.2489E+01
     -1.927  0.1768E+00  0.2501E+01
     -1.862  0.1263E+01  0.2583E+01
     -1.796  0.9446E+00  0.2645E+01
     -1.731  0.8901E+00  0.2703E+01
     -1.666  0.1283E+01  0.2786E+01
     -1.601  0.1473E+01  0.2882E+01
     -1.536  0.1810E+01  0.3000E+01
     -1.471  0.9974E+00  0.3065E+01
     -1.406  0.9137E+00  0.3124E+01
     -1.341  0.2430E+00  0.3140E+01
     -1.275  0.7268E+00  0.3188E+01
     -1.210  0.9612E+00  0.3250E+01
     -1.145  0.4069E+00  0.3277E+01
     -1.080  0.9814E+00  0.3341E+01
     -1.015  0.1793E+01  0.3457E+01
     -0.950  0.9077E+00  0.3516E+01
     -0.885  0.3998E+00  0.3542E+01
     -0.820  0.5209E+00  0.3576E+01
     -0.755  0.6139E+00  0.3616E+01
     -0.689  0.7395E-01  0.3621E+01
     -0.624  0.1119E+00  0.3628E+01
     -0.559  0.3718E+00  0.3653E+01
     -0.494  0.1942E+00  0.3665E+01
     -0.429  0.3604E-01  0.3668E+01
     -0.364  0.6800E-03  0.3668E+01
     -0.299  0.1378E-01  0.3669E+01
     -0.234  0.3142E+00  0.3689E+01
     -0.169  0.7905E+00  0.3740E+01
     -0.103  0.1066E+01  0.3810E+01
     -0.038  0.4806E+00  0.3841E+01
      0.027  0.2358E-01  0.3843E+01
      0.092  0.1186E+00  0.3850E+01
      0.157  0.5338E+00  0.3885E+01
      0.222  0.3835E+00  0.3910E+01
      0.287  0.3635E-01  0.3913E+01
      0.352  0.2197E-03  0.3913E+01
      0.417  0.5678E-07  0.3913E+01
      0.483  0.5519E-12  0.3913E+01
      0.548  0.0000E+00  0.3913E+01
      0.613  0.0000E+00  0.3913E+01
      0.678  0.3579E-12  0.3913E+01
      0.743  0.4127E-07  0.3913E+01
      0.808  0.1802E-03  0.3913E+01
      0.873  0.3378E-01  0.3915E+01
      0.938  0.3766E+00  0.3939E+01
      1.003  0.5667E+00  0.3976E+01
      1.069  0.2612E+00  0.3993E+01
      1.134  0.1521E-01  0.3994E+01
      1.199  0.4763E-04  0.3994E+01
      1.264  0.6061E-08  0.3994E+01
      1.329  0.3511E-13  0.3994E+01
      1.394  0.2162E-08  0.3994E+01
      1.459  0.2711E-04  0.3994E+01
      1.524  0.1398E-01  0.3995E+01
      1.589  0.3573E+00  0.4018E+01
      1.655  0.6213E+00  0.4059E+01
      1.720  0.8196E-01  0.4064E+01
      1.785  0.2298E-01  0.4066E+01
      1.850  0.2244E+00  0.4080E+01
      1.915  0.1856E+01  0.4201E+01
      1.980  0.1933E+01  0.4327E+01
      2.045  0.1008E+01  0.4393E+01
      2.110  0.1034E+01  0.4460E+01
      2.175  0.7436E+00  0.4508E+01
      2.241  0.2590E+00  0.4525E+01
      2.306  0.3030E+00  0.4545E+01
      2.371  0.5641E+00  0.4582E+01
      2.436  0.4801E+00  0.4613E+01
      2.501  0.9219E+00  0.4673E+01
      2.566  0.1065E+01  0.4742E+01
      2.631  0.1178E+01  0.4819E+01
      2.696  0.1369E+01  0.4908E+01
      2.761  0.1995E+01  0.5038E+01
      2.827  0.1618E+01  0.5143E+01
      2.892  0.1955E+01  0.5271E+01
      2.957  0.3766E+00  0.5295E+01
      3.022  0.3944E+00  0.5321E+01
      3.087  0.7436E+00  0.5369E+01
      3.152  0.8702E+00  0.5426E+01
      3.217  0.1547E+01  0.5527E+01
      3.282  0.1286E+01  0.5610E+01
      3.347  0.8921E+00  0.5668E+01
      3.413  0.1157E+01  0.5744E+01
      3.478  0.2279E+01  0.5892E+01
      3.543  0.2628E+01  0.6063E+01
      3.608  0.1597E+01  0.6167E+01
      3.673  0.1870E+01  0.6289E+01
      3.738  0.1477E+01  0.6385E+01
      3.803  0.1068E+01  0.6455E+01
      3.868  0.1222E+01  0.6534E+01
      3.934  0.2029E+01  0.6666E+01
      3.999  0.2152E+01  0.6807E+01
      4.064  0.2342E+01  0.6959E+01
      4.129  0.6982E+00  0.7005E+01
      4.194  0.7445E+00  0.7053E+01
      4.259  0.2734E+01  0.7231E+01
      4.324  0.2574E+01  0.7399E+01
      4.389  0.1358E+01  0.7487E+01
      4.454  0.9558E+00  0.7549E+01
      4.520  0.1094E+01  0.7621E+01
      4.585  0.1674E+01  0.7730E+01
      4.650  0.2010E+01  0.7861E+01
      4.715  0.1291E+01  0.7945E+01
      4.780  0.6102E+00  0.7984E+01
      4.845  0.2053E+01  0.8118E+01
      4.910  0.2527E+01  0.8282E+01
      4.975  0.1574E+01  0.8385E+01
      5.040  0.5288E+00  0.8419E+01
      5.106  0.6488E+00  0.8462E+01
      5.171  0.3463E+00  0.8484E+01
      5.236  0.4727E+00  0.8515E+01
      5.301  0.2008E+01  0.8646E+01
      5.366  0.2862E+01  0.8832E+01
      5.431  0.2120E+01  0.8970E+01
      5.496  0.1518E+01  0.9069E+01
      5.561  0.6695E+00  0.9113E+01
      5.626  0.9535E+00  0.9175E+01
      5.692  0.1806E+01  0.9292E+01
      5.757  0.2272E+01  0.9440E+01
      5.822  0.1890E+01  0.9563E+01
      5.887  0.5037E+00  0.9596E+01
      5.952  0.6204E+00  0.9636E+01
      6.017  0.1113E+01  0.9709E+01
      6.082  0.5025E+00  0.9742E+01
      6.147  0.2630E+00  0.9759E+01
      6.212  0.5716E+00  0.9796E+01
      6.278  0.1063E+01  0.9865E+01
      6.343  0.4474E+00  0.9894E+01
      6.408  0.7085E-01  0.9899E+01
      6.473  0.4711E+00  0.9930E+01
      6.538  0.4998E+00  0.9962E+01
      6.603  0.3141E+00  0.9983E+01
      6.668  0.2512E+00  0.9999E+01
      6.733  0.1745E-01  0.1000E+02
      6.798  0.1213E-02  0.1000E+02
      6.864  0.8223E-01  0.1001E+02
      6.929  0.3443E+00  0.1003E+02
      6.994  0.1076E+00  0.1003E+02
      7.059  0.2665E-02  0.1004E+02
      7.124  0.1124E+00  0.1004E+02
      7.189  0.1161E+01  0.1012E+02
      7.254  0.1099E+01  0.1019E+02
      7.319  0.1693E+00  0.1020E+02
      7.384  0.7186E+00  0.1025E+02
      7.450  0.2273E+01  0.1040E+02
      7.515  0.2531E+01  0.1056E+02
      7.580  0.1600E+01  0.1066E+02
      7.645  0.1655E+01  0.1077E+02
      7.710  0.1318E+01  0.1086E+02
      7.775  0.1388E+01  0.1095E+02
      7.840  0.2228E+01  0.1109E+02
      7.905  0.3259E+01  0.1131E+02
      7.970  0.2511E+01  0.1147E+02
      8.036  0.8406E+00  0.1152E+02
      8.101  0.4018E+00  0.1155E+02
      8.166  0.1384E+01  0.1164E+02
      8.231  0.2695E+01  0.1182E+02
      8.296  0.1155E+01  0.1189E+02
      8.361  0.6625E+00  0.1193E+02
      8.426  0.1294E+01  0.1202E+02
      8.491  0.1193E+01  0.1210E+02
      8.556  0.7624E+00  0.1215E+02
      8.622  0.1056E+01  0.1221E+02
      8.687  0.7702E+00  0.1226E+02
      8.752  0.1228E+01  0.1234E+02
      8.817  0.1472E+01  0.1244E+02
      8.882  0.1056E+01  0.1251E+02
      8.947  0.1671E+01  0.1262E+02
      9.012  0.2893E+01  0.1281E+02
      9.077  0.2229E+01  0.1295E+02
      9.142  0.1784E+01  0.1307E+02
      9.208  0.1616E+01  0.1317E+02
      9.273  0.7653E+00  0.1322E+02
      9.338  0.8601E+00  0.1328E+02
      9.403  0.2499E+01  0.1344E+02
      9.468  0.2317E+01  0.1359E+02
      9.533  0.1381E+01  0.1368E+02
      9.598  0.2600E+00  0.1370E+02
      9.663  0.4961E+00  0.1373E+02
      9.729  0.8187E+00  0.1378E+02
      9.794  0.1565E+01  0.1389E+02
      9.859  0.2211E+01  0.1403E+02
      9.924  0.1910E+01  0.1415E+02
      9.989  0.9891E+00  0.1422E+02
     10.054  0.1584E+01  0.1432E+02
     10.119  0.1710E+01  0.1443E+02
     10.184  0.9849E+00  0.1450E+02
     10.249  0.1491E+01  0.1459E+02
     10.315  0.1973E+01  0.1472E+02
     10.380  0.6088E+00  0.1476E+02
     10.445  0.2069E+00  0.1478E+02
     10.510  0.5024E+00  0.1481E+02
     10.575  0.1476E+01  0.1491E+02
     10.640  0.1602E+01  0.1501E+02
     10.705  0.1359E+01  0.1510E+02
     10.770  0.1422E+01  0.1519E+02
     10.835  0.5844E+00  0.1523E+02
     10.901  0.5209E+00  0.1526E+02
     10.966  0.7830E+00  0.1531E+02
     11.031  0.7743E+00  0.1536E+02
     11.096  0.9327E-01  0.1537E+02
     11.161  0.2297E-01  0.1537E+02
     11.226  0.4648E+00  0.1540E+02
     11.291  0.9716E+00  0.1547E+02
     11.356  0.9965E+00  0.1553E+02
     11.421  0.1120E+01  0.1560E+02
     11.487  0.5839E+00  0.1564E+02
     11.552  0.1357E+00  0.1565E+02
     11.617  0.3156E-02  0.1565E+02
     11.682  0.7445E-02  0.1565E+02
     11.747  0.3437E+00  0.1567E+02
     11.812  0.1048E+01  0.1574E+02
     11.877  0.6965E+00  0.1579E+02
     11.942  0.5706E+00  0.1582E+02
     12.007  0.5959E+00  0.1586E+02
     12.073  0.1317E+01  0.1595E+02
     12.138  0.7119E+00  0.1599E+02
     12.203  0.8087E-01  0.1600E+02
     12.268  0.7796E-03  0.1600E+02
     12.333  0.3497E-06  0.1600E+02
     12.398  0.6019E-11  0.1600E+02
     12.463  0.0000E+00  0.1600E+02
     12.528  0.0000E+00  0.1600E+02
     12.593  0.0000E+00  0.1600E+02
     12.659  0.0000E+00  0.1600E+02
     12.724  0.0000E+00  0.1600E+02
     12.789  0.0000E+00  0.1600E+02
     12.854  0.0000E+00  0.1600E+02
     12.919  0.0000E+00  0.1600E+02
     12.984  0.0000E+00  0.1600E+02
