Al4H12
1.0
     -4.4893506      -4.4893506       0.0000000
     -4.4893506       0.0000000      -4.4893506
      0.0000000      -4.4893506      -4.4893506
  Al    H   
  4     12  
Direct
      0.5000000       0.5000000       0.0000000
      0.5000000       0.0000000       0.5000000
      0.0000000       0.5000000       0.5000000
      0.5000000       0.5000000       0.5000000
      0.4300904       0.8199096       0.8199096
      0.8199096       0.4300904       0.4300904
      0.8199096       0.4300904       0.8199096
      0.4300904       0.8199096       0.4300904
      0.8199096       0.8199096       0.4300904
      0.4300904       0.4300904       0.8199096
      0.5699096       0.1800904       0.1800904
      0.1800904       0.5699096       0.5699096
      0.1800904       0.5699096       0.1800904
      0.5699096       0.1800904       0.5699096
      0.1800904       0.1800904       0.5699096
      0.5699096       0.5699096       0.1800904
