unknown system                          
           1
    -4.489351   -4.489351    0.000000
    -4.489351    0.000000   -4.489351
     0.000000   -4.489351   -4.489351
   Al   H 
     4    12
Direct configuration=     1
   0.50000000  0.50000000  0.00000000
   0.50000000  0.00000000  0.50000000
   0.00000000  0.50000000  0.50000000
   0.50000000  0.50000000  0.50000000
   0.43009041  0.81990959  0.81990959
   0.81990959  0.43009041  0.43009041
   0.81990959  0.43009041  0.81990959
   0.43009041  0.81990959  0.43009041
   0.81990959  0.81990959  0.43009041
   0.43009041  0.43009041  0.81990959
   0.56990959  0.18009041  0.18009041
   0.18009041  0.56990959  0.56990959
   0.18009041  0.56990959  0.18009041
   0.56990959  0.18009041  0.56990959
   0.18009041  0.18009041  0.56990959
   0.56990959  0.56990959  0.18009041
