 vasp.6.5.0 16Dec24 (build Jan 23 2025 15:25:19) complex                        
  
 executed on             LinuxIFC date 2026.08.13  23:05:15
 running   16 mpi-ranks, with    1 threads/rank, on    1 nodes
 distrk:  each k-point on    8 cores,    2 groups
 distr:  one band on NCORE=   2 cores,    4 groups


--------------------------------------------------------------------------------------------------------


 INCAR:
   EDIFF = 1e-06
   ENCUT = 600.0
   IBRION = -1
   ISMEAR = 0
   ISYM = -1
   KPAR = 2
   LASPH = True
   LCHARG = True
   LWAVE = True
   NBANDS = 100
   NPAR = 4
   NSW = 0
   PREC = Accurate
   SIGMA = 0.05

 POTCAR:    PAW_PBE Na_pv 19Sep2006               
 POTCAR:    PAW_PBE Cl 06Sep2000                  
 POTCAR:    PAW_PBE Na_pv 19Sep2006               
   VRHFIN =Na: p6s1                                                                                 
   LEXCH  = PE                                                                                      
   EATOM  =   766.0439 eV,   56.3026 Ry                                                             
                                                                                                    
   TITEL  = PAW_PBE Na_pv 19Sep2006                                                                 
   LULTRA =        F    use ultrasoft PP ?                                                          
   IUNSCR =        1    unscreen: 0-lin 1-nonlin 2-no                                               
   RPACOR =    1.800    partial core radius                                                         
   POMASS =   22.990; ZVAL   =    7.000    mass and valenz                                          
   RCORE  =    2.200    outmost cutoff radius                                                       
   RWIGS  =    2.200; RWIGS  =    1.164    wigner-seitz radius (au A)                               
   ENMAX  =  259.561; ENMIN  =  194.671 eV                                                          
   ICORE  =        2    local potential                                                             
   LCOR   =        T    correct aug charges                                                         
   LPAW   =        T    paw PP                                                                      
   EAUG   =  368.056                                                                                
   DEXC   =    0.000                                                                                
   RMAX   =    2.245    core radius for proj-oper                                                   
   RAUG   =    1.300    factor for augmentation sphere                                              
   RDEP   =    2.259    radius for radial grids                                                     
   RDEPT  =    1.738    core radius for aug-charge                                                  
                                                                                                    
   Atomic configuration                                                                             
    5 entries                                                                                       
     n  l   j            E        occ.                                                              
     1  0  0.50     -1033.6933   2.0000                                                             
     2  0  0.50       -56.7526   2.0000                                                             
     2  1  1.50       -28.6721   6.0000                                                             
     3  0  0.50        -2.7440   1.0000                                                             
     3  2  1.50        -1.3606   0.0000                                                             
   Description                                                                                      
     l       E           TYP  RCUT    TYP  RCUT                                                     
     1    -28.6720912     23  2.000                                                                 
     1      6.8029130     23  2.000                                                                 
     0     -2.7439560     23  2.200                                                                 
     0     34.0145650     23  2.200                                                                 
     2     -1.3605826     23  2.200                                                                 
  local pseudopotential read in
  partial core-charges read in
  partial kinetic energy density read in
  atomic valenz-charges read in
  non local Contribution for L=           1  read in
    real space projection operators read in
  non local Contribution for L=           1  read in
    real space projection operators read in
  non local Contribution for L=           0  read in
    real space projection operators read in
  non local Contribution for L=           0  read in
    real space projection operators read in
    PAW grid and wavefunctions read in
 
   number of l-projection  operators is LMAX  =           4
   number of lm-projection operators is LMMAX =           8
 
 POTCAR:    PAW_PBE Cl 06Sep2000                  
   VRHFIN =Cl: s2p5                                                                                 
   LEXCH  = PE                                                                                      
   EATOM  =   409.7259 eV,   30.1140 Ry                                                             
                                                                                                    
   TITEL  = PAW_PBE Cl 06Sep2000                                                                    
   LULTRA =        F    use ultrasoft PP ?                                                          
   IUNSCR =        1    unscreen: 0-lin 1-nonlin 2-no                                               
   RPACOR =    1.500    partial core radius                                                         
   POMASS =   35.453; ZVAL   =    7.000    mass and valenz                                          
   RCORE  =    1.900    outmost cutoff radius                                                       
   RWIGS  =    2.100; RWIGS  =    1.111    wigner-seitz radius (au A)                               
   ENMAX  =  262.472; ENMIN  =  196.854 eV                                                          
   ICORE  =        2    local potential                                                             
   LCOR   =        T    correct aug charges                                                         
   LPAW   =        T    paw PP                                                                      
   EAUG   =  356.192                                                                                
   DEXC   =    0.000                                                                                
   RMAX   =    1.945    core radius for proj-oper                                                   
   RAUG   =    1.300    factor for augmentation sphere                                              
   RDEP   =    2.020    radius for radial grids                                                     
   RDEPT  =    1.678    core radius for aug-charge                                                  
                                                                                                    
   Atomic configuration                                                                             
    6 entries                                                                                       
     n  l   j            E        occ.                                                              
     1  0  0.50     -2751.1850   2.0000                                                             
     2  0  0.50      -252.6861   2.0000                                                             
     2  1  1.50      -191.6157   6.0000                                                             
     3  0  0.50       -20.6916   2.0000                                                             
     3  1  0.50        -8.5949   5.0000                                                             
     3  2  1.50        -8.1635   0.0000                                                             
   Description                                                                                      
     l       E           TYP  RCUT    TYP  RCUT                                                     
     0    -20.6915656     23  1.900                                                                 
     0    -22.0521482     23  1.900                                                                 
     1     -8.5948577     23  1.900                                                                 
     1     -5.3847331     23  1.900                                                                 
     2     -8.1634956     23  1.900                                                                 
  local pseudopotential read in
  partial core-charges read in
  partial kinetic energy density read in
  atomic valenz-charges read in
  non local Contribution for L=           0  read in
    real space projection operators read in
  non local Contribution for L=           0  read in
    real space projection operators read in
  non local Contribution for L=           1  read in
    real space projection operators read in
  non local Contribution for L=           1  read in
    real space projection operators read in
    PAW grid and wavefunctions read in
 
   number of l-projection  operators is LMAX  =           4
   number of lm-projection operators is LMMAX =           8
 
  PAW_PBE Na_pv 19Sep2006               :
 energy of atom  1       EATOM= -766.0439
 kinetic energy error for atom=    0.0017 (will be added to EATOM!!)
  PAW_PBE Cl 06Sep2000                  :
 energy of atom  2       EATOM= -409.7259
 kinetic energy error for atom=    0.0013 (will be added to EATOM!!)
 
 
 POSCAR: Na1 Cl1
  positions in direct lattice
  No initial velocities read in


 exchange-correlation table for PE
   RHO(1)=    0.500       N(1)  =     2000
   RHO(2)=  100.500       N(2)  =     4000
 


--------------------------------------------------------------------------------------------------------


 ion  position               nearest neighbor table
   1  0.000  0.000  0.000-
   2  0.500  0.500  0.500-
 

IMPORTANT INFORMATION: All symmetrisations will be switched off!
NOSYMM: (Re-)initialisation of all symmetry stuff for point group C_1.


----------------------------------------------------------------------------------------

                                     Primitive cell                                     

  volume of cell :      43.6253

  direct lattice vectors                    reciprocal lattice vectors
     3.422015000  0.000000000  1.975702000     0.292225487 -0.103317273  0.000000000
     1.140671000  3.226306000  1.975702000     0.000000000  0.309952001  0.000000000
     0.000000000  0.000000000  3.951402000    -0.146112817 -0.103317416  0.253074731

  length of vectors
     3.951402922  3.951402172  3.951402000     0.309951922  0.309952001  0.309952034

  position of ions in fractional coordinates (direct lattice)
     0.000000000  0.000000000  0.000000000
     0.500000000  0.500000000  0.500000000

  ion indices of the primitive-cell ions
   primitive index   ion index
                 1           1
                 2           2

----------------------------------------------------------------------------------------

 
 
 KPOINTS: pymatgen with grid density = 1137 / numb

Automatic generation of k-mesh.
 Grid dimensions read from file:
 generate k-points for:    8    8    8

 Generating k-lattice:

  Cartesian coordinates                     Fractional coordinates (reciprocal lattice)
     0.036528186 -0.012914659  0.000000000     0.125000000  0.000000000  0.000000000
     0.000000000  0.038744000  0.000000000     0.000000000  0.125000000  0.000000000
    -0.018264102 -0.012914677  0.031634341    -0.000000000  0.000000000  0.125000000

  Length of vectors
     0.038743990  0.038744000  0.038744004

  Shift w.r.t. Gamma in fractional coordinates (k-lattice)
     0.000000000  0.000000000  0.000000000

 
 Subroutine IBZKPT returns following result:
 ===========================================
 
 Found    512 irreducible k-points:
 
 Following reciprocal coordinates:
            Coordinates               Weight
  0.000000  0.000000  0.000000      1.000000
  0.125000  0.000000  0.000000      1.000000
  0.250000  0.000000  0.000000      1.000000
  0.375000  0.000000  0.000000      1.000000
  0.500000  0.000000  0.000000      1.000000
 -0.375000  0.000000  0.000000      1.000000
 -0.250000  0.000000  0.000000      1.000000
 -0.125000  0.000000  0.000000      1.000000
  0.000000  0.125000  0.000000      1.000000
  0.125000  0.125000  0.000000      1.000000
  0.250000  0.125000  0.000000      1.000000
  0.375000  0.125000  0.000000      1.000000
  0.500000  0.125000  0.000000      1.000000
 -0.375000  0.125000  0.000000      1.000000
 -0.250000  0.125000  0.000000      1.000000
 -0.125000  0.125000  0.000000      1.000000
  0.000000  0.250000  0.000000      1.000000
  0.125000  0.250000  0.000000      1.000000
  0.250000  0.250000  0.000000      1.000000
  0.375000  0.250000  0.000000      1.000000
  0.500000  0.250000  0.000000      1.000000
 -0.375000  0.250000  0.000000      1.000000
 -0.250000  0.250000  0.000000      1.000000
 -0.125000  0.250000  0.000000      1.000000
  0.000000  0.375000  0.000000      1.000000
  0.125000  0.375000  0.000000      1.000000
  0.250000  0.375000  0.000000      1.000000
  0.375000  0.375000  0.000000      1.000000
  0.500000  0.375000  0.000000      1.000000
 -0.375000  0.375000  0.000000      1.000000
 -0.250000  0.375000  0.000000      1.000000
 -0.125000  0.375000  0.000000      1.000000
  0.000000  0.500000  0.000000      1.000000
  0.125000  0.500000  0.000000      1.000000
  0.250000  0.500000  0.000000      1.000000
  0.375000  0.500000  0.000000      1.000000
  0.500000  0.500000  0.000000      1.000000
 -0.375000  0.500000  0.000000      1.000000
 -0.250000  0.500000  0.000000      1.000000
 -0.125000  0.500000  0.000000      1.000000
  0.000000 -0.375000  0.000000      1.000000
  0.125000 -0.375000  0.000000      1.000000
  0.250000 -0.375000  0.000000      1.000000
  0.375000 -0.375000  0.000000      1.000000
  0.500000 -0.375000  0.000000      1.000000
 -0.375000 -0.375000  0.000000      1.000000
 -0.250000 -0.375000  0.000000      1.000000
 -0.125000 -0.375000  0.000000      1.000000
  0.000000 -0.250000  0.000000      1.000000
  0.125000 -0.250000  0.000000      1.000000
  0.250000 -0.250000  0.000000      1.000000
  0.375000 -0.250000  0.000000      1.000000
  0.500000 -0.250000  0.000000      1.000000
 -0.375000 -0.250000  0.000000      1.000000
 -0.250000 -0.250000  0.000000      1.000000
 -0.125000 -0.250000  0.000000      1.000000
  0.000000 -0.125000  0.000000      1.000000
  0.125000 -0.125000  0.000000      1.000000
  0.250000 -0.125000  0.000000      1.000000
  0.375000 -0.125000  0.000000      1.000000
  0.500000 -0.125000  0.000000      1.000000
 -0.375000 -0.125000  0.000000      1.000000
 -0.250000 -0.125000  0.000000      1.000000
 -0.125000 -0.125000  0.000000      1.000000
 -0.000000  0.000000  0.125000      1.000000
  0.125000  0.000000  0.125000      1.000000
  0.250000  0.000000  0.125000      1.000000
  0.375000  0.000000  0.125000      1.000000
  0.500000  0.000000  0.125000      1.000000
 -0.375000 -0.000000  0.125000      1.000000
 -0.250000  0.000000  0.125000      1.000000
 -0.125000  0.000000  0.125000      1.000000
 -0.000000  0.125000  0.125000      1.000000
  0.125000  0.125000  0.125000      1.000000
  0.250000  0.125000  0.125000      1.000000
  0.375000  0.125000  0.125000      1.000000
  0.500000  0.125000  0.125000      1.000000
 -0.375000  0.125000  0.125000      1.000000
 -0.250000  0.125000  0.125000      1.000000
 -0.125000  0.125000  0.125000      1.000000
 -0.000000  0.250000  0.125000      1.000000
  0.125000  0.250000  0.125000      1.000000
  0.250000  0.250000  0.125000      1.000000
  0.375000  0.250000  0.125000      1.000000
  0.500000  0.250000  0.125000      1.000000
 -0.375000  0.250000  0.125000      1.000000
 -0.250000  0.250000  0.125000      1.000000
 -0.125000  0.250000  0.125000      1.000000
 -0.000000  0.375000  0.125000      1.000000
  0.125000  0.375000  0.125000      1.000000
  0.250000  0.375000  0.125000      1.000000
  0.375000  0.375000  0.125000      1.000000
  0.500000  0.375000  0.125000      1.000000
 -0.375000  0.375000  0.125000      1.000000
 -0.250000  0.375000  0.125000      1.000000
 -0.125000  0.375000  0.125000      1.000000
 -0.000000  0.500000  0.125000      1.000000
  0.125000  0.500000  0.125000      1.000000
  0.250000  0.500000  0.125000      1.000000
  0.375000  0.500000  0.125000      1.000000
  0.500000  0.500000  0.125000      1.000000
 -0.375000  0.500000  0.125000      1.000000
 -0.250000  0.500000  0.125000      1.000000
 -0.125000  0.500000  0.125000      1.000000
 -0.000000 -0.375000  0.125000      1.000000
  0.125000 -0.375000  0.125000      1.000000
  0.250000 -0.375000  0.125000      1.000000
  0.375000 -0.375000  0.125000      1.000000
  0.500000 -0.375000  0.125000      1.000000
 -0.375000 -0.375000  0.125000      1.000000
 -0.250000 -0.375000  0.125000      1.000000
 -0.125000 -0.375000  0.125000      1.000000
 -0.000000 -0.250000  0.125000      1.000000
  0.125000 -0.250000  0.125000      1.000000
  0.250000 -0.250000  0.125000      1.000000
  0.375000 -0.250000  0.125000      1.000000
  0.500000 -0.250000  0.125000      1.000000
 -0.375000 -0.250000  0.125000      1.000000
 -0.250000 -0.250000  0.125000      1.000000
 -0.125000 -0.250000  0.125000      1.000000
 -0.000000 -0.125000  0.125000      1.000000
  0.125000 -0.125000  0.125000      1.000000
  0.250000 -0.125000  0.125000      1.000000
  0.375000 -0.125000  0.125000      1.000000
  0.500000 -0.125000  0.125000      1.000000
 -0.375000 -0.125000  0.125000      1.000000
 -0.250000 -0.125000  0.125000      1.000000
 -0.125000 -0.125000  0.125000      1.000000
 -0.000000  0.000000  0.250000      1.000000
  0.125000  0.000000  0.250000      1.000000
  0.250000  0.000000  0.250000      1.000000
  0.375000  0.000000  0.250000      1.000000
  0.500000  0.000000  0.250000      1.000000
 -0.375000  0.000000  0.250000      1.000000
 -0.250000  0.000000  0.250000      1.000000
 -0.125000  0.000000  0.250000      1.000000
 -0.000000  0.125000  0.250000      1.000000
  0.125000  0.125000  0.250000      1.000000
  0.250000  0.125000  0.250000      1.000000
  0.375000  0.125000  0.250000      1.000000
  0.500000  0.125000  0.250000      1.000000
 -0.375000  0.125000  0.250000      1.000000
 -0.250000  0.125000  0.250000      1.000000
 -0.125000  0.125000  0.250000      1.000000
 -0.000000  0.250000  0.250000      1.000000
  0.125000  0.250000  0.250000      1.000000
  0.250000  0.250000  0.250000      1.000000
  0.375000  0.250000  0.250000      1.000000
  0.500000  0.250000  0.250000      1.000000
 -0.375000  0.250000  0.250000      1.000000
 -0.250000  0.250000  0.250000      1.000000
 -0.125000  0.250000  0.250000      1.000000
 -0.000000  0.375000  0.250000      1.000000
  0.125000  0.375000  0.250000      1.000000
  0.250000  0.375000  0.250000      1.000000
  0.375000  0.375000  0.250000      1.000000
  0.500000  0.375000  0.250000      1.000000
 -0.375000  0.375000  0.250000      1.000000
 -0.250000  0.375000  0.250000      1.000000
 -0.125000  0.375000  0.250000      1.000000
 -0.000000  0.500000  0.250000      1.000000
  0.125000  0.500000  0.250000      1.000000
  0.250000  0.500000  0.250000      1.000000
  0.375000  0.500000  0.250000      1.000000
  0.500000  0.500000  0.250000      1.000000
 -0.375000  0.500000  0.250000      1.000000
 -0.250000  0.500000  0.250000      1.000000
 -0.125000  0.500000  0.250000      1.000000
 -0.000000 -0.375000  0.250000      1.000000
  0.125000 -0.375000  0.250000      1.000000
  0.250000 -0.375000  0.250000      1.000000
  0.375000 -0.375000  0.250000      1.000000
  0.500000 -0.375000  0.250000      1.000000
 -0.375000 -0.375000  0.250000      1.000000
 -0.250000 -0.375000  0.250000      1.000000
 -0.125000 -0.375000  0.250000      1.000000
 -0.000000 -0.250000  0.250000      1.000000
  0.125000 -0.250000  0.250000      1.000000
  0.250000 -0.250000  0.250000      1.000000
  0.375000 -0.250000  0.250000      1.000000
  0.500000 -0.250000  0.250000      1.000000
 -0.375000 -0.250000  0.250000      1.000000
 -0.250000 -0.250000  0.250000      1.000000
 -0.125000 -0.250000  0.250000      1.000000
 -0.000000 -0.125000  0.250000      1.000000
  0.125000 -0.125000  0.250000      1.000000
  0.250000 -0.125000  0.250000      1.000000
  0.375000 -0.125000  0.250000      1.000000
  0.500000 -0.125000  0.250000      1.000000
 -0.375000 -0.125000  0.250000      1.000000
 -0.250000 -0.125000  0.250000      1.000000
 -0.125000 -0.125000  0.250000      1.000000
 -0.000000  0.000000  0.375000      1.000000
  0.125000  0.000000  0.375000      1.000000
  0.250000  0.000000  0.375000      1.000000
  0.375000  0.000000  0.375000      1.000000
  0.500000  0.000000  0.375000      1.000000
 -0.375000  0.000000  0.375000      1.000000
 -0.250000  0.000000  0.375000      1.000000
 -0.125000  0.000000  0.375000      1.000000
 -0.000000  0.125000  0.375000      1.000000
  0.125000  0.125000  0.375000      1.000000
  0.250000  0.125000  0.375000      1.000000
  0.375000  0.125000  0.375000      1.000000
  0.500000  0.125000  0.375000      1.000000
 -0.375000  0.125000  0.375000      1.000000
 -0.250000  0.125000  0.375000      1.000000
 -0.125000  0.125000  0.375000      1.000000
 -0.000000  0.250000  0.375000      1.000000
  0.125000  0.250000  0.375000      1.000000
  0.250000  0.250000  0.375000      1.000000
  0.375000  0.250000  0.375000      1.000000
  0.500000  0.250000  0.375000      1.000000
 -0.375000  0.250000  0.375000      1.000000
 -0.250000  0.250000  0.375000      1.000000
 -0.125000  0.250000  0.375000      1.000000
 -0.000000  0.375000  0.375000      1.000000
  0.125000  0.375000  0.375000      1.000000
  0.250000  0.375000  0.375000      1.000000
  0.375000  0.375000  0.375000      1.000000
  0.500000  0.375000  0.375000      1.000000
 -0.375000  0.375000  0.375000      1.000000
 -0.250000  0.375000  0.375000      1.000000
 -0.125000  0.375000  0.375000      1.000000
 -0.000000  0.500000  0.375000      1.000000
  0.125000  0.500000  0.375000      1.000000
  0.250000  0.500000  0.375000      1.000000
  0.375000  0.500000  0.375000      1.000000
  0.500000  0.500000  0.375000      1.000000
 -0.375000  0.500000  0.375000      1.000000
 -0.250000  0.500000  0.375000      1.000000
 -0.125000  0.500000  0.375000      1.000000
 -0.000000 -0.375000  0.375000      1.000000
  0.125000 -0.375000  0.375000      1.000000
  0.250000 -0.375000  0.375000      1.000000
  0.375000 -0.375000  0.375000      1.000000
  0.500000 -0.375000  0.375000      1.000000
 -0.375000 -0.375000  0.375000      1.000000
 -0.250000 -0.375000  0.375000      1.000000
 -0.125000 -0.375000  0.375000      1.000000
 -0.000000 -0.250000  0.375000      1.000000
  0.125000 -0.250000  0.375000      1.000000
  0.250000 -0.250000  0.375000      1.000000
  0.375000 -0.250000  0.375000      1.000000
  0.500000 -0.250000  0.375000      1.000000
 -0.375000 -0.250000  0.375000      1.000000
 -0.250000 -0.250000  0.375000      1.000000
 -0.125000 -0.250000  0.375000      1.000000
 -0.000000 -0.125000  0.375000      1.000000
  0.125000 -0.125000  0.375000      1.000000
  0.250000 -0.125000  0.375000      1.000000
  0.375000 -0.125000  0.375000      1.000000
  0.500000 -0.125000  0.375000      1.000000
 -0.375000 -0.125000  0.375000      1.000000
 -0.250000 -0.125000  0.375000      1.000000
 -0.125000 -0.125000  0.375000      1.000000
 -0.000000  0.000000  0.500000      1.000000
  0.125000  0.000000  0.500000      1.000000
  0.250000  0.000000  0.500000      1.000000
  0.375000  0.000000  0.500000      1.000000
  0.500000  0.000000  0.500000      1.000000
 -0.375000  0.000000  0.500000      1.000000
 -0.250000  0.000000  0.500000      1.000000
 -0.125000  0.000000  0.500000      1.000000
 -0.000000  0.125000  0.500000      1.000000
  0.125000  0.125000  0.500000      1.000000
  0.250000  0.125000  0.500000      1.000000
  0.375000  0.125000  0.500000      1.000000
  0.500000  0.125000  0.500000      1.000000
 -0.375000  0.125000  0.500000      1.000000
 -0.250000  0.125000  0.500000      1.000000
 -0.125000  0.125000  0.500000      1.000000
 -0.000000  0.250000  0.500000      1.000000
  0.125000  0.250000  0.500000      1.000000
  0.250000  0.250000  0.500000      1.000000
  0.375000  0.250000  0.500000      1.000000
  0.500000  0.250000  0.500000      1.000000
 -0.375000  0.250000  0.500000      1.000000
 -0.250000  0.250000  0.500000      1.000000
 -0.125000  0.250000  0.500000      1.000000
 -0.000000  0.375000  0.500000      1.000000
  0.125000  0.375000  0.500000      1.000000
  0.250000  0.375000  0.500000      1.000000
  0.375000  0.375000  0.500000      1.000000
  0.500000  0.375000  0.500000      1.000000
 -0.375000  0.375000  0.500000      1.000000
 -0.250000  0.375000  0.500000      1.000000
 -0.125000  0.375000  0.500000      1.000000
 -0.000000  0.500000  0.500000      1.000000
  0.125000  0.500000  0.500000      1.000000
  0.250000  0.500000  0.500000      1.000000
  0.375000  0.500000  0.500000      1.000000
  0.500000  0.500000  0.500000      1.000000
 -0.375000  0.500000  0.500000      1.000000
 -0.250000  0.500000  0.500000      1.000000
 -0.125000  0.500000  0.500000      1.000000
 -0.000000 -0.375000  0.500000      1.000000
  0.125000 -0.375000  0.500000      1.000000
  0.250000 -0.375000  0.500000      1.000000
  0.375000 -0.375000  0.500000      1.000000
  0.500000 -0.375000  0.500000      1.000000
 -0.375000 -0.375000  0.500000      1.000000
 -0.250000 -0.375000  0.500000      1.000000
 -0.125000 -0.375000  0.500000      1.000000
 -0.000000 -0.250000  0.500000      1.000000
  0.125000 -0.250000  0.500000      1.000000
  0.250000 -0.250000  0.500000      1.000000
  0.375000 -0.250000  0.500000      1.000000
  0.500000 -0.250000  0.500000      1.000000
 -0.375000 -0.250000  0.500000      1.000000
 -0.250000 -0.250000  0.500000      1.000000
 -0.125000 -0.250000  0.500000      1.000000
 -0.000000 -0.125000  0.500000      1.000000
  0.125000 -0.125000  0.500000      1.000000
  0.250000 -0.125000  0.500000      1.000000
  0.375000 -0.125000  0.500000      1.000000
  0.500000 -0.125000  0.500000      1.000000
 -0.375000 -0.125000  0.500000      1.000000
 -0.250000 -0.125000  0.500000      1.000000
 -0.125000 -0.125000  0.500000      1.000000
  0.000000 -0.000000 -0.375000      1.000000
  0.125000 -0.000000 -0.375000      1.000000
  0.250000 -0.000000 -0.375000      1.000000
  0.375000 -0.000000 -0.375000      1.000000
  0.500000 -0.000000 -0.375000      1.000000
 -0.375000  0.000000 -0.375000      1.000000
 -0.250000 -0.000000 -0.375000      1.000000
 -0.125000 -0.000000 -0.375000      1.000000
  0.000000  0.125000 -0.375000      1.000000
  0.125000  0.125000 -0.375000      1.000000
  0.250000  0.125000 -0.375000      1.000000
  0.375000  0.125000 -0.375000      1.000000
  0.500000  0.125000 -0.375000      1.000000
 -0.375000  0.125000 -0.375000      1.000000
 -0.250000  0.125000 -0.375000      1.000000
 -0.125000  0.125000 -0.375000      1.000000
  0.000000  0.250000 -0.375000      1.000000
  0.125000  0.250000 -0.375000      1.000000
  0.250000  0.250000 -0.375000      1.000000
  0.375000  0.250000 -0.375000      1.000000
  0.500000  0.250000 -0.375000      1.000000
 -0.375000  0.250000 -0.375000      1.000000
 -0.250000  0.250000 -0.375000      1.000000
 -0.125000  0.250000 -0.375000      1.000000
  0.000000  0.375000 -0.375000      1.000000
  0.125000  0.375000 -0.375000      1.000000
  0.250000  0.375000 -0.375000      1.000000
  0.375000  0.375000 -0.375000      1.000000
  0.500000  0.375000 -0.375000      1.000000
 -0.375000  0.375000 -0.375000      1.000000
 -0.250000  0.375000 -0.375000      1.000000
 -0.125000  0.375000 -0.375000      1.000000
  0.000000  0.500000 -0.375000      1.000000
  0.125000  0.500000 -0.375000      1.000000
  0.250000  0.500000 -0.375000      1.000000
  0.375000  0.500000 -0.375000      1.000000
  0.500000  0.500000 -0.375000      1.000000
 -0.375000  0.500000 -0.375000      1.000000
 -0.250000  0.500000 -0.375000      1.000000
 -0.125000  0.500000 -0.375000      1.000000
  0.000000 -0.375000 -0.375000      1.000000
  0.125000 -0.375000 -0.375000      1.000000
  0.250000 -0.375000 -0.375000      1.000000
  0.375000 -0.375000 -0.375000      1.000000
  0.500000 -0.375000 -0.375000      1.000000
 -0.375000 -0.375000 -0.375000      1.000000
 -0.250000 -0.375000 -0.375000      1.000000
 -0.125000 -0.375000 -0.375000      1.000000
  0.000000 -0.250000 -0.375000      1.000000
  0.125000 -0.250000 -0.375000      1.000000
  0.250000 -0.250000 -0.375000      1.000000
  0.375000 -0.250000 -0.375000      1.000000
  0.500000 -0.250000 -0.375000      1.000000
 -0.375000 -0.250000 -0.375000      1.000000
 -0.250000 -0.250000 -0.375000      1.000000
 -0.125000 -0.250000 -0.375000      1.000000
  0.000000 -0.125000 -0.375000      1.000000
  0.125000 -0.125000 -0.375000      1.000000
  0.250000 -0.125000 -0.375000      1.000000
  0.375000 -0.125000 -0.375000      1.000000
  0.500000 -0.125000 -0.375000      1.000000
 -0.375000 -0.125000 -0.375000      1.000000
 -0.250000 -0.125000 -0.375000      1.000000
 -0.125000 -0.125000 -0.375000      1.000000
  0.000000  0.000000 -0.250000      1.000000
  0.125000  0.000000 -0.250000      1.000000
  0.250000 -0.000000 -0.250000      1.000000
  0.375000 -0.000000 -0.250000      1.000000
  0.500000 -0.000000 -0.250000      1.000000
 -0.375000  0.000000 -0.250000      1.000000
 -0.250000  0.000000 -0.250000      1.000000
 -0.125000  0.000000 -0.250000      1.000000
  0.000000  0.125000 -0.250000      1.000000
  0.125000  0.125000 -0.250000      1.000000
  0.250000  0.125000 -0.250000      1.000000
  0.375000  0.125000 -0.250000      1.000000
  0.500000  0.125000 -0.250000      1.000000
 -0.375000  0.125000 -0.250000      1.000000
 -0.250000  0.125000 -0.250000      1.000000
 -0.125000  0.125000 -0.250000      1.000000
  0.000000  0.250000 -0.250000      1.000000
  0.125000  0.250000 -0.250000      1.000000
  0.250000  0.250000 -0.250000      1.000000
  0.375000  0.250000 -0.250000      1.000000
  0.500000  0.250000 -0.250000      1.000000
 -0.375000  0.250000 -0.250000      1.000000
 -0.250000  0.250000 -0.250000      1.000000
 -0.125000  0.250000 -0.250000      1.000000
  0.000000  0.375000 -0.250000      1.000000
  0.125000  0.375000 -0.250000      1.000000
  0.250000  0.375000 -0.250000      1.000000
  0.375000  0.375000 -0.250000      1.000000
  0.500000  0.375000 -0.250000      1.000000
 -0.375000  0.375000 -0.250000      1.000000
 -0.250000  0.375000 -0.250000      1.000000
 -0.125000  0.375000 -0.250000      1.000000
  0.000000  0.500000 -0.250000      1.000000
  0.125000  0.500000 -0.250000      1.000000
  0.250000  0.500000 -0.250000      1.000000
  0.375000  0.500000 -0.250000      1.000000
  0.500000  0.500000 -0.250000      1.000000
 -0.375000  0.500000 -0.250000      1.000000
 -0.250000  0.500000 -0.250000      1.000000
 -0.125000  0.500000 -0.250000      1.000000
  0.000000 -0.375000 -0.250000      1.000000
  0.125000 -0.375000 -0.250000      1.000000
  0.250000 -0.375000 -0.250000      1.000000
  0.375000 -0.375000 -0.250000      1.000000
  0.500000 -0.375000 -0.250000      1.000000
 -0.375000 -0.375000 -0.250000      1.000000
 -0.250000 -0.375000 -0.250000      1.000000
 -0.125000 -0.375000 -0.250000      1.000000
  0.000000 -0.250000 -0.250000      1.000000
  0.125000 -0.250000 -0.250000      1.000000
  0.250000 -0.250000 -0.250000      1.000000
  0.375000 -0.250000 -0.250000      1.000000
  0.500000 -0.250000 -0.250000      1.000000
 -0.375000 -0.250000 -0.250000      1.000000
 -0.250000 -0.250000 -0.250000      1.000000
 -0.125000 -0.250000 -0.250000      1.000000
  0.000000 -0.125000 -0.250000      1.000000
  0.125000 -0.125000 -0.250000      1.000000
  0.250000 -0.125000 -0.250000      1.000000
  0.375000 -0.125000 -0.250000      1.000000
  0.500000 -0.125000 -0.250000      1.000000
 -0.375000 -0.125000 -0.250000      1.000000
 -0.250000 -0.125000 -0.250000      1.000000
 -0.125000 -0.125000 -0.250000      1.000000
  0.000000  0.000000 -0.125000      1.000000
  0.125000 -0.000000 -0.125000      1.000000
  0.250000 -0.000000 -0.125000      1.000000
  0.375000  0.000000 -0.125000      1.000000
  0.500000  0.000000 -0.125000      1.000000
 -0.375000 -0.000000 -0.125000      1.000000
 -0.250000  0.000000 -0.125000      1.000000
 -0.125000  0.000000 -0.125000      1.000000
  0.000000  0.125000 -0.125000      1.000000
  0.125000  0.125000 -0.125000      1.000000
  0.250000  0.125000 -0.125000      1.000000
  0.375000  0.125000 -0.125000      1.000000
  0.500000  0.125000 -0.125000      1.000000
 -0.375000  0.125000 -0.125000      1.000000
 -0.250000  0.125000 -0.125000      1.000000
 -0.125000  0.125000 -0.125000      1.000000
  0.000000  0.250000 -0.125000      1.000000
  0.125000  0.250000 -0.125000      1.000000
  0.250000  0.250000 -0.125000      1.000000
  0.375000  0.250000 -0.125000      1.000000
  0.500000  0.250000 -0.125000      1.000000
 -0.375000  0.250000 -0.125000      1.000000
 -0.250000  0.250000 -0.125000      1.000000
 -0.125000  0.250000 -0.125000      1.000000
  0.000000  0.375000 -0.125000      1.000000
  0.125000  0.375000 -0.125000      1.000000
  0.250000  0.375000 -0.125000      1.000000
  0.375000  0.375000 -0.125000      1.000000
  0.500000  0.375000 -0.125000      1.000000
 -0.375000  0.375000 -0.125000      1.000000
 -0.250000  0.375000 -0.125000      1.000000
 -0.125000  0.375000 -0.125000      1.000000
  0.000000  0.500000 -0.125000      1.000000
  0.125000  0.500000 -0.125000      1.000000
  0.250000  0.500000 -0.125000      1.000000
  0.375000  0.500000 -0.125000      1.000000
  0.500000  0.500000 -0.125000      1.000000
 -0.375000  0.500000 -0.125000      1.000000
 -0.250000  0.500000 -0.125000      1.000000
 -0.125000  0.500000 -0.125000      1.000000
  0.000000 -0.375000 -0.125000      1.000000
  0.125000 -0.375000 -0.125000      1.000000
  0.250000 -0.375000 -0.125000      1.000000
  0.375000 -0.375000 -0.125000      1.000000
  0.500000 -0.375000 -0.125000      1.000000
 -0.375000 -0.375000 -0.125000      1.000000
 -0.250000 -0.375000 -0.125000      1.000000
 -0.125000 -0.375000 -0.125000      1.000000
  0.000000 -0.250000 -0.125000      1.000000
  0.125000 -0.250000 -0.125000      1.000000
  0.250000 -0.250000 -0.125000      1.000000
  0.375000 -0.250000 -0.125000      1.000000
  0.500000 -0.250000 -0.125000      1.000000
 -0.375000 -0.250000 -0.125000      1.000000
 -0.250000 -0.250000 -0.125000      1.000000
 -0.125000 -0.250000 -0.125000      1.000000
  0.000000 -0.125000 -0.125000      1.000000
  0.125000 -0.125000 -0.125000      1.000000
  0.250000 -0.125000 -0.125000      1.000000
  0.375000 -0.125000 -0.125000      1.000000
  0.500000 -0.125000 -0.125000      1.000000
 -0.375000 -0.125000 -0.125000      1.000000
 -0.250000 -0.125000 -0.125000      1.000000
 -0.125000 -0.125000 -0.125000      1.000000
 
 Following cartesian coordinates:
            Coordinates               Weight
  0.000000  0.000000  0.000000      1.000000
  0.036528 -0.012915  0.000000      1.000000
  0.073056 -0.025829  0.000000      1.000000
  0.109585 -0.038744  0.000000      1.000000
  0.146113 -0.051659  0.000000      1.000000
 -0.109585  0.038744  0.000000      1.000000
 -0.073056  0.025829  0.000000      1.000000
 -0.036528  0.012915  0.000000      1.000000
  0.000000  0.038744  0.000000      1.000000
  0.036528  0.025829  0.000000      1.000000
  0.073056  0.012915  0.000000      1.000000
  0.109585  0.000000  0.000000      1.000000
  0.146113 -0.012915  0.000000      1.000000
 -0.109585  0.077488  0.000000      1.000000
 -0.073056  0.064573  0.000000      1.000000
 -0.036528  0.051659  0.000000      1.000000
  0.000000  0.077488  0.000000      1.000000
  0.036528  0.064573  0.000000      1.000000
  0.073056  0.051659  0.000000      1.000000
  0.109585  0.038744  0.000000      1.000000
  0.146113  0.025829  0.000000      1.000000
 -0.109585  0.116232  0.000000      1.000000
 -0.073056  0.103317  0.000000      1.000000
 -0.036528  0.090403  0.000000      1.000000
  0.000000  0.116232  0.000000      1.000000
  0.036528  0.103317  0.000000      1.000000
  0.073056  0.090403  0.000000      1.000000
  0.109585  0.077488  0.000000      1.000000
  0.146113  0.064573  0.000000      1.000000
 -0.109585  0.154976  0.000000      1.000000
 -0.073056  0.142061  0.000000      1.000000
 -0.036528  0.129147  0.000000      1.000000
  0.000000  0.154976  0.000000      1.000000
  0.036528  0.142061  0.000000      1.000000
  0.073056  0.129147  0.000000      1.000000
  0.109585  0.116232  0.000000      1.000000
  0.146113  0.103317  0.000000      1.000000
 -0.109585  0.193720  0.000000      1.000000
 -0.073056  0.180805  0.000000      1.000000
 -0.036528  0.167891  0.000000      1.000000
  0.000000 -0.116232  0.000000      1.000000
  0.036528 -0.129147  0.000000      1.000000
  0.073056 -0.142061  0.000000      1.000000
  0.109585 -0.154976  0.000000      1.000000
  0.146113 -0.167891  0.000000      1.000000
 -0.109585 -0.077488  0.000000      1.000000
 -0.073056 -0.090403  0.000000      1.000000
 -0.036528 -0.103317  0.000000      1.000000
  0.000000 -0.077488  0.000000      1.000000
  0.036528 -0.090403  0.000000      1.000000
  0.073056 -0.103317  0.000000      1.000000
  0.109585 -0.116232  0.000000      1.000000
  0.146113 -0.129147  0.000000      1.000000
 -0.109585 -0.038744  0.000000      1.000000
 -0.073056 -0.051659  0.000000      1.000000
 -0.036528 -0.064573  0.000000      1.000000
  0.000000 -0.038744  0.000000      1.000000
  0.036528 -0.051659  0.000000      1.000000
  0.073056 -0.064573  0.000000      1.000000
  0.109585 -0.077488  0.000000      1.000000
  0.146113 -0.090403  0.000000      1.000000
 -0.109585 -0.000000  0.000000      1.000000
 -0.073056 -0.012915  0.000000      1.000000
 -0.036528 -0.025829  0.000000      1.000000
 -0.018264 -0.012915  0.031634      1.000000
  0.018264 -0.025829  0.031634      1.000000
  0.054792 -0.038744  0.031634      1.000000
  0.091320 -0.051659  0.031634      1.000000
  0.127849 -0.064573  0.031634      1.000000
 -0.127849  0.025829  0.031634      1.000000
 -0.091320  0.012915  0.031634      1.000000
 -0.054792 -0.000000  0.031634      1.000000
 -0.018264  0.025829  0.031634      1.000000
  0.018264  0.012915  0.031634      1.000000
  0.054792  0.000000  0.031634      1.000000
  0.091320 -0.012915  0.031634      1.000000
  0.127849 -0.025829  0.031634      1.000000
 -0.127849  0.064573  0.031634      1.000000
 -0.091320  0.051659  0.031634      1.000000
 -0.054792  0.038744  0.031634      1.000000
 -0.018264  0.064573  0.031634      1.000000
  0.018264  0.051659  0.031634      1.000000
  0.054792  0.038744  0.031634      1.000000
  0.091320  0.025829  0.031634      1.000000
  0.127849  0.012915  0.031634      1.000000
 -0.127849  0.103317  0.031634      1.000000
 -0.091320  0.090403  0.031634      1.000000
 -0.054792  0.077488  0.031634      1.000000
 -0.018264  0.103317  0.031634      1.000000
  0.018264  0.090403  0.031634      1.000000
  0.054792  0.077488  0.031634      1.000000
  0.091320  0.064573  0.031634      1.000000
  0.127849  0.051659  0.031634      1.000000
 -0.127849  0.142061  0.031634      1.000000
 -0.091320  0.129147  0.031634      1.000000
 -0.054792  0.116232  0.031634      1.000000
 -0.018264  0.142061  0.031634      1.000000
  0.018264  0.129147  0.031634      1.000000
  0.054792  0.116232  0.031634      1.000000
  0.091320  0.103317  0.031634      1.000000
  0.127849  0.090403  0.031634      1.000000
 -0.127849  0.180805  0.031634      1.000000
 -0.091320  0.167891  0.031634      1.000000
 -0.054792  0.154976  0.031634      1.000000
 -0.018264 -0.129147  0.031634      1.000000
  0.018264 -0.142061  0.031634      1.000000
  0.054792 -0.154976  0.031634      1.000000
  0.091320 -0.167891  0.031634      1.000000
  0.127849 -0.180805  0.031634      1.000000
 -0.127849 -0.090403  0.031634      1.000000
 -0.091320 -0.103317  0.031634      1.000000
 -0.054792 -0.116232  0.031634      1.000000
 -0.018264 -0.090403  0.031634      1.000000
  0.018264 -0.103317  0.031634      1.000000
  0.054792 -0.116232  0.031634      1.000000
  0.091320 -0.129147  0.031634      1.000000
  0.127849 -0.142061  0.031634      1.000000
 -0.127849 -0.051659  0.031634      1.000000
 -0.091320 -0.064573  0.031634      1.000000
 -0.054792 -0.077488  0.031634      1.000000
 -0.018264 -0.051659  0.031634      1.000000
  0.018264 -0.064573  0.031634      1.000000
  0.054792 -0.077488  0.031634      1.000000
  0.091320 -0.090403  0.031634      1.000000
  0.127849 -0.103317  0.031634      1.000000
 -0.127849 -0.012915  0.031634      1.000000
 -0.091320 -0.025829  0.031634      1.000000
 -0.054792 -0.038744  0.031634      1.000000
 -0.036528 -0.025829  0.063269      1.000000
 -0.000000 -0.038744  0.063269      1.000000
  0.036528 -0.051659  0.063269      1.000000
  0.073056 -0.064573  0.063269      1.000000
  0.109585 -0.077488  0.063269      1.000000
 -0.146113  0.012915  0.063269      1.000000
 -0.109585 -0.000000  0.063269      1.000000
 -0.073056 -0.012915  0.063269      1.000000
 -0.036528  0.012915  0.063269      1.000000
 -0.000000 -0.000000  0.063269      1.000000
  0.036528 -0.012915  0.063269      1.000000
  0.073056 -0.025829  0.063269      1.000000
  0.109585 -0.038744  0.063269      1.000000
 -0.146113  0.051659  0.063269      1.000000
 -0.109585  0.038744  0.063269      1.000000
 -0.073056  0.025829  0.063269      1.000000
 -0.036528  0.051659  0.063269      1.000000
 -0.000000  0.038744  0.063269      1.000000
  0.036528  0.025829  0.063269      1.000000
  0.073056  0.012915  0.063269      1.000000
  0.109585  0.000000  0.063269      1.000000
 -0.146113  0.090403  0.063269      1.000000
 -0.109585  0.077488  0.063269      1.000000
 -0.073056  0.064573  0.063269      1.000000
 -0.036528  0.090403  0.063269      1.000000
 -0.000000  0.077488  0.063269      1.000000
  0.036528  0.064573  0.063269      1.000000
  0.073056  0.051659  0.063269      1.000000
  0.109585  0.038744  0.063269      1.000000
 -0.146113  0.129147  0.063269      1.000000
 -0.109585  0.116232  0.063269      1.000000
 -0.073056  0.103317  0.063269      1.000000
 -0.036528  0.129147  0.063269      1.000000
 -0.000000  0.116232  0.063269      1.000000
  0.036528  0.103317  0.063269      1.000000
  0.073056  0.090403  0.063269      1.000000
  0.109585  0.077488  0.063269      1.000000
 -0.146113  0.167891  0.063269      1.000000
 -0.109585  0.154976  0.063269      1.000000
 -0.073056  0.142061  0.063269      1.000000
 -0.036528 -0.142061  0.063269      1.000000
 -0.000000 -0.154976  0.063269      1.000000
  0.036528 -0.167891  0.063269      1.000000
  0.073056 -0.180805  0.063269      1.000000
  0.109585 -0.193720  0.063269      1.000000
 -0.146113 -0.103317  0.063269      1.000000
 -0.109585 -0.116232  0.063269      1.000000
 -0.073056 -0.129147  0.063269      1.000000
 -0.036528 -0.103317  0.063269      1.000000
 -0.000000 -0.116232  0.063269      1.000000
  0.036528 -0.129147  0.063269      1.000000
  0.073056 -0.142061  0.063269      1.000000
  0.109585 -0.154976  0.063269      1.000000
 -0.146113 -0.064573  0.063269      1.000000
 -0.109585 -0.077488  0.063269      1.000000
 -0.073056 -0.090403  0.063269      1.000000
 -0.036528 -0.064573  0.063269      1.000000
 -0.000000 -0.077488  0.063269      1.000000
  0.036528 -0.090403  0.063269      1.000000
  0.073056 -0.103317  0.063269      1.000000
  0.109585 -0.116232  0.063269      1.000000
 -0.146113 -0.025829  0.063269      1.000000
 -0.109585 -0.038744  0.063269      1.000000
 -0.073056 -0.051659  0.063269      1.000000
 -0.054792 -0.038744  0.094903      1.000000
 -0.018264 -0.051659  0.094903      1.000000
  0.018264 -0.064573  0.094903      1.000000
  0.054792 -0.077488  0.094903      1.000000
  0.091320 -0.090403  0.094903      1.000000
 -0.164377 -0.000000  0.094903      1.000000
 -0.127849 -0.012915  0.094903      1.000000
 -0.091320 -0.025829  0.094903      1.000000
 -0.054792 -0.000000  0.094903      1.000000
 -0.018264 -0.012915  0.094903      1.000000
  0.018264 -0.025829  0.094903      1.000000
  0.054792 -0.038744  0.094903      1.000000
  0.091320 -0.051659  0.094903      1.000000
 -0.164377  0.038744  0.094903      1.000000
 -0.127849  0.025829  0.094903      1.000000
 -0.091320  0.012915  0.094903      1.000000
 -0.054792  0.038744  0.094903      1.000000
 -0.018264  0.025829  0.094903      1.000000
  0.018264  0.012915  0.094903      1.000000
  0.054792 -0.000000  0.094903      1.000000
  0.091320 -0.012915  0.094903      1.000000
 -0.164377  0.077488  0.094903      1.000000
 -0.127849  0.064573  0.094903      1.000000
 -0.091320  0.051659  0.094903      1.000000
 -0.054792  0.077488  0.094903      1.000000
 -0.018264  0.064573  0.094903      1.000000
  0.018264  0.051659  0.094903      1.000000
  0.054792  0.038744  0.094903      1.000000
  0.091320  0.025829  0.094903      1.000000
 -0.164377  0.116232  0.094903      1.000000
 -0.127849  0.103317  0.094903      1.000000
 -0.091320  0.090403  0.094903      1.000000
 -0.054792  0.116232  0.094903      1.000000
 -0.018264  0.103317  0.094903      1.000000
  0.018264  0.090403  0.094903      1.000000
  0.054792  0.077488  0.094903      1.000000
  0.091320  0.064573  0.094903      1.000000
 -0.164377  0.154976  0.094903      1.000000
 -0.127849  0.142061  0.094903      1.000000
 -0.091320  0.129147  0.094903      1.000000
 -0.054792 -0.154976  0.094903      1.000000
 -0.018264 -0.167891  0.094903      1.000000
  0.018264 -0.180805  0.094903      1.000000
  0.054792 -0.193720  0.094903      1.000000
  0.091320 -0.206635  0.094903      1.000000
 -0.164377 -0.116232  0.094903      1.000000
 -0.127849 -0.129147  0.094903      1.000000
 -0.091320 -0.142061  0.094903      1.000000
 -0.054792 -0.116232  0.094903      1.000000
 -0.018264 -0.129147  0.094903      1.000000
  0.018264 -0.142061  0.094903      1.000000
  0.054792 -0.154976  0.094903      1.000000
  0.091320 -0.167891  0.094903      1.000000
 -0.164377 -0.077488  0.094903      1.000000
 -0.127849 -0.090403  0.094903      1.000000
 -0.091320 -0.103317  0.094903      1.000000
 -0.054792 -0.077488  0.094903      1.000000
 -0.018264 -0.090403  0.094903      1.000000
  0.018264 -0.103317  0.094903      1.000000
  0.054792 -0.116232  0.094903      1.000000
  0.091320 -0.129147  0.094903      1.000000
 -0.164377 -0.038744  0.094903      1.000000
 -0.127849 -0.051659  0.094903      1.000000
 -0.091320 -0.064573  0.094903      1.000000
 -0.073056 -0.051659  0.126537      1.000000
 -0.036528 -0.064573  0.126537      1.000000
 -0.000000 -0.077488  0.126537      1.000000
  0.036528 -0.090403  0.126537      1.000000
  0.073056 -0.103317  0.126537      1.000000
 -0.182641 -0.012915  0.126537      1.000000
 -0.146113 -0.025829  0.126537      1.000000
 -0.109585 -0.038744  0.126537      1.000000
 -0.073056 -0.012915  0.126537      1.000000
 -0.036528 -0.025829  0.126537      1.000000
 -0.000000 -0.038744  0.126537      1.000000
  0.036528 -0.051659  0.126537      1.000000
  0.073056 -0.064573  0.126537      1.000000
 -0.182641  0.025829  0.126537      1.000000
 -0.146113  0.012915  0.126537      1.000000
 -0.109585 -0.000000  0.126537      1.000000
 -0.073056  0.025829  0.126537      1.000000
 -0.036528  0.012915  0.126537      1.000000
 -0.000000 -0.000000  0.126537      1.000000
  0.036528 -0.012915  0.126537      1.000000
  0.073056 -0.025829  0.126537      1.000000
 -0.182641  0.064573  0.126537      1.000000
 -0.146113  0.051659  0.126537      1.000000
 -0.109585  0.038744  0.126537      1.000000
 -0.073056  0.064573  0.126537      1.000000
 -0.036528  0.051659  0.126537      1.000000
 -0.000000  0.038744  0.126537      1.000000
  0.036528  0.025829  0.126537      1.000000
  0.073056  0.012915  0.126537      1.000000
 -0.182641  0.103317  0.126537      1.000000
 -0.146113  0.090403  0.126537      1.000000
 -0.109585  0.077488  0.126537      1.000000
 -0.073056  0.103317  0.126537      1.000000
 -0.036528  0.090403  0.126537      1.000000
 -0.000000  0.077488  0.126537      1.000000
  0.036528  0.064573  0.126537      1.000000
  0.073056  0.051659  0.126537      1.000000
 -0.182641  0.142061  0.126537      1.000000
 -0.146113  0.129147  0.126537      1.000000
 -0.109585  0.116232  0.126537      1.000000
 -0.073056 -0.167891  0.126537      1.000000
 -0.036528 -0.180805  0.126537      1.000000
 -0.000000 -0.193720  0.126537      1.000000
  0.036528 -0.206635  0.126537      1.000000
  0.073056 -0.219549  0.126537      1.000000
 -0.182641 -0.129147  0.126537      1.000000
 -0.146113 -0.142061  0.126537      1.000000
 -0.109585 -0.154976  0.126537      1.000000
 -0.073056 -0.129147  0.126537      1.000000
 -0.036528 -0.142061  0.126537      1.000000
 -0.000000 -0.154976  0.126537      1.000000
  0.036528 -0.167891  0.126537      1.000000
  0.073056 -0.180805  0.126537      1.000000
 -0.182641 -0.090403  0.126537      1.000000
 -0.146113 -0.103317  0.126537      1.000000
 -0.109585 -0.116232  0.126537      1.000000
 -0.073056 -0.090403  0.126537      1.000000
 -0.036528 -0.103317  0.126537      1.000000
 -0.000000 -0.116232  0.126537      1.000000
  0.036528 -0.129147  0.126537      1.000000
  0.073056 -0.142061  0.126537      1.000000
 -0.182641 -0.051659  0.126537      1.000000
 -0.146113 -0.064573  0.126537      1.000000
 -0.109585 -0.077488  0.126537      1.000000
  0.054792  0.038744 -0.094903      1.000000
  0.091320  0.025829 -0.094903      1.000000
  0.127849  0.012915 -0.094903      1.000000
  0.164377  0.000000 -0.094903      1.000000
  0.200905 -0.012915 -0.094903      1.000000
 -0.054792  0.077488 -0.094903      1.000000
 -0.018264  0.064573 -0.094903      1.000000
  0.018264  0.051659 -0.094903      1.000000
  0.054792  0.077488 -0.094903      1.000000
  0.091320  0.064573 -0.094903      1.000000
  0.127849  0.051659 -0.094903      1.000000
  0.164377  0.038744 -0.094903      1.000000
  0.200905  0.025829 -0.094903      1.000000
 -0.054792  0.116232 -0.094903      1.000000
 -0.018264  0.103317 -0.094903      1.000000
  0.018264  0.090403 -0.094903      1.000000
  0.054792  0.116232 -0.094903      1.000000
  0.091320  0.103317 -0.094903      1.000000
  0.127849  0.090403 -0.094903      1.000000
  0.164377  0.077488 -0.094903      1.000000
  0.200905  0.064573 -0.094903      1.000000
 -0.054792  0.154976 -0.094903      1.000000
 -0.018264  0.142061 -0.094903      1.000000
  0.018264  0.129147 -0.094903      1.000000
  0.054792  0.154976 -0.094903      1.000000
  0.091320  0.142061 -0.094903      1.000000
  0.127849  0.129147 -0.094903      1.000000
  0.164377  0.116232 -0.094903      1.000000
  0.200905  0.103317 -0.094903      1.000000
 -0.054792  0.193720 -0.094903      1.000000
 -0.018264  0.180805 -0.094903      1.000000
  0.018264  0.167891 -0.094903      1.000000
  0.054792  0.193720 -0.094903      1.000000
  0.091320  0.180805 -0.094903      1.000000
  0.127849  0.167891 -0.094903      1.000000
  0.164377  0.154976 -0.094903      1.000000
  0.200905  0.142061 -0.094903      1.000000
 -0.054792  0.232464 -0.094903      1.000000
 -0.018264  0.219549 -0.094903      1.000000
  0.018264  0.206635 -0.094903      1.000000
  0.054792 -0.077488 -0.094903      1.000000
  0.091320 -0.090403 -0.094903      1.000000
  0.127849 -0.103317 -0.094903      1.000000
  0.164377 -0.116232 -0.094903      1.000000
  0.200905 -0.129147 -0.094903      1.000000
 -0.054792 -0.038744 -0.094903      1.000000
 -0.018264 -0.051659 -0.094903      1.000000
  0.018264 -0.064573 -0.094903      1.000000
  0.054792 -0.038744 -0.094903      1.000000
  0.091320 -0.051659 -0.094903      1.000000
  0.127849 -0.064573 -0.094903      1.000000
  0.164377 -0.077488 -0.094903      1.000000
  0.200905 -0.090403 -0.094903      1.000000
 -0.054792  0.000000 -0.094903      1.000000
 -0.018264 -0.012915 -0.094903      1.000000
  0.018264 -0.025829 -0.094903      1.000000
  0.054792  0.000000 -0.094903      1.000000
  0.091320 -0.012915 -0.094903      1.000000
  0.127849 -0.025829 -0.094903      1.000000
  0.164377 -0.038744 -0.094903      1.000000
  0.200905 -0.051659 -0.094903      1.000000
 -0.054792  0.038744 -0.094903      1.000000
 -0.018264  0.025829 -0.094903      1.000000
  0.018264  0.012915 -0.094903      1.000000
  0.036528  0.025829 -0.063269      1.000000
  0.073056  0.012915 -0.063269      1.000000
  0.109585  0.000000 -0.063269      1.000000
  0.146113 -0.012915 -0.063269      1.000000
  0.182641 -0.025829 -0.063269      1.000000
 -0.073056  0.064573 -0.063269      1.000000
 -0.036528  0.051659 -0.063269      1.000000
  0.000000  0.038744 -0.063269      1.000000
  0.036528  0.064573 -0.063269      1.000000
  0.073056  0.051659 -0.063269      1.000000
  0.109585  0.038744 -0.063269      1.000000
  0.146113  0.025829 -0.063269      1.000000
  0.182641  0.012915 -0.063269      1.000000
 -0.073056  0.103317 -0.063269      1.000000
 -0.036528  0.090403 -0.063269      1.000000
  0.000000  0.077488 -0.063269      1.000000
  0.036528  0.103317 -0.063269      1.000000
  0.073056  0.090403 -0.063269      1.000000
  0.109585  0.077488 -0.063269      1.000000
  0.146113  0.064573 -0.063269      1.000000
  0.182641  0.051659 -0.063269      1.000000
 -0.073056  0.142061 -0.063269      1.000000
 -0.036528  0.129147 -0.063269      1.000000
  0.000000  0.116232 -0.063269      1.000000
  0.036528  0.142061 -0.063269      1.000000
  0.073056  0.129147 -0.063269      1.000000
  0.109585  0.116232 -0.063269      1.000000
  0.146113  0.103317 -0.063269      1.000000
  0.182641  0.090403 -0.063269      1.000000
 -0.073056  0.180805 -0.063269      1.000000
 -0.036528  0.167891 -0.063269      1.000000
  0.000000  0.154976 -0.063269      1.000000
  0.036528  0.180805 -0.063269      1.000000
  0.073056  0.167891 -0.063269      1.000000
  0.109585  0.154976 -0.063269      1.000000
  0.146113  0.142061 -0.063269      1.000000
  0.182641  0.129147 -0.063269      1.000000
 -0.073056  0.219549 -0.063269      1.000000
 -0.036528  0.206635 -0.063269      1.000000
  0.000000  0.193720 -0.063269      1.000000
  0.036528 -0.090403 -0.063269      1.000000
  0.073056 -0.103317 -0.063269      1.000000
  0.109585 -0.116232 -0.063269      1.000000
  0.146113 -0.129147 -0.063269      1.000000
  0.182641 -0.142061 -0.063269      1.000000
 -0.073056 -0.051659 -0.063269      1.000000
 -0.036528 -0.064573 -0.063269      1.000000
  0.000000 -0.077488 -0.063269      1.000000
  0.036528 -0.051659 -0.063269      1.000000
  0.073056 -0.064573 -0.063269      1.000000
  0.109585 -0.077488 -0.063269      1.000000
  0.146113 -0.090403 -0.063269      1.000000
  0.182641 -0.103317 -0.063269      1.000000
 -0.073056 -0.012915 -0.063269      1.000000
 -0.036528 -0.025829 -0.063269      1.000000
  0.000000 -0.038744 -0.063269      1.000000
  0.036528 -0.012915 -0.063269      1.000000
  0.073056 -0.025829 -0.063269      1.000000
  0.109585 -0.038744 -0.063269      1.000000
  0.146113 -0.051659 -0.063269      1.000000
  0.182641 -0.064573 -0.063269      1.000000
 -0.073056  0.025829 -0.063269      1.000000
 -0.036528  0.012915 -0.063269      1.000000
  0.000000  0.000000 -0.063269      1.000000
  0.018264  0.012915 -0.031634      1.000000
  0.054792  0.000000 -0.031634      1.000000
  0.091320 -0.012915 -0.031634      1.000000
  0.127849 -0.025829 -0.031634      1.000000
  0.164377 -0.038744 -0.031634      1.000000
 -0.091320  0.051659 -0.031634      1.000000
 -0.054792  0.038744 -0.031634      1.000000
 -0.018264  0.025829 -0.031634      1.000000
  0.018264  0.051659 -0.031634      1.000000
  0.054792  0.038744 -0.031634      1.000000
  0.091320  0.025829 -0.031634      1.000000
  0.127849  0.012915 -0.031634      1.000000
  0.164377  0.000000 -0.031634      1.000000
 -0.091320  0.090403 -0.031634      1.000000
 -0.054792  0.077488 -0.031634      1.000000
 -0.018264  0.064573 -0.031634      1.000000
  0.018264  0.090403 -0.031634      1.000000
  0.054792  0.077488 -0.031634      1.000000
  0.091320  0.064573 -0.031634      1.000000
  0.127849  0.051659 -0.031634      1.000000
  0.164377  0.038744 -0.031634      1.000000
 -0.091320  0.129147 -0.031634      1.000000
 -0.054792  0.116232 -0.031634      1.000000
 -0.018264  0.103317 -0.031634      1.000000
  0.018264  0.129147 -0.031634      1.000000
  0.054792  0.116232 -0.031634      1.000000
  0.091320  0.103317 -0.031634      1.000000
  0.127849  0.090403 -0.031634      1.000000
  0.164377  0.077488 -0.031634      1.000000
 -0.091320  0.167891 -0.031634      1.000000
 -0.054792  0.154976 -0.031634      1.000000
 -0.018264  0.142061 -0.031634      1.000000
  0.018264  0.167891 -0.031634      1.000000
  0.054792  0.154976 -0.031634      1.000000
  0.091320  0.142061 -0.031634      1.000000
  0.127849  0.129147 -0.031634      1.000000
  0.164377  0.116232 -0.031634      1.000000
 -0.091320  0.206635 -0.031634      1.000000
 -0.054792  0.193720 -0.031634      1.000000
 -0.018264  0.180805 -0.031634      1.000000
  0.018264 -0.103317 -0.031634      1.000000
  0.054792 -0.116232 -0.031634      1.000000
  0.091320 -0.129147 -0.031634      1.000000
  0.127849 -0.142061 -0.031634      1.000000
  0.164377 -0.154976 -0.031634      1.000000
 -0.091320 -0.064573 -0.031634      1.000000
 -0.054792 -0.077488 -0.031634      1.000000
 -0.018264 -0.090403 -0.031634      1.000000
  0.018264 -0.064573 -0.031634      1.000000
  0.054792 -0.077488 -0.031634      1.000000
  0.091320 -0.090403 -0.031634      1.000000
  0.127849 -0.103317 -0.031634      1.000000
  0.164377 -0.116232 -0.031634      1.000000
 -0.091320 -0.025829 -0.031634      1.000000
 -0.054792 -0.038744 -0.031634      1.000000
 -0.018264 -0.051659 -0.031634      1.000000
  0.018264 -0.025829 -0.031634      1.000000
  0.054792 -0.038744 -0.031634      1.000000
  0.091320 -0.051659 -0.031634      1.000000
  0.127849 -0.064573 -0.031634      1.000000
  0.164377 -0.077488 -0.031634      1.000000
 -0.091320  0.012915 -0.031634      1.000000
 -0.054792 -0.000000 -0.031634      1.000000
 -0.018264 -0.012915 -0.031634      1.000000
 


--------------------------------------------------------------------------------------------------------




 Dimension of arrays:
   k-points           NKPTS =    512   k-points in BZ     NKDIM =    512   number of bands    NBANDS=    100
   number of dos      NEDOS =    301   number of ions     NIONS =      2
   non local maximal  LDIM  =      4   non local SUM 2l+1 LMDIM =      8
   total plane-waves  NPLWV =  32768
   max r-space proj   IRMAX =      1   max aug-charges    IRDMAX=  21790
   dimension x,y,z NGX =    32 NGY =   32 NGZ =   32
   dimension x,y,z NGXF=    64 NGYF=   64 NGZF=   64
   support grid    NGXF=    64 NGYF=   64 NGZF=   64
   ions per type =               1   1
   NGX,Y,Z   is equivalent  to a cutoff of  13.46, 13.46, 13.46 a.u.
   NGXF,Y,Z  is equivalent  to a cutoff of  26.93, 26.93, 26.93 a.u.

 SYSTEM =  unknown system                          
 POSCAR =  Na1 Cl1                                 

 Startparameter for this run:
   NWRITE =      2    write-flag & timer
   PREC   = accura    normal or accurate (medium, high low for compatibility)
   ISTART =      0    job   : 0-new  1-cont  2-samecut
   ICHARG =      2    charge: 1-file 2-atom 10-const
   ISPIN  =      1    spin polarized calculation?
   LNONCOLLINEAR =      F non collinear calculations
   LSORBIT =      F    spin-orbit coupling
   INIWAV =      1    electr: 0-lowe 1-rand  2-diag
   LASPH  =      T    aspherical Exc in radial PAW
 Electronic Relaxation 1
   ENCUT  =  600.0 eV  44.10 Ry    6.64 a.u.   7.89  7.89  7.89*2*pi/ulx,y,z
   ENINI  =  600.0     initial cutoff
   ENAUG  =  368.1 eV  augmentation charge cutoff
   NELM   =     60;   NELMIN=  2; NELMDL= -5     # of ELM steps 
   EDIFF  = 0.1E-05   stopping-criterion for ELM
   LREAL  =      F    real-space projection
   NLSPLINE    = F    spline interpolate recip. space projectors
   LCOMPAT=      F    compatible to vasp.4.4
   GGA_COMPAT  = T    GGA compatible to vasp.4.4-vasp.4.6
   LMAXPAW     = -100 max onsite density
   LMAXMIX     =    2 max onsite mixed and CHGCAR
   VOSKOWN=      0    Vosko Wilk Nusair interpolation
   ROPT   =    0.00000   0.00000
 Ionic relaxation
   EDIFFG = 0.1E-04   stopping-criterion for IOM
   NSW    =      0    number of steps for IOM
   NBLOCK =      1;   KBLOCK =      1    inner block; outer block 
   IBRION =     -1    ionic relax: 0-MD 1-quasi-New 2-CG
   NFREE  =      0    steps in history (QN), initial steepest desc. (CG)
   ISIF   =      2    stress and relaxation
   IWAVPR =     10    prediction:  0-non 1-charg 2-wave 3-comb
   ISYM   =     -1    0-nonsym 1-usesym 2-fastsym
   LCORR  =      T    Harris-Foulkes like correction to forces

   POTIM  = 0.5000    time-step for ionic-motion
   TEIN   =    0.0    initial temperature
   TEBEG  =    0.0;   TEEND  =   0.0 temperature during run
   SMASS  =  -3.00    Nose mass-parameter (am)
   estimated Nose-frequenzy (Omega)   =  0.10E-29 period in steps = 0.13E+47 mass=  -0.357E-27a.u.
   SCALEE = 1.0000    scale energy and forces
   NPACO  =    256;   APACO  = 10.0  distance and # of slots for P.C.
   PSTRESS=    0.0 pullay stress

  Mass of Ions in am
   POMASS =  22.99 35.45
  Ionic Valenz
   ZVAL   =   7.00  7.00
  Atomic Wigner-Seitz radii
   RWIGS  =  -1.00 -1.00
  virtual crystal weights 
   VCA    =   1.00  1.00
   NELECT =      14.0000    total number of electrons
   NUPDOWN=      -1.0000    fix difference up-down

 DOS related values:
   EMIN   =  10.00;   EMAX   =-10.00  energy-range for DOS
   EFERMI =   0.00;   METHOD = LEGACY      
   ISMEAR =     0;   SIGMA  =   0.05  broadening in eV -4-tet -1-fermi 0-gaus
   EFERMI_NEDOS =   21; number of points for ismear=-14 and -15

 Electronic relaxation 2 (details)
   IALGO  =     38    algorithm
   LDIAG  =      T    sub-space diagonalisation (order eigenvalues)
   LSUBROT=      F    optimize rotation matrix (better conditioning)
   TURBO    =      0    0=normal 1=particle mesh
   IRESTART =      0    0=no restart 2=restart with 2 vectors
   NREBOOT  =      0    no. of reboots
   NMIN     =      0    reboot dimension
   EREF     =   0.00    reference energy to select bands
   IMIX   =      4    mixing-type and parameters
     AMIX     =   0.40;   BMIX     =  1.00
     AMIX_MAG =   1.60;   BMIX_MAG =  1.00
     AMIN     =   0.10
     WC   =   100.;   INIMIX=   1;  MIXPRE=   1;  MAXMIX= -45

 Intra band minimization:
   WEIMIN = 0.0000     energy-eigenvalue tresh-hold
   EBREAK =  0.25E-08  absolut break condition
   DEPER  =   0.30     relativ break condition  

   TIME   =   0.40     timestep for ELM

  volume/ion in A,a.u.               =      21.81       147.20
  Fermi-wavevector in a.u.,A,eV,Ry     =   1.120825  2.118053 17.092312  1.256249
  Thomas-Fermi vector in A             =   2.257475
 
 Write flags
   LWAVE        =      T    write WAVECAR
   LDOWNSAMPLE  =      F    k-point downsampling of WAVECAR
   LCHARG       =      T    write CHGCAR
   LVTOT        =      F    write LOCPOT, total local potential
   LVHAR        =      F    write LOCPOT, Hartree potential only
   WRT_POTENTIAL= false  ! write potential to hdf5 file
   LELF         =      F    write electronic localiz. function (ELF)
   LORBIT       =      0    0 simple, 1 ext, 2 COOP (PROOUT), +10 PAW based schemes


 Python interface
   PLUGINS active      =      F    recompile with -DPLUGINS to activate
 
 Dipole corrections
   LMONO      =      F    monopole corrections only (constant potential shift)
   LDIPOL     =      F    correct potential (dipole corrections)
   IDIPOL     =      0    1-x, 2-y, 3-z, 4-all directions 
   EPSILON    =  1.0000000 bulk dielectric constant
   LVACPOTAV  =      F  vacuum potentials using an averaging scheme for the charge density
   VACPOTFLAT =  0.1000000 required flatness to determine vacuum potential
 
Coulomb truncation method
  LTRUNCATE          =      F  Coulomb kernel truncation to be used
  IDIMENSIONALITY    =      3  Dimensionality of cutoff (0 molecules / 2 surfaces)
  ISURFACE           =     -1  Direction of surface normal
  LCOARSEN           =      F  Coarsen the charge grid before padding, preferred

 
 Exchange correlation treatment:
   GGA     = PE    functional components
   XC_C    = 1    coefficients multiplying the functional components
   LIBXC   =     F    Libxc                    
   VOSKOWN =     0    Vosko Wilk Nusair interpolation
   LHFCALC =     F    Hartree Fock is set to
   LHFONE  =     F    Hartree Fock one center treatment
   AEXX    =    0.0000 exact exchange contribution

 Parameters of functionals:
   PE:
     No parameter
 
 Van der Waals corrections
   IVDW    =     0    specifies the selected vdW correction

 Linear response parameters
   LEPSILON=     F    determine dielectric tensor
   LRPA    =     F    only Hartree local field effects (RPA)
   LNABLA  =     F    use nabla operator in PAW spheres
   LVEL    =     F    velocity operator in full k-point grid
   CSHIFT  =0.1000    complex shift for real part using Kramers Kronig
   OMEGAMAX=  -1.0    maximum frequency
   DEG_THRESHOLD= 0.2000000E-02 threshold for treating states as degnerate
   RTIME   =   -0.100 relaxation time in fs
  (WPLASMAI=    0.000 imaginary part of plasma frequency in eV, 0.658/RTIME)
   DFIELD  = 0.0000000 0.0000000 0.0000000 field for delta impulse in time
 
  Optional k-point grid parameters
   LKPOINTS_OPT  =     F    use optional k-point grid
   KPOINTS_OPT_MODE=     1    mode for optional k-point grid
 
 Orbital magnetization related:
   ORBITALMAG=     F  switch on orbital magnetization
   LCHIMAG   =     F  perturbation theory with respect to B field
   DQ        =  0.001000  dq finite difference perturbation B field
   LLRAUG    =     F  two centre corrections for induced B field
   LBONE     =     F  B-component reconstruction in AE one-centre
   LVGVCALC  =     T  calculate vGv susceptibility
   LVGVAPPL  =     F  apply vGv susceptibility instead of pGv for G=0

 Random number generation:
   RANDOM_GENERATOR = DEFAULT
   PCG_SEED         = not used


--------------------------------------------------------------------------------------------------------


 Static calculation
 charge density and potential will be updated during run
 non-spin polarized calculation
 Variant of blocked Davidson
 Davidson routine will perform the subspace rotation
 perform sub-space diagonalisation
    after iterative eigenvector-optimisation
 modified Broyden-mixing scheme, WC =      100.0
 initial mixing is a Kerker type mixing with AMIX =  0.4000 and BMIX =      1.0000
 Hartree-type preconditioning will be used
 using additional bands           93
 reciprocal scheme for non local part
 use partial core corrections
 calculate Harris-corrections to forces 
   (improved forces if not selfconsistent)
 use gradient corrections 
 use of overlap-Matrix (Vanderbilt PP)
 Gauss-broadening in eV      SIGMA  =   0.05


--------------------------------------------------------------------------------------------------------


  energy-cutoff  :      600.00
  volume of cell :       43.63
      direct lattice vectors                 reciprocal lattice vectors
     3.422015000  0.000000000  1.975702000     0.292225487 -0.103317273  0.000000000
     1.140671000  3.226306000  1.975702000     0.000000000  0.309952001  0.000000000
     0.000000000  0.000000000  3.951402000    -0.146112817 -0.103317416  0.253074731

  length of vectors
     3.951402922  3.951402172  3.951402000     0.309951922  0.309952001  0.309952034


 
 k-points in units of 2pi/SCALE and weight: pymatgen with grid density = 1137 / numb
   0.00000000  0.00000000  0.00000000       0.002
   0.03652819 -0.01291466  0.00000000       0.002
   0.07305637 -0.02582932  0.00000000       0.002
   0.10958456 -0.03874398  0.00000000       0.002
   0.14611274 -0.05165864  0.00000000       0.002
  -0.10958456  0.03874398  0.00000000       0.002
  -0.07305637  0.02582932  0.00000000       0.002
  -0.03652819  0.01291466  0.00000000       0.002
   0.00000000  0.03874400  0.00000000       0.002
   0.03652819  0.02582934  0.00000000       0.002
   0.07305637  0.01291468  0.00000000       0.002
   0.10958456  0.00000002  0.00000000       0.002
   0.14611274 -0.01291464  0.00000000       0.002
  -0.10958456  0.07748798  0.00000000       0.002
  -0.07305637  0.06457332  0.00000000       0.002
  -0.03652819  0.05165866  0.00000000       0.002
   0.00000000  0.07748800  0.00000000       0.002
   0.03652819  0.06457334  0.00000000       0.002
   0.07305637  0.05165868  0.00000000       0.002
   0.10958456  0.03874402  0.00000000       0.002
   0.14611274  0.02582936  0.00000000       0.002
  -0.10958456  0.11623198  0.00000000       0.002
  -0.07305637  0.10331732  0.00000000       0.002
  -0.03652819  0.09040266  0.00000000       0.002
   0.00000000  0.11623200  0.00000000       0.002
   0.03652819  0.10331734  0.00000000       0.002
   0.07305637  0.09040268  0.00000000       0.002
   0.10958456  0.07748802  0.00000000       0.002
   0.14611274  0.06457336  0.00000000       0.002
  -0.10958456  0.15497598  0.00000000       0.002
  -0.07305637  0.14206132  0.00000000       0.002
  -0.03652819  0.12914666  0.00000000       0.002
   0.00000000  0.15497600  0.00000000       0.002
   0.03652819  0.14206134  0.00000000       0.002
   0.07305637  0.12914668  0.00000000       0.002
   0.10958456  0.11623202  0.00000000       0.002
   0.14611274  0.10331736  0.00000000       0.002
  -0.10958456  0.19371998  0.00000000       0.002
  -0.07305637  0.18080532  0.00000000       0.002
  -0.03652819  0.16789066  0.00000000       0.002
   0.00000000 -0.11623200  0.00000000       0.002
   0.03652819 -0.12914666  0.00000000       0.002
   0.07305637 -0.14206132  0.00000000       0.002
   0.10958456 -0.15497598  0.00000000       0.002
   0.14611274 -0.16789064  0.00000000       0.002
  -0.10958456 -0.07748802  0.00000000       0.002
  -0.07305637 -0.09040268  0.00000000       0.002
  -0.03652819 -0.10331734  0.00000000       0.002
   0.00000000 -0.07748800  0.00000000       0.002
   0.03652819 -0.09040266  0.00000000       0.002
   0.07305637 -0.10331732  0.00000000       0.002
   0.10958456 -0.11623198  0.00000000       0.002
   0.14611274 -0.12914664  0.00000000       0.002
  -0.10958456 -0.03874402  0.00000000       0.002
  -0.07305637 -0.05165868  0.00000000       0.002
  -0.03652819 -0.06457334  0.00000000       0.002
   0.00000000 -0.03874400  0.00000000       0.002
   0.03652819 -0.05165866  0.00000000       0.002
   0.07305637 -0.06457332  0.00000000       0.002
   0.10958456 -0.07748798  0.00000000       0.002
   0.14611274 -0.09040264  0.00000000       0.002
  -0.10958456 -0.00000002  0.00000000       0.002
  -0.07305637 -0.01291468  0.00000000       0.002
  -0.03652819 -0.02582934  0.00000000       0.002
  -0.01826410 -0.01291468  0.03163434       0.002
   0.01826408 -0.02582934  0.03163434       0.002
   0.05479227 -0.03874400  0.03163434       0.002
   0.09132046 -0.05165865  0.03163434       0.002
   0.12784864 -0.06457331  0.03163434       0.002
  -0.12784866  0.02582930  0.03163434       0.002
  -0.09132047  0.01291464  0.03163434       0.002
  -0.05479229 -0.00000002  0.03163434       0.002
  -0.01826410  0.02582932  0.03163434       0.002
   0.01826408  0.01291466  0.03163434       0.002
   0.05479227  0.00000000  0.03163434       0.002
   0.09132046 -0.01291465  0.03163434       0.002
   0.12784864 -0.02582931  0.03163434       0.002
  -0.12784866  0.06457330  0.03163434       0.002
  -0.09132047  0.05165864  0.03163434       0.002
  -0.05479229  0.03874398  0.03163434       0.002
  -0.01826410  0.06457332  0.03163434       0.002
   0.01826408  0.05165866  0.03163434       0.002
   0.05479227  0.03874400  0.03163434       0.002
   0.09132046  0.02582935  0.03163434       0.002
   0.12784864  0.01291469  0.03163434       0.002
  -0.12784866  0.10331730  0.03163434       0.002
  -0.09132047  0.09040264  0.03163434       0.002
  -0.05479229  0.07748798  0.03163434       0.002
  -0.01826410  0.10331732  0.03163434       0.002
   0.01826408  0.09040266  0.03163434       0.002
   0.05479227  0.07748800  0.03163434       0.002
   0.09132046  0.06457335  0.03163434       0.002
   0.12784864  0.05165869  0.03163434       0.002
  -0.12784866  0.14206130  0.03163434       0.002
  -0.09132047  0.12914664  0.03163434       0.002
  -0.05479229  0.11623198  0.03163434       0.002
  -0.01826410  0.14206132  0.03163434       0.002
   0.01826408  0.12914666  0.03163434       0.002
   0.05479227  0.11623201  0.03163434       0.002
   0.09132046  0.10331735  0.03163434       0.002
   0.12784864  0.09040269  0.03163434       0.002
  -0.12784866  0.18080530  0.03163434       0.002
  -0.09132047  0.16789064  0.03163434       0.002
  -0.05479229  0.15497598  0.03163434       0.002
  -0.01826410 -0.12914668  0.03163434       0.002
   0.01826408 -0.14206134  0.03163434       0.002
   0.05479227 -0.15497600  0.03163434       0.002
   0.09132046 -0.16789065  0.03163434       0.002
   0.12784864 -0.18080531  0.03163434       0.002
  -0.12784866 -0.09040270  0.03163434       0.002
  -0.09132047 -0.10331736  0.03163434       0.002
  -0.05479229 -0.11623202  0.03163434       0.002
  -0.01826410 -0.09040268  0.03163434       0.002
   0.01826408 -0.10331734  0.03163434       0.002
   0.05479227 -0.11623200  0.03163434       0.002
   0.09132046 -0.12914665  0.03163434       0.002
   0.12784864 -0.14206131  0.03163434       0.002
  -0.12784866 -0.05165870  0.03163434       0.002
  -0.09132047 -0.06457336  0.03163434       0.002
  -0.05479229 -0.07748802  0.03163434       0.002
  -0.01826410 -0.05165868  0.03163434       0.002
   0.01826408 -0.06457334  0.03163434       0.002
   0.05479227 -0.07748800  0.03163434       0.002
   0.09132046 -0.09040265  0.03163434       0.002
   0.12784864 -0.10331731  0.03163434       0.002
  -0.12784866 -0.01291470  0.03163434       0.002
  -0.09132047 -0.02582936  0.03163434       0.002
  -0.05479229 -0.03874402  0.03163434       0.002
  -0.03652820 -0.02582935  0.06326868       0.002
  -0.00000002 -0.03874401  0.06326868       0.002
   0.03652817 -0.05165867  0.06326868       0.002
   0.07305635 -0.06457333  0.06326868       0.002
   0.10958454 -0.07748799  0.06326868       0.002
  -0.14611276  0.01291462  0.06326868       0.002
  -0.10958458 -0.00000004  0.06326868       0.002
  -0.07305639 -0.01291469  0.06326868       0.002
  -0.03652820  0.01291465  0.06326868       0.002
  -0.00000002 -0.00000001  0.06326868       0.002
   0.03652817 -0.01291467  0.06326868       0.002
   0.07305635 -0.02582933  0.06326868       0.002
   0.10958454 -0.03874399  0.06326868       0.002
  -0.14611276  0.05165862  0.06326868       0.002
  -0.10958458  0.03874396  0.06326868       0.002
  -0.07305639  0.02582931  0.06326868       0.002
  -0.03652820  0.05165865  0.06326868       0.002
  -0.00000002  0.03874399  0.06326868       0.002
   0.03652817  0.02582933  0.06326868       0.002
   0.07305635  0.01291467  0.06326868       0.002
   0.10958454  0.00000001  0.06326868       0.002
  -0.14611276  0.09040262  0.06326868       0.002
  -0.10958458  0.07748796  0.06326868       0.002
  -0.07305639  0.06457331  0.06326868       0.002
  -0.03652820  0.09040265  0.06326868       0.002
  -0.00000002  0.07748799  0.06326868       0.002
   0.03652817  0.06457333  0.06326868       0.002
   0.07305635  0.05165867  0.06326868       0.002
   0.10958454  0.03874401  0.06326868       0.002
  -0.14611276  0.12914662  0.06326868       0.002
  -0.10958458  0.11623196  0.06326868       0.002
  -0.07305639  0.10331731  0.06326868       0.002
  -0.03652820  0.12914665  0.06326868       0.002
  -0.00000002  0.11623199  0.06326868       0.002
   0.03652817  0.10331733  0.06326868       0.002
   0.07305635  0.09040267  0.06326868       0.002
   0.10958454  0.07748801  0.06326868       0.002
  -0.14611276  0.16789062  0.06326868       0.002
  -0.10958458  0.15497596  0.06326868       0.002
  -0.07305639  0.14206131  0.06326868       0.002
  -0.03652820 -0.14206135  0.06326868       0.002
  -0.00000002 -0.15497601  0.06326868       0.002
   0.03652817 -0.16789067  0.06326868       0.002
   0.07305635 -0.18080533  0.06326868       0.002
   0.10958454 -0.19371999  0.06326868       0.002
  -0.14611276 -0.10331738  0.06326868       0.002
  -0.10958458 -0.11623204  0.06326868       0.002
  -0.07305639 -0.12914670  0.06326868       0.002
  -0.03652820 -0.10331735  0.06326868       0.002
  -0.00000002 -0.11623201  0.06326868       0.002
   0.03652817 -0.12914667  0.06326868       0.002
   0.07305635 -0.14206133  0.06326868       0.002
   0.10958454 -0.15497599  0.06326868       0.002
  -0.14611276 -0.06457338  0.06326868       0.002
  -0.10958458 -0.07748804  0.06326868       0.002
  -0.07305639 -0.09040270  0.06326868       0.002
  -0.03652820 -0.06457335  0.06326868       0.002
  -0.00000002 -0.07748801  0.06326868       0.002
   0.03652817 -0.09040267  0.06326868       0.002
   0.07305635 -0.10331733  0.06326868       0.002
   0.10958454 -0.11623199  0.06326868       0.002
  -0.14611276 -0.02582938  0.06326868       0.002
  -0.10958458 -0.03874404  0.06326868       0.002
  -0.07305639 -0.05165869  0.06326868       0.002
  -0.05479231 -0.03874403  0.09490302       0.002
  -0.01826412 -0.05165869  0.09490302       0.002
   0.01826407 -0.06457335  0.09490302       0.002
   0.05479225 -0.07748801  0.09490302       0.002
   0.09132044 -0.09040267  0.09490302       0.002
  -0.16437686 -0.00000005  0.09490302       0.002
  -0.12784868 -0.01291471  0.09490302       0.002
  -0.09132049 -0.02582937  0.09490302       0.002
  -0.05479231 -0.00000003  0.09490302       0.002
  -0.01826412 -0.01291469  0.09490302       0.002
   0.01826407 -0.02582935  0.09490302       0.002
   0.05479225 -0.03874401  0.09490302       0.002
   0.09132044 -0.05165867  0.09490302       0.002
  -0.16437686  0.03874395  0.09490302       0.002
  -0.12784868  0.02582929  0.09490302       0.002
  -0.09132049  0.01291463  0.09490302       0.002
  -0.05479231  0.03874397  0.09490302       0.002
  -0.01826412  0.02582931  0.09490302       0.002
   0.01826407  0.01291465  0.09490302       0.002
   0.05479225 -0.00000001  0.09490302       0.002
   0.09132044 -0.01291467  0.09490302       0.002
  -0.16437686  0.07748795  0.09490302       0.002
  -0.12784868  0.06457329  0.09490302       0.002
  -0.09132049  0.05165863  0.09490302       0.002
  -0.05479231  0.07748797  0.09490302       0.002
  -0.01826412  0.06457331  0.09490302       0.002
   0.01826407  0.05165865  0.09490302       0.002
   0.05479225  0.03874399  0.09490302       0.002
   0.09132044  0.02582933  0.09490302       0.002
  -0.16437686  0.11623195  0.09490302       0.002
  -0.12784868  0.10331729  0.09490302       0.002
  -0.09132049  0.09040263  0.09490302       0.002
  -0.05479231  0.11623197  0.09490302       0.002
  -0.01826412  0.10331731  0.09490302       0.002
   0.01826407  0.09040265  0.09490302       0.002
   0.05479225  0.07748799  0.09490302       0.002
   0.09132044  0.06457333  0.09490302       0.002
  -0.16437686  0.15497595  0.09490302       0.002
  -0.12784868  0.14206129  0.09490302       0.002
  -0.09132049  0.12914663  0.09490302       0.002
  -0.05479231 -0.15497603  0.09490302       0.002
  -0.01826412 -0.16789069  0.09490302       0.002
   0.01826407 -0.18080535  0.09490302       0.002
   0.05479225 -0.19372001  0.09490302       0.002
   0.09132044 -0.20663467  0.09490302       0.002
  -0.16437686 -0.11623205  0.09490302       0.002
  -0.12784868 -0.12914671  0.09490302       0.002
  -0.09132049 -0.14206137  0.09490302       0.002
  -0.05479231 -0.11623203  0.09490302       0.002
  -0.01826412 -0.12914669  0.09490302       0.002
   0.01826407 -0.14206135  0.09490302       0.002
   0.05479225 -0.15497601  0.09490302       0.002
   0.09132044 -0.16789067  0.09490302       0.002
  -0.16437686 -0.07748805  0.09490302       0.002
  -0.12784868 -0.09040271  0.09490302       0.002
  -0.09132049 -0.10331737  0.09490302       0.002
  -0.05479231 -0.07748803  0.09490302       0.002
  -0.01826412 -0.09040269  0.09490302       0.002
   0.01826407 -0.10331735  0.09490302       0.002
   0.05479225 -0.11623201  0.09490302       0.002
   0.09132044 -0.12914667  0.09490302       0.002
  -0.16437686 -0.03874405  0.09490302       0.002
  -0.12784868 -0.05165871  0.09490302       0.002
  -0.09132049 -0.06457337  0.09490302       0.002
  -0.07305641 -0.05165871  0.12653737       0.002
  -0.03652822 -0.06457337  0.12653737       0.002
  -0.00000004 -0.07748803  0.12653737       0.002
   0.03652815 -0.09040269  0.12653737       0.002
   0.07305633 -0.10331734  0.12653737       0.002
  -0.18264097 -0.01291473  0.12653737       0.002
  -0.14611278 -0.02582939  0.12653737       0.002
  -0.10958459 -0.03874405  0.12653737       0.002
  -0.07305641 -0.01291471  0.12653737       0.002
  -0.03652822 -0.02582937  0.12653737       0.002
  -0.00000004 -0.03874403  0.12653737       0.002
   0.03652815 -0.05165869  0.12653737       0.002
   0.07305633 -0.06457334  0.12653737       0.002
  -0.18264097  0.02582927  0.12653737       0.002
  -0.14611278  0.01291461  0.12653737       0.002
  -0.10958459 -0.00000005  0.12653737       0.002
  -0.07305641  0.02582929  0.12653737       0.002
  -0.03652822  0.01291463  0.12653737       0.002
  -0.00000004 -0.00000003  0.12653737       0.002
   0.03652815 -0.01291469  0.12653737       0.002
   0.07305633 -0.02582934  0.12653737       0.002
  -0.18264097  0.06457327  0.12653737       0.002
  -0.14611278  0.05165861  0.12653737       0.002
  -0.10958459  0.03874395  0.12653737       0.002
  -0.07305641  0.06457329  0.12653737       0.002
  -0.03652822  0.05165863  0.12653737       0.002
  -0.00000004  0.03874397  0.12653737       0.002
   0.03652815  0.02582931  0.12653737       0.002
   0.07305633  0.01291466  0.12653737       0.002
  -0.18264097  0.10331727  0.12653737       0.002
  -0.14611278  0.09040261  0.12653737       0.002
  -0.10958459  0.07748795  0.12653737       0.002
  -0.07305641  0.10331729  0.12653737       0.002
  -0.03652822  0.09040263  0.12653737       0.002
  -0.00000004  0.07748797  0.12653737       0.002
   0.03652815  0.06457331  0.12653737       0.002
   0.07305633  0.05165866  0.12653737       0.002
  -0.18264097  0.14206127  0.12653737       0.002
  -0.14611278  0.12914661  0.12653737       0.002
  -0.10958459  0.11623195  0.12653737       0.002
  -0.07305641 -0.16789071  0.12653737       0.002
  -0.03652822 -0.18080537  0.12653737       0.002
  -0.00000004 -0.19372003  0.12653737       0.002
   0.03652815 -0.20663469  0.12653737       0.002
   0.07305633 -0.21954934  0.12653737       0.002
  -0.18264097 -0.12914673  0.12653737       0.002
  -0.14611278 -0.14206139  0.12653737       0.002
  -0.10958459 -0.15497605  0.12653737       0.002
  -0.07305641 -0.12914671  0.12653737       0.002
  -0.03652822 -0.14206137  0.12653737       0.002
  -0.00000004 -0.15497603  0.12653737       0.002
   0.03652815 -0.16789069  0.12653737       0.002
   0.07305633 -0.18080534  0.12653737       0.002
  -0.18264097 -0.09040273  0.12653737       0.002
  -0.14611278 -0.10331739  0.12653737       0.002
  -0.10958459 -0.11623205  0.12653737       0.002
  -0.07305641 -0.09040271  0.12653737       0.002
  -0.03652822 -0.10331737  0.12653737       0.002
  -0.00000004 -0.11623203  0.12653737       0.002
   0.03652815 -0.12914669  0.12653737       0.002
   0.07305633 -0.14206134  0.12653737       0.002
  -0.18264097 -0.05165873  0.12653737       0.002
  -0.14611278 -0.06457339  0.12653737       0.002
  -0.10958459 -0.07748805  0.12653737       0.002
   0.05479231  0.03874403 -0.09490302       0.002
   0.09132049  0.02582937 -0.09490302       0.002
   0.12784868  0.01291471 -0.09490302       0.002
   0.16437686  0.00000005 -0.09490302       0.002
   0.20090505 -0.01291461 -0.09490302       0.002
  -0.05479225  0.07748801 -0.09490302       0.002
  -0.01826407  0.06457335 -0.09490302       0.002
   0.01826412  0.05165869 -0.09490302       0.002
   0.05479231  0.07748803 -0.09490302       0.002
   0.09132049  0.06457337 -0.09490302       0.002
   0.12784868  0.05165871 -0.09490302       0.002
   0.16437686  0.03874405 -0.09490302       0.002
   0.20090505  0.02582939 -0.09490302       0.002
  -0.05479225  0.11623201 -0.09490302       0.002
  -0.01826407  0.10331735 -0.09490302       0.002
   0.01826412  0.09040269 -0.09490302       0.002
   0.05479231  0.11623203 -0.09490302       0.002
   0.09132049  0.10331737 -0.09490302       0.002
   0.12784868  0.09040271 -0.09490302       0.002
   0.16437686  0.07748805 -0.09490302       0.002
   0.20090505  0.06457339 -0.09490302       0.002
  -0.05479225  0.15497601 -0.09490302       0.002
  -0.01826407  0.14206135 -0.09490302       0.002
   0.01826412  0.12914669 -0.09490302       0.002
   0.05479231  0.15497603 -0.09490302       0.002
   0.09132049  0.14206137 -0.09490302       0.002
   0.12784868  0.12914671 -0.09490302       0.002
   0.16437686  0.11623205 -0.09490302       0.002
   0.20090505  0.10331739 -0.09490302       0.002
  -0.05479225  0.19372001 -0.09490302       0.002
  -0.01826407  0.18080535 -0.09490302       0.002
   0.01826412  0.16789069 -0.09490302       0.002
   0.05479231  0.19372003 -0.09490302       0.002
   0.09132049  0.18080537 -0.09490302       0.002
   0.12784868  0.16789071 -0.09490302       0.002
   0.16437686  0.15497605 -0.09490302       0.002
   0.20090505  0.14206139 -0.09490302       0.002
  -0.05479225  0.23246401 -0.09490302       0.002
  -0.01826407  0.21954935 -0.09490302       0.002
   0.01826412  0.20663469 -0.09490302       0.002
   0.05479231 -0.07748797 -0.09490302       0.002
   0.09132049 -0.09040263 -0.09490302       0.002
   0.12784868 -0.10331729 -0.09490302       0.002
   0.16437686 -0.11623195 -0.09490302       0.002
   0.20090505 -0.12914661 -0.09490302       0.002
  -0.05479225 -0.03874399 -0.09490302       0.002
  -0.01826407 -0.05165865 -0.09490302       0.002
   0.01826412 -0.06457331 -0.09490302       0.002
   0.05479231 -0.03874397 -0.09490302       0.002
   0.09132049 -0.05165863 -0.09490302       0.002
   0.12784868 -0.06457329 -0.09490302       0.002
   0.16437686 -0.07748795 -0.09490302       0.002
   0.20090505 -0.09040261 -0.09490302       0.002
  -0.05479225  0.00000001 -0.09490302       0.002
  -0.01826407 -0.01291465 -0.09490302       0.002
   0.01826412 -0.02582931 -0.09490302       0.002
   0.05479231  0.00000003 -0.09490302       0.002
   0.09132049 -0.01291463 -0.09490302       0.002
   0.12784868 -0.02582929 -0.09490302       0.002
   0.16437686 -0.03874395 -0.09490302       0.002
   0.20090505 -0.05165861 -0.09490302       0.002
  -0.05479225  0.03874401 -0.09490302       0.002
  -0.01826407  0.02582935 -0.09490302       0.002
   0.01826412  0.01291469 -0.09490302       0.002
   0.03652820  0.02582935 -0.06326868       0.002
   0.07305639  0.01291469 -0.06326868       0.002
   0.10958458  0.00000004 -0.06326868       0.002
   0.14611276 -0.01291462 -0.06326868       0.002
   0.18264095 -0.02582928 -0.06326868       0.002
  -0.07305635  0.06457333 -0.06326868       0.002
  -0.03652817  0.05165867 -0.06326868       0.002
   0.00000002  0.03874401 -0.06326868       0.002
   0.03652820  0.06457335 -0.06326868       0.002
   0.07305639  0.05165869 -0.06326868       0.002
   0.10958458  0.03874404 -0.06326868       0.002
   0.14611276  0.02582938 -0.06326868       0.002
   0.18264095  0.01291472 -0.06326868       0.002
  -0.07305635  0.10331733 -0.06326868       0.002
  -0.03652817  0.09040267 -0.06326868       0.002
   0.00000002  0.07748801 -0.06326868       0.002
   0.03652820  0.10331735 -0.06326868       0.002
   0.07305639  0.09040270 -0.06326868       0.002
   0.10958458  0.07748804 -0.06326868       0.002
   0.14611276  0.06457338 -0.06326868       0.002
   0.18264095  0.05165872 -0.06326868       0.002
  -0.07305635  0.14206133 -0.06326868       0.002
  -0.03652817  0.12914667 -0.06326868       0.002
   0.00000002  0.11623201 -0.06326868       0.002
   0.03652820  0.14206135 -0.06326868       0.002
   0.07305639  0.12914670 -0.06326868       0.002
   0.10958458  0.11623204 -0.06326868       0.002
   0.14611276  0.10331738 -0.06326868       0.002
   0.18264095  0.09040272 -0.06326868       0.002
  -0.07305635  0.18080533 -0.06326868       0.002
  -0.03652817  0.16789067 -0.06326868       0.002
   0.00000002  0.15497601 -0.06326868       0.002
   0.03652820  0.18080535 -0.06326868       0.002
   0.07305639  0.16789070 -0.06326868       0.002
   0.10958458  0.15497604 -0.06326868       0.002
   0.14611276  0.14206138 -0.06326868       0.002
   0.18264095  0.12914672 -0.06326868       0.002
  -0.07305635  0.21954933 -0.06326868       0.002
  -0.03652817  0.20663467 -0.06326868       0.002
   0.00000002  0.19372001 -0.06326868       0.002
   0.03652820 -0.09040265 -0.06326868       0.002
   0.07305639 -0.10331731 -0.06326868       0.002
   0.10958458 -0.11623196 -0.06326868       0.002
   0.14611276 -0.12914662 -0.06326868       0.002
   0.18264095 -0.14206128 -0.06326868       0.002
  -0.07305635 -0.05165867 -0.06326868       0.002
  -0.03652817 -0.06457333 -0.06326868       0.002
   0.00000002 -0.07748799 -0.06326868       0.002
   0.03652820 -0.05165865 -0.06326868       0.002
   0.07305639 -0.06457331 -0.06326868       0.002
   0.10958458 -0.07748796 -0.06326868       0.002
   0.14611276 -0.09040262 -0.06326868       0.002
   0.18264095 -0.10331728 -0.06326868       0.002
  -0.07305635 -0.01291467 -0.06326868       0.002
  -0.03652817 -0.02582933 -0.06326868       0.002
   0.00000002 -0.03874399 -0.06326868       0.002
   0.03652820 -0.01291465 -0.06326868       0.002
   0.07305639 -0.02582931 -0.06326868       0.002
   0.10958458 -0.03874396 -0.06326868       0.002
   0.14611276 -0.05165862 -0.06326868       0.002
   0.18264095 -0.06457328 -0.06326868       0.002
  -0.07305635  0.02582933 -0.06326868       0.002
  -0.03652817  0.01291467 -0.06326868       0.002
   0.00000002  0.00000001 -0.06326868       0.002
   0.01826410  0.01291468 -0.03163434       0.002
   0.05479229  0.00000002 -0.03163434       0.002
   0.09132047 -0.01291464 -0.03163434       0.002
   0.12784866 -0.02582930 -0.03163434       0.002
   0.16437685 -0.03874396 -0.03163434       0.002
  -0.09132046  0.05165865 -0.03163434       0.002
  -0.05479227  0.03874400 -0.03163434       0.002
  -0.01826408  0.02582934 -0.03163434       0.002
   0.01826410  0.05165868 -0.03163434       0.002
   0.05479229  0.03874402 -0.03163434       0.002
   0.09132047  0.02582936 -0.03163434       0.002
   0.12784866  0.01291470 -0.03163434       0.002
   0.16437685  0.00000004 -0.03163434       0.002
  -0.09132046  0.09040265 -0.03163434       0.002
  -0.05479227  0.07748800 -0.03163434       0.002
  -0.01826408  0.06457334 -0.03163434       0.002
   0.01826410  0.09040268 -0.03163434       0.002
   0.05479229  0.07748802 -0.03163434       0.002
   0.09132047  0.06457336 -0.03163434       0.002
   0.12784866  0.05165870 -0.03163434       0.002
   0.16437685  0.03874404 -0.03163434       0.002
  -0.09132046  0.12914665 -0.03163434       0.002
  -0.05479227  0.11623200 -0.03163434       0.002
  -0.01826408  0.10331734 -0.03163434       0.002
   0.01826410  0.12914668 -0.03163434       0.002
   0.05479229  0.11623202 -0.03163434       0.002
   0.09132047  0.10331736 -0.03163434       0.002
   0.12784866  0.09040270 -0.03163434       0.002
   0.16437685  0.07748804 -0.03163434       0.002
  -0.09132046  0.16789065 -0.03163434       0.002
  -0.05479227  0.15497600 -0.03163434       0.002
  -0.01826408  0.14206134 -0.03163434       0.002
   0.01826410  0.16789068 -0.03163434       0.002
   0.05479229  0.15497602 -0.03163434       0.002
   0.09132047  0.14206136 -0.03163434       0.002
   0.12784866  0.12914670 -0.03163434       0.002
   0.16437685  0.11623204 -0.03163434       0.002
  -0.09132046  0.20663465 -0.03163434       0.002
  -0.05479227  0.19372000 -0.03163434       0.002
  -0.01826408  0.18080534 -0.03163434       0.002
   0.01826410 -0.10331732 -0.03163434       0.002
   0.05479229 -0.11623198 -0.03163434       0.002
   0.09132047 -0.12914664 -0.03163434       0.002
   0.12784866 -0.14206130 -0.03163434       0.002
   0.16437685 -0.15497596 -0.03163434       0.002
  -0.09132046 -0.06457335 -0.03163434       0.002
  -0.05479227 -0.07748800 -0.03163434       0.002
  -0.01826408 -0.09040266 -0.03163434       0.002
   0.01826410 -0.06457332 -0.03163434       0.002
   0.05479229 -0.07748798 -0.03163434       0.002
   0.09132047 -0.09040264 -0.03163434       0.002
   0.12784866 -0.10331730 -0.03163434       0.002
   0.16437685 -0.11623196 -0.03163434       0.002
  -0.09132046 -0.02582935 -0.03163434       0.002
  -0.05479227 -0.03874400 -0.03163434       0.002
  -0.01826408 -0.05165866 -0.03163434       0.002
   0.01826410 -0.02582932 -0.03163434       0.002
   0.05479229 -0.03874398 -0.03163434       0.002
   0.09132047 -0.05165864 -0.03163434       0.002
   0.12784866 -0.06457330 -0.03163434       0.002
   0.16437685 -0.07748796 -0.03163434       0.002
  -0.09132046  0.01291465 -0.03163434       0.002
  -0.05479227 -0.00000000 -0.03163434       0.002
  -0.01826408 -0.01291466 -0.03163434       0.002
 
 k-points in reciprocal lattice and weights: pymatgen with grid density = 1137 / numb
   0.00000000  0.00000000  0.00000000       0.002
   0.12500000  0.00000000  0.00000000       0.002
   0.25000000  0.00000000  0.00000000       0.002
   0.37500000  0.00000000  0.00000000       0.002
   0.50000000  0.00000000  0.00000000       0.002
  -0.37500000  0.00000000  0.00000000       0.002
  -0.25000000  0.00000000  0.00000000       0.002
  -0.12500000  0.00000000  0.00000000       0.002
   0.00000000  0.12500000  0.00000000       0.002
   0.12500000  0.12500000  0.00000000       0.002
   0.25000000  0.12500000  0.00000000       0.002
   0.37500000  0.12500000  0.00000000       0.002
   0.50000000  0.12500000  0.00000000       0.002
  -0.37500000  0.12500000  0.00000000       0.002
  -0.25000000  0.12500000  0.00000000       0.002
  -0.12500000  0.12500000  0.00000000       0.002
   0.00000000  0.25000000  0.00000000       0.002
   0.12500000  0.25000000  0.00000000       0.002
   0.25000000  0.25000000  0.00000000       0.002
   0.37500000  0.25000000  0.00000000       0.002
   0.50000000  0.25000000  0.00000000       0.002
  -0.37500000  0.25000000  0.00000000       0.002
  -0.25000000  0.25000000  0.00000000       0.002
  -0.12500000  0.25000000  0.00000000       0.002
   0.00000000  0.37500000  0.00000000       0.002
   0.12500000  0.37500000  0.00000000       0.002
   0.25000000  0.37500000  0.00000000       0.002
   0.37500000  0.37500000  0.00000000       0.002
   0.50000000  0.37500000  0.00000000       0.002
  -0.37500000  0.37500000  0.00000000       0.002
  -0.25000000  0.37500000  0.00000000       0.002
  -0.12500000  0.37500000  0.00000000       0.002
   0.00000000  0.50000000  0.00000000       0.002
   0.12500000  0.50000000  0.00000000       0.002
   0.25000000  0.50000000  0.00000000       0.002
   0.37500000  0.50000000  0.00000000       0.002
   0.50000000  0.50000000  0.00000000       0.002
  -0.37500000  0.50000000  0.00000000       0.002
  -0.25000000  0.50000000  0.00000000       0.002
  -0.12500000  0.50000000  0.00000000       0.002
   0.00000000 -0.37500000  0.00000000       0.002
   0.12500000 -0.37500000  0.00000000       0.002
   0.25000000 -0.37500000  0.00000000       0.002
   0.37500000 -0.37500000  0.00000000       0.002
   0.50000000 -0.37500000  0.00000000       0.002
  -0.37500000 -0.37500000  0.00000000       0.002
  -0.25000000 -0.37500000  0.00000000       0.002
  -0.12500000 -0.37500000  0.00000000       0.002
   0.00000000 -0.25000000  0.00000000       0.002
   0.12500000 -0.25000000  0.00000000       0.002
   0.25000000 -0.25000000  0.00000000       0.002
   0.37500000 -0.25000000  0.00000000       0.002
   0.50000000 -0.25000000  0.00000000       0.002
  -0.37500000 -0.25000000  0.00000000       0.002
  -0.25000000 -0.25000000  0.00000000       0.002
  -0.12500000 -0.25000000  0.00000000       0.002
   0.00000000 -0.12500000  0.00000000       0.002
   0.12500000 -0.12500000  0.00000000       0.002
   0.25000000 -0.12500000  0.00000000       0.002
   0.37500000 -0.12500000  0.00000000       0.002
   0.50000000 -0.12500000  0.00000000       0.002
  -0.37500000 -0.12500000  0.00000000       0.002
  -0.25000000 -0.12500000  0.00000000       0.002
  -0.12500000 -0.12500000  0.00000000       0.002
  -0.00000000  0.00000000  0.12500000       0.002
   0.12500000  0.00000000  0.12500000       0.002
   0.25000000  0.00000000  0.12500000       0.002
   0.37500000  0.00000000  0.12500000       0.002
   0.50000000  0.00000000  0.12500000       0.002
  -0.37500000 -0.00000000  0.12500000       0.002
  -0.25000000  0.00000000  0.12500000       0.002
  -0.12500000  0.00000000  0.12500000       0.002
  -0.00000000  0.12500000  0.12500000       0.002
   0.12500000  0.12500000  0.12500000       0.002
   0.25000000  0.12500000  0.12500000       0.002
   0.37500000  0.12500000  0.12500000       0.002
   0.50000000  0.12500000  0.12500000       0.002
  -0.37500000  0.12500000  0.12500000       0.002
  -0.25000000  0.12500000  0.12500000       0.002
  -0.12500000  0.12500000  0.12500000       0.002
  -0.00000000  0.25000000  0.12500000       0.002
   0.12500000  0.25000000  0.12500000       0.002
   0.25000000  0.25000000  0.12500000       0.002
   0.37500000  0.25000000  0.12500000       0.002
   0.50000000  0.25000000  0.12500000       0.002
  -0.37500000  0.25000000  0.12500000       0.002
  -0.25000000  0.25000000  0.12500000       0.002
  -0.12500000  0.25000000  0.12500000       0.002
  -0.00000000  0.37500000  0.12500000       0.002
   0.12500000  0.37500000  0.12500000       0.002
   0.25000000  0.37500000  0.12500000       0.002
   0.37500000  0.37500000  0.12500000       0.002
   0.50000000  0.37500000  0.12500000       0.002
  -0.37500000  0.37500000  0.12500000       0.002
  -0.25000000  0.37500000  0.12500000       0.002
  -0.12500000  0.37500000  0.12500000       0.002
  -0.00000000  0.50000000  0.12500000       0.002
   0.12500000  0.50000000  0.12500000       0.002
   0.25000000  0.50000000  0.12500000       0.002
   0.37500000  0.50000000  0.12500000       0.002
   0.50000000  0.50000000  0.12500000       0.002
  -0.37500000  0.50000000  0.12500000       0.002
  -0.25000000  0.50000000  0.12500000       0.002
  -0.12500000  0.50000000  0.12500000       0.002
  -0.00000000 -0.37500000  0.12500000       0.002
   0.12500000 -0.37500000  0.12500000       0.002
   0.25000000 -0.37500000  0.12500000       0.002
   0.37500000 -0.37500000  0.12500000       0.002
   0.50000000 -0.37500000  0.12500000       0.002
  -0.37500000 -0.37500000  0.12500000       0.002
  -0.25000000 -0.37500000  0.12500000       0.002
  -0.12500000 -0.37500000  0.12500000       0.002
  -0.00000000 -0.25000000  0.12500000       0.002
   0.12500000 -0.25000000  0.12500000       0.002
   0.25000000 -0.25000000  0.12500000       0.002
   0.37500000 -0.25000000  0.12500000       0.002
   0.50000000 -0.25000000  0.12500000       0.002
  -0.37500000 -0.25000000  0.12500000       0.002
  -0.25000000 -0.25000000  0.12500000       0.002
  -0.12500000 -0.25000000  0.12500000       0.002
  -0.00000000 -0.12500000  0.12500000       0.002
   0.12500000 -0.12500000  0.12500000       0.002
   0.25000000 -0.12500000  0.12500000       0.002
   0.37500000 -0.12500000  0.12500000       0.002
   0.50000000 -0.12500000  0.12500000       0.002
  -0.37500000 -0.12500000  0.12500000       0.002
  -0.25000000 -0.12500000  0.12500000       0.002
  -0.12500000 -0.12500000  0.12500000       0.002
  -0.00000000  0.00000000  0.25000000       0.002
   0.12500000  0.00000000  0.25000000       0.002
   0.25000000  0.00000000  0.25000000       0.002
   0.37500000  0.00000000  0.25000000       0.002
   0.50000000  0.00000000  0.25000000       0.002
  -0.37500000  0.00000000  0.25000000       0.002
  -0.25000000  0.00000000  0.25000000       0.002
  -0.12500000  0.00000000  0.25000000       0.002
  -0.00000000  0.12500000  0.25000000       0.002
   0.12500000  0.12500000  0.25000000       0.002
   0.25000000  0.12500000  0.25000000       0.002
   0.37500000  0.12500000  0.25000000       0.002
   0.50000000  0.12500000  0.25000000       0.002
  -0.37500000  0.12500000  0.25000000       0.002
  -0.25000000  0.12500000  0.25000000       0.002
  -0.12500000  0.12500000  0.25000000       0.002
  -0.00000000  0.25000000  0.25000000       0.002
   0.12500000  0.25000000  0.25000000       0.002
   0.25000000  0.25000000  0.25000000       0.002
   0.37500000  0.25000000  0.25000000       0.002
   0.50000000  0.25000000  0.25000000       0.002
  -0.37500000  0.25000000  0.25000000       0.002
  -0.25000000  0.25000000  0.25000000       0.002
  -0.12500000  0.25000000  0.25000000       0.002
  -0.00000000  0.37500000  0.25000000       0.002
   0.12500000  0.37500000  0.25000000       0.002
   0.25000000  0.37500000  0.25000000       0.002
   0.37500000  0.37500000  0.25000000       0.002
   0.50000000  0.37500000  0.25000000       0.002
  -0.37500000  0.37500000  0.25000000       0.002
  -0.25000000  0.37500000  0.25000000       0.002
  -0.12500000  0.37500000  0.25000000       0.002
  -0.00000000  0.50000000  0.25000000       0.002
   0.12500000  0.50000000  0.25000000       0.002
   0.25000000  0.50000000  0.25000000       0.002
   0.37500000  0.50000000  0.25000000       0.002
   0.50000000  0.50000000  0.25000000       0.002
  -0.37500000  0.50000000  0.25000000       0.002
  -0.25000000  0.50000000  0.25000000       0.002
  -0.12500000  0.50000000  0.25000000       0.002
  -0.00000000 -0.37500000  0.25000000       0.002
   0.12500000 -0.37500000  0.25000000       0.002
   0.25000000 -0.37500000  0.25000000       0.002
   0.37500000 -0.37500000  0.25000000       0.002
   0.50000000 -0.37500000  0.25000000       0.002
  -0.37500000 -0.37500000  0.25000000       0.002
  -0.25000000 -0.37500000  0.25000000       0.002
  -0.12500000 -0.37500000  0.25000000       0.002
  -0.00000000 -0.25000000  0.25000000       0.002
   0.12500000 -0.25000000  0.25000000       0.002
   0.25000000 -0.25000000  0.25000000       0.002
   0.37500000 -0.25000000  0.25000000       0.002
   0.50000000 -0.25000000  0.25000000       0.002
  -0.37500000 -0.25000000  0.25000000       0.002
  -0.25000000 -0.25000000  0.25000000       0.002
  -0.12500000 -0.25000000  0.25000000       0.002
  -0.00000000 -0.12500000  0.25000000       0.002
   0.12500000 -0.12500000  0.25000000       0.002
   0.25000000 -0.12500000  0.25000000       0.002
   0.37500000 -0.12500000  0.25000000       0.002
   0.50000000 -0.12500000  0.25000000       0.002
  -0.37500000 -0.12500000  0.25000000       0.002
  -0.25000000 -0.12500000  0.25000000       0.002
  -0.12500000 -0.12500000  0.25000000       0.002
  -0.00000000  0.00000000  0.37500000       0.002
   0.12500000  0.00000000  0.37500000       0.002
   0.25000000  0.00000000  0.37500000       0.002
   0.37500000  0.00000000  0.37500000       0.002
   0.50000000  0.00000000  0.37500000       0.002
  -0.37500000  0.00000000  0.37500000       0.002
  -0.25000000  0.00000000  0.37500000       0.002
  -0.12500000  0.00000000  0.37500000       0.002
  -0.00000000  0.12500000  0.37500000       0.002
   0.12500000  0.12500000  0.37500000       0.002
   0.25000000  0.12500000  0.37500000       0.002
   0.37500000  0.12500000  0.37500000       0.002
   0.50000000  0.12500000  0.37500000       0.002
  -0.37500000  0.12500000  0.37500000       0.002
  -0.25000000  0.12500000  0.37500000       0.002
  -0.12500000  0.12500000  0.37500000       0.002
  -0.00000000  0.25000000  0.37500000       0.002
   0.12500000  0.25000000  0.37500000       0.002
   0.25000000  0.25000000  0.37500000       0.002
   0.37500000  0.25000000  0.37500000       0.002
   0.50000000  0.25000000  0.37500000       0.002
  -0.37500000  0.25000000  0.37500000       0.002
  -0.25000000  0.25000000  0.37500000       0.002
  -0.12500000  0.25000000  0.37500000       0.002
  -0.00000000  0.37500000  0.37500000       0.002
   0.12500000  0.37500000  0.37500000       0.002
   0.25000000  0.37500000  0.37500000       0.002
   0.37500000  0.37500000  0.37500000       0.002
   0.50000000  0.37500000  0.37500000       0.002
  -0.37500000  0.37500000  0.37500000       0.002
  -0.25000000  0.37500000  0.37500000       0.002
  -0.12500000  0.37500000  0.37500000       0.002
  -0.00000000  0.50000000  0.37500000       0.002
   0.12500000  0.50000000  0.37500000       0.002
   0.25000000  0.50000000  0.37500000       0.002
   0.37500000  0.50000000  0.37500000       0.002
   0.50000000  0.50000000  0.37500000       0.002
  -0.37500000  0.50000000  0.37500000       0.002
  -0.25000000  0.50000000  0.37500000       0.002
  -0.12500000  0.50000000  0.37500000       0.002
  -0.00000000 -0.37500000  0.37500000       0.002
   0.12500000 -0.37500000  0.37500000       0.002
   0.25000000 -0.37500000  0.37500000       0.002
   0.37500000 -0.37500000  0.37500000       0.002
   0.50000000 -0.37500000  0.37500000       0.002
  -0.37500000 -0.37500000  0.37500000       0.002
  -0.25000000 -0.37500000  0.37500000       0.002
  -0.12500000 -0.37500000  0.37500000       0.002
  -0.00000000 -0.25000000  0.37500000       0.002
   0.12500000 -0.25000000  0.37500000       0.002
   0.25000000 -0.25000000  0.37500000       0.002
   0.37500000 -0.25000000  0.37500000       0.002
   0.50000000 -0.25000000  0.37500000       0.002
  -0.37500000 -0.25000000  0.37500000       0.002
  -0.25000000 -0.25000000  0.37500000       0.002
  -0.12500000 -0.25000000  0.37500000       0.002
  -0.00000000 -0.12500000  0.37500000       0.002
   0.12500000 -0.12500000  0.37500000       0.002
   0.25000000 -0.12500000  0.37500000       0.002
   0.37500000 -0.12500000  0.37500000       0.002
   0.50000000 -0.12500000  0.37500000       0.002
  -0.37500000 -0.12500000  0.37500000       0.002
  -0.25000000 -0.12500000  0.37500000       0.002
  -0.12500000 -0.12500000  0.37500000       0.002
  -0.00000000  0.00000000  0.50000000       0.002
   0.12500000  0.00000000  0.50000000       0.002
   0.25000000  0.00000000  0.50000000       0.002
   0.37500000  0.00000000  0.50000000       0.002
   0.50000000  0.00000000  0.50000000       0.002
  -0.37500000  0.00000000  0.50000000       0.002
  -0.25000000  0.00000000  0.50000000       0.002
  -0.12500000  0.00000000  0.50000000       0.002
  -0.00000000  0.12500000  0.50000000       0.002
   0.12500000  0.12500000  0.50000000       0.002
   0.25000000  0.12500000  0.50000000       0.002
   0.37500000  0.12500000  0.50000000       0.002
   0.50000000  0.12500000  0.50000000       0.002
  -0.37500000  0.12500000  0.50000000       0.002
  -0.25000000  0.12500000  0.50000000       0.002
  -0.12500000  0.12500000  0.50000000       0.002
  -0.00000000  0.25000000  0.50000000       0.002
   0.12500000  0.25000000  0.50000000       0.002
   0.25000000  0.25000000  0.50000000       0.002
   0.37500000  0.25000000  0.50000000       0.002
   0.50000000  0.25000000  0.50000000       0.002
  -0.37500000  0.25000000  0.50000000       0.002
  -0.25000000  0.25000000  0.50000000       0.002
  -0.12500000  0.25000000  0.50000000       0.002
  -0.00000000  0.37500000  0.50000000       0.002
   0.12500000  0.37500000  0.50000000       0.002
   0.25000000  0.37500000  0.50000000       0.002
   0.37500000  0.37500000  0.50000000       0.002
   0.50000000  0.37500000  0.50000000       0.002
  -0.37500000  0.37500000  0.50000000       0.002
  -0.25000000  0.37500000  0.50000000       0.002
  -0.12500000  0.37500000  0.50000000       0.002
  -0.00000000  0.50000000  0.50000000       0.002
   0.12500000  0.50000000  0.50000000       0.002
   0.25000000  0.50000000  0.50000000       0.002
   0.37500000  0.50000000  0.50000000       0.002
   0.50000000  0.50000000  0.50000000       0.002
  -0.37500000  0.50000000  0.50000000       0.002
  -0.25000000  0.50000000  0.50000000       0.002
  -0.12500000  0.50000000  0.50000000       0.002
  -0.00000000 -0.37500000  0.50000000       0.002
   0.12500000 -0.37500000  0.50000000       0.002
   0.25000000 -0.37500000  0.50000000       0.002
   0.37500000 -0.37500000  0.50000000       0.002
   0.50000000 -0.37500000  0.50000000       0.002
  -0.37500000 -0.37500000  0.50000000       0.002
  -0.25000000 -0.37500000  0.50000000       0.002
  -0.12500000 -0.37500000  0.50000000       0.002
  -0.00000000 -0.25000000  0.50000000       0.002
   0.12500000 -0.25000000  0.50000000       0.002
   0.25000000 -0.25000000  0.50000000       0.002
   0.37500000 -0.25000000  0.50000000       0.002
   0.50000000 -0.25000000  0.50000000       0.002
  -0.37500000 -0.25000000  0.50000000       0.002
  -0.25000000 -0.25000000  0.50000000       0.002
  -0.12500000 -0.25000000  0.50000000       0.002
  -0.00000000 -0.12500000  0.50000000       0.002
   0.12500000 -0.12500000  0.50000000       0.002
   0.25000000 -0.12500000  0.50000000       0.002
   0.37500000 -0.12500000  0.50000000       0.002
   0.50000000 -0.12500000  0.50000000       0.002
  -0.37500000 -0.12500000  0.50000000       0.002
  -0.25000000 -0.12500000  0.50000000       0.002
  -0.12500000 -0.12500000  0.50000000       0.002
   0.00000000 -0.00000000 -0.37500000       0.002
   0.12500000 -0.00000000 -0.37500000       0.002
   0.25000000 -0.00000000 -0.37500000       0.002
   0.37500000 -0.00000000 -0.37500000       0.002
   0.50000000 -0.00000000 -0.37500000       0.002
  -0.37500000  0.00000000 -0.37500000       0.002
  -0.25000000 -0.00000000 -0.37500000       0.002
  -0.12500000 -0.00000000 -0.37500000       0.002
   0.00000000  0.12500000 -0.37500000       0.002
   0.12500000  0.12500000 -0.37500000       0.002
   0.25000000  0.12500000 -0.37500000       0.002
   0.37500000  0.12500000 -0.37500000       0.002
   0.50000000  0.12500000 -0.37500000       0.002
  -0.37500000  0.12500000 -0.37500000       0.002
  -0.25000000  0.12500000 -0.37500000       0.002
  -0.12500000  0.12500000 -0.37500000       0.002
   0.00000000  0.25000000 -0.37500000       0.002
   0.12500000  0.25000000 -0.37500000       0.002
   0.25000000  0.25000000 -0.37500000       0.002
   0.37500000  0.25000000 -0.37500000       0.002
   0.50000000  0.25000000 -0.37500000       0.002
  -0.37500000  0.25000000 -0.37500000       0.002
  -0.25000000  0.25000000 -0.37500000       0.002
  -0.12500000  0.25000000 -0.37500000       0.002
   0.00000000  0.37500000 -0.37500000       0.002
   0.12500000  0.37500000 -0.37500000       0.002
   0.25000000  0.37500000 -0.37500000       0.002
   0.37500000  0.37500000 -0.37500000       0.002
   0.50000000  0.37500000 -0.37500000       0.002
  -0.37500000  0.37500000 -0.37500000       0.002
  -0.25000000  0.37500000 -0.37500000       0.002
  -0.12500000  0.37500000 -0.37500000       0.002
   0.00000000  0.50000000 -0.37500000       0.002
   0.12500000  0.50000000 -0.37500000       0.002
   0.25000000  0.50000000 -0.37500000       0.002
   0.37500000  0.50000000 -0.37500000       0.002
   0.50000000  0.50000000 -0.37500000       0.002
  -0.37500000  0.50000000 -0.37500000       0.002
  -0.25000000  0.50000000 -0.37500000       0.002
  -0.12500000  0.50000000 -0.37500000       0.002
   0.00000000 -0.37500000 -0.37500000       0.002
   0.12500000 -0.37500000 -0.37500000       0.002
   0.25000000 -0.37500000 -0.37500000       0.002
   0.37500000 -0.37500000 -0.37500000       0.002
   0.50000000 -0.37500000 -0.37500000       0.002
  -0.37500000 -0.37500000 -0.37500000       0.002
  -0.25000000 -0.37500000 -0.37500000       0.002
  -0.12500000 -0.37500000 -0.37500000       0.002
   0.00000000 -0.25000000 -0.37500000       0.002
   0.12500000 -0.25000000 -0.37500000       0.002
   0.25000000 -0.25000000 -0.37500000       0.002
   0.37500000 -0.25000000 -0.37500000       0.002
   0.50000000 -0.25000000 -0.37500000       0.002
  -0.37500000 -0.25000000 -0.37500000       0.002
  -0.25000000 -0.25000000 -0.37500000       0.002
  -0.12500000 -0.25000000 -0.37500000       0.002
   0.00000000 -0.12500000 -0.37500000       0.002
   0.12500000 -0.12500000 -0.37500000       0.002
   0.25000000 -0.12500000 -0.37500000       0.002
   0.37500000 -0.12500000 -0.37500000       0.002
   0.50000000 -0.12500000 -0.37500000       0.002
  -0.37500000 -0.12500000 -0.37500000       0.002
  -0.25000000 -0.12500000 -0.37500000       0.002
  -0.12500000 -0.12500000 -0.37500000       0.002
   0.00000000  0.00000000 -0.25000000       0.002
   0.12500000  0.00000000 -0.25000000       0.002
   0.25000000 -0.00000000 -0.25000000       0.002
   0.37500000 -0.00000000 -0.25000000       0.002
   0.50000000 -0.00000000 -0.25000000       0.002
  -0.37500000  0.00000000 -0.25000000       0.002
  -0.25000000  0.00000000 -0.25000000       0.002
  -0.12500000  0.00000000 -0.25000000       0.002
   0.00000000  0.12500000 -0.25000000       0.002
   0.12500000  0.12500000 -0.25000000       0.002
   0.25000000  0.12500000 -0.25000000       0.002
   0.37500000  0.12500000 -0.25000000       0.002
   0.50000000  0.12500000 -0.25000000       0.002
  -0.37500000  0.12500000 -0.25000000       0.002
  -0.25000000  0.12500000 -0.25000000       0.002
  -0.12500000  0.12500000 -0.25000000       0.002
   0.00000000  0.25000000 -0.25000000       0.002
   0.12500000  0.25000000 -0.25000000       0.002
   0.25000000  0.25000000 -0.25000000       0.002
   0.37500000  0.25000000 -0.25000000       0.002
   0.50000000  0.25000000 -0.25000000       0.002
  -0.37500000  0.25000000 -0.25000000       0.002
  -0.25000000  0.25000000 -0.25000000       0.002
  -0.12500000  0.25000000 -0.25000000       0.002
   0.00000000  0.37500000 -0.25000000       0.002
   0.12500000  0.37500000 -0.25000000       0.002
   0.25000000  0.37500000 -0.25000000       0.002
   0.37500000  0.37500000 -0.25000000       0.002
   0.50000000  0.37500000 -0.25000000       0.002
  -0.37500000  0.37500000 -0.25000000       0.002
  -0.25000000  0.37500000 -0.25000000       0.002
  -0.12500000  0.37500000 -0.25000000       0.002
   0.00000000  0.50000000 -0.25000000       0.002
   0.12500000  0.50000000 -0.25000000       0.002
   0.25000000  0.50000000 -0.25000000       0.002
   0.37500000  0.50000000 -0.25000000       0.002
   0.50000000  0.50000000 -0.25000000       0.002
  -0.37500000  0.50000000 -0.25000000       0.002
  -0.25000000  0.50000000 -0.25000000       0.002
  -0.12500000  0.50000000 -0.25000000       0.002
   0.00000000 -0.37500000 -0.25000000       0.002
   0.12500000 -0.37500000 -0.25000000       0.002
   0.25000000 -0.37500000 -0.25000000       0.002
   0.37500000 -0.37500000 -0.25000000       0.002
   0.50000000 -0.37500000 -0.25000000       0.002
  -0.37500000 -0.37500000 -0.25000000       0.002
  -0.25000000 -0.37500000 -0.25000000       0.002
  -0.12500000 -0.37500000 -0.25000000       0.002
   0.00000000 -0.25000000 -0.25000000       0.002
   0.12500000 -0.25000000 -0.25000000       0.002
   0.25000000 -0.25000000 -0.25000000       0.002
   0.37500000 -0.25000000 -0.25000000       0.002
   0.50000000 -0.25000000 -0.25000000       0.002
  -0.37500000 -0.25000000 -0.25000000       0.002
  -0.25000000 -0.25000000 -0.25000000       0.002
  -0.12500000 -0.25000000 -0.25000000       0.002
   0.00000000 -0.12500000 -0.25000000       0.002
   0.12500000 -0.12500000 -0.25000000       0.002
   0.25000000 -0.12500000 -0.25000000       0.002
   0.37500000 -0.12500000 -0.25000000       0.002
   0.50000000 -0.12500000 -0.25000000       0.002
  -0.37500000 -0.12500000 -0.25000000       0.002
  -0.25000000 -0.12500000 -0.25000000       0.002
  -0.12500000 -0.12500000 -0.25000000       0.002
   0.00000000  0.00000000 -0.12500000       0.002
   0.12500000 -0.00000000 -0.12500000       0.002
   0.25000000 -0.00000000 -0.12500000       0.002
   0.37500000  0.00000000 -0.12500000       0.002
   0.50000000  0.00000000 -0.12500000       0.002
  -0.37500000 -0.00000000 -0.12500000       0.002
  -0.25000000  0.00000000 -0.12500000       0.002
  -0.12500000  0.00000000 -0.12500000       0.002
   0.00000000  0.12500000 -0.12500000       0.002
   0.12500000  0.12500000 -0.12500000       0.002
   0.25000000  0.12500000 -0.12500000       0.002
   0.37500000  0.12500000 -0.12500000       0.002
   0.50000000  0.12500000 -0.12500000       0.002
  -0.37500000  0.12500000 -0.12500000       0.002
  -0.25000000  0.12500000 -0.12500000       0.002
  -0.12500000  0.12500000 -0.12500000       0.002
   0.00000000  0.25000000 -0.12500000       0.002
   0.12500000  0.25000000 -0.12500000       0.002
   0.25000000  0.25000000 -0.12500000       0.002
   0.37500000  0.25000000 -0.12500000       0.002
   0.50000000  0.25000000 -0.12500000       0.002
  -0.37500000  0.25000000 -0.12500000       0.002
  -0.25000000  0.25000000 -0.12500000       0.002
  -0.12500000  0.25000000 -0.12500000       0.002
   0.00000000  0.37500000 -0.12500000       0.002
   0.12500000  0.37500000 -0.12500000       0.002
   0.25000000  0.37500000 -0.12500000       0.002
   0.37500000  0.37500000 -0.12500000       0.002
   0.50000000  0.37500000 -0.12500000       0.002
  -0.37500000  0.37500000 -0.12500000       0.002
  -0.25000000  0.37500000 -0.12500000       0.002
  -0.12500000  0.37500000 -0.12500000       0.002
   0.00000000  0.50000000 -0.12500000       0.002
   0.12500000  0.50000000 -0.12500000       0.002
   0.25000000  0.50000000 -0.12500000       0.002
   0.37500000  0.50000000 -0.12500000       0.002
   0.50000000  0.50000000 -0.12500000       0.002
  -0.37500000  0.50000000 -0.12500000       0.002
  -0.25000000  0.50000000 -0.12500000       0.002
  -0.12500000  0.50000000 -0.12500000       0.002
   0.00000000 -0.37500000 -0.12500000       0.002
   0.12500000 -0.37500000 -0.12500000       0.002
   0.25000000 -0.37500000 -0.12500000       0.002
   0.37500000 -0.37500000 -0.12500000       0.002
   0.50000000 -0.37500000 -0.12500000       0.002
  -0.37500000 -0.37500000 -0.12500000       0.002
  -0.25000000 -0.37500000 -0.12500000       0.002
  -0.12500000 -0.37500000 -0.12500000       0.002
   0.00000000 -0.25000000 -0.12500000       0.002
   0.12500000 -0.25000000 -0.12500000       0.002
   0.25000000 -0.25000000 -0.12500000       0.002
   0.37500000 -0.25000000 -0.12500000       0.002
   0.50000000 -0.25000000 -0.12500000       0.002
  -0.37500000 -0.25000000 -0.12500000       0.002
  -0.25000000 -0.25000000 -0.12500000       0.002
  -0.12500000 -0.25000000 -0.12500000       0.002
   0.00000000 -0.12500000 -0.12500000       0.002
   0.12500000 -0.12500000 -0.12500000       0.002
   0.25000000 -0.12500000 -0.12500000       0.002
   0.37500000 -0.12500000 -0.12500000       0.002
   0.50000000 -0.12500000 -0.12500000       0.002
  -0.37500000 -0.12500000 -0.12500000       0.002
  -0.25000000 -0.12500000 -0.12500000       0.002
  -0.12500000 -0.12500000 -0.12500000       0.002
 
 position of ions in fractional coordinates (direct lattice) 
   0.00000000  0.00000000  0.00000000
   0.50000000  0.50000000  0.50000000
 
 position of ions in cartesian coordinates  (Angst):
   0.00000000  0.00000000  0.00000000
   2.28134300  1.61315300  3.95140300
 


--------------------------------------------------------------------------------------------------------


 k-point     1 :   0.0000 0.0000 0.0000  plane waves:    1459
 k-point     2 :   0.1250 0.0000 0.0000  plane waves:    1444
 k-point     3 :   0.2500 0.0000 0.0000  plane waves:    1447
 k-point     4 :   0.3750 0.0000 0.0000  plane waves:    1447
 k-point     5 :   0.5000 0.0000 0.0000  plane waves:    1458
 k-point     6 :  -0.3750 0.0000 0.0000  plane waves:    1447
 k-point     7 :  -0.2500 0.0000 0.0000  plane waves:    1447
 k-point     8 :  -0.1250 0.0000 0.0000  plane waves:    1444
 k-point     9 :   0.0000 0.1250 0.0000  plane waves:    1444
 k-point    10 :   0.1250 0.1250 0.0000  plane waves:    1439
 k-point    11 :   0.2500 0.1250 0.0000  plane waves:    1447
 k-point    12 :   0.3750 0.1250 0.0000  plane waves:    1452
 k-point    13 :   0.5000 0.1250 0.0000  plane waves:    1455
 k-point    14 :  -0.3750 0.1250 0.0000  plane waves:    1459
 k-point    15 :  -0.2500 0.1250 0.0000  plane waves:    1453
 k-point    16 :  -0.1250 0.1250 0.0000  plane waves:    1456
 k-point    17 :   0.0000 0.2500 0.0000  plane waves:    1447
 k-point    18 :   0.1250 0.2500 0.0000  plane waves:    1447
 k-point    19 :   0.2500 0.2500 0.0000  plane waves:    1475
 k-point    20 :   0.3750 0.2500 0.0000  plane waves:    1444
 k-point    21 :   0.5000 0.2500 0.0000  plane waves:    1461
 k-point    22 :  -0.3750 0.2500 0.0000  plane waves:    1471
 k-point    23 :  -0.2500 0.2500 0.0000  plane waves:    1464
 k-point    24 :  -0.1250 0.2500 0.0000  plane waves:    1453
 k-point    25 :   0.0000 0.3750 0.0000  plane waves:    1447
 k-point    26 :   0.1250 0.3750 0.0000  plane waves:    1452
 k-point    27 :   0.2500 0.3750 0.0000  plane waves:    1444
 k-point    28 :   0.3750 0.3750 0.0000  plane waves:    1455
 k-point    29 :   0.5000 0.3750 0.0000  plane waves:    1463
 k-point    30 :  -0.3750 0.3750 0.0000  plane waves:    1472
 k-point    31 :  -0.2500 0.3750 0.0000  plane waves:    1471
 k-point    32 :  -0.1250 0.3750 0.0000  plane waves:    1459
 k-point    33 :   0.0000 0.5000 0.0000  plane waves:    1458
 k-point    34 :   0.1250 0.5000 0.0000  plane waves:    1455
 k-point    35 :   0.2500 0.5000 0.0000  plane waves:    1461
 k-point    36 :   0.3750 0.5000 0.0000  plane waves:    1463
 k-point    37 :   0.5000 0.5000 0.0000  plane waves:    1428
 k-point    38 :  -0.3750 0.5000 0.0000  plane waves:    1463
 k-point    39 :  -0.2500 0.5000 0.0000  plane waves:    1461
 k-point    40 :  -0.1250 0.5000 0.0000  plane waves:    1455
 k-point    41 :   0.0000-0.3750 0.0000  plane waves:    1447
 k-point    42 :   0.1250-0.3750 0.0000  plane waves:    1459
 k-point    43 :   0.2500-0.3750 0.0000  plane waves:    1471
 k-point    44 :   0.3750-0.3750 0.0000  plane waves:    1472
 k-point    45 :   0.5000-0.3750 0.0000  plane waves:    1463
 k-point    46 :  -0.3750-0.3750 0.0000  plane waves:    1455
 k-point    47 :  -0.2500-0.3750 0.0000  plane waves:    1444
 k-point    48 :  -0.1250-0.3750 0.0000  plane waves:    1452
 k-point    49 :   0.0000-0.2500 0.0000  plane waves:    1447
 k-point    50 :   0.1250-0.2500 0.0000  plane waves:    1453
 k-point    51 :   0.2500-0.2500 0.0000  plane waves:    1464
 k-point    52 :   0.3750-0.2500 0.0000  plane waves:    1471
 k-point    53 :   0.5000-0.2500 0.0000  plane waves:    1461
 k-point    54 :  -0.3750-0.2500 0.0000  plane waves:    1444
 k-point    55 :  -0.2500-0.2500 0.0000  plane waves:    1475
 k-point    56 :  -0.1250-0.2500 0.0000  plane waves:    1447
 k-point    57 :   0.0000-0.1250 0.0000  plane waves:    1444
 k-point    58 :   0.1250-0.1250 0.0000  plane waves:    1456
 k-point    59 :   0.2500-0.1250 0.0000  plane waves:    1453
 k-point    60 :   0.3750-0.1250 0.0000  plane waves:    1459
 k-point    61 :   0.5000-0.1250 0.0000  plane waves:    1455
 k-point    62 :  -0.3750-0.1250 0.0000  plane waves:    1452
 k-point    63 :  -0.2500-0.1250 0.0000  plane waves:    1447
 k-point    64 :  -0.1250-0.1250 0.0000  plane waves:    1439
 k-point    65 :  -0.0000 0.0000 0.1250  plane waves:    1444
 k-point    66 :   0.1250 0.0000 0.1250  plane waves:    1439
 k-point    67 :   0.2500 0.0000 0.1250  plane waves:    1447
 k-point    68 :   0.3750 0.0000 0.1250  plane waves:    1452
 k-point    69 :   0.5000 0.0000 0.1250  plane waves:    1455
 k-point    70 :  -0.3750-0.0000 0.1250  plane waves:    1459
 k-point    71 :  -0.2500 0.0000 0.1250  plane waves:    1453
 k-point    72 :  -0.1250 0.0000 0.1250  plane waves:    1456
 k-point    73 :  -0.0000 0.1250 0.1250  plane waves:    1439
 k-point    74 :   0.1250 0.1250 0.1250  plane waves:    1444
 k-point    75 :   0.2500 0.1250 0.1250  plane waves:    1456
 k-point    76 :   0.3750 0.1250 0.1250  plane waves:    1453
 k-point    77 :   0.5000 0.1250 0.1250  plane waves:    1459
 k-point    78 :  -0.3750 0.1250 0.1250  plane waves:    1455
 k-point    79 :  -0.2500 0.1250 0.1250  plane waves:    1452
 k-point    80 :  -0.1250 0.1250 0.1250  plane waves:    1447
 k-point    81 :  -0.0000 0.2500 0.1250  plane waves:    1447
 k-point    82 :   0.1250 0.2500 0.1250  plane waves:    1456
 k-point    83 :   0.2500 0.2500 0.1250  plane waves:    1447
 k-point    84 :   0.3750 0.2500 0.1250  plane waves:    1450
 k-point    85 :   0.5000 0.2500 0.1250  plane waves:    1462
 k-point    86 :  -0.3750 0.2500 0.1250  plane waves:    1452
 k-point    87 :  -0.2500 0.2500 0.1250  plane waves:    1462
 k-point    88 :  -0.1250 0.2500 0.1250  plane waves:    1450
 k-point    89 :  -0.0000 0.3750 0.1250  plane waves:    1452
 k-point    90 :   0.1250 0.3750 0.1250  plane waves:    1453
 k-point    91 :   0.2500 0.3750 0.1250  plane waves:    1450
 k-point    92 :   0.3750 0.3750 0.1250  plane waves:    1444
 k-point    93 :   0.5000 0.3750 0.1250  plane waves:    1442
 k-point    94 :  -0.3750 0.3750 0.1250  plane waves:    1458
 k-point    95 :  -0.2500 0.3750 0.1250  plane waves:    1463
 k-point    96 :  -0.1250 0.3750 0.1250  plane waves:    1462
 k-point    97 :  -0.0000 0.5000 0.1250  plane waves:    1455
 k-point    98 :   0.1250 0.5000 0.1250  plane waves:    1459
 k-point    99 :   0.2500 0.5000 0.1250  plane waves:    1462
 k-point   100 :   0.3750 0.5000 0.1250  plane waves:    1442
 k-point   101 :   0.5000 0.5000 0.1250  plane waves:    1463
 k-point   102 :  -0.3750 0.5000 0.1250  plane waves:    1460
 k-point   103 :  -0.2500 0.5000 0.1250  plane waves:    1458
 k-point   104 :  -0.1250 0.5000 0.1250  plane waves:    1452
 k-point   105 :  -0.0000-0.3750 0.1250  plane waves:    1459
 k-point   106 :   0.1250-0.3750 0.1250  plane waves:    1455
 k-point   107 :   0.2500-0.3750 0.1250  plane waves:    1452
 k-point   108 :   0.3750-0.3750 0.1250  plane waves:    1458
 k-point   109 :   0.5000-0.3750 0.1250  plane waves:    1460
 k-point   110 :  -0.3750-0.3750 0.1250  plane waves:    1463
 k-point   111 :  -0.2500-0.3750 0.1250  plane waves:    1442
 k-point   112 :  -0.1250-0.3750 0.1250  plane waves:    1462
 k-point   113 :  -0.0000-0.2500 0.1250  plane waves:    1453
 k-point   114 :   0.1250-0.2500 0.1250  plane waves:    1452
 k-point   115 :   0.2500-0.2500 0.1250  plane waves:    1462
 k-point   116 :   0.3750-0.2500 0.1250  plane waves:    1463
 k-point   117 :   0.5000-0.2500 0.1250  plane waves:    1458
 k-point   118 :  -0.3750-0.2500 0.1250  plane waves:    1442
 k-point   119 :  -0.2500-0.2500 0.1250  plane waves:    1444
 k-point   120 :  -0.1250-0.2500 0.1250  plane waves:    1450
 k-point   121 :  -0.0000-0.1250 0.1250  plane waves:    1456
 k-point   122 :   0.1250-0.1250 0.1250  plane waves:    1447
 k-point   123 :   0.2500-0.1250 0.1250  plane waves:    1450
 k-point   124 :   0.3750-0.1250 0.1250  plane waves:    1462
 k-point   125 :   0.5000-0.1250 0.1250  plane waves:    1452
 k-point   126 :  -0.3750-0.1250 0.1250  plane waves:    1462
 k-point   127 :  -0.2500-0.1250 0.1250  plane waves:    1450
 k-point   128 :  -0.1250-0.1250 0.1250  plane waves:    1447
 k-point   129 :  -0.0000 0.0000 0.2500  plane waves:    1447
 k-point   130 :   0.1250 0.0000 0.2500  plane waves:    1447
 k-point   131 :   0.2500 0.0000 0.2500  plane waves:    1475
 k-point   132 :   0.3750 0.0000 0.2500  plane waves:    1444
 k-point   133 :   0.5000 0.0000 0.2500  plane waves:    1461
 k-point   134 :  -0.3750 0.0000 0.2500  plane waves:    1471
 k-point   135 :  -0.2500 0.0000 0.2500  plane waves:    1464
 k-point   136 :  -0.1250 0.0000 0.2500  plane waves:    1453
 k-point   137 :  -0.0000 0.1250 0.2500  plane waves:    1447
 k-point   138 :   0.1250 0.1250 0.2500  plane waves:    1456
 k-point   139 :   0.2500 0.1250 0.2500  plane waves:    1447
 k-point   140 :   0.3750 0.1250 0.2500  plane waves:    1450
 k-point   141 :   0.5000 0.1250 0.2500  plane waves:    1462
 k-point   142 :  -0.3750 0.1250 0.2500  plane waves:    1452
 k-point   143 :  -0.2500 0.1250 0.2500  plane waves:    1462
 k-point   144 :  -0.1250 0.1250 0.2500  plane waves:    1450
 k-point   145 :  -0.0000 0.2500 0.2500  plane waves:    1475
 k-point   146 :   0.1250 0.2500 0.2500  plane waves:    1447
 k-point   147 :   0.2500 0.2500 0.2500  plane waves:    1447
 k-point   148 :   0.3750 0.2500 0.2500  plane waves:    1453
 k-point   149 :   0.5000 0.2500 0.2500  plane waves:    1464
 k-point   150 :  -0.3750 0.2500 0.2500  plane waves:    1471
 k-point   151 :  -0.2500 0.2500 0.2500  plane waves:    1461
 k-point   152 :  -0.1250 0.2500 0.2500  plane waves:    1444
 k-point   153 :  -0.0000 0.3750 0.2500  plane waves:    1444
 k-point   154 :   0.1250 0.3750 0.2500  plane waves:    1450
 k-point   155 :   0.2500 0.3750 0.2500  plane waves:    1453
 k-point   156 :   0.3750 0.3750 0.2500  plane waves:    1452
 k-point   157 :   0.5000 0.3750 0.2500  plane waves:    1462
 k-point   158 :  -0.3750 0.3750 0.2500  plane waves:    1463
 k-point   159 :  -0.2500 0.3750 0.2500  plane waves:    1458
 k-point   160 :  -0.1250 0.3750 0.2500  plane waves:    1442
 k-point   161 :  -0.0000 0.5000 0.2500  plane waves:    1461
 k-point   162 :   0.1250 0.5000 0.2500  plane waves:    1462
 k-point   163 :   0.2500 0.5000 0.2500  plane waves:    1464
 k-point   164 :   0.3750 0.5000 0.2500  plane waves:    1462
 k-point   165 :   0.5000 0.5000 0.2500  plane waves:    1461
 k-point   166 :  -0.3750 0.5000 0.2500  plane waves:    1458
 k-point   167 :  -0.2500 0.5000 0.2500  plane waves:    1448
 k-point   168 :  -0.1250 0.5000 0.2500  plane waves:    1458
 k-point   169 :  -0.0000-0.3750 0.2500  plane waves:    1471
 k-point   170 :   0.1250-0.3750 0.2500  plane waves:    1452
 k-point   171 :   0.2500-0.3750 0.2500  plane waves:    1471
 k-point   172 :   0.3750-0.3750 0.2500  plane waves:    1463
 k-point   173 :   0.5000-0.3750 0.2500  plane waves:    1458
 k-point   174 :  -0.3750-0.3750 0.2500  plane waves:    1472
 k-point   175 :  -0.2500-0.3750 0.2500  plane waves:    1458
 k-point   176 :  -0.1250-0.3750 0.2500  plane waves:    1463
 k-point   177 :  -0.0000-0.2500 0.2500  plane waves:    1464
 k-point   178 :   0.1250-0.2500 0.2500  plane waves:    1462
 k-point   179 :   0.2500-0.2500 0.2500  plane waves:    1461
 k-point   180 :   0.3750-0.2500 0.2500  plane waves:    1458
 k-point   181 :   0.5000-0.2500 0.2500  plane waves:    1448
 k-point   182 :  -0.3750-0.2500 0.2500  plane waves:    1458
 k-point   183 :  -0.2500-0.2500 0.2500  plane waves:    1461
 k-point   184 :  -0.1250-0.2500 0.2500  plane waves:    1462
 k-point   185 :  -0.0000-0.1250 0.2500  plane waves:    1453
 k-point   186 :   0.1250-0.1250 0.2500  plane waves:    1450
 k-point   187 :   0.2500-0.1250 0.2500  plane waves:    1444
 k-point   188 :   0.3750-0.1250 0.2500  plane waves:    1442
 k-point   189 :   0.5000-0.1250 0.2500  plane waves:    1458
 k-point   190 :  -0.3750-0.1250 0.2500  plane waves:    1463
 k-point   191 :  -0.2500-0.1250 0.2500  plane waves:    1462
 k-point   192 :  -0.1250-0.1250 0.2500  plane waves:    1452
 k-point   193 :  -0.0000 0.0000 0.3750  plane waves:    1447
 k-point   194 :   0.1250 0.0000 0.3750  plane waves:    1452
 k-point   195 :   0.2500 0.0000 0.3750  plane waves:    1444
 k-point   196 :   0.3750 0.0000 0.3750  plane waves:    1455
 k-point   197 :   0.5000 0.0000 0.3750  plane waves:    1463
 k-point   198 :  -0.3750 0.0000 0.3750  plane waves:    1472
 k-point   199 :  -0.2500 0.0000 0.3750  plane waves:    1471
 k-point   200 :  -0.1250 0.0000 0.3750  plane waves:    1459
 k-point   201 :  -0.0000 0.1250 0.3750  plane waves:    1452
 k-point   202 :   0.1250 0.1250 0.3750  plane waves:    1453
 k-point   203 :   0.2500 0.1250 0.3750  plane waves:    1450
 k-point   204 :   0.3750 0.1250 0.3750  plane waves:    1444
 k-point   205 :   0.5000 0.1250 0.3750  plane waves:    1442
 k-point   206 :  -0.3750 0.1250 0.3750  plane waves:    1458
 k-point   207 :  -0.2500 0.1250 0.3750  plane waves:    1463
 k-point   208 :  -0.1250 0.1250 0.3750  plane waves:    1462
 k-point   209 :  -0.0000 0.2500 0.3750  plane waves:    1444
 k-point   210 :   0.1250 0.2500 0.3750  plane waves:    1450
 k-point   211 :   0.2500 0.2500 0.3750  plane waves:    1453
 k-point   212 :   0.3750 0.2500 0.3750  plane waves:    1452
 k-point   213 :   0.5000 0.2500 0.3750  plane waves:    1462
 k-point   214 :  -0.3750 0.2500 0.3750  plane waves:    1463
 k-point   215 :  -0.2500 0.2500 0.3750  plane waves:    1458
 k-point   216 :  -0.1250 0.2500 0.3750  plane waves:    1442
 k-point   217 :  -0.0000 0.3750 0.3750  plane waves:    1455
 k-point   218 :   0.1250 0.3750 0.3750  plane waves:    1444
 k-point   219 :   0.2500 0.3750 0.3750  plane waves:    1452
 k-point   220 :   0.3750 0.3750 0.3750  plane waves:    1447
 k-point   221 :   0.5000 0.3750 0.3750  plane waves:    1459
 k-point   222 :  -0.3750 0.3750 0.3750  plane waves:    1471
 k-point   223 :  -0.2500 0.3750 0.3750  plane waves:    1472
 k-point   224 :  -0.1250 0.3750 0.3750  plane waves:    1463
 k-point   225 :  -0.0000 0.5000 0.3750  plane waves:    1463
 k-point   226 :   0.1250 0.5000 0.3750  plane waves:    1442
 k-point   227 :   0.2500 0.5000 0.3750  plane waves:    1462
 k-point   228 :   0.3750 0.5000 0.3750  plane waves:    1459
 k-point   229 :   0.5000 0.5000 0.3750  plane waves:    1455
 k-point   230 :  -0.3750 0.5000 0.3750  plane waves:    1452
 k-point   231 :  -0.2500 0.5000 0.3750  plane waves:    1458
 k-point   232 :  -0.1250 0.5000 0.3750  plane waves:    1460
 k-point   233 :  -0.0000-0.3750 0.3750  plane waves:    1472
 k-point   234 :   0.1250-0.3750 0.3750  plane waves:    1458
 k-point   235 :   0.2500-0.3750 0.3750  plane waves:    1463
 k-point   236 :   0.3750-0.3750 0.3750  plane waves:    1471
 k-point   237 :   0.5000-0.3750 0.3750  plane waves:    1452
 k-point   238 :  -0.3750-0.3750 0.3750  plane waves:    1471
 k-point   239 :  -0.2500-0.3750 0.3750  plane waves:    1463
 k-point   240 :  -0.1250-0.3750 0.3750  plane waves:    1458
 k-point   241 :  -0.0000-0.2500 0.3750  plane waves:    1471
 k-point   242 :   0.1250-0.2500 0.3750  plane waves:    1463
 k-point   243 :   0.2500-0.2500 0.3750  plane waves:    1458
 k-point   244 :   0.3750-0.2500 0.3750  plane waves:    1472
 k-point   245 :   0.5000-0.2500 0.3750  plane waves:    1458
 k-point   246 :  -0.3750-0.2500 0.3750  plane waves:    1463
 k-point   247 :  -0.2500-0.2500 0.3750  plane waves:    1471
 k-point   248 :  -0.1250-0.2500 0.3750  plane waves:    1452
 k-point   249 :  -0.0000-0.1250 0.3750  plane waves:    1459
 k-point   250 :   0.1250-0.1250 0.3750  plane waves:    1462
 k-point   251 :   0.2500-0.1250 0.3750  plane waves:    1442
 k-point   252 :   0.3750-0.1250 0.3750  plane waves:    1463
 k-point   253 :   0.5000-0.1250 0.3750  plane waves:    1460
 k-point   254 :  -0.3750-0.1250 0.3750  plane waves:    1458
 k-point   255 :  -0.2500-0.1250 0.3750  plane waves:    1452
 k-point   256 :  -0.1250-0.1250 0.3750  plane waves:    1455
 k-point   257 :  -0.0000 0.0000 0.5000  plane waves:    1458
 k-point   258 :   0.1250 0.0000 0.5000  plane waves:    1455
 k-point   259 :   0.2500 0.0000 0.5000  plane waves:    1461
 k-point   260 :   0.3750 0.0000 0.5000  plane waves:    1463
 k-point   261 :   0.5000 0.0000 0.5000  plane waves:    1428
 k-point   262 :  -0.3750 0.0000 0.5000  plane waves:    1463
 k-point   263 :  -0.2500 0.0000 0.5000  plane waves:    1461
 k-point   264 :  -0.1250 0.0000 0.5000  plane waves:    1455
 k-point   265 :  -0.0000 0.1250 0.5000  plane waves:    1455
 k-point   266 :   0.1250 0.1250 0.5000  plane waves:    1459
 k-point   267 :   0.2500 0.1250 0.5000  plane waves:    1462
 k-point   268 :   0.3750 0.1250 0.5000  plane waves:    1442
 k-point   269 :   0.5000 0.1250 0.5000  plane waves:    1463
 k-point   270 :  -0.3750 0.1250 0.5000  plane waves:    1460
 k-point   271 :  -0.2500 0.1250 0.5000  plane waves:    1458
 k-point   272 :  -0.1250 0.1250 0.5000  plane waves:    1452
 k-point   273 :  -0.0000 0.2500 0.5000  plane waves:    1461
 k-point   274 :   0.1250 0.2500 0.5000  plane waves:    1462
 k-point   275 :   0.2500 0.2500 0.5000  plane waves:    1464
 k-point   276 :   0.3750 0.2500 0.5000  plane waves:    1462
 k-point   277 :   0.5000 0.2500 0.5000  plane waves:    1461
 k-point   278 :  -0.3750 0.2500 0.5000  plane waves:    1458
 k-point   279 :  -0.2500 0.2500 0.5000  plane waves:    1448
 k-point   280 :  -0.1250 0.2500 0.5000  plane waves:    1458
 k-point   281 :  -0.0000 0.3750 0.5000  plane waves:    1463
 k-point   282 :   0.1250 0.3750 0.5000  plane waves:    1442
 k-point   283 :   0.2500 0.3750 0.5000  plane waves:    1462
 k-point   284 :   0.3750 0.3750 0.5000  plane waves:    1459
 k-point   285 :   0.5000 0.3750 0.5000  plane waves:    1455
 k-point   286 :  -0.3750 0.3750 0.5000  plane waves:    1452
 k-point   287 :  -0.2500 0.3750 0.5000  plane waves:    1458
 k-point   288 :  -0.1250 0.3750 0.5000  plane waves:    1460
 k-point   289 :  -0.0000 0.5000 0.5000  plane waves:    1428
 k-point   290 :   0.1250 0.5000 0.5000  plane waves:    1463
 k-point   291 :   0.2500 0.5000 0.5000  plane waves:    1461
 k-point   292 :   0.3750 0.5000 0.5000  plane waves:    1455
 k-point   293 :   0.5000 0.5000 0.5000  plane waves:    1458
 k-point   294 :  -0.3750 0.5000 0.5000  plane waves:    1455
 k-point   295 :  -0.2500 0.5000 0.5000  plane waves:    1461
 k-point   296 :  -0.1250 0.5000 0.5000  plane waves:    1463
 k-point   297 :  -0.0000-0.3750 0.5000  plane waves:    1463
 k-point   298 :   0.1250-0.3750 0.5000  plane waves:    1460
 k-point   299 :   0.2500-0.3750 0.5000  plane waves:    1458
 k-point   300 :   0.3750-0.3750 0.5000  plane waves:    1452
 k-point   301 :   0.5000-0.3750 0.5000  plane waves:    1455
 k-point   302 :  -0.3750-0.3750 0.5000  plane waves:    1459
 k-point   303 :  -0.2500-0.3750 0.5000  plane waves:    1462
 k-point   304 :  -0.1250-0.3750 0.5000  plane waves:    1442
 k-point   305 :  -0.0000-0.2500 0.5000  plane waves:    1461
 k-point   306 :   0.1250-0.2500 0.5000  plane waves:    1458
 k-point   307 :   0.2500-0.2500 0.5000  plane waves:    1448
 k-point   308 :   0.3750-0.2500 0.5000  plane waves:    1458
 k-point   309 :   0.5000-0.2500 0.5000  plane waves:    1461
 k-point   310 :  -0.3750-0.2500 0.5000  plane waves:    1462
 k-point   311 :  -0.2500-0.2500 0.5000  plane waves:    1464
 k-point   312 :  -0.1250-0.2500 0.5000  plane waves:    1462
 k-point   313 :  -0.0000-0.1250 0.5000  plane waves:    1455
 k-point   314 :   0.1250-0.1250 0.5000  plane waves:    1452
 k-point   315 :   0.2500-0.1250 0.5000  plane waves:    1458
 k-point   316 :   0.3750-0.1250 0.5000  plane waves:    1460
 k-point   317 :   0.5000-0.1250 0.5000  plane waves:    1463
 k-point   318 :  -0.3750-0.1250 0.5000  plane waves:    1442
 k-point   319 :  -0.2500-0.1250 0.5000  plane waves:    1462
 k-point   320 :  -0.1250-0.1250 0.5000  plane waves:    1459
 k-point   321 :   0.0000-0.0000-0.3750  plane waves:    1447
 k-point   322 :   0.1250-0.0000-0.3750  plane waves:    1459
 k-point   323 :   0.2500-0.0000-0.3750  plane waves:    1471
 k-point   324 :   0.3750-0.0000-0.3750  plane waves:    1472
 k-point   325 :   0.5000-0.0000-0.3750  plane waves:    1463
 k-point   326 :  -0.3750 0.0000-0.3750  plane waves:    1455
 k-point   327 :  -0.2500-0.0000-0.3750  plane waves:    1444
 k-point   328 :  -0.1250-0.0000-0.3750  plane waves:    1452
 k-point   329 :   0.0000 0.1250-0.3750  plane waves:    1459
 k-point   330 :   0.1250 0.1250-0.3750  plane waves:    1455
 k-point   331 :   0.2500 0.1250-0.3750  plane waves:    1452
 k-point   332 :   0.3750 0.1250-0.3750  plane waves:    1458
 k-point   333 :   0.5000 0.1250-0.3750  plane waves:    1460
 k-point   334 :  -0.3750 0.1250-0.3750  plane waves:    1463
 k-point   335 :  -0.2500 0.1250-0.3750  plane waves:    1442
 k-point   336 :  -0.1250 0.1250-0.3750  plane waves:    1462
 k-point   337 :   0.0000 0.2500-0.3750  plane waves:    1471
 k-point   338 :   0.1250 0.2500-0.3750  plane waves:    1452
 k-point   339 :   0.2500 0.2500-0.3750  plane waves:    1471
 k-point   340 :   0.3750 0.2500-0.3750  plane waves:    1463
 k-point   341 :   0.5000 0.2500-0.3750  plane waves:    1458
 k-point   342 :  -0.3750 0.2500-0.3750  plane waves:    1472
 k-point   343 :  -0.2500 0.2500-0.3750  plane waves:    1458
 k-point   344 :  -0.1250 0.2500-0.3750  plane waves:    1463
 k-point   345 :   0.0000 0.3750-0.3750  plane waves:    1472
 k-point   346 :   0.1250 0.3750-0.3750  plane waves:    1458
 k-point   347 :   0.2500 0.3750-0.3750  plane waves:    1463
 k-point   348 :   0.3750 0.3750-0.3750  plane waves:    1471
 k-point   349 :   0.5000 0.3750-0.3750  plane waves:    1452
 k-point   350 :  -0.3750 0.3750-0.3750  plane waves:    1471
 k-point   351 :  -0.2500 0.3750-0.3750  plane waves:    1463
 k-point   352 :  -0.1250 0.3750-0.3750  plane waves:    1458
 k-point   353 :   0.0000 0.5000-0.3750  plane waves:    1463
 k-point   354 :   0.1250 0.5000-0.3750  plane waves:    1460
 k-point   355 :   0.2500 0.5000-0.3750  plane waves:    1458
 k-point   356 :   0.3750 0.5000-0.3750  plane waves:    1452
 k-point   357 :   0.5000 0.5000-0.3750  plane waves:    1455
 k-point   358 :  -0.3750 0.5000-0.3750  plane waves:    1459
 k-point   359 :  -0.2500 0.5000-0.3750  plane waves:    1462
 k-point   360 :  -0.1250 0.5000-0.3750  plane waves:    1442
 k-point   361 :   0.0000-0.3750-0.3750  plane waves:    1455
 k-point   362 :   0.1250-0.3750-0.3750  plane waves:    1463
 k-point   363 :   0.2500-0.3750-0.3750  plane waves:    1472
 k-point   364 :   0.3750-0.3750-0.3750  plane waves:    1471
 k-point   365 :   0.5000-0.3750-0.3750  plane waves:    1459
 k-point   366 :  -0.3750-0.3750-0.3750  plane waves:    1447
 k-point   367 :  -0.2500-0.3750-0.3750  plane waves:    1452
 k-point   368 :  -0.1250-0.3750-0.3750  plane waves:    1444
 k-point   369 :   0.0000-0.2500-0.3750  plane waves:    1444
 k-point   370 :   0.1250-0.2500-0.3750  plane waves:    1442
 k-point   371 :   0.2500-0.2500-0.3750  plane waves:    1458
 k-point   372 :   0.3750-0.2500-0.3750  plane waves:    1463
 k-point   373 :   0.5000-0.2500-0.3750  plane waves:    1462
 k-point   374 :  -0.3750-0.2500-0.3750  plane waves:    1452
 k-point   375 :  -0.2500-0.2500-0.3750  plane waves:    1453
 k-point   376 :  -0.1250-0.2500-0.3750  plane waves:    1450
 k-point   377 :   0.0000-0.1250-0.3750  plane waves:    1452
 k-point   378 :   0.1250-0.1250-0.3750  plane waves:    1462
 k-point   379 :   0.2500-0.1250-0.3750  plane waves:    1463
 k-point   380 :   0.3750-0.1250-0.3750  plane waves:    1458
 k-point   381 :   0.5000-0.1250-0.3750  plane waves:    1442
 k-point   382 :  -0.3750-0.1250-0.3750  plane waves:    1444
 k-point   383 :  -0.2500-0.1250-0.3750  plane waves:    1450
 k-point   384 :  -0.1250-0.1250-0.3750  plane waves:    1453
 k-point   385 :   0.0000 0.0000-0.2500  plane waves:    1447
 k-point   386 :   0.1250 0.0000-0.2500  plane waves:    1453
 k-point   387 :   0.2500-0.0000-0.2500  plane waves:    1464
 k-point   388 :   0.3750-0.0000-0.2500  plane waves:    1471
 k-point   389 :   0.5000-0.0000-0.2500  plane waves:    1461
 k-point   390 :  -0.3750 0.0000-0.2500  plane waves:    1444
 k-point   391 :  -0.2500 0.0000-0.2500  plane waves:    1475
 k-point   392 :  -0.1250 0.0000-0.2500  plane waves:    1447
 k-point   393 :   0.0000 0.1250-0.2500  plane waves:    1453
 k-point   394 :   0.1250 0.1250-0.2500  plane waves:    1452
 k-point   395 :   0.2500 0.1250-0.2500  plane waves:    1462
 k-point   396 :   0.3750 0.1250-0.2500  plane waves:    1463
 k-point   397 :   0.5000 0.1250-0.2500  plane waves:    1458
 k-point   398 :  -0.3750 0.1250-0.2500  plane waves:    1442
 k-point   399 :  -0.2500 0.1250-0.2500  plane waves:    1444
 k-point   400 :  -0.1250 0.1250-0.2500  plane waves:    1450
 k-point   401 :   0.0000 0.2500-0.2500  plane waves:    1464
 k-point   402 :   0.1250 0.2500-0.2500  plane waves:    1462
 k-point   403 :   0.2500 0.2500-0.2500  plane waves:    1461
 k-point   404 :   0.3750 0.2500-0.2500  plane waves:    1458
 k-point   405 :   0.5000 0.2500-0.2500  plane waves:    1448
 k-point   406 :  -0.3750 0.2500-0.2500  plane waves:    1458
 k-point   407 :  -0.2500 0.2500-0.2500  plane waves:    1461
 k-point   408 :  -0.1250 0.2500-0.2500  plane waves:    1462
 k-point   409 :   0.0000 0.3750-0.2500  plane waves:    1471
 k-point   410 :   0.1250 0.3750-0.2500  plane waves:    1463
 k-point   411 :   0.2500 0.3750-0.2500  plane waves:    1458
 k-point   412 :   0.3750 0.3750-0.2500  plane waves:    1472
 k-point   413 :   0.5000 0.3750-0.2500  plane waves:    1458
 k-point   414 :  -0.3750 0.3750-0.2500  plane waves:    1463
 k-point   415 :  -0.2500 0.3750-0.2500  plane waves:    1471
 k-point   416 :  -0.1250 0.3750-0.2500  plane waves:    1452
 k-point   417 :   0.0000 0.5000-0.2500  plane waves:    1461
 k-point   418 :   0.1250 0.5000-0.2500  plane waves:    1458
 k-point   419 :   0.2500 0.5000-0.2500  plane waves:    1448
 k-point   420 :   0.3750 0.5000-0.2500  plane waves:    1458
 k-point   421 :   0.5000 0.5000-0.2500  plane waves:    1461
 k-point   422 :  -0.3750 0.5000-0.2500  plane waves:    1462
 k-point   423 :  -0.2500 0.5000-0.2500  plane waves:    1464
 k-point   424 :  -0.1250 0.5000-0.2500  plane waves:    1462
 k-point   425 :   0.0000-0.3750-0.2500  plane waves:    1444
 k-point   426 :   0.1250-0.3750-0.2500  plane waves:    1442
 k-point   427 :   0.2500-0.3750-0.2500  plane waves:    1458
 k-point   428 :   0.3750-0.3750-0.2500  plane waves:    1463
 k-point   429 :   0.5000-0.3750-0.2500  plane waves:    1462
 k-point   430 :  -0.3750-0.3750-0.2500  plane waves:    1452
 k-point   431 :  -0.2500-0.3750-0.2500  plane waves:    1453
 k-point   432 :  -0.1250-0.3750-0.2500  plane waves:    1450
 k-point   433 :   0.0000-0.2500-0.2500  plane waves:    1475
 k-point   434 :   0.1250-0.2500-0.2500  plane waves:    1444
 k-point   435 :   0.2500-0.2500-0.2500  plane waves:    1461
 k-point   436 :   0.3750-0.2500-0.2500  plane waves:    1471
 k-point   437 :   0.5000-0.2500-0.2500  plane waves:    1464
 k-point   438 :  -0.3750-0.2500-0.2500  plane waves:    1453
 k-point   439 :  -0.2500-0.2500-0.2500  plane waves:    1447
 k-point   440 :  -0.1250-0.2500-0.2500  plane waves:    1447
 k-point   441 :   0.0000-0.1250-0.2500  plane waves:    1447
 k-point   442 :   0.1250-0.1250-0.2500  plane waves:    1450
 k-point   443 :   0.2500-0.1250-0.2500  plane waves:    1462
 k-point   444 :   0.3750-0.1250-0.2500  plane waves:    1452
 k-point   445 :   0.5000-0.1250-0.2500  plane waves:    1462
 k-point   446 :  -0.3750-0.1250-0.2500  plane waves:    1450
 k-point   447 :  -0.2500-0.1250-0.2500  plane waves:    1447
 k-point   448 :  -0.1250-0.1250-0.2500  plane waves:    1456
 k-point   449 :   0.0000 0.0000-0.1250  plane waves:    1444
 k-point   450 :   0.1250-0.0000-0.1250  plane waves:    1456
 k-point   451 :   0.2500-0.0000-0.1250  plane waves:    1453
 k-point   452 :   0.3750 0.0000-0.1250  plane waves:    1459
 k-point   453 :   0.5000 0.0000-0.1250  plane waves:    1455
 k-point   454 :  -0.3750-0.0000-0.1250  plane waves:    1452
 k-point   455 :  -0.2500 0.0000-0.1250  plane waves:    1447
 k-point   456 :  -0.1250 0.0000-0.1250  plane waves:    1439
 k-point   457 :   0.0000 0.1250-0.1250  plane waves:    1456
 k-point   458 :   0.1250 0.1250-0.1250  plane waves:    1447
 k-point   459 :   0.2500 0.1250-0.1250  plane waves:    1450
 k-point   460 :   0.3750 0.1250-0.1250  plane waves:    1462
 k-point   461 :   0.5000 0.1250-0.1250  plane waves:    1452
 k-point   462 :  -0.3750 0.1250-0.1250  plane waves:    1462
 k-point   463 :  -0.2500 0.1250-0.1250  plane waves:    1450
 k-point   464 :  -0.1250 0.1250-0.1250  plane waves:    1447
 k-point   465 :   0.0000 0.2500-0.1250  plane waves:    1453
 k-point   466 :   0.1250 0.2500-0.1250  plane waves:    1450
 k-point   467 :   0.2500 0.2500-0.1250  plane waves:    1444
 k-point   468 :   0.3750 0.2500-0.1250  plane waves:    1442
 k-point   469 :   0.5000 0.2500-0.1250  plane waves:    1458
 k-point   470 :  -0.3750 0.2500-0.1250  plane waves:    1463
 k-point   471 :  -0.2500 0.2500-0.1250  plane waves:    1462
 k-point   472 :  -0.1250 0.2500-0.1250  plane waves:    1452
 k-point   473 :   0.0000 0.3750-0.1250  plane waves:    1459
 k-point   474 :   0.1250 0.3750-0.1250  plane waves:    1462
 k-point   475 :   0.2500 0.3750-0.1250  plane waves:    1442
 k-point   476 :   0.3750 0.3750-0.1250  plane waves:    1463
 k-point   477 :   0.5000 0.3750-0.1250  plane waves:    1460
 k-point   478 :  -0.3750 0.3750-0.1250  plane waves:    1458
 k-point   479 :  -0.2500 0.3750-0.1250  plane waves:    1452
 k-point   480 :  -0.1250 0.3750-0.1250  plane waves:    1455
 k-point   481 :   0.0000 0.5000-0.1250  plane waves:    1455
 k-point   482 :   0.1250 0.5000-0.1250  plane waves:    1452
 k-point   483 :   0.2500 0.5000-0.1250  plane waves:    1458
 k-point   484 :   0.3750 0.5000-0.1250  plane waves:    1460
 k-point   485 :   0.5000 0.5000-0.1250  plane waves:    1463
 k-point   486 :  -0.3750 0.5000-0.1250  plane waves:    1442
 k-point   487 :  -0.2500 0.5000-0.1250  plane waves:    1462
 k-point   488 :  -0.1250 0.5000-0.1250  plane waves:    1459
 k-point   489 :   0.0000-0.3750-0.1250  plane waves:    1452
 k-point   490 :   0.1250-0.3750-0.1250  plane waves:    1462
 k-point   491 :   0.2500-0.3750-0.1250  plane waves:    1463
 k-point   492 :   0.3750-0.3750-0.1250  plane waves:    1458
 k-point   493 :   0.5000-0.3750-0.1250  plane waves:    1442
 k-point   494 :  -0.3750-0.3750-0.1250  plane waves:    1444
 k-point   495 :  -0.2500-0.3750-0.1250  plane waves:    1450
 k-point   496 :  -0.1250-0.3750-0.1250  plane waves:    1453
 k-point   497 :   0.0000-0.2500-0.1250  plane waves:    1447
 k-point   498 :   0.1250-0.2500-0.1250  plane waves:    1450
 k-point   499 :   0.2500-0.2500-0.1250  plane waves:    1462
 k-point   500 :   0.3750-0.2500-0.1250  plane waves:    1452
 k-point   501 :   0.5000-0.2500-0.1250  plane waves:    1462
 k-point   502 :  -0.3750-0.2500-0.1250  plane waves:    1450
 k-point   503 :  -0.2500-0.2500-0.1250  plane waves:    1447
 k-point   504 :  -0.1250-0.2500-0.1250  plane waves:    1456
 k-point   505 :   0.0000-0.1250-0.1250  plane waves:    1439
 k-point   506 :   0.1250-0.1250-0.1250  plane waves:    1447
 k-point   507 :   0.2500-0.1250-0.1250  plane waves:    1452
 k-point   508 :   0.3750-0.1250-0.1250  plane waves:    1455
 k-point   509 :   0.5000-0.1250-0.1250  plane waves:    1459
 k-point   510 :  -0.3750-0.1250-0.1250  plane waves:    1453
 k-point   511 :  -0.2500-0.1250-0.1250  plane waves:    1456
 k-point   512 :  -0.1250-0.1250-0.1250  plane waves:    1444

 maximum and minimum number of plane-waves per node :       749      708

 maximum number of plane-waves:      1475
 maximum index in each direction: 
   IXMAX=    8   IYMAX=    8   IZMAX=    8
   IXMIN=   -8   IYMIN=   -8   IZMIN=   -8


 parallel 3D FFT for wavefunctions:
    minimum data exchange during FFTs selected (reduces bandwidth)
 parallel 3D FFT for charge:
    minimum data exchange during FFTs selected (reduces bandwidth)


 total amount of memory used by VASP MPI-rank0   236951. kBytes
=======================================================================

   base                                    :      30000. kBytes
   nonl-proj                               :      48782. kBytes
   fftplans                                :       1618. kBytes
   grid                                    :       2539. kBytes
   one-center                              :          3. kBytes
   wavefun                                 :     154009. kBytes
 
     INWAV:  cpu time      0.0000: real time      0.0000
 Broyden mixing: mesh for mixing (old mesh)
   NGX = 15   NGY = 15   NGZ = 15
  (NGX  = 64   NGY  = 64   NGZ  = 64)
  gives a total of   3375 points

 initial charge density was supplied:
 charge density of overlapping atoms calculated
 number of electron      14.0000000 magnetization 
 keeping initial charge density in first step


--------------------------------------------------------------------------------------------------------


 Maximum index for augmentation-charges         2677 (set IRDMAX)


--------------------------------------------------------------------------------------------------------


 First call to EWALD:  gamma=   0.503
 Maximum number of real-space cells   3x   3x   3
 Maximum number of reciprocal cells   3x   3x   3

    FEWALD:  cpu time      0.0136: real time      0.0139


--------------------------------------- Ionic step        1  -------------------------------------------




--------------------------------------- Iteration      1(   1)  ---------------------------------------


    POTLOK:  cpu time      0.0213: real time      0.0227
    SETDIJ:  cpu time      0.0364: real time      0.0371
     EDDAV:  cpu time     16.1792: real time     16.3104
       DOS:  cpu time      0.0039: real time      0.0043
    --------------------------------------------
      LOOP:  cpu time     16.2409: real time     16.3745

 eigenvalue-minimisations  :111144
 total energy-change (2. order) : 0.1239841E+03  (-0.3474594E+03)
 number of electron      14.0000000 magnetization 
 augmentation part       14.0000000 magnetization 

 Free energy of the ion-electron system (eV)
  ---------------------------------------------------
  alpha Z        PSCENC =        23.66057892
  Ewald energy   TEWEN  =      -716.50759933
  -Hartree energ DENC   =      -280.04729197
  -exchange      EXHF   =         0.00000000
  -V(xc)+E(xc)   XCENC  =        44.85555909
  PAW double counting   =       827.62341595     -916.31000354
  entropy T*S    EENTRO =        -0.00000000
  eigenvalues    EBANDS =       -35.05730958
  atomic energy  EATOM  =      1175.76678205
  Solvation  Ediel_sol  =         0.00000000
  ---------------------------------------------------
  free energy    TOTEN  =       123.98413159 eV

  energy without entropy =      123.98413159  energy(sigma->0) =      123.98413159


--------------------------------------------------------------------------------------------------------




--------------------------------------- Iteration      1(   2)  ---------------------------------------


     EDDAV:  cpu time     16.5504: real time     16.6746
       DOS:  cpu time      0.0031: real time      0.0031
    --------------------------------------------
      LOOP:  cpu time     16.5535: real time     16.6777

 eigenvalue-minimisations  :114904
 total energy-change (2. order) :-0.1211295E+03  (-0.1069167E+03)
 number of electron      14.0000000 magnetization 
 augmentation part       14.0000000 magnetization 

 Free energy of the ion-electron system (eV)
  ---------------------------------------------------
  alpha Z        PSCENC =        23.66057892
  Ewald energy   TEWEN  =      -716.50759933
  -Hartree energ DENC   =      -280.04729197
  -exchange      EXHF   =         0.00000000
  -V(xc)+E(xc)   XCENC  =        44.85555909
  PAW double counting   =       827.62341595     -916.31000354
  entropy T*S    EENTRO =        -0.00000000
  eigenvalues    EBANDS =      -156.18681530
  atomic energy  EATOM  =      1175.76678205
  Solvation  Ediel_sol  =         0.00000000
  ---------------------------------------------------
  free energy    TOTEN  =         2.85462587 eV

  energy without entropy =        2.85462587  energy(sigma->0) =        2.85462587


--------------------------------------------------------------------------------------------------------




--------------------------------------- Iteration      1(   3)  ---------------------------------------


     EDDAV:  cpu time     17.2446: real time     17.3760
       DOS:  cpu time      0.0031: real time      0.0032
    --------------------------------------------
      LOOP:  cpu time     17.2478: real time     17.3792

 eigenvalue-minimisations  :121720
 total energy-change (2. order) :-0.9722447E+01  (-0.9494419E+01)
 number of electron      14.0000000 magnetization 
 augmentation part       14.0000000 magnetization 

 Free energy of the ion-electron system (eV)
  ---------------------------------------------------
  alpha Z        PSCENC =        23.66057892
  Ewald energy   TEWEN  =      -716.50759933
  -Hartree energ DENC   =      -280.04729197
  -exchange      EXHF   =         0.00000000
  -V(xc)+E(xc)   XCENC  =        44.85555909
  PAW double counting   =       827.62341595     -916.31000354
  entropy T*S    EENTRO =        -0.00000000
  eigenvalues    EBANDS =      -165.90926256
  atomic energy  EATOM  =      1175.76678205
  Solvation  Ediel_sol  =         0.00000000
  ---------------------------------------------------
  free energy    TOTEN  =        -6.86782139 eV

  energy without entropy =       -6.86782139  energy(sigma->0) =       -6.86782139


--------------------------------------------------------------------------------------------------------




--------------------------------------- Iteration      1(   4)  ---------------------------------------


     EDDAV:  cpu time     16.7974: real time     16.9232
       DOS:  cpu time      0.0032: real time      0.0032
    --------------------------------------------
      LOOP:  cpu time     16.8006: real time     16.9264

 eigenvalue-minimisations  :117160
 total energy-change (2. order) :-0.9137212E-01  (-0.9132336E-01)
 number of electron      14.0000000 magnetization 
 augmentation part       14.0000000 magnetization 

 Free energy of the ion-electron system (eV)
  ---------------------------------------------------
  alpha Z        PSCENC =        23.66057892
  Ewald energy   TEWEN  =      -716.50759933
  -Hartree energ DENC   =      -280.04729197
  -exchange      EXHF   =         0.00000000
  -V(xc)+E(xc)   XCENC  =        44.85555909
  PAW double counting   =       827.62341595     -916.31000354
  entropy T*S    EENTRO =        -0.00000000
  eigenvalues    EBANDS =      -166.00063467
  atomic energy  EATOM  =      1175.76678205
  Solvation  Ediel_sol  =         0.00000000
  ---------------------------------------------------
  free energy    TOTEN  =        -6.95919350 eV

  energy without entropy =       -6.95919350  energy(sigma->0) =       -6.95919350


--------------------------------------------------------------------------------------------------------




--------------------------------------- Iteration      1(   5)  ---------------------------------------


     EDDAV:  cpu time     16.8836: real time     17.0105
       DOS:  cpu time      0.0031: real time      0.0031
    CHARGE:  cpu time      0.0868: real time      0.0897
    MIXING:  cpu time      0.0015: real time      0.0022
    --------------------------------------------
      LOOP:  cpu time     16.9750: real time     17.1055

 eigenvalue-minimisations  :118496
 total energy-change (2. order) :-0.1003402E-03  (-0.1003380E-03)
 number of electron      14.0000010 magnetization 
 augmentation part        3.4955163 magnetization 

 Broyden mixing:
  rms(total) = 0.21561E+00    rms(broyden)= 0.21561E+00
  rms(prec ) = 0.75020E+00
  weight for this iteration     100.00

 Free energy of the ion-electron system (eV)
  ---------------------------------------------------
  alpha Z        PSCENC =        23.66057892
  Ewald energy   TEWEN  =      -716.50759933
  -Hartree energ DENC   =      -280.04729197
  -exchange      EXHF   =         0.00000000
  -V(xc)+E(xc)   XCENC  =        44.85555909
  PAW double counting   =       827.62341595     -916.31000354
  entropy T*S    EENTRO =        -0.00000000
  eigenvalues    EBANDS =      -166.00073501
  atomic energy  EATOM  =      1175.76678205
  Solvation  Ediel_sol  =         0.00000000
  ---------------------------------------------------
  free energy    TOTEN  =        -6.95929384 eV

  energy without entropy =       -6.95929384  energy(sigma->0) =       -6.95929384


--------------------------------------------------------------------------------------------------------




--------------------------------------- Iteration      1(   6)  ---------------------------------------


    POTLOK:  cpu time      0.0189: real time      0.0190
    SETDIJ:  cpu time      0.0353: real time      0.0354
     EDDAV:  cpu time     18.4857: real time     18.6077
       DOS:  cpu time      0.0031: real time      0.0031
    CHARGE:  cpu time      0.0847: real time      0.0849
    MIXING:  cpu time      0.0014: real time      0.0091
    --------------------------------------------
      LOOP:  cpu time     18.6291: real time     18.7593

 eigenvalue-minimisations  :133756
 total energy-change (2. order) : 0.1868035E+00  (-0.8150413E-02)
 number of electron      14.0000010 magnetization 
 augmentation part        3.5226685 magnetization 

 Broyden mixing:
  rms(total) = 0.17079E+00    rms(broyden)= 0.17079E+00
  rms(prec ) = 0.33917E+00
  weight for this iteration     100.00

 eigenvalues of (default mixing * dielectric matrix)
  average eigenvalue GAMMA=   0.9137
  0.9137

 Free energy of the ion-electron system (eV)
  ---------------------------------------------------
  alpha Z        PSCENC =        23.66057892
  Ewald energy   TEWEN  =      -716.50759933
  -Hartree energ DENC   =      -282.85669578
  -exchange      EXHF   =         0.00000000
  -V(xc)+E(xc)   XCENC  =        45.20461426
  PAW double counting   =       859.19943735     -947.86431886
  entropy T*S    EENTRO =        -0.00000000
  eigenvalues    EBANDS =      -163.37528894
  atomic energy  EATOM  =      1175.76678205
  Solvation  Ediel_sol  =         0.00000000
  ---------------------------------------------------
  free energy    TOTEN  =        -6.77249033 eV

  energy without entropy =       -6.77249033  energy(sigma->0) =       -6.77249033


--------------------------------------------------------------------------------------------------------




--------------------------------------- Iteration      1(   7)  ---------------------------------------


    POTLOK:  cpu time      0.0208: real time      0.0224
    SETDIJ:  cpu time      0.0334: real time      0.0335
     EDDAV:  cpu time     17.5836: real time     17.6995
       DOS:  cpu time      0.0032: real time      0.0032
    CHARGE:  cpu time      0.0859: real time      0.0864
    MIXING:  cpu time      0.0012: real time      0.0013
    --------------------------------------------
      LOOP:  cpu time     17.7282: real time     17.8462

 eigenvalue-minimisations  :124944
 total energy-change (2. order) : 0.1210053E-01  (-0.1638266E-02)
 number of electron      14.0000010 magnetization 
 augmentation part        3.5339642 magnetization 

 Broyden mixing:
  rms(total) = 0.10412E+00    rms(broyden)= 0.10412E+00
  rms(prec ) = 0.15057E+00
  weight for this iteration     100.00

 eigenvalues of (default mixing * dielectric matrix)
  average eigenvalue GAMMA=   1.9261
  1.4059  2.4463

 Free energy of the ion-electron system (eV)
  ---------------------------------------------------
  alpha Z        PSCENC =        23.66057892
  Ewald energy   TEWEN  =      -716.50759933
  -Hartree energ DENC   =      -283.97804793
  -exchange      EXHF   =         0.00000000
  -V(xc)+E(xc)   XCENC  =        45.41627441
  PAW double counting   =       904.86210212     -993.67896272
  entropy T*S    EENTRO =        -0.00000000
  eigenvalues    EBANDS =      -162.30151733
  atomic energy  EATOM  =      1175.76678205
  Solvation  Ediel_sol  =         0.00000000
  ---------------------------------------------------
  free energy    TOTEN  =        -6.76038981 eV

  energy without entropy =       -6.76038981  energy(sigma->0) =       -6.76038981


--------------------------------------------------------------------------------------------------------




--------------------------------------- Iteration      1(   8)  ---------------------------------------


    POTLOK:  cpu time      0.0187: real time      0.0188
    SETDIJ:  cpu time      0.0338: real time      0.0338
     EDDAV:  cpu time     16.3504: real time     16.4570
       DOS:  cpu time      0.0031: real time      0.0031
    CHARGE:  cpu time      0.0846: real time      0.0849
    MIXING:  cpu time      0.0013: real time      0.0013
    --------------------------------------------
      LOOP:  cpu time     16.4919: real time     16.5990

 eigenvalue-minimisations  :113864
 total energy-change (2. order) :-0.5388593E-02  (-0.3820443E-03)
 number of electron      14.0000010 magnetization 
 augmentation part        3.5335922 magnetization 

 Broyden mixing:
  rms(total) = 0.11563E-01    rms(broyden)= 0.11562E-01
  rms(prec ) = 0.16275E-01
  weight for this iteration     100.00

 eigenvalues of (default mixing * dielectric matrix)
  average eigenvalue GAMMA=   1.5995
  2.3774  1.0254  1.3956

 Free energy of the ion-electron system (eV)
  ---------------------------------------------------
  alpha Z        PSCENC =        23.66057892
  Ewald energy   TEWEN  =      -716.50759933
  -Hartree energ DENC   =      -283.72938883
  -exchange      EXHF   =         0.00000000
  -V(xc)+E(xc)   XCENC  =        45.50108455
  PAW double counting   =       951.74662536    -1040.77850489
  entropy T*S    EENTRO =        -0.00000000
  eigenvalues    EBANDS =      -162.42535622
  atomic energy  EATOM  =      1175.76678205
  Solvation  Ediel_sol  =         0.00000000
  ---------------------------------------------------
  free energy    TOTEN  =        -6.76577840 eV

  energy without entropy =       -6.76577840  energy(sigma->0) =       -6.76577840


--------------------------------------------------------------------------------------------------------




--------------------------------------- Iteration      1(   9)  ---------------------------------------


    POTLOK:  cpu time      0.0185: real time      0.0195
    SETDIJ:  cpu time      0.0338: real time      0.0339
