   3   3   0   0
  0.1582461E+02  0.6981198E-09  0.6783153E-09  0.2773948E-09  0.5000000E-15
  1.000000000000000E-004
  CAR 
 unknown system                          
     26.55034788    -28.01557274  301      9.80079974      1.00000000
    -28.016  0.0000E+00  0.0000E+00
    -27.834  0.0000E+00  0.0000E+00
    -27.652  0.0000E+00  0.0000E+00
    -27.470  0.0000E+00  0.0000E+00
    -27.288  0.0000E+00  0.0000E+00
    -27.106  0.0000E+00  0.0000E+00
    -26.924  0.0000E+00  0.0000E+00
    -26.742  0.0000E+00  0.0000E+00
    -26.560  0.0000E+00  0.0000E+00
    -26.379  0.0000E+00  0.0000E+00
    -26.197  0.0000E+00  0.0000E+00
    -26.015  0.0000E+00  0.0000E+00
    -25.833  0.0000E+00  0.0000E+00
    -25.651  0.3840E-04  0.6984E-05
    -25.469  0.1243E+01  0.2262E+00
    -25.287  0.1050E+02  0.2136E+01
    -25.105  0.8572E+01  0.3695E+01
    -24.924  0.7436E+01  0.5048E+01
    -24.742  0.8949E+01  0.6675E+01
    -24.560  0.1051E+02  0.8587E+01
    -24.378  0.1798E+02  0.1186E+02
    -24.196  0.7794E+00  0.1200E+02
    -24.014  0.1189E-06  0.1200E+02
    -23.832  0.0000E+00  0.1200E+02
    -23.650  0.0000E+00  0.1200E+02
    -23.468  0.0000E+00  0.1200E+02
    -23.287  0.4514E-09  0.1200E+02
    -23.105  0.7708E-01  0.1201E+02
    -22.923  0.4823E+01  0.1289E+02
    -22.741  0.4949E+01  0.1379E+02
    -22.559  0.1700E+02  0.1688E+02
    -22.377  0.6090E+01  0.1799E+02
    -22.195  0.4715E-01  0.1800E+02
    -22.013  0.1376E-10  0.1800E+02
    -21.831  0.0000E+00  0.1800E+02
    -21.650  0.0000E+00  0.1800E+02
    -21.468  0.0000E+00  0.1800E+02
    -21.286  0.0000E+00  0.1800E+02
    -21.104  0.0000E+00  0.1800E+02
    -20.922  0.0000E+00  0.1800E+02
    -20.740  0.0000E+00  0.1800E+02
    -20.558  0.0000E+00  0.1800E+02
    -20.376  0.0000E+00  0.1800E+02
    -20.194  0.0000E+00  0.1800E+02
    -20.013  0.0000E+00  0.1800E+02
    -19.831  0.0000E+00  0.1800E+02
    -19.649  0.0000E+00  0.1800E+02
    -19.467  0.0000E+00  0.1800E+02
    -19.285  0.0000E+00  0.1800E+02
    -19.103  0.0000E+00  0.1800E+02
    -18.921  0.0000E+00  0.1800E+02
    -18.739  0.0000E+00  0.1800E+02
    -18.557  0.0000E+00  0.1800E+02
    -18.376  0.0000E+00  0.1800E+02
    -18.194  0.0000E+00  0.1800E+02
    -18.012  0.0000E+00  0.1800E+02
    -17.830  0.0000E+00  0.1800E+02
    -17.648  0.0000E+00  0.1800E+02
    -17.466  0.0000E+00  0.1800E+02
    -17.284  0.0000E+00  0.1800E+02
    -17.102  0.0000E+00  0.1800E+02
    -16.921  0.0000E+00  0.1800E+02
    -16.739  0.0000E+00  0.1800E+02
    -16.557  0.0000E+00  0.1800E+02
    -16.375  0.0000E+00  0.1800E+02
    -16.193  0.0000E+00  0.1800E+02
    -16.011  0.0000E+00  0.1800E+02
    -15.829  0.0000E+00  0.1800E+02
    -15.647  0.0000E+00  0.1800E+02
    -15.465  0.0000E+00  0.1800E+02
    -15.284  0.0000E+00  0.1800E+02
    -15.102  0.0000E+00  0.1800E+02
    -14.920  0.0000E+00  0.1800E+02
    -14.738  0.0000E+00  0.1800E+02
    -14.556  0.0000E+00  0.1800E+02
    -14.374  0.0000E+00  0.1800E+02
    -14.192  0.0000E+00  0.1800E+02
    -14.010  0.0000E+00  0.1800E+02
    -13.828  0.0000E+00  0.1800E+02
    -13.647  0.0000E+00  0.1800E+02
    -13.465  0.0000E+00  0.1800E+02
    -13.283  0.0000E+00  0.1800E+02
    -13.101  0.0000E+00  0.1800E+02
    -12.919  0.0000E+00  0.1800E+02
    -12.737  0.0000E+00  0.1800E+02
    -12.555  0.0000E+00  0.1800E+02
    -12.373  0.0000E+00  0.1800E+02
    -12.191  0.0000E+00  0.1800E+02
    -12.010  0.0000E+00  0.1800E+02
    -11.828  0.0000E+00  0.1800E+02
    -11.646  0.0000E+00  0.1800E+02
    -11.464  0.0000E+00  0.1800E+02
    -11.282  0.0000E+00  0.1800E+02
    -11.100  0.0000E+00  0.1800E+02
    -10.918  0.0000E+00  0.1800E+02
    -10.736  0.0000E+00  0.1800E+02
    -10.554  0.0000E+00  0.1800E+02
    -10.373  0.0000E+00  0.1800E+02
    -10.191  0.0000E+00  0.1800E+02
    -10.009  0.0000E+00  0.1800E+02
     -9.827  0.0000E+00  0.1800E+02
     -9.645  0.0000E+00  0.1800E+02
     -9.463  0.0000E+00  0.1800E+02
     -9.281  0.0000E+00  0.1800E+02
     -9.099  0.0000E+00  0.1800E+02
     -8.918  0.0000E+00  0.1800E+02
     -8.736  0.0000E+00  0.1800E+02
     -8.554  0.0000E+00  0.1800E+02
     -8.372  0.0000E+00  0.1800E+02
     -8.190  0.0000E+00  0.1800E+02
     -8.008  0.0000E+00  0.1800E+02
     -7.826  0.0000E+00  0.1800E+02
     -7.644  0.0000E+00  0.1800E+02
     -7.462  0.0000E+00  0.1800E+02
     -7.281  0.0000E+00  0.1800E+02
     -7.099  0.0000E+00  0.1800E+02
     -6.917  0.0000E+00  0.1800E+02
     -6.735  0.0000E+00  0.1800E+02
     -6.553  0.0000E+00  0.1800E+02
     -6.371  0.0000E+00  0.1800E+02
     -6.189  0.0000E+00  0.1800E+02
     -6.007  0.0000E+00  0.1800E+02
     -5.825  0.0000E+00  0.1800E+02
     -5.644  0.0000E+00  0.1800E+02
     -5.462  0.0000E+00  0.1800E+02
     -5.280  0.0000E+00  0.1800E+02
     -5.098  0.0000E+00  0.1800E+02
     -4.916  0.0000E+00  0.1800E+02
     -4.734  0.0000E+00  0.1800E+02
     -4.552  0.0000E+00  0.1800E+02
     -4.370  0.0000E+00  0.1800E+02
     -4.188  0.0000E+00  0.1800E+02
     -4.007  0.0000E+00  0.1800E+02
     -3.825  0.0000E+00  0.1800E+02
     -3.643  0.0000E+00  0.1800E+02
     -3.461  0.0000E+00  0.1800E+02
     -3.279  0.0000E+00  0.1800E+02
     -3.097  0.0000E+00  0.1800E+02
     -2.915  0.0000E+00  0.1800E+02
     -2.733  0.0000E+00  0.1800E+02
     -2.551  0.0000E+00  0.1800E+02
     -2.370  0.0000E+00  0.1800E+02
     -2.188  0.0000E+00  0.1800E+02
     -2.006  0.0000E+00  0.1800E+02
     -1.824  0.0000E+00  0.1800E+02
     -1.642  0.0000E+00  0.1800E+02
     -1.460  0.0000E+00  0.1800E+02
     -1.278  0.0000E+00  0.1800E+02
     -1.096  0.0000E+00  0.1800E+02
     -0.914  0.0000E+00  0.1800E+02
     -0.733  0.0000E+00  0.1800E+02
     -0.551  0.0000E+00  0.1800E+02
     -0.369  0.0000E+00  0.1800E+02
     -0.187  0.0000E+00  0.1800E+02
     -0.005  0.0000E+00  0.1800E+02
      0.177  0.0000E+00  0.1800E+02
      0.359  0.0000E+00  0.1800E+02
      0.541  0.0000E+00  0.1800E+02
      0.722  0.0000E+00  0.1800E+02
      0.904  0.0000E+00  0.1800E+02
      1.086  0.0000E+00  0.1800E+02
      1.268  0.0000E+00  0.1800E+02
      1.450  0.0000E+00  0.1800E+02
      1.632  0.0000E+00  0.1800E+02
      1.814  0.0000E+00  0.1800E+02
      1.996  0.0000E+00  0.1800E+02
      2.178  0.0000E+00  0.1800E+02
      2.359  0.0000E+00  0.1800E+02
      2.541  0.0000E+00  0.1800E+02
      2.723  0.0000E+00  0.1800E+02
      2.905  0.0000E+00  0.1800E+02
      3.087  0.2232E-08  0.1800E+02
      3.269  0.1221E-01  0.1800E+02
      3.451  0.7103E-01  0.1802E+02
      3.633  0.1002E+00  0.1803E+02
      3.815  0.5409E-01  0.1804E+02
      3.996  0.1960E+00  0.1808E+02
      4.178  0.2314E+00  0.1812E+02
      4.360  0.3236E+00  0.1818E+02
      4.542  0.3775E+00  0.1825E+02
      4.724  0.1836E+00  0.1828E+02
      4.906  0.4396E+00  0.1836E+02
      5.088  0.4355E+00  0.1844E+02
      5.270  0.3732E+00  0.1851E+02
      5.452  0.9093E+00  0.1867E+02
      5.633  0.1723E+01  0.1899E+02
      5.815  0.3317E+01  0.1959E+02
      5.997  0.3938E+01  0.2031E+02
      6.179  0.3655E+01  0.2097E+02
      6.361  0.3571E+01  0.2162E+02
      6.543  0.2682E+01  0.2211E+02
      6.725  0.2899E+01  0.2264E+02
      6.907  0.3652E+01  0.2330E+02
      7.089  0.2232E+01  0.2371E+02
      7.270  0.2861E+01  0.2423E+02
      7.452  0.4440E+01  0.2504E+02
      7.634  0.3646E+01  0.2570E+02
      7.816  0.3159E+01  0.2627E+02
      7.998  0.4698E+01  0.2713E+02
      8.180  0.4278E+01  0.2791E+02
      8.362  0.3776E+01  0.2859E+02
      8.544  0.3719E+01  0.2927E+02
      8.725  0.4015E+01  0.3000E+02
      8.907  0.4102E+01  0.3074E+02
      9.089  0.3671E+01  0.3141E+02
      9.271  0.3500E+01  0.3205E+02
      9.453  0.3706E+01  0.3272E+02
      9.635  0.3715E+01  0.3340E+02
      9.817  0.3633E+01  0.3406E+02
      9.999  0.2879E+01  0.3458E+02
     10.181  0.2228E+01  0.3499E+02
     10.362  0.1487E+01  0.3526E+02
     10.544  0.2062E+01  0.3563E+02
     10.726  0.2058E+01  0.3601E+02
     10.908  0.2022E+01  0.3638E+02
     11.090  0.2418E+01  0.3682E+02
     11.272  0.3173E+01  0.3739E+02
     11.454  0.3550E+01  0.3804E+02
     11.636  0.3564E+01  0.3869E+02
     11.818  0.4758E+01  0.3955E+02
     11.999  0.3868E+01  0.4026E+02
     12.181  0.4426E+01  0.4106E+02
     12.363  0.3699E+01  0.4173E+02
     12.545  0.5632E+01  0.4276E+02
     12.727  0.4932E+01  0.4366E+02
     12.909  0.7573E+01  0.4503E+02
     13.091  0.6956E+01  0.4630E+02
     13.273  0.4930E+01  0.4719E+02
     13.455  0.3768E+01  0.4788E+02
     13.636  0.3160E+01  0.4845E+02
     13.818  0.2445E+01  0.4890E+02
     14.000  0.1880E+01  0.4924E+02
     14.182  0.2327E+01  0.4966E+02
     14.364  0.2017E+01  0.5003E+02
     14.546  0.1464E+01  0.5030E+02
     14.728  0.1123E+01  0.5050E+02
     14.910  0.1124E+01  0.5071E+02
     15.092  0.9463E+00  0.5088E+02
     15.273  0.8681E+00  0.5104E+02
     15.455  0.7091E+00  0.5117E+02
     15.637  0.1028E+01  0.5135E+02
     15.819  0.9064E+00  0.5152E+02
     16.001  0.1286E+01  0.5175E+02
     16.183  0.8333E+00  0.5190E+02
     16.365  0.6699E+00  0.5202E+02
     16.547  0.1000E+01  0.5221E+02
     16.728  0.8157E+00  0.5235E+02
     16.910  0.8900E+00  0.5252E+02
     17.092  0.4677E+00  0.5260E+02
     17.274  0.9643E+00  0.5278E+02
     17.456  0.1001E+01  0.5296E+02
     17.638  0.5832E+00  0.5307E+02
     17.820  0.5703E+00  0.5317E+02
     18.002  0.4700E+00  0.5325E+02
     18.184  0.7848E+00  0.5340E+02
     18.365  0.4267E+00  0.5347E+02
     18.547  0.4718E+00  0.5356E+02
     18.729  0.7135E+00  0.5369E+02
     18.911  0.3655E+00  0.5376E+02
     19.093  0.3580E+00  0.5382E+02
     19.275  0.2755E+00  0.5387E+02
     19.457  0.3759E+00  0.5394E+02
     19.639  0.3003E+00  0.5400E+02
     19.821  0.3756E+00  0.5406E+02
     20.002  0.7504E+00  0.5420E+02
     20.184  0.8915E+00  0.5436E+02
     20.366  0.1063E+01  0.5456E+02
     20.548  0.1454E+01  0.5482E+02
     20.730  0.8764E+00  0.5498E+02
     20.912  0.1317E+01  0.5522E+02
     21.094  0.7555E+00  0.5536E+02
     21.276  0.4698E+00  0.5544E+02
     21.458  0.3642E+00  0.5551E+02
     21.639  0.3948E+00  0.5558E+02
     21.821  0.3945E+00  0.5565E+02
     22.003  0.1952E+00  0.5569E+02
     22.185  0.1541E+00  0.5571E+02
     22.367  0.3737E+00  0.5578E+02
     22.549  0.1548E+00  0.5581E+02
     22.731  0.2225E+00  0.5585E+02
     22.913  0.2816E+00  0.5590E+02
     23.095  0.1410E+00  0.5593E+02
     23.276  0.2221E+00  0.5597E+02
     23.458  0.1453E-01  0.5597E+02
     23.640  0.1177E-01  0.5597E+02
     23.822  0.9198E-01  0.5599E+02
     24.004  0.2585E-02  0.5599E+02
     24.186  0.5073E-01  0.5600E+02
     24.368  0.2778E-04  0.5600E+02
     24.550  0.0000E+00  0.5600E+02
     24.731  0.0000E+00  0.5600E+02
     24.913  0.0000E+00  0.5600E+02
     25.095  0.0000E+00  0.5600E+02
     25.277  0.0000E+00  0.5600E+02
     25.459  0.0000E+00  0.5600E+02
     25.641  0.0000E+00  0.5600E+02
     25.823  0.0000E+00  0.5600E+02
     26.005  0.0000E+00  0.5600E+02
     26.187  0.0000E+00  0.5600E+02
     26.368  0.0000E+00  0.5600E+02
     26.550  0.0000E+00  0.5600E+02
