       N       E                     dE             d eps       ncg     rms          rms(c)
DAV:   1     0.830215838491E+02    0.83022E+02   -0.69188E+03 41584   0.108E+03
DAV:   2    -0.920856158567E+01   -0.92230E+02   -0.89017E+02 41712   0.298E+02
DAV:   3    -0.103547095072E+02   -0.11461E+01   -0.11389E+01 46044   0.413E+01
DAV:   4    -0.103611834847E+02   -0.64740E-02   -0.64737E-02 44976   0.294E+00
DAV:   5    -0.103612492928E+02   -0.65808E-04   -0.65808E-04 45952   0.316E-01    0.191E+01
DAV:   6    -0.898334973932E+01    0.13779E+01   -0.24925E+00 44812   0.296E+01    0.131E+00
DAV:   7    -0.896875464238E+01    0.14595E-01   -0.46665E-02 47536   0.201E+00    0.761E-01
DAV:   8    -0.896238048610E+01    0.63742E-02   -0.39088E-03 43028   0.772E-01    0.111E-01
DAV:   9    -0.896246793076E+01   -0.87445E-04   -0.15345E-04 45924   0.164E-01    0.503E-02
DAV:  10    -0.896245945875E+01    0.84720E-05   -0.38925E-06 44936   0.221E-02    0.208E-03
DAV:  11    -0.896246027652E+01   -0.81777E-06   -0.82868E-08 23300   0.498E-03
   1 F= -.89624603E+01 E0= -.89616275E+01  d E =-.166557E-02
