   2   2   0   0
  0.1658942E+02  0.2921706E-09  0.2921706E-09  0.3886765E-09  0.5000000E-15
  1.000000000000000E-004
  CAR 
 unknown system                          
     21.42333019    -31.46400717  301      2.93865101      1.00000000
    -31.464  0.0000E+00  0.0000E+00
    -31.288  0.0000E+00  0.0000E+00
    -31.111  0.0000E+00  0.0000E+00
    -30.935  0.0000E+00  0.0000E+00
    -30.759  0.0000E+00  0.0000E+00
    -30.583  0.0000E+00  0.0000E+00
    -30.406  0.0000E+00  0.0000E+00
    -30.230  0.0000E+00  0.0000E+00
    -30.054  0.0000E+00  0.0000E+00
    -29.877  0.0000E+00  0.0000E+00
    -29.701  0.0000E+00  0.0000E+00
    -29.525  0.0000E+00  0.0000E+00
    -29.349  0.6664E-17  0.1175E-17
    -29.172  0.8698E-04  0.1533E-04
    -28.996  0.1197E+01  0.2111E+00
    -28.820  0.1063E+02  0.2086E+01
    -28.643  0.9176E+01  0.3703E+01
    -28.467  0.3100E+01  0.4250E+01
    -28.291  0.3361E+01  0.4842E+01
    -28.114  0.6278E+01  0.5949E+01
    -27.938  0.2891E+00  0.6000E+01
    -27.762  0.7949E-08  0.6000E+01
    -27.586  0.0000E+00  0.6000E+01
    -27.409  0.0000E+00  0.6000E+01
    -27.233  0.0000E+00  0.6000E+01
    -27.057  0.0000E+00  0.6000E+01
    -26.880  0.0000E+00  0.6000E+01
    -26.704  0.0000E+00  0.6000E+01
    -26.528  0.0000E+00  0.6000E+01
    -26.352  0.0000E+00  0.6000E+01
    -26.175  0.0000E+00  0.6000E+01
    -25.999  0.0000E+00  0.6000E+01
    -25.823  0.0000E+00  0.6000E+01
    -25.646  0.0000E+00  0.6000E+01
    -25.470  0.0000E+00  0.6000E+01
    -25.294  0.0000E+00  0.6000E+01
    -25.118  0.0000E+00  0.6000E+01
    -24.941  0.0000E+00  0.6000E+01
    -24.765  0.0000E+00  0.6000E+01
    -24.589  0.0000E+00  0.6000E+01
    -24.412  0.0000E+00  0.6000E+01
    -24.236  0.0000E+00  0.6000E+01
    -24.060  0.0000E+00  0.6000E+01
    -23.883  0.0000E+00  0.6000E+01
    -23.707  0.0000E+00  0.6000E+01
    -23.531  0.0000E+00  0.6000E+01
    -23.355  0.0000E+00  0.6000E+01
    -23.178  0.0000E+00  0.6000E+01
    -23.002  0.0000E+00  0.6000E+01
    -22.826  0.0000E+00  0.6000E+01
    -22.649  0.0000E+00  0.6000E+01
    -22.473  0.0000E+00  0.6000E+01
    -22.297  0.0000E+00  0.6000E+01
    -22.121  0.0000E+00  0.6000E+01
    -21.944  0.0000E+00  0.6000E+01
    -21.768  0.0000E+00  0.6000E+01
    -21.592  0.0000E+00  0.6000E+01
    -21.415  0.0000E+00  0.6000E+01
    -21.239  0.0000E+00  0.6000E+01
    -21.063  0.0000E+00  0.6000E+01
    -20.887  0.0000E+00  0.6000E+01
    -20.710  0.0000E+00  0.6000E+01
    -20.534  0.0000E+00  0.6000E+01
    -20.358  0.0000E+00  0.6000E+01
    -20.181  0.0000E+00  0.6000E+01
    -20.005  0.0000E+00  0.6000E+01
    -19.829  0.0000E+00  0.6000E+01
    -19.653  0.0000E+00  0.6000E+01
    -19.476  0.0000E+00  0.6000E+01
    -19.300  0.0000E+00  0.6000E+01
    -19.124  0.0000E+00  0.6000E+01
    -18.947  0.0000E+00  0.6000E+01
    -18.771  0.0000E+00  0.6000E+01
    -18.595  0.0000E+00  0.6000E+01
    -18.418  0.0000E+00  0.6000E+01
    -18.242  0.0000E+00  0.6000E+01
    -18.066  0.0000E+00  0.6000E+01
    -17.890  0.0000E+00  0.6000E+01
    -17.713  0.0000E+00  0.6000E+01
    -17.537  0.0000E+00  0.6000E+01
    -17.361  0.0000E+00  0.6000E+01
    -17.184  0.0000E+00  0.6000E+01
    -17.008  0.0000E+00  0.6000E+01
    -16.832  0.0000E+00  0.6000E+01
    -16.656  0.0000E+00  0.6000E+01
    -16.479  0.0000E+00  0.6000E+01
    -16.303  0.1883E-07  0.6000E+01
    -16.127  0.2995E-01  0.6005E+01
    -15.950  0.3330E+00  0.6064E+01
    -15.774  0.9764E+00  0.6236E+01
    -15.598  0.1439E+01  0.6490E+01
    -15.422  0.1448E+01  0.6745E+01
    -15.245  0.7096E+00  0.6870E+01
    -15.069  0.7601E+00  0.7004E+01
    -14.893  0.1353E+01  0.7243E+01
    -14.716  0.9215E+00  0.7405E+01
    -14.540  0.8453E+00  0.7554E+01
    -14.364  0.1320E+01  0.7787E+01
    -14.187  0.9963E+00  0.7962E+01
    -14.011  0.2133E+00  0.8000E+01
    -13.835  0.5896E-05  0.8000E+01
    -13.659  0.0000E+00  0.8000E+01
    -13.482  0.0000E+00  0.8000E+01
    -13.306  0.0000E+00  0.8000E+01
    -13.130  0.0000E+00  0.8000E+01
    -12.953  0.0000E+00  0.8000E+01
    -12.777  0.0000E+00  0.8000E+01
    -12.601  0.0000E+00  0.8000E+01
    -12.425  0.0000E+00  0.8000E+01
    -12.248  0.0000E+00  0.8000E+01
    -12.072  0.0000E+00  0.8000E+01
    -11.896  0.0000E+00  0.8000E+01
    -11.719  0.0000E+00  0.8000E+01
    -11.543  0.0000E+00  0.8000E+01
    -11.367  0.0000E+00  0.8000E+01
    -11.191  0.0000E+00  0.8000E+01
    -11.014  0.0000E+00  0.8000E+01
    -10.838  0.0000E+00  0.8000E+01
    -10.662  0.0000E+00  0.8000E+01
    -10.485  0.0000E+00  0.8000E+01
    -10.309  0.0000E+00  0.8000E+01
    -10.133  0.0000E+00  0.8000E+01
     -9.956  0.0000E+00  0.8000E+01
     -9.780  0.0000E+00  0.8000E+01
     -9.604  0.0000E+00  0.8000E+01
     -9.428  0.0000E+00  0.8000E+01
     -9.251  0.0000E+00  0.8000E+01
     -9.075  0.0000E+00  0.8000E+01
     -8.899  0.0000E+00  0.8000E+01
     -8.722  0.0000E+00  0.8000E+01
     -8.546  0.0000E+00  0.8000E+01
     -8.370  0.0000E+00  0.8000E+01
     -8.194  0.0000E+00  0.8000E+01
     -8.017  0.0000E+00  0.8000E+01
     -7.841  0.0000E+00  0.8000E+01
     -7.665  0.0000E+00  0.8000E+01
     -7.488  0.0000E+00  0.8000E+01
     -7.312  0.0000E+00  0.8000E+01
     -7.136  0.0000E+00  0.8000E+01
     -6.960  0.0000E+00  0.8000E+01
     -6.783  0.0000E+00  0.8000E+01
     -6.607  0.0000E+00  0.8000E+01
     -6.431  0.0000E+00  0.8000E+01
     -6.254  0.0000E+00  0.8000E+01
     -6.078  0.0000E+00  0.8000E+01
     -5.902  0.0000E+00  0.8000E+01
     -5.726  0.0000E+00  0.8000E+01
     -5.549  0.0000E+00  0.8000E+01
     -5.373  0.0000E+00  0.8000E+01
     -5.197  0.0000E+00  0.8000E+01
     -5.020  0.0000E+00  0.8000E+01
     -4.844  0.0000E+00  0.8000E+01
     -4.668  0.0000E+00  0.8000E+01
     -4.491  0.0000E+00  0.8000E+01
     -4.315  0.0000E+00  0.8000E+01
     -4.139  0.1925E-06  0.8000E+01
     -3.963  0.1174E+00  0.8021E+01
     -3.786  0.1028E+01  0.8202E+01
     -3.610  0.1612E+01  0.8486E+01
     -3.434  0.4837E+00  0.8571E+01
     -3.257  0.3488E-03  0.8571E+01
     -3.081  0.8283E-03  0.8572E+01
     -2.905  0.3664E+00  0.8636E+01
     -2.729  0.4487E+00  0.8715E+01
     -2.552  0.1750E+01  0.9024E+01
     -2.376  0.2481E+01  0.9461E+01
     -2.200  0.1261E+01  0.9683E+01
     -2.023  0.1051E+01  0.9869E+01
     -1.847  0.1483E+01  0.1013E+02
     -1.671  0.7276E+00  0.1026E+02
     -1.495  0.1921E+01  0.1060E+02
     -1.318  0.1546E+01  0.1087E+02
     -1.142  0.1789E+01  0.1118E+02
     -0.966  0.1411E+01  0.1143E+02
     -0.789  0.2943E+01  0.1195E+02
     -0.613  0.2520E+01  0.1240E+02
     -0.437  0.1305E+01  0.1263E+02
     -0.260  0.1668E+01  0.1292E+02
     -0.084  0.1709E+01  0.1322E+02
      0.092  0.1693E+01  0.1352E+02
      0.268  0.2884E+01  0.1403E+02
      0.445  0.1015E+01  0.1421E+02
      0.621  0.1007E+01  0.1439E+02
      0.797  0.2228E+01  0.1478E+02
      0.974  0.1515E+01  0.1505E+02
      1.150  0.1049E+01  0.1523E+02
      1.326  0.1529E+01  0.1550E+02
      1.502  0.6962E+00  0.1562E+02
      1.679  0.1141E+01  0.1582E+02
      1.855  0.1931E+01  0.1616E+02
      2.031  0.1340E+01  0.1640E+02
      2.208  0.7450E+00  0.1653E+02
      2.384  0.3266E+00  0.1659E+02
      2.560  0.7873E+00  0.1673E+02
      2.736  0.7772E+00  0.1687E+02
      2.913  0.6659E+00  0.1698E+02
      3.089  0.3225E+01  0.1755E+02
      3.265  0.1431E+01  0.1780E+02
      3.442  0.1035E+01  0.1799E+02
      3.618  0.8797E+00  0.1814E+02
      3.794  0.8984E+00  0.1830E+02
      3.971  0.2941E+00  0.1835E+02
      4.147  0.6374E+00  0.1846E+02
      4.323  0.1539E+01  0.1873E+02
      4.499  0.1573E+01  0.1901E+02
      4.676  0.2401E+01  0.1944E+02
      4.852  0.1511E+01  0.1970E+02
      5.028  0.2118E+01  0.2008E+02
      5.205  0.1626E+01  0.2036E+02
      5.381  0.3091E+01  0.2091E+02
      5.557  0.1468E+01  0.2117E+02
      5.733  0.2824E+01  0.2166E+02
      5.910  0.1508E+01  0.2193E+02
      6.086  0.1350E+01  0.2217E+02
      6.262  0.1714E+01  0.2247E+02
      6.439  0.1199E+01  0.2268E+02
      6.615  0.1721E+01  0.2298E+02
      6.791  0.5601E+00  0.2308E+02
      6.967  0.6351E+00  0.2320E+02
      7.144  0.9305E+00  0.2336E+02
      7.320  0.9904E+00  0.2353E+02
      7.496  0.5635E+00  0.2363E+02
      7.673  0.5973E+00  0.2374E+02
      7.849  0.7393E-01  0.2375E+02
      8.025  0.3673E+00  0.2382E+02
      8.201  0.4243E+00  0.2389E+02
      8.378  0.6130E+00  0.2400E+02
      8.554  0.1953E+00  0.2403E+02
      8.730  0.5107E+00  0.2412E+02
      8.907  0.7172E+00  0.2425E+02
      9.083  0.5612E+00  0.2435E+02
      9.259  0.6345E+00  0.2446E+02
      9.436  0.8734E+00  0.2461E+02
      9.612  0.7434E+00  0.2475E+02
      9.788  0.7603E+00  0.2488E+02
      9.964  0.5022E+00  0.2497E+02
     10.141  0.1257E+01  0.2519E+02
     10.317  0.6879E+00  0.2531E+02
     10.493  0.6141E+00  0.2542E+02
     10.670  0.1744E+00  0.2545E+02
     10.846  0.8553E+00  0.2560E+02
     11.022  0.7280E+00  0.2573E+02
     11.198  0.3431E+00  0.2579E+02
     11.375  0.9576E+00  0.2596E+02
     11.551  0.2202E+00  0.2600E+02
     11.727  0.9019E+00  0.2616E+02
     11.904  0.7873E+00  0.2630E+02
     12.080  0.5041E+00  0.2638E+02
     12.256  0.2453E+00  0.2643E+02
     12.432  0.6807E+00  0.2655E+02
     12.609  0.1630E+01  0.2683E+02
     12.785  0.1139E+01  0.2704E+02
     12.961  0.1784E+01  0.2735E+02
     13.138  0.8976E+00  0.2751E+02
     13.314  0.1152E+01  0.2771E+02
     13.490  0.6003E+00  0.2782E+02
     13.667  0.8957E+00  0.2797E+02
     13.843  0.7069E+00  0.2810E+02
     14.019  0.5233E+00  0.2819E+02
     14.195  0.3252E+00  0.2825E+02
     14.372  0.2867E+00  0.2830E+02
     14.548  0.1450E+01  0.2856E+02
     14.724  0.9885E+00  0.2873E+02
     14.901  0.5012E+00  0.2882E+02
     15.077  0.1249E+01  0.2904E+02
     15.253  0.2160E+00  0.2908E+02
     15.429  0.7832E+00  0.2921E+02
     15.606  0.6551E+00  0.2933E+02
     15.782  0.4539E+00  0.2941E+02
     15.958  0.1219E+01  0.2962E+02
     16.135  0.1163E+01  0.2983E+02
     16.311  0.7953E+00  0.2997E+02
     16.487  0.7707E+00  0.3011E+02
     16.663  0.1118E+01  0.3030E+02
     16.840  0.1233E+01  0.3052E+02
     17.016  0.1482E+01  0.3078E+02
     17.192  0.1044E+01  0.3097E+02
     17.369  0.1771E+01  0.3128E+02
     17.545  0.9860E+00  0.3145E+02
     17.721  0.4386E+00  0.3153E+02
     17.898  0.9629E+00  0.3170E+02
     18.074  0.1134E+01  0.3190E+02
     18.250  0.2970E+00  0.3195E+02
     18.426  0.1778E+00  0.3198E+02
     18.603  0.8355E-03  0.3198E+02
     18.779  0.7795E-01  0.3200E+02
     18.955  0.2296E-02  0.3200E+02
     19.132  0.1930E-01  0.3200E+02
     19.308  0.1509E-04  0.3200E+02
     19.484  0.0000E+00  0.3200E+02
     19.660  0.0000E+00  0.3200E+02
     19.837  0.0000E+00  0.3200E+02
     20.013  0.0000E+00  0.3200E+02
     20.189  0.0000E+00  0.3200E+02
     20.366  0.0000E+00  0.3200E+02
     20.542  0.0000E+00  0.3200E+02
     20.718  0.0000E+00  0.3200E+02
     20.894  0.0000E+00  0.3200E+02
     21.071  0.0000E+00  0.3200E+02
     21.247  0.0000E+00  0.3200E+02
     21.423  0.0000E+00  0.3200E+02
