       N       E                     dE             d eps       ncg     rms          rms(c)
DAV:   1     0.156037312787E+03    0.15604E+03   -0.88802E+03 18376   0.116E+03
DAV:   2    -0.854820379457E+01   -0.16459E+03   -0.15062E+03 19472   0.374E+02
DAV:   3    -0.199466178653E+02   -0.11398E+02   -0.10960E+02 24120   0.905E+01
DAV:   4    -0.202478563917E+02   -0.30124E+00   -0.30096E+00 20352   0.148E+01
DAV:   5    -0.202561638915E+02   -0.83075E-02   -0.83071E-02 25656   0.259E+00    0.243E+01
DAV:   6    -0.176021639257E+02    0.26540E+01   -0.70714E+00 27352   0.335E+01    0.954E+00
DAV:   7    -0.173406085828E+02    0.26156E+00   -0.76145E-01 27016   0.104E+01    0.721E+00
DAV:   8    -0.172988528090E+02    0.41756E-01   -0.17628E-01 28080   0.678E+00    0.116E+00
DAV:   9    -0.172859682112E+02    0.12885E-01   -0.17693E-02 26944   0.226E+00    0.243E-01
DAV:  10    -0.172858383648E+02    0.12985E-03   -0.23786E-03 26920   0.479E-01    0.748E-02
DAV:  11    -0.172857880599E+02    0.50305E-04   -0.52492E-05 25888   0.937E-02    0.216E-02
DAV:  12    -0.172857879802E+02    0.79754E-07   -0.15411E-05 26152   0.401E-02    0.345E-03
DAV:  13    -0.172857885138E+02   -0.53360E-06   -0.12076E-06 19200   0.105E-02
   1 F= -.17285789E+02 E0= -.17285234E+02  d E =-.110919E-02
