       N       E                     dE             d eps       ncg     rms          rms(c)
DAV:   1     0.129975385185E+03    0.12998E+03   -0.14484E+04291256   0.238E+03
DAV:   2     0.354468100516E+01   -0.12643E+03   -0.12161E+03276604   0.338E+02
DAV:   3    -0.347047390793E+01   -0.70152E+01   -0.69770E+01306168   0.807E+01
DAV:   4    -0.351689504972E+01   -0.46421E-01   -0.46406E-01300564   0.659E+00
DAV:   5    -0.351694358103E+01   -0.48531E-04   -0.48530E-04302692   0.198E-01    0.542E+00
DAV:   6    -0.317338751295E+01    0.34356E+00   -0.11656E+00315992   0.241E+01    0.375E+00
DAV:   7    -0.315507083831E+01    0.18317E-01   -0.44703E-02349416   0.368E+00    0.193E+00
DAV:   8    -0.314656123362E+01    0.85096E-02   -0.18919E-03381448   0.655E-01    0.573E-02
DAV:   9    -0.314651933260E+01    0.41901E-04   -0.22022E-04382332   0.192E-01    0.326E-02
DAV:  10    -0.314652262808E+01   -0.32955E-05   -0.19002E-05287928   0.356E-02    0.317E-03
DAV:  11    -0.314652229073E+01    0.33735E-06   -0.61153E-07315704   0.122E-02    0.214E-03
DAV:  12    -0.314652190285E+01    0.38788E-06   -0.15489E-08242640   0.274E-03    0.494E-04
DAV:  13    -0.314652191084E+01   -0.79963E-08   -0.44275E-09152408   0.113E-03
   1 F= -.39615697E+01 E0= -.39615697E+01  d E =0.000000E+00
