I2 N4                                   
   1.00000000000000     
    -2.4385490000000001    2.4385490000000001    6.2733619999999997
     2.4385490000000001   -2.4385490000000001    6.2733619999999997
     2.4385490000000001    2.4385490000000001   -6.2733619999999997
   I    N 
     2     4
Direct
     0.2500000000000000    0.2500000000000000    0.0000000000000000
     0.7500000000000000    0.7500000000000000    0.0000000000000000
     0.5806200000000032    0.0806200000000032    0.6612409999999969
     0.4193799999999968    0.9193799999999968    0.3387590000000031
     0.0806200000000032    0.4193799999999968    0.5000000000000000
     0.9193799999999968    0.5806200000000032    0.5000000000000000
 
  0.00000000E+00  0.00000000E+00  0.00000000E+00
  0.00000000E+00  0.00000000E+00  0.00000000E+00
  0.00000000E+00  0.00000000E+00  0.00000000E+00
  0.00000000E+00  0.00000000E+00  0.00000000E+00
  0.00000000E+00  0.00000000E+00  0.00000000E+00
  0.00000000E+00  0.00000000E+00  0.00000000E+00
