Tl1 N1                                  
   1.00000000000000     
     0.0000000000000000    2.4735559999999999    2.4735559999999999
     2.4735559999999999    0.0000000000000000    2.4735559999999999
     2.4735559999999999    2.4735559999999999    0.0000000000000000
   Tl   N 
     1     1
Direct
     0.0000000000000000    0.0000000000000000    0.0000000000000000
     0.5000000000000000    0.5000000000000000    0.5000000000000000
 
  0.00000000E+00  0.00000000E+00  0.00000000E+00
  0.00000000E+00  0.00000000E+00  0.00000000E+00
