   2   2   0   0
  0.1513440E+02  0.3498136E-09  0.3498136E-09  0.3498136E-09  0.5000000E-15
  1.000000000000000E-004
  CAR 
 unknown system                          
     29.93334055     -9.54850190  301      7.08301364      1.00000000
     -9.549  0.0000E+00  0.0000E+00
     -9.417  0.0000E+00  0.0000E+00
     -9.285  0.0000E+00  0.0000E+00
     -9.154  0.0000E+00  0.0000E+00
     -9.022  0.0000E+00  0.0000E+00
     -8.890  0.0000E+00  0.0000E+00
     -8.759  0.0000E+00  0.0000E+00
     -8.627  0.0000E+00  0.0000E+00
     -8.496  0.0000E+00  0.0000E+00
     -8.364  0.0000E+00  0.0000E+00
     -8.232  0.0000E+00  0.0000E+00
     -8.101  0.0000E+00  0.0000E+00
     -7.969  0.1168E-10  0.1538E-11
     -7.838  0.1860E-03  0.2448E-04
     -7.706  0.1901E-01  0.2526E-02
     -7.574  0.1628E+00  0.2395E-01
     -7.443  0.1328E+00  0.4142E-01
     -7.311  0.2403E+00  0.7305E-01
     -7.180  0.5556E+00  0.1462E+00
     -7.048  0.2471E+00  0.1787E+00
     -6.916  0.1102E+01  0.3237E+00
     -6.785  0.2247E+01  0.6195E+00
     -6.653  0.2462E+01  0.9434E+00
     -6.522  0.3636E+01  0.1422E+01
     -6.390  0.1925E+01  0.1675E+01
     -6.258  0.1729E+01  0.1903E+01
     -6.127  0.3488E+00  0.1949E+01
     -5.995  0.3845E+00  0.1999E+01
     -5.864  0.5006E-02  0.2000E+01
     -5.732  0.1729E-08  0.2000E+01
     -5.600  0.0000E+00  0.2000E+01
     -5.469  0.0000E+00  0.2000E+01
     -5.337  0.0000E+00  0.2000E+01
     -5.205  0.0000E+00  0.2000E+01
     -5.074  0.0000E+00  0.2000E+01
     -4.942  0.0000E+00  0.2000E+01
     -4.811  0.0000E+00  0.2000E+01
     -4.679  0.0000E+00  0.2000E+01
     -4.547  0.0000E+00  0.2000E+01
     -4.416  0.0000E+00  0.2000E+01
     -4.284  0.0000E+00  0.2000E+01
     -4.153  0.1779E-10  0.2000E+01
     -4.021  0.8695E-03  0.2000E+01
     -3.889  0.8179E+00  0.2108E+01
     -3.758  0.7991E+01  0.3159E+01
     -3.626  0.1424E+02  0.5033E+01
     -3.495  0.1229E+02  0.6650E+01
     -3.363  0.8263E+01  0.7738E+01
     -3.231  0.8178E+01  0.8814E+01
     -3.100  0.1143E+02  0.1032E+02
     -2.968  0.3742E+01  0.1081E+02
     -2.837  0.1286E+01  0.1098E+02
     -2.705  0.1641E+01  0.1120E+02
     -2.573  0.9083E+00  0.1132E+02
     -2.442  0.8399E-01  0.1133E+02
     -2.310  0.1610E+01  0.1154E+02
     -2.179  0.1125E+01  0.1169E+02
     -2.047  0.1868E+00  0.1171E+02
     -1.915  0.7727E+00  0.1181E+02
     -1.784  0.1067E+01  0.1195E+02
     -1.652  0.1436E+00  0.1197E+02
     -1.521  0.2075E+00  0.1200E+02
     -1.389  0.7233E-03  0.1200E+02
     -1.257  0.1130E-10  0.1200E+02
     -1.126  0.0000E+00  0.1200E+02
     -0.994  0.0000E+00  0.1200E+02
     -0.862  0.0000E+00  0.1200E+02
     -0.731  0.0000E+00  0.1200E+02
     -0.599  0.0000E+00  0.1200E+02
     -0.468  0.0000E+00  0.1200E+02
     -0.336  0.0000E+00  0.1200E+02
     -0.204  0.0000E+00  0.1200E+02
     -0.073  0.0000E+00  0.1200E+02
      0.059  0.0000E+00  0.1200E+02
      0.190  0.0000E+00  0.1200E+02
      0.322  0.0000E+00  0.1200E+02
      0.454  0.2482E-07  0.1200E+02
      0.585  0.1432E-01  0.1200E+02
      0.717  0.5474E+00  0.1207E+02
      0.848  0.1284E+00  0.1209E+02
      0.980  0.5275E+00  0.1216E+02
      1.112  0.1430E+01  0.1235E+02
      1.243  0.6178E+00  0.1243E+02
      1.375  0.5674E+00  0.1250E+02
      1.506  0.4417E+00  0.1256E+02
      1.638  0.2703E+01  0.1292E+02
      1.770  0.1839E+01  0.1316E+02
      1.901  0.1271E+00  0.1318E+02
      2.033  0.1289E+01  0.1335E+02
      2.164  0.5104E+00  0.1341E+02
      2.296  0.1972E+01  0.1367E+02
      2.428  0.6385E+00  0.1376E+02
      2.559  0.6269E+00  0.1384E+02
      2.691  0.5473E-01  0.1385E+02
      2.822  0.5348E+00  0.1392E+02
      2.954  0.2642E+00  0.1395E+02
      3.086  0.5462E+00  0.1402E+02
      3.217  0.4494E-02  0.1402E+02
      3.349  0.1346E-03  0.1402E+02
      3.481  0.1783E+00  0.1405E+02
      3.612  0.8051E+00  0.1415E+02
      3.744  0.3088E+00  0.1419E+02
      3.875  0.7204E+00  0.1429E+02
      4.007  0.3839E+00  0.1434E+02
      4.139  0.1370E+01  0.1452E+02
      4.270  0.6460E-01  0.1453E+02
      4.402  0.4598E+00  0.1459E+02
      4.533  0.1150E+01  0.1474E+02
      4.665  0.1246E+01  0.1490E+02
      4.797  0.8230E+00  0.1501E+02
      4.928  0.8411E+00  0.1512E+02
      5.060  0.7380E+00  0.1522E+02
      5.191  0.1158E+01  0.1537E+02
      5.323  0.1780E+01  0.1561E+02
      5.455  0.1605E+01  0.1582E+02
      5.586  0.2382E+01  0.1613E+02
      5.718  0.1189E+01  0.1629E+02
      5.849  0.9138E+00  0.1641E+02
      5.981  0.8240E+00  0.1652E+02
      6.113  0.8965E+00  0.1664E+02
      6.244  0.1714E+01  0.1686E+02
      6.376  0.1761E+01  0.1709E+02
      6.507  0.1869E+01  0.1734E+02
      6.639  0.2025E+01  0.1761E+02
      6.771  0.4824E+00  0.1767E+02
      6.902  0.6884E+00  0.1776E+02
      7.034  0.1444E+01  0.1795E+02
      7.165  0.1115E+01  0.1810E+02
      7.297  0.5921E+00  0.1817E+02
      7.429  0.2427E+00  0.1821E+02
      7.560  0.2102E+00  0.1823E+02
      7.692  0.3843E-01  0.1824E+02
      7.824  0.1417E+00  0.1826E+02
      7.955  0.3621E+00  0.1830E+02
      8.087  0.2320E+00  0.1834E+02
      8.218  0.1479E-01  0.1834E+02
      8.350  0.1538E+00  0.1836E+02
      8.482  0.9795E+00  0.1849E+02
      8.613  0.4931E+00  0.1855E+02
      8.745  0.6128E-01  0.1856E+02
      8.876  0.1359E+01  0.1874E+02
      9.008  0.7465E+00  0.1884E+02
      9.140  0.2681E+00  0.1887E+02
      9.271  0.5727E+00  0.1895E+02
      9.403  0.1097E+01  0.1909E+02
      9.534  0.1609E+01  0.1930E+02
      9.666  0.3741E+00  0.1935E+02
      9.798  0.2851E+00  0.1939E+02
      9.929  0.1087E+01  0.1953E+02
     10.061  0.3799E+00  0.1958E+02
     10.192  0.1439E+01  0.1977E+02
     10.324  0.8029E+00  0.1988E+02
     10.456  0.4240E+00  0.1993E+02
     10.587  0.4009E+00  0.1999E+02
     10.719  0.9988E-01  0.2000E+02
     10.850  0.1255E-05  0.2000E+02
     10.982  0.1714E-01  0.2000E+02
     11.114  0.4688E+00  0.2006E+02
     11.245  0.1434E-01  0.2007E+02
     11.377  0.4689E-08  0.2007E+02
     11.508  0.4184E-03  0.2007E+02
     11.640  0.9271E+00  0.2019E+02
     11.772  0.1149E+01  0.2034E+02
     11.903  0.3763E+00  0.2039E+02
     12.035  0.2157E+00  0.2042E+02
     12.167  0.1349E+00  0.2043E+02
     12.298  0.6011E+00  0.2051E+02
     12.430  0.1436E+01  0.2070E+02
     12.561  0.7967E-01  0.2071E+02
     12.693  0.8599E-01  0.2072E+02
     12.825  0.1225E+01  0.2089E+02
     12.956  0.7434E+00  0.2098E+02
     13.088  0.3635E+00  0.2103E+02
     13.219  0.3920E-01  0.2104E+02
     13.351  0.1114E+01  0.2118E+02
     13.483  0.7971E+00  0.2129E+02
     13.614  0.1486E+00  0.2131E+02
     13.746  0.8875E+00  0.2142E+02
     13.877  0.9315E+00  0.2155E+02
     14.009  0.2137E+00  0.2158E+02
     14.141  0.4576E+00  0.2164E+02
     14.272  0.5279E+00  0.2170E+02
     14.404  0.3738E+00  0.2175E+02
     14.535  0.1554E+01  0.2196E+02
     14.667  0.2433E+01  0.2228E+02
     14.799  0.1732E+01  0.2251E+02
     14.930  0.1885E+01  0.2275E+02
     15.062  0.1670E+01  0.2297E+02
     15.193  0.2304E+01  0.2328E+02
     15.325  0.1364E+01  0.2346E+02
     15.457  0.7414E+00  0.2355E+02
     15.588  0.8088E+00  0.2366E+02
     15.720  0.2081E+01  0.2394E+02
     15.851  0.1758E+01  0.2417E+02
     15.983  0.1764E+01  0.2440E+02
     16.115  0.1555E+01  0.2460E+02
     16.246  0.1743E+01  0.2483E+02
     16.378  0.7466E+00  0.2493E+02
     16.510  0.1738E+00  0.2495E+02
     16.641  0.1560E+01  0.2516E+02
     16.773  0.1183E+01  0.2531E+02
     16.904  0.6596E+00  0.2540E+02
     17.036  0.6248E+00  0.2548E+02
     17.168  0.3970E+00  0.2554E+02
     17.299  0.7426E+00  0.2563E+02
     17.431  0.7387E+00  0.2573E+02
     17.562  0.4900E+00  0.2580E+02
     17.694  0.6377E+00  0.2588E+02
     17.826  0.3930E+00  0.2593E+02
     17.957  0.8832E-01  0.2594E+02
     18.089  0.4670E-01  0.2595E+02
     18.220  0.2812E+00  0.2599E+02
     18.352  0.5653E+00  0.2606E+02
     18.484  0.1446E+00  0.2608E+02
     18.615  0.2824E+00  0.2612E+02
     18.747  0.4610E+00  0.2618E+02
     18.878  0.2785E-01  0.2618E+02
     19.010  0.4347E-01  0.2619E+02
     19.142  0.5606E+00  0.2626E+02
     19.273  0.9179E+00  0.2638E+02
     19.405  0.5769E+00  0.2646E+02
     19.536  0.4366E+00  0.2651E+02
     19.668  0.1799E+00  0.2654E+02
     19.800  0.4508E+00  0.2660E+02
     19.931  0.5270E+00  0.2667E+02
     20.063  0.1455E+00  0.2669E+02
     20.194  0.4464E+00  0.2675E+02
     20.326  0.5443E+00  0.2682E+02
     20.458  0.1250E+01  0.2698E+02
     20.589  0.1151E+00  0.2700E+02
     20.721  0.1864E+00  0.2702E+02
     20.853  0.9225E+00  0.2714E+02
     20.984  0.4093E+00  0.2720E+02
     21.116  0.8411E+00  0.2731E+02
     21.247  0.1672E+00  0.2733E+02
     21.379  0.8357E+00  0.2744E+02
     21.511  0.3075E+00  0.2748E+02
     21.642  0.5207E+00  0.2755E+02
     21.774  0.1789E+01  0.2778E+02
     21.905  0.4131E+00  0.2784E+02
     22.037  0.1325E+01  0.2801E+02
     22.169  0.5092E+00  0.2808E+02
     22.300  0.2524E-01  0.2808E+02
     22.432  0.1270E-06  0.2808E+02
     22.563  0.1512E-01  0.2808E+02
     22.695  0.4889E+00  0.2815E+02
     22.827  0.5244E+00  0.2822E+02
     22.958  0.1397E+01  0.2840E+02
     23.090  0.1969E+01  0.2866E+02
     23.221  0.5635E+00  0.2873E+02
     23.353  0.2027E+00  0.2876E+02
     23.485  0.1526E+01  0.2896E+02
     23.616  0.4002E+00  0.2902E+02
     23.748  0.4545E+00  0.2907E+02
     23.879  0.8834E+00  0.2919E+02
     24.011  0.1014E+01  0.2932E+02
     24.143  0.1299E+01  0.2950E+02
     24.274  0.4348E+00  0.2955E+02
     24.406  0.4522E+00  0.2961E+02
     24.537  0.1416E+01  0.2980E+02
     24.669  0.1360E+01  0.2998E+02
     24.801  0.2122E+01  0.3026E+02
     24.932  0.6968E-01  0.3027E+02
     25.064  0.1464E+00  0.3029E+02
     25.196  0.1600E+01  0.3050E+02
     25.327  0.9707E+00  0.3062E+02
     25.459  0.5931E+00  0.3070E+02
     25.590  0.9416E+00  0.3083E+02
     25.722  0.4999E-01  0.3083E+02
     25.854  0.4624E+00  0.3089E+02
     25.985  0.2425E+00  0.3093E+02
     26.117  0.3726E+00  0.3097E+02
     26.248  0.5395E+00  0.3105E+02
     26.380  0.5508E+00  0.3112E+02
     26.512  0.9642E+00  0.3124E+02
     26.643  0.9742E+00  0.3137E+02
     26.775  0.1014E+01  0.3151E+02
     26.906  0.4293E+00  0.3156E+02
     27.038  0.1666E+00  0.3158E+02
     27.170  0.3696E+00  0.3163E+02
     27.301  0.2857E+00  0.3167E+02
     27.433  0.2233E+00  0.3170E+02
     27.564  0.2797E+00  0.3174E+02
     27.696  0.7632E+00  0.3184E+02
     27.828  0.1087E+01  0.3198E+02
     27.959  0.2344E-01  0.3198E+02
     28.091  0.1100E-01  0.3198E+02
     28.222  0.1130E+00  0.3200E+02
     28.354  0.1116E-02  0.3200E+02
     28.486  0.7009E-10  0.3200E+02
     28.617  0.0000E+00  0.3200E+02
     28.749  0.0000E+00  0.3200E+02
     28.880  0.0000E+00  0.3200E+02
     29.012  0.0000E+00  0.3200E+02
     29.144  0.0000E+00  0.3200E+02
     29.275  0.0000E+00  0.3200E+02
     29.407  0.0000E+00  0.3200E+02
     29.539  0.0000E+00  0.3200E+02
     29.670  0.0000E+00  0.3200E+02
     29.802  0.0000E+00  0.3200E+02
     29.933  0.0000E+00  0.3200E+02
