       N       E                     dE             d eps       ncg     rms          rms(c)
DAV:   1     0.910544861529E+02    0.91054E+02   -0.10562E+04 23992   0.121E+03
DAV:   2    -0.738541256344E+01   -0.98440E+02   -0.93818E+02 28896   0.276E+02
DAV:   3    -0.975510350313E+01   -0.23697E+01   -0.23579E+01 29312   0.408E+01
DAV:   4    -0.976445556765E+01   -0.93521E-02   -0.93517E-02 31736   0.279E+00
DAV:   5    -0.976454497404E+01   -0.89406E-04   -0.89406E-04 29816   0.258E-01    0.112E+01
DAV:   6    -0.831745546277E+01    0.14471E+01   -0.57672E+00 26288   0.210E+01    0.897E+00
DAV:   7    -0.822844636040E+01    0.89009E-01   -0.50308E-01 25272   0.570E+00    0.508E+00
DAV:   8    -0.822388242833E+01    0.45639E-02   -0.11371E-01 26912   0.242E+00    0.576E-01
DAV:   9    -0.821761651352E+01    0.62659E-02   -0.15872E-02 28592   0.974E-01    0.172E-01
DAV:  10    -0.821778363907E+01   -0.16713E-03   -0.12108E-03 29376   0.291E-01    0.634E-02
DAV:  11    -0.821778196534E+01    0.16737E-05   -0.33030E-04 29888   0.153E-01    0.369E-02
DAV:  12    -0.821776743389E+01    0.14531E-04   -0.43670E-05 28760   0.551E-02    0.939E-03
DAV:  13    -0.821776678146E+01    0.65243E-06   -0.64608E-06 29056   0.184E-02
   1 F= -.82177668E+01 E0= -.82173433E+01  d E =-.846918E-03
