H20 N20                                 
   1.00000000000000     
     5.4990949999999996    0.0000000000000000    0.0000000000000000
     0.0000000000000000    5.7900000000000000    0.0000000000000000
     0.0000000000000000    5.3324639999999999   11.4815740000000002
   H    N 
    20    20
Direct
     0.3223100000000017    0.7252760000000009    0.9348639999999975
     0.8223100000000017    0.2747239999999991    0.5651360000000025
     0.6776899999999983    0.2747239999999991    0.0651360000000025
     0.1776899999999983    0.7252760000000009    0.4348639999999975
     0.0278270000000020    0.3673310000000001    0.6421410000000023
     0.5278270000000020    0.6326689999999999    0.8578589999999977
     0.9721729999999980    0.6326689999999999    0.3578589999999977
     0.4721729999999980    0.3673310000000001    0.1421410000000023
     0.9927319999999966    0.8678880000000007    0.6498840000000001
     0.4927319999999966    0.1321119999999993    0.8501159999999999
     0.0072680000000034    0.1321119999999993    0.3501159999999999
     0.5072680000000034    0.8678880000000007    0.1498840000000001
     0.7000439999999983    0.9137059999999977    0.9148210000000034
     0.2000439999999983    0.0862940000000023    0.5851789999999966
     0.2999560000000017    0.0862940000000023    0.0851789999999966
     0.7999560000000017    0.9137059999999977    0.4148210000000034
     0.8019359999999978    0.1455070000000021    0.7167120000000011
     0.3019359999999978    0.8544929999999979    0.7832879999999989
     0.1980640000000022    0.8544929999999979    0.2832879999999989
     0.6980640000000022    0.1455070000000021    0.2167120000000011
     0.4765700000000024    0.6550769999999986    0.5993989999999982
     0.9765700000000024    0.3449230000000014    0.9006010000000018
     0.5234299999999976    0.3449230000000014    0.4006010000000018
     0.0234299999999976    0.6550769999999986    0.0993989999999982
     0.2848979999999983    0.5936570000000003    0.5750469999999979
     0.7848979999999983    0.4063429999999997    0.9249530000000021
     0.7151020000000017    0.4063429999999997    0.4249530000000021
     0.2151020000000017    0.5936570000000003    0.0750469999999979
     0.6655200000000008    0.7175349999999980    0.6227170000000015
     0.1655200000000008    0.2824650000000020    0.8772829999999985
     0.3344799999999992    0.2824650000000020    0.3772829999999985
     0.8344799999999992    0.7175349999999980    0.1227170000000015
     0.4230080000000029    0.7873519999999985    0.8547980000000024
     0.9230080000000029    0.2126480000000015    0.6452019999999976
     0.5769919999999971    0.2126480000000015    0.1452019999999976
     0.0769919999999971    0.7873519999999985    0.3547980000000024
     0.0920879999999968    0.0105530000000016    0.6580190000000030
     0.5920879999999968    0.9894469999999984    0.8419809999999970
     0.9079120000000032    0.9894469999999984    0.3419809999999970
     0.4079120000000032    0.0105530000000016    0.1580190000000030
 
  0.00000000E+00  0.00000000E+00  0.00000000E+00
  0.00000000E+00  0.00000000E+00  0.00000000E+00
  0.00000000E+00  0.00000000E+00  0.00000000E+00
  0.00000000E+00  0.00000000E+00  0.00000000E+00
  0.00000000E+00  0.00000000E+00  0.00000000E+00
  0.00000000E+00  0.00000000E+00  0.00000000E+00
  0.00000000E+00  0.00000000E+00  0.00000000E+00
  0.00000000E+00  0.00000000E+00  0.00000000E+00
  0.00000000E+00  0.00000000E+00  0.00000000E+00
  0.00000000E+00  0.00000000E+00  0.00000000E+00
  0.00000000E+00  0.00000000E+00  0.00000000E+00
  0.00000000E+00  0.00000000E+00  0.00000000E+00
  0.00000000E+00  0.00000000E+00  0.00000000E+00
  0.00000000E+00  0.00000000E+00  0.00000000E+00
  0.00000000E+00  0.00000000E+00  0.00000000E+00
  0.00000000E+00  0.00000000E+00  0.00000000E+00
  0.00000000E+00  0.00000000E+00  0.00000000E+00
  0.00000000E+00  0.00000000E+00  0.00000000E+00
  0.00000000E+00  0.00000000E+00  0.00000000E+00
  0.00000000E+00  0.00000000E+00  0.00000000E+00
  0.00000000E+00  0.00000000E+00  0.00000000E+00
  0.00000000E+00  0.00000000E+00  0.00000000E+00
  0.00000000E+00  0.00000000E+00  0.00000000E+00
  0.00000000E+00  0.00000000E+00  0.00000000E+00
  0.00000000E+00  0.00000000E+00  0.00000000E+00
  0.00000000E+00  0.00000000E+00  0.00000000E+00
  0.00000000E+00  0.00000000E+00  0.00000000E+00
  0.00000000E+00  0.00000000E+00  0.00000000E+00
  0.00000000E+00  0.00000000E+00  0.00000000E+00
  0.00000000E+00  0.00000000E+00  0.00000000E+00
  0.00000000E+00  0.00000000E+00  0.00000000E+00
  0.00000000E+00  0.00000000E+00  0.00000000E+00
  0.00000000E+00  0.00000000E+00  0.00000000E+00
  0.00000000E+00  0.00000000E+00  0.00000000E+00
  0.00000000E+00  0.00000000E+00  0.00000000E+00
  0.00000000E+00  0.00000000E+00  0.00000000E+00
  0.00000000E+00  0.00000000E+00  0.00000000E+00
  0.00000000E+00  0.00000000E+00  0.00000000E+00
  0.00000000E+00  0.00000000E+00  0.00000000E+00
  0.00000000E+00  0.00000000E+00  0.00000000E+00
