  40  40   0   0
  0.9139264E+01  0.5499095E-09  0.5790000E-09  0.1265945E-08  0.5000000E-15
  1.000000000000000E-004
  CAR 
 unknown system                          
     12.84800066    -23.97829999  301     -0.02586027      1.00000000
    -23.978  0.0000E+00  0.0000E+00
    -23.856  0.0000E+00  0.0000E+00
    -23.733  0.0000E+00  0.0000E+00
    -23.610  0.0000E+00  0.0000E+00
    -23.487  0.0000E+00  0.0000E+00
    -23.365  0.0000E+00  0.0000E+00
    -23.242  0.0000E+00  0.0000E+00
    -23.119  0.0000E+00  0.0000E+00
    -22.996  0.0000E+00  0.0000E+00
    -22.874  0.0000E+00  0.0000E+00
    -22.751  0.0000E+00  0.0000E+00
    -22.628  0.0000E+00  0.0000E+00
    -22.505  0.1250E-07  0.1534E-08
    -22.382  0.8875E-01  0.1089E-01
    -22.260  0.3392E+02  0.4175E+01
    -22.137  0.3111E+02  0.7994E+01
    -22.014  0.5177E-01  0.8000E+01
    -21.891  0.2961E-08  0.8000E+01
    -21.769  0.0000E+00  0.8000E+01
    -21.646  0.0000E+00  0.8000E+01
    -21.523  0.0000E+00  0.8000E+01
    -21.400  0.0000E+00  0.8000E+01
    -21.278  0.0000E+00  0.8000E+01
    -21.155  0.0000E+00  0.8000E+01
    -21.032  0.0000E+00  0.8000E+01
    -20.909  0.0000E+00  0.8000E+01
    -20.787  0.5414E-08  0.8000E+01
    -20.664  0.4387E-01  0.8005E+01
    -20.541  0.1589E+02  0.9956E+01
    -20.418  0.2964E+02  0.1360E+02
    -20.296  0.1939E+02  0.1598E+02
    -20.173  0.2034E+00  0.1600E+02
    -20.050  0.1948E-06  0.1600E+02
    -19.927  0.0000E+00  0.1600E+02
    -19.805  0.0000E+00  0.1600E+02
    -19.682  0.0000E+00  0.1600E+02
    -19.559  0.0000E+00  0.1600E+02
    -19.436  0.0000E+00  0.1600E+02
    -19.314  0.0000E+00  0.1600E+02
    -19.191  0.0000E+00  0.1600E+02
    -19.068  0.0000E+00  0.1600E+02
    -18.945  0.0000E+00  0.1600E+02
    -18.823  0.0000E+00  0.1600E+02
    -18.700  0.0000E+00  0.1600E+02
    -18.577  0.0000E+00  0.1600E+02
    -18.454  0.0000E+00  0.1600E+02
    -18.332  0.0000E+00  0.1600E+02
    -18.209  0.2040E-07  0.1600E+02
    -18.086  0.1809E+00  0.1602E+02
    -17.963  0.4758E+02  0.2186E+02
    -17.841  0.1740E+02  0.2400E+02
    -17.718  0.1924E-02  0.2400E+02
    -17.595  0.3603E-11  0.2400E+02
    -17.472  0.0000E+00  0.2400E+02
    -17.350  0.0000E+00  0.2400E+02
    -17.227  0.0000E+00  0.2400E+02
    -17.104  0.0000E+00  0.2400E+02
    -16.981  0.0000E+00  0.2400E+02
    -16.859  0.0000E+00  0.2400E+02
    -16.736  0.0000E+00  0.2400E+02
    -16.613  0.0000E+00  0.2400E+02
    -16.490  0.0000E+00  0.2400E+02
    -16.368  0.0000E+00  0.2400E+02
    -16.245  0.0000E+00  0.2400E+02
    -16.122  0.0000E+00  0.2400E+02
    -15.999  0.0000E+00  0.2400E+02
    -15.877  0.0000E+00  0.2400E+02
    -15.754  0.0000E+00  0.2400E+02
    -15.631  0.6051E-13  0.2400E+02
    -15.508  0.7715E-04  0.2400E+02
    -15.385  0.1775E+01  0.2422E+02
    -15.263  0.1877E+02  0.2652E+02
    -15.140  0.1341E+02  0.2817E+02
    -15.017  0.1471E+02  0.2997E+02
    -14.894  0.1594E+02  0.3193E+02
    -14.772  0.5747E+00  0.3200E+02
    -14.649  0.1013E-04  0.3200E+02
    -14.526  0.4341E-14  0.3200E+02
    -14.403  0.0000E+00  0.3200E+02
    -14.281  0.0000E+00  0.3200E+02
    -14.158  0.0000E+00  0.3200E+02
    -14.035  0.0000E+00  0.3200E+02
    -13.912  0.0000E+00  0.3200E+02
    -13.790  0.0000E+00  0.3200E+02
    -13.667  0.0000E+00  0.3200E+02
    -13.544  0.0000E+00  0.3200E+02
    -13.421  0.0000E+00  0.3200E+02
    -13.299  0.0000E+00  0.3200E+02
    -13.176  0.0000E+00  0.3200E+02
    -13.053  0.0000E+00  0.3200E+02
    -12.930  0.0000E+00  0.3200E+02
    -12.808  0.0000E+00  0.3200E+02
    -12.685  0.0000E+00  0.3200E+02
    -12.562  0.0000E+00  0.3200E+02
    -12.439  0.0000E+00  0.3200E+02
    -12.317  0.0000E+00  0.3200E+02
    -12.194  0.0000E+00  0.3200E+02
    -12.071  0.0000E+00  0.3200E+02
    -11.948  0.0000E+00  0.3200E+02
    -11.826  0.0000E+00  0.3200E+02
    -11.703  0.0000E+00  0.3200E+02
    -11.580  0.0000E+00  0.3200E+02
    -11.457  0.0000E+00  0.3200E+02
    -11.335  0.0000E+00  0.3200E+02
    -11.212  0.0000E+00  0.3200E+02
    -11.089  0.0000E+00  0.3200E+02
    -10.966  0.0000E+00  0.3200E+02
    -10.844  0.0000E+00  0.3200E+02
    -10.721  0.0000E+00  0.3200E+02
    -10.598  0.0000E+00  0.3200E+02
    -10.475  0.0000E+00  0.3200E+02
    -10.353  0.0000E+00  0.3200E+02
    -10.230  0.0000E+00  0.3200E+02
    -10.107  0.0000E+00  0.3200E+02
     -9.984  0.0000E+00  0.3200E+02
     -9.862  0.2123E-11  0.3200E+02
     -9.739  0.5621E-03  0.3200E+02
     -9.616  0.3563E+01  0.3244E+02
     -9.493  0.2977E+02  0.3609E+02
     -9.371  0.2676E+02  0.3938E+02
     -9.248  0.5067E+01  0.4000E+02
     -9.125  0.1468E-01  0.4000E+02
     -9.002  0.2455E+01  0.4030E+02
     -8.880  0.2365E+02  0.4320E+02
     -8.757  0.3492E+02  0.4749E+02
     -8.634  0.4149E+01  0.4800E+02
     -8.511  0.2181E-03  0.4800E+02
     -8.388  0.2386E-12  0.4800E+02
     -8.266  0.6534E-07  0.4800E+02
     -8.143  0.4986E-01  0.4801E+02
     -8.020  0.7042E+01  0.4887E+02
     -7.897  0.1419E+02  0.5061E+02
     -7.775  0.9225E+01  0.5175E+02
     -7.652  0.7877E+01  0.5271E+02
     -7.529  0.1185E+02  0.5417E+02
     -7.406  0.9289E+01  0.5531E+02
     -7.284  0.5545E+01  0.5599E+02
     -7.161  0.1039E+00  0.5600E+02
     -7.038  0.3091E-02  0.5600E+02
     -6.915  0.1671E+01  0.5621E+02
     -6.793  0.1290E+02  0.5779E+02
     -6.670  0.2292E+02  0.6060E+02
     -6.547  0.2934E+02  0.6421E+02
     -6.424  0.3058E+02  0.6796E+02
     -6.302  0.3406E+02  0.7214E+02
     -6.179  0.4849E+02  0.7809E+02
     -6.056  0.1502E+02  0.7994E+02
     -5.933  0.2567E+01  0.8025E+02
     -5.811  0.6443E+01  0.8104E+02
     -5.688  0.1054E+02  0.8234E+02
     -5.565  0.1722E+02  0.8445E+02
     -5.442  0.1692E+02  0.8653E+02
     -5.320  0.1013E+02  0.8777E+02
     -5.197  0.1592E+01  0.8797E+02
     -5.074  0.2643E+00  0.8800E+02
     -4.951  0.4978E-03  0.8800E+02
     -4.829  0.1576E-02  0.8800E+02
     -4.706  0.2474E+01  0.8830E+02
     -4.583  0.1586E+02  0.9025E+02
     -4.460  0.2109E+02  0.9284E+02
     -4.338  0.2253E+02  0.9561E+02
     -4.215  0.3204E+01  0.9600E+02
     -4.092  0.8106E-02  0.9600E+02
     -3.969  0.2239E-08  0.9600E+02
     -3.847  0.0000E+00  0.9600E+02
     -3.724  0.0000E+00  0.9600E+02
     -3.601  0.0000E+00  0.9600E+02
     -3.478  0.0000E+00  0.9600E+02
     -3.356  0.0000E+00  0.9600E+02
     -3.233  0.0000E+00  0.9600E+02
     -3.110  0.0000E+00  0.9600E+02
     -2.987  0.0000E+00  0.9600E+02
     -2.865  0.4499E-07  0.9600E+02
     -2.742  0.1706E-01  0.9600E+02
     -2.619  0.1648E+01  0.9620E+02
     -2.496  0.9093E+01  0.9732E+02
     -2.374  0.1236E+02  0.9884E+02
     -2.251  0.9354E+01  0.9999E+02
     -2.128  0.1552E+02  0.1019E+03
     -2.005  0.1644E+02  0.1039E+03
     -1.883  0.7427E+00  0.1040E+03
     -1.760  0.1356E-04  0.1040E+03
     -1.637  0.3618E-14  0.1040E+03
     -1.514  0.0000E+00  0.1040E+03
     -1.392  0.0000E+00  0.1040E+03
     -1.269  0.0000E+00  0.1040E+03
     -1.146  0.9238E-11  0.1040E+03
     -1.023  0.3863E-03  0.1040E+03
     -0.900  0.1022E+01  0.1041E+03
     -0.778  0.1384E+02  0.1058E+03
     -0.655  0.1931E+02  0.1082E+03
     -0.532  0.3259E+02  0.1122E+03
     -0.409  0.3197E+02  0.1161E+03
     -0.287  0.2962E+02  0.1198E+03
     -0.164  0.1982E+01  0.1200E+03
     -0.041  0.2105E-02  0.1200E+03
      0.082  0.2975E-09  0.1200E+03
      0.204  0.0000E+00  0.1200E+03
      0.327  0.0000E+00  0.1200E+03
      0.450  0.0000E+00  0.1200E+03
      0.573  0.0000E+00  0.1200E+03
      0.695  0.0000E+00  0.1200E+03
      0.818  0.0000E+00  0.1200E+03
      0.941  0.0000E+00  0.1200E+03
      1.064  0.0000E+00  0.1200E+03
      1.186  0.0000E+00  0.1200E+03
      1.309  0.0000E+00  0.1200E+03
      1.432  0.0000E+00  0.1200E+03
      1.555  0.0000E+00  0.1200E+03
      1.677  0.0000E+00  0.1200E+03
      1.800  0.0000E+00  0.1200E+03
      1.923  0.0000E+00  0.1200E+03
      2.046  0.0000E+00  0.1200E+03
      2.168  0.0000E+00  0.1200E+03
      2.291  0.0000E+00  0.1200E+03
      2.414  0.0000E+00  0.1200E+03
      2.537  0.0000E+00  0.1200E+03
      2.659  0.0000E+00  0.1200E+03
      2.782  0.0000E+00  0.1200E+03
      2.905  0.0000E+00  0.1200E+03
      3.028  0.0000E+00  0.1200E+03
      3.150  0.0000E+00  0.1200E+03
      3.273  0.0000E+00  0.1200E+03
      3.396  0.0000E+00  0.1200E+03
      3.519  0.0000E+00  0.1200E+03
      3.641  0.0000E+00  0.1200E+03
      3.764  0.0000E+00  0.1200E+03
      3.887  0.3949E-10  0.1200E+03
      4.010  0.1610E-02  0.1200E+03
      4.132  0.1338E+01  0.1202E+03
      4.255  0.7453E+01  0.1211E+03
      4.378  0.1485E+02  0.1229E+03
      4.501  0.1467E+02  0.1247E+03
      4.623  0.1721E+02  0.1268E+03
      4.746  0.1413E+02  0.1286E+03
      4.869  0.1560E+02  0.1305E+03
      4.992  0.1535E+02  0.1323E+03
      5.114  0.1383E+02  0.1340E+03
      5.237  0.1201E+02  0.1355E+03
      5.360  0.6892E+01  0.1364E+03
      5.483  0.7761E+01  0.1373E+03
      5.605  0.7250E+01  0.1382E+03
      5.728  0.5662E+01  0.1389E+03
      5.851  0.6397E+01  0.1397E+03
      5.974  0.7257E+01  0.1406E+03
      6.097  0.6192E+01  0.1413E+03
      6.219  0.7231E+01  0.1422E+03
      6.342  0.9429E+01  0.1434E+03
      6.465  0.5589E+01  0.1441E+03
      6.588  0.3576E+01  0.1445E+03
      6.710  0.7531E+01  0.1454E+03
      6.833  0.1321E+02  0.1471E+03
      6.956  0.1120E+02  0.1484E+03
      7.079  0.6015E+01  0.1492E+03
      7.201  0.1367E+02  0.1508E+03
      7.324  0.1223E+02  0.1524E+03
      7.447  0.9631E+01  0.1535E+03
      7.570  0.1227E+02  0.1550E+03
      7.692  0.8930E+01  0.1561E+03
      7.815  0.9633E+01  0.1573E+03
      7.938  0.6250E+01  0.1581E+03
      8.061  0.9567E+01  0.1593E+03
      8.183  0.7852E+01  0.1602E+03
      8.306  0.1190E+02  0.1617E+03
      8.429  0.1313E+02  0.1633E+03
      8.552  0.1327E+02  0.1649E+03
      8.674  0.1474E+02  0.1667E+03
      8.797  0.1815E+02  0.1690E+03
      8.920  0.1065E+02  0.1703E+03
      9.043  0.1191E+02  0.1717E+03
      9.165  0.1408E+02  0.1735E+03
      9.288  0.1369E+02  0.1751E+03
      9.411  0.1312E+02  0.1768E+03
      9.534  0.1815E+02  0.1790E+03
      9.656  0.1818E+02  0.1812E+03
      9.779  0.1947E+02  0.1836E+03
      9.902  0.1725E+02  0.1857E+03
     10.025  0.1456E+02  0.1875E+03
     10.147  0.1684E+02  0.1896E+03
     10.270  0.1380E+02  0.1913E+03
     10.393  0.9815E+01  0.1925E+03
     10.516  0.1156E+02  0.1939E+03
     10.638  0.1166E+02  0.1953E+03
     10.761  0.1462E+02  0.1971E+03
     10.884  0.1237E+02  0.1986E+03
     11.007  0.7769E+01  0.1996E+03
     11.129  0.1948E+01  0.1998E+03
     11.252  0.1385E+01  0.2000E+03
     11.375  0.1590E-01  0.2000E+03
     11.498  0.6941E-08  0.2000E+03
     11.620  0.0000E+00  0.2000E+03
     11.743  0.0000E+00  0.2000E+03
     11.866  0.0000E+00  0.2000E+03
     11.989  0.0000E+00  0.2000E+03
     12.111  0.0000E+00  0.2000E+03
     12.234  0.0000E+00  0.2000E+03
     12.357  0.0000E+00  0.2000E+03
     12.480  0.0000E+00  0.2000E+03
     12.602  0.0000E+00  0.2000E+03
     12.725  0.0000E+00  0.2000E+03
     12.848  0.0000E+00  0.2000E+03
