   2   2   0   0
  0.2560000E+03  0.8000000E-09  0.8000000E-09  0.8000000E-09  0.5000000E-15
  1.000000000000000E-004
  CAR 
 unknown system                          
      2.95764177    -34.39018903  301     -6.59717828      1.00000000
    -34.390  0.0000E+00  0.0000E+00  0.0000E+00  0.0000E+00
    -34.266  0.0000E+00  0.0000E+00  0.0000E+00  0.0000E+00
    -34.141  0.0000E+00  0.0000E+00  0.0000E+00  0.0000E+00
    -34.017  0.0000E+00  0.0000E+00  0.0000E+00  0.0000E+00
    -33.892  0.0000E+00  0.0000E+00  0.0000E+00  0.0000E+00
    -33.768  0.0000E+00  0.0000E+00  0.0000E+00  0.0000E+00
    -33.643  0.0000E+00  0.0000E+00  0.0000E+00  0.0000E+00
    -33.519  0.0000E+00  0.0000E+00  0.0000E+00  0.0000E+00
    -33.394  0.0000E+00  0.0000E+00  0.0000E+00  0.0000E+00
    -33.270  0.0000E+00  0.0000E+00  0.0000E+00  0.0000E+00
    -33.145  0.0000E+00  0.0000E+00  0.0000E+00  0.0000E+00
    -33.021  0.0000E+00  0.0000E+00  0.0000E+00  0.0000E+00
    -32.896  0.0000E+00  0.0000E+00  0.0000E+00  0.0000E+00
    -32.772  0.0000E+00  0.0000E+00  0.0000E+00  0.0000E+00
    -32.647  0.0000E+00  0.0000E+00  0.0000E+00  0.0000E+00
    -32.523  0.0000E+00  0.0000E+00  0.0000E+00  0.0000E+00
    -32.398  0.0000E+00  0.0000E+00  0.0000E+00  0.0000E+00
    -32.274  0.8033E+01  0.0000E+00  0.1000E+01  0.0000E+00
    -32.149  0.0000E+00  0.0000E+00  0.1000E+01  0.0000E+00
    -32.025  0.0000E+00  0.0000E+00  0.1000E+01  0.0000E+00
    -31.900  0.0000E+00  0.0000E+00  0.1000E+01  0.0000E+00
    -31.776  0.0000E+00  0.0000E+00  0.1000E+01  0.0000E+00
    -31.651  0.0000E+00  0.0000E+00  0.1000E+01  0.0000E+00
    -31.527  0.0000E+00  0.0000E+00  0.1000E+01  0.0000E+00
    -31.402  0.0000E+00  0.0000E+00  0.1000E+01  0.0000E+00
    -31.278  0.0000E+00  0.0000E+00  0.1000E+01  0.0000E+00
    -31.153  0.0000E+00  0.0000E+00  0.1000E+01  0.0000E+00
    -31.029  0.0000E+00  0.8033E+01  0.1000E+01  0.1000E+01
    -30.904  0.0000E+00  0.0000E+00  0.1000E+01  0.1000E+01
    -30.780  0.0000E+00  0.0000E+00  0.1000E+01  0.1000E+01
    -30.655  0.0000E+00  0.0000E+00  0.1000E+01  0.1000E+01
    -30.531  0.0000E+00  0.0000E+00  0.1000E+01  0.1000E+01
    -30.406  0.0000E+00  0.0000E+00  0.1000E+01  0.1000E+01
    -30.282  0.0000E+00  0.0000E+00  0.1000E+01  0.1000E+01
    -30.157  0.0000E+00  0.0000E+00  0.1000E+01  0.1000E+01
    -30.033  0.0000E+00  0.0000E+00  0.1000E+01  0.1000E+01
    -29.908  0.0000E+00  0.0000E+00  0.1000E+01  0.1000E+01
    -29.784  0.0000E+00  0.0000E+00  0.1000E+01  0.1000E+01
    -29.659  0.0000E+00  0.0000E+00  0.1000E+01  0.1000E+01
    -29.535  0.0000E+00  0.0000E+00  0.1000E+01  0.1000E+01
    -29.410  0.0000E+00  0.0000E+00  0.1000E+01  0.1000E+01
    -29.286  0.0000E+00  0.0000E+00  0.1000E+01  0.1000E+01
    -29.161  0.0000E+00  0.0000E+00  0.1000E+01  0.1000E+01
    -29.037  0.0000E+00  0.0000E+00  0.1000E+01  0.1000E+01
    -28.913  0.0000E+00  0.0000E+00  0.1000E+01  0.1000E+01
    -28.788  0.0000E+00  0.0000E+00  0.1000E+01  0.1000E+01
    -28.664  0.0000E+00  0.0000E+00  0.1000E+01  0.1000E+01
    -28.539  0.0000E+00  0.0000E+00  0.1000E+01  0.1000E+01
    -28.415  0.0000E+00  0.0000E+00  0.1000E+01  0.1000E+01
    -28.290  0.0000E+00  0.0000E+00  0.1000E+01  0.1000E+01
    -28.166  0.0000E+00  0.0000E+00  0.1000E+01  0.1000E+01
    -28.041  0.0000E+00  0.0000E+00  0.1000E+01  0.1000E+01
    -27.917  0.0000E+00  0.0000E+00  0.1000E+01  0.1000E+01
    -27.792  0.0000E+00  0.0000E+00  0.1000E+01  0.1000E+01
    -27.668  0.0000E+00  0.0000E+00  0.1000E+01  0.1000E+01
    -27.543  0.0000E+00  0.0000E+00  0.1000E+01  0.1000E+01
    -27.419  0.0000E+00  0.0000E+00  0.1000E+01  0.1000E+01
    -27.294  0.0000E+00  0.0000E+00  0.1000E+01  0.1000E+01
    -27.170  0.0000E+00  0.0000E+00  0.1000E+01  0.1000E+01
    -27.045  0.0000E+00  0.0000E+00  0.1000E+01  0.1000E+01
    -26.921  0.0000E+00  0.0000E+00  0.1000E+01  0.1000E+01
    -26.796  0.0000E+00  0.0000E+00  0.1000E+01  0.1000E+01
    -26.672  0.0000E+00  0.0000E+00  0.1000E+01  0.1000E+01
    -26.547  0.0000E+00  0.0000E+00  0.1000E+01  0.1000E+01
    -26.423  0.0000E+00  0.0000E+00  0.1000E+01  0.1000E+01
    -26.298  0.0000E+00  0.0000E+00  0.1000E+01  0.1000E+01
    -26.174  0.0000E+00  0.0000E+00  0.1000E+01  0.1000E+01
    -26.049  0.0000E+00  0.0000E+00  0.1000E+01  0.1000E+01
    -25.925  0.0000E+00  0.0000E+00  0.1000E+01  0.1000E+01
    -25.800  0.0000E+00  0.0000E+00  0.1000E+01  0.1000E+01
    -25.676  0.0000E+00  0.0000E+00  0.1000E+01  0.1000E+01
    -25.551  0.0000E+00  0.0000E+00  0.1000E+01  0.1000E+01
    -25.427  0.0000E+00  0.0000E+00  0.1000E+01  0.1000E+01
    -25.302  0.0000E+00  0.0000E+00  0.1000E+01  0.1000E+01
    -25.178  0.0000E+00  0.0000E+00  0.1000E+01  0.1000E+01
    -25.053  0.0000E+00  0.0000E+00  0.1000E+01  0.1000E+01
    -24.929  0.0000E+00  0.0000E+00  0.1000E+01  0.1000E+01
    -24.804  0.0000E+00  0.0000E+00  0.1000E+01  0.1000E+01
    -24.680  0.0000E+00  0.0000E+00  0.1000E+01  0.1000E+01
    -24.555  0.0000E+00  0.0000E+00  0.1000E+01  0.1000E+01
    -24.431  0.0000E+00  0.0000E+00  0.1000E+01  0.1000E+01
    -24.306  0.0000E+00  0.0000E+00  0.1000E+01  0.1000E+01
    -24.182  0.0000E+00  0.0000E+00  0.1000E+01  0.1000E+01
    -24.057  0.0000E+00  0.0000E+00  0.1000E+01  0.1000E+01
    -23.933  0.0000E+00  0.0000E+00  0.1000E+01  0.1000E+01
    -23.808  0.0000E+00  0.0000E+00  0.1000E+01  0.1000E+01
    -23.684  0.0000E+00  0.0000E+00  0.1000E+01  0.1000E+01
    -23.559  0.0000E+00  0.0000E+00  0.1000E+01  0.1000E+01
    -23.435  0.0000E+00  0.0000E+00  0.1000E+01  0.1000E+01
    -23.310  0.0000E+00  0.0000E+00  0.1000E+01  0.1000E+01
    -23.186  0.0000E+00  0.0000E+00  0.1000E+01  0.1000E+01
    -23.061  0.0000E+00  0.0000E+00  0.1000E+01  0.1000E+01
    -22.937  0.0000E+00  0.0000E+00  0.1000E+01  0.1000E+01
    -22.812  0.0000E+00  0.0000E+00  0.1000E+01  0.1000E+01
    -22.688  0.0000E+00  0.0000E+00  0.1000E+01  0.1000E+01
    -22.563  0.0000E+00  0.0000E+00  0.1000E+01  0.1000E+01
    -22.439  0.0000E+00  0.0000E+00  0.1000E+01  0.1000E+01
    -22.314  0.0000E+00  0.0000E+00  0.1000E+01  0.1000E+01
    -22.190  0.0000E+00  0.0000E+00  0.1000E+01  0.1000E+01
    -22.065  0.0000E+00  0.0000E+00  0.1000E+01  0.1000E+01
    -21.941  0.0000E+00  0.0000E+00  0.1000E+01  0.1000E+01
    -21.816  0.0000E+00  0.0000E+00  0.1000E+01  0.1000E+01
    -21.692  0.0000E+00  0.0000E+00  0.1000E+01  0.1000E+01
    -21.567  0.0000E+00  0.0000E+00  0.1000E+01  0.1000E+01
    -21.443  0.0000E+00  0.0000E+00  0.1000E+01  0.1000E+01
    -21.318  0.0000E+00  0.0000E+00  0.1000E+01  0.1000E+01
    -21.194  0.0000E+00  0.0000E+00  0.1000E+01  0.1000E+01
    -21.069  0.0000E+00  0.0000E+00  0.1000E+01  0.1000E+01
    -20.945  0.0000E+00  0.0000E+00  0.1000E+01  0.1000E+01
    -20.820  0.0000E+00  0.0000E+00  0.1000E+01  0.1000E+01
    -20.696  0.0000E+00  0.0000E+00  0.1000E+01  0.1000E+01
    -20.571  0.0000E+00  0.0000E+00  0.1000E+01  0.1000E+01
    -20.447  0.0000E+00  0.0000E+00  0.1000E+01  0.1000E+01
    -20.323  0.0000E+00  0.0000E+00  0.1000E+01  0.1000E+01
    -20.198  0.8033E+01  0.0000E+00  0.2000E+01  0.1000E+01
    -20.074  0.0000E+00  0.0000E+00  0.2000E+01  0.1000E+01
    -19.949  0.0000E+00  0.0000E+00  0.2000E+01  0.1000E+01
    -19.825  0.0000E+00  0.0000E+00  0.2000E+01  0.1000E+01
    -19.700  0.0000E+00  0.0000E+00  0.2000E+01  0.1000E+01
    -19.576  0.0000E+00  0.0000E+00  0.2000E+01  0.1000E+01
    -19.451  0.0000E+00  0.0000E+00  0.2000E+01  0.1000E+01
    -19.327  0.0000E+00  0.0000E+00  0.2000E+01  0.1000E+01
    -19.202  0.0000E+00  0.0000E+00  0.2000E+01  0.1000E+01
    -19.078  0.0000E+00  0.0000E+00  0.2000E+01  0.1000E+01
    -18.953  0.0000E+00  0.0000E+00  0.2000E+01  0.1000E+01
    -18.829  0.0000E+00  0.0000E+00  0.2000E+01  0.1000E+01
    -18.704  0.0000E+00  0.0000E+00  0.2000E+01  0.1000E+01
    -18.580  0.0000E+00  0.0000E+00  0.2000E+01  0.1000E+01
    -18.455  0.0000E+00  0.0000E+00  0.2000E+01  0.1000E+01
    -18.331  0.0000E+00  0.8033E+01  0.2000E+01  0.2000E+01
    -18.206  0.0000E+00  0.0000E+00  0.2000E+01  0.2000E+01
    -18.082  0.0000E+00  0.0000E+00  0.2000E+01  0.2000E+01
    -17.957  0.0000E+00  0.0000E+00  0.2000E+01  0.2000E+01
    -17.833  0.0000E+00  0.0000E+00  0.2000E+01  0.2000E+01
    -17.708  0.0000E+00  0.0000E+00  0.2000E+01  0.2000E+01
    -17.584  0.0000E+00  0.0000E+00  0.2000E+01  0.2000E+01
    -17.459  0.0000E+00  0.0000E+00  0.2000E+01  0.2000E+01
    -17.335  0.0000E+00  0.0000E+00  0.2000E+01  0.2000E+01
    -17.210  0.0000E+00  0.0000E+00  0.2000E+01  0.2000E+01
    -17.086  0.0000E+00  0.0000E+00  0.2000E+01  0.2000E+01
    -16.961  0.0000E+00  0.0000E+00  0.2000E+01  0.2000E+01
    -16.837  0.0000E+00  0.0000E+00  0.2000E+01  0.2000E+01
    -16.712  0.0000E+00  0.0000E+00  0.2000E+01  0.2000E+01
    -16.588  0.0000E+00  0.0000E+00  0.2000E+01  0.2000E+01
    -16.463  0.0000E+00  0.0000E+00  0.2000E+01  0.2000E+01
    -16.339  0.0000E+00  0.0000E+00  0.2000E+01  0.2000E+01
    -16.214  0.0000E+00  0.0000E+00  0.2000E+01  0.2000E+01
    -16.090  0.0000E+00  0.0000E+00  0.2000E+01  0.2000E+01
    -15.965  0.0000E+00  0.0000E+00  0.2000E+01  0.2000E+01
    -15.841  0.0000E+00  0.0000E+00  0.2000E+01  0.2000E+01
    -15.716  0.0000E+00  0.0000E+00  0.2000E+01  0.2000E+01
    -15.592  0.0000E+00  0.0000E+00  0.2000E+01  0.2000E+01
    -15.467  0.0000E+00  0.0000E+00  0.2000E+01  0.2000E+01
    -15.343  0.0000E+00  0.0000E+00  0.2000E+01  0.2000E+01
    -15.218  0.0000E+00  0.0000E+00  0.2000E+01  0.2000E+01
    -15.094  0.0000E+00  0.0000E+00  0.2000E+01  0.2000E+01
    -14.969  0.0000E+00  0.0000E+00  0.2000E+01  0.2000E+01
    -14.845  0.0000E+00  0.0000E+00  0.2000E+01  0.2000E+01
    -14.720  0.0000E+00  0.0000E+00  0.2000E+01  0.2000E+01
    -14.596  0.0000E+00  0.0000E+00  0.2000E+01  0.2000E+01
    -14.471  0.0000E+00  0.0000E+00  0.2000E+01  0.2000E+01
    -14.347  0.0000E+00  0.0000E+00  0.2000E+01  0.2000E+01
    -14.222  0.0000E+00  0.0000E+00  0.2000E+01  0.2000E+01
    -14.098  0.0000E+00  0.0000E+00  0.2000E+01  0.2000E+01
    -13.973  0.0000E+00  0.0000E+00  0.2000E+01  0.2000E+01
    -13.849  0.0000E+00  0.0000E+00  0.2000E+01  0.2000E+01
    -13.724  0.0000E+00  0.0000E+00  0.2000E+01  0.2000E+01
    -13.600  0.0000E+00  0.0000E+00  0.2000E+01  0.2000E+01
    -13.475  0.0000E+00  0.0000E+00  0.2000E+01  0.2000E+01
    -13.351  0.0000E+00  0.0000E+00  0.2000E+01  0.2000E+01
    -13.226  0.0000E+00  0.0000E+00  0.2000E+01  0.2000E+01
    -13.102  0.2410E+02  0.0000E+00  0.5000E+01  0.2000E+01
    -12.977  0.0000E+00  0.0000E+00  0.5000E+01  0.2000E+01
    -12.853  0.0000E+00  0.0000E+00  0.5000E+01  0.2000E+01
    -12.728  0.0000E+00  0.0000E+00  0.5000E+01  0.2000E+01
    -12.604  0.0000E+00  0.0000E+00  0.5000E+01  0.2000E+01
    -12.479  0.0000E+00  0.0000E+00  0.5000E+01  0.2000E+01
    -12.355  0.0000E+00  0.0000E+00  0.5000E+01  0.2000E+01
    -12.230  0.0000E+00  0.0000E+00  0.5000E+01  0.2000E+01
    -12.106  0.0000E+00  0.8033E+01  0.5000E+01  0.3000E+01
    -11.981  0.0000E+00  0.0000E+00  0.5000E+01  0.3000E+01
    -11.857  0.0000E+00  0.0000E+00  0.5000E+01  0.3000E+01
    -11.733  0.0000E+00  0.0000E+00  0.5000E+01  0.3000E+01
    -11.608  0.0000E+00  0.0000E+00  0.5000E+01  0.3000E+01
    -11.484  0.0000E+00  0.0000E+00  0.5000E+01  0.3000E+01
    -11.359  0.0000E+00  0.0000E+00  0.5000E+01  0.3000E+01
    -11.235  0.0000E+00  0.1607E+02  0.5000E+01  0.5000E+01
    -11.110  0.0000E+00  0.0000E+00  0.5000E+01  0.5000E+01
    -10.986  0.0000E+00  0.0000E+00  0.5000E+01  0.5000E+01
    -10.861  0.0000E+00  0.0000E+00  0.5000E+01  0.5000E+01
    -10.737  0.0000E+00  0.0000E+00  0.5000E+01  0.5000E+01
    -10.612  0.0000E+00  0.0000E+00  0.5000E+01  0.5000E+01
    -10.488  0.0000E+00  0.0000E+00  0.5000E+01  0.5000E+01
    -10.363  0.0000E+00  0.0000E+00  0.5000E+01  0.5000E+01
    -10.239  0.0000E+00  0.0000E+00  0.5000E+01  0.5000E+01
    -10.114  0.0000E+00  0.0000E+00  0.5000E+01  0.5000E+01
     -9.990  0.0000E+00  0.0000E+00  0.5000E+01  0.5000E+01
     -9.865  0.0000E+00  0.0000E+00  0.5000E+01  0.5000E+01
     -9.741  0.0000E+00  0.0000E+00  0.5000E+01  0.5000E+01
     -9.616  0.0000E+00  0.0000E+00  0.5000E+01  0.5000E+01
     -9.492  0.0000E+00  0.0000E+00  0.5000E+01  0.5000E+01
     -9.367  0.0000E+00  0.0000E+00  0.5000E+01  0.5000E+01
     -9.243  0.0000E+00  0.0000E+00  0.5000E+01  0.5000E+01
     -9.118  0.0000E+00  0.0000E+00  0.5000E+01  0.5000E+01
     -8.994  0.0000E+00  0.0000E+00  0.5000E+01  0.5000E+01
     -8.869  0.0000E+00  0.0000E+00  0.5000E+01  0.5000E+01
     -8.745  0.0000E+00  0.0000E+00  0.5000E+01  0.5000E+01
     -8.620  0.0000E+00  0.0000E+00  0.5000E+01  0.5000E+01
     -8.496  0.0000E+00  0.0000E+00  0.5000E+01  0.5000E+01
     -8.371  0.0000E+00  0.0000E+00  0.5000E+01  0.5000E+01
     -8.247  0.0000E+00  0.0000E+00  0.5000E+01  0.5000E+01
     -8.122  0.0000E+00  0.0000E+00  0.5000E+01  0.5000E+01
     -7.998  0.0000E+00  0.0000E+00  0.5000E+01  0.5000E+01
     -7.873  0.0000E+00  0.0000E+00  0.5000E+01  0.5000E+01
     -7.749  0.0000E+00  0.0000E+00  0.5000E+01  0.5000E+01
     -7.624  0.0000E+00  0.0000E+00  0.5000E+01  0.5000E+01
     -7.500  0.0000E+00  0.0000E+00  0.5000E+01  0.5000E+01
     -7.375  0.0000E+00  0.0000E+00  0.5000E+01  0.5000E+01
     -7.251  0.0000E+00  0.0000E+00  0.5000E+01  0.5000E+01
     -7.126  0.0000E+00  0.0000E+00  0.5000E+01  0.5000E+01
     -7.002  0.0000E+00  0.0000E+00  0.5000E+01  0.5000E+01
     -6.877  0.0000E+00  0.0000E+00  0.5000E+01  0.5000E+01
     -6.753  0.0000E+00  0.0000E+00  0.5000E+01  0.5000E+01
     -6.628  0.1607E+02  0.0000E+00  0.7000E+01  0.5000E+01
     -6.504  0.0000E+00  0.0000E+00  0.7000E+01  0.5000E+01
     -6.379  0.0000E+00  0.0000E+00  0.7000E+01  0.5000E+01
     -6.255  0.0000E+00  0.0000E+00  0.7000E+01  0.5000E+01
     -6.130  0.0000E+00  0.0000E+00  0.7000E+01  0.5000E+01
     -6.006  0.0000E+00  0.0000E+00  0.7000E+01  0.5000E+01
     -5.881  0.0000E+00  0.0000E+00  0.7000E+01  0.5000E+01
     -5.757  0.0000E+00  0.0000E+00  0.7000E+01  0.5000E+01
     -5.632  0.0000E+00  0.0000E+00  0.7000E+01  0.5000E+01
     -5.508  0.0000E+00  0.0000E+00  0.7000E+01  0.5000E+01
     -5.383  0.0000E+00  0.0000E+00  0.7000E+01  0.5000E+01
     -5.259  0.0000E+00  0.0000E+00  0.7000E+01  0.5000E+01
     -5.134  0.0000E+00  0.0000E+00  0.7000E+01  0.5000E+01
     -5.010  0.0000E+00  0.0000E+00  0.7000E+01  0.5000E+01
     -4.885  0.0000E+00  0.0000E+00  0.7000E+01  0.5000E+01
     -4.761  0.0000E+00  0.0000E+00  0.7000E+01  0.5000E+01
     -4.636  0.0000E+00  0.0000E+00  0.7000E+01  0.5000E+01
     -4.512  0.0000E+00  0.0000E+00  0.7000E+01  0.5000E+01
     -4.387  0.0000E+00  0.0000E+00  0.7000E+01  0.5000E+01
     -4.263  0.0000E+00  0.1607E+02  0.7000E+01  0.7000E+01
     -4.138  0.0000E+00  0.0000E+00  0.7000E+01  0.7000E+01
     -4.014  0.0000E+00  0.0000E+00  0.7000E+01  0.7000E+01
     -3.889  0.0000E+00  0.0000E+00  0.7000E+01  0.7000E+01
     -3.765  0.0000E+00  0.0000E+00  0.7000E+01  0.7000E+01
     -3.640  0.0000E+00  0.0000E+00  0.7000E+01  0.7000E+01
     -3.516  0.0000E+00  0.0000E+00  0.7000E+01  0.7000E+01
     -3.391  0.0000E+00  0.0000E+00  0.7000E+01  0.7000E+01
     -3.267  0.0000E+00  0.0000E+00  0.7000E+01  0.7000E+01
     -3.143  0.0000E+00  0.0000E+00  0.7000E+01  0.7000E+01
     -3.018  0.0000E+00  0.0000E+00  0.7000E+01  0.7000E+01
     -2.894  0.0000E+00  0.0000E+00  0.7000E+01  0.7000E+01
     -2.769  0.0000E+00  0.0000E+00  0.7000E+01  0.7000E+01
     -2.645  0.0000E+00  0.0000E+00  0.7000E+01  0.7000E+01
     -2.520  0.0000E+00  0.0000E+00  0.7000E+01  0.7000E+01
     -2.396  0.0000E+00  0.0000E+00  0.7000E+01  0.7000E+01
     -2.271  0.0000E+00  0.0000E+00  0.7000E+01  0.7000E+01
     -2.147  0.0000E+00  0.0000E+00  0.7000E+01  0.7000E+01
     -2.022  0.0000E+00  0.0000E+00  0.7000E+01  0.7000E+01
     -1.898  0.0000E+00  0.0000E+00  0.7000E+01  0.7000E+01
     -1.773  0.0000E+00  0.0000E+00  0.7000E+01  0.7000E+01
     -1.649  0.0000E+00  0.0000E+00  0.7000E+01  0.7000E+01
     -1.524  0.0000E+00  0.0000E+00  0.7000E+01  0.7000E+01
     -1.400  0.0000E+00  0.0000E+00  0.7000E+01  0.7000E+01
     -1.275  0.0000E+00  0.0000E+00  0.7000E+01  0.7000E+01
     -1.151  0.0000E+00  0.0000E+00  0.7000E+01  0.7000E+01
     -1.026  0.0000E+00  0.0000E+00  0.7000E+01  0.7000E+01
     -0.902  0.0000E+00  0.0000E+00  0.7000E+01  0.7000E+01
     -0.777  0.0000E+00  0.0000E+00  0.7000E+01  0.7000E+01
     -0.653  0.0000E+00  0.0000E+00  0.7000E+01  0.7000E+01
     -0.528  0.0000E+00  0.0000E+00  0.7000E+01  0.7000E+01
     -0.404  0.0000E+00  0.0000E+00  0.7000E+01  0.7000E+01
     -0.279  0.3513E+00  0.0000E+00  0.7007E+01  0.7000E+01
     -0.155  0.8040E+00  0.2121E+00  0.7080E+01  0.7003E+01
     -0.030  0.1075E+01  0.8153E+00  0.7197E+01  0.7068E+01
      0.094  0.1896E+01  0.9949E+00  0.7364E+01  0.7177E+01
      0.219  0.1677E+01  0.1508E+01  0.7577E+01  0.7323E+01
      0.343  0.1218E+01  0.1626E+01  0.7748E+01  0.7530E+01
      0.468  0.9000E+00  0.1211E+01  0.7886E+01  0.7703E+01
      0.592  0.4301E+00  0.1125E+01  0.7963E+01  0.7843E+01
      0.717  0.1436E+00  0.5370E+00  0.7994E+01  0.7938E+01
      0.841  0.2342E-01  0.2201E+00  0.8000E+01  0.7979E+01
      0.966  0.0000E+00  0.2342E-01  0.8000E+01  0.8000E+01
      1.090  0.0000E+00  0.0000E+00  0.8000E+01  0.8000E+01
      1.215  0.0000E+00  0.0000E+00  0.8000E+01  0.8000E+01
      1.339  0.0000E+00  0.0000E+00  0.8000E+01  0.8000E+01
      1.464  0.0000E+00  0.0000E+00  0.8000E+01  0.8000E+01
      1.588  0.0000E+00  0.0000E+00  0.8000E+01  0.8000E+01
      1.713  0.0000E+00  0.0000E+00  0.8000E+01  0.8000E+01
      1.837  0.0000E+00  0.0000E+00  0.8000E+01  0.8000E+01
      1.962  0.0000E+00  0.0000E+00  0.8000E+01  0.8000E+01
      2.086  0.0000E+00  0.0000E+00  0.8000E+01  0.8000E+01
      2.211  0.0000E+00  0.0000E+00  0.8000E+01  0.8000E+01
      2.335  0.0000E+00  0.0000E+00  0.8000E+01  0.8000E+01
      2.460  0.0000E+00  0.0000E+00  0.8000E+01  0.8000E+01
      2.584  0.0000E+00  0.0000E+00  0.8000E+01  0.8000E+01
      2.709  0.0000E+00  0.0000E+00  0.8000E+01  0.8000E+01
      2.833  0.0000E+00  0.0000E+00  0.8000E+01  0.8000E+01
      2.958  0.0000E+00  0.0000E+00  0.8000E+01  0.8000E+01
