Pb2 Se2
1.0
  -3.1181510000000001   -3.1254420000000001    0.0000000000000000
  -3.1181510000000001    3.1254420000000001    0.0000000000000000
   3.1181510000000001    0.0000000000000000  -12.0007990000000007
Pb Se
2 2
direct
   0.8092700000000000    0.8052670000000000    0.6145370000000000 Pb
   0.1947330000000000    0.1907300000000000    0.3854630000000000 Pb
   0.3255770000000000    0.2955810000000000    0.6211580000000000 Se
   0.7044190000000000    0.6744230000000000    0.3788420000000000 Se
