   2   2   0   0
  0.1641848E+02  0.2926387E-09  0.2926387E-09  0.4427604E-09  0.5000000E-15
  1.000000000000000E-004
  CAR 
 unknown system                          
     31.43717117     -2.91388701  301      8.91728756      1.00000000
     -2.914  0.0000E+00  0.0000E+00
     -2.799  0.0000E+00  0.0000E+00
     -2.685  0.0000E+00  0.0000E+00
     -2.570  0.0000E+00  0.0000E+00
     -2.456  0.0000E+00  0.0000E+00
     -2.341  0.0000E+00  0.0000E+00
     -2.227  0.0000E+00  0.0000E+00
     -2.112  0.0000E+00  0.0000E+00
     -1.998  0.0000E+00  0.0000E+00
     -1.883  0.0000E+00  0.0000E+00
     -1.769  0.0000E+00  0.0000E+00
     -1.654  0.0000E+00  0.0000E+00
     -1.540  0.1689E-08  0.1934E-09
     -1.425  0.5721E-03  0.6551E-04
     -1.311  0.2506E-01  0.2935E-02
     -1.196  0.7396E-02  0.3782E-02
     -1.082  0.1966E+00  0.2629E-01
     -0.967  0.4179E-01  0.3108E-01
     -0.853  0.3067E+00  0.6620E-01
     -0.738  0.3536E-01  0.7025E-01
     -0.624  0.1444E+00  0.8678E-01
     -0.509  0.7544E-01  0.9542E-01
     -0.395  0.4967E+00  0.1523E+00
     -0.280  0.3084E+00  0.1876E+00
     -0.166  0.4208E+00  0.2358E+00
     -0.051  0.7646E-02  0.2367E+00
      0.063  0.5494E-01  0.2430E+00
      0.178  0.3830E+00  0.2868E+00
      0.292  0.6356E+00  0.3596E+00
      0.407  0.7005E+00  0.4398E+00
      0.521  0.2072E+00  0.4635E+00
      0.636  0.2961E+00  0.4974E+00
      0.750  0.4129E+00  0.5447E+00
      0.865  0.8059E+00  0.6370E+00
      0.979  0.2900E-01  0.6403E+00
      1.094  0.4876E+00  0.6961E+00
      1.208  0.3333E+00  0.7343E+00
      1.323  0.6620E+00  0.8101E+00
      1.437  0.8640E+00  0.9090E+00
      1.552  0.1187E+01  0.1045E+01
      1.666  0.1007E+01  0.1160E+01
      1.781  0.7859E+00  0.1250E+01
      1.895  0.6692E+00  0.1327E+01
      2.010  0.1975E+01  0.1553E+01
      2.124  0.2169E+01  0.1801E+01
      2.239  0.2611E+01  0.2100E+01
      2.353  0.2833E+01  0.2425E+01
      2.468  0.3515E+01  0.2827E+01
      2.582  0.3365E+01  0.3212E+01
      2.697  0.4259E+01  0.3700E+01
      2.811  0.3471E+01  0.4098E+01
      2.926  0.3481E+01  0.4496E+01
      3.040  0.2226E+01  0.4751E+01
      3.155  0.2735E+01  0.5064E+01
      3.269  0.7309E+01  0.5901E+01
      3.384  0.4984E+01  0.6472E+01
      3.498  0.3962E+01  0.6925E+01
      3.613  0.4028E+01  0.7387E+01
      3.727  0.4771E+01  0.7933E+01
      3.842  0.6706E+01  0.8701E+01
      3.956  0.5895E+01  0.9376E+01
      4.071  0.3143E+01  0.9736E+01
      4.185  0.2715E+01  0.1005E+02
      4.300  0.1916E+01  0.1027E+02
      4.414  0.2777E+01  0.1058E+02
      4.529  0.1228E+01  0.1072E+02
      4.643  0.9571E+00  0.1083E+02
      4.758  0.9175E+00  0.1094E+02
      4.872  0.2474E+01  0.1122E+02
      4.987  0.2068E+01  0.1146E+02
      5.101  0.2373E+00  0.1149E+02
      5.216  0.1103E+00  0.1150E+02
      5.330  0.5379E+00  0.1156E+02
      5.445  0.5872E+00  0.1163E+02
      5.559  0.1462E+01  0.1180E+02
      5.674  0.1940E+01  0.1202E+02
      5.788  0.1568E+01  0.1220E+02
      5.903  0.1704E+00  0.1222E+02
      6.017  0.5311E-01  0.1222E+02
      6.132  0.3700E+00  0.1227E+02
      6.246  0.3148E+00  0.1230E+02
      6.361  0.2744E+00  0.1233E+02
      6.475  0.7598E+00  0.1242E+02
      6.590  0.1072E+01  0.1254E+02
      6.704  0.4487E+00  0.1259E+02
      6.819  0.1064E+01  0.1272E+02
      6.933  0.6983E+00  0.1280E+02
      7.048  0.4173E-01  0.1280E+02
      7.162  0.6888E+00  0.1288E+02
      7.277  0.1134E+01  0.1301E+02
      7.391  0.2763E+00  0.1304E+02
      7.506  0.1525E+01  0.1322E+02
      7.620  0.9048E+00  0.1332E+02
      7.735  0.1840E+00  0.1334E+02
      7.849  0.6804E-03  0.1334E+02
      7.964  0.4356E+00  0.1339E+02
      8.078  0.6379E+00  0.1346E+02
      8.193  0.1557E+00  0.1348E+02
      8.307  0.3475E+00  0.1352E+02
      8.422  0.1276E+01  0.1367E+02
      8.536  0.2857E+00  0.1370E+02
      8.651  0.4907E+00  0.1376E+02
      8.765  0.7566E+00  0.1384E+02
      8.880  0.1130E+01  0.1397E+02
      8.994  0.3583E+00  0.1401E+02
      9.109  0.1488E+00  0.1403E+02
      9.223  0.4575E-01  0.1403E+02
      9.338  0.8330E+00  0.1413E+02
      9.452  0.1155E+01  0.1426E+02
      9.567  0.3027E+00  0.1430E+02
      9.682  0.7597E+00  0.1438E+02
      9.796  0.8671E+00  0.1448E+02
      9.911  0.3482E+00  0.1452E+02
     10.025  0.3529E+00  0.1456E+02
     10.140  0.9089E+00  0.1467E+02
     10.254  0.8159E+00  0.1476E+02
     10.369  0.9821E+00  0.1487E+02
     10.483  0.9327E+00  0.1498E+02
     10.598  0.9997E+00  0.1510E+02
     10.712  0.1017E+01  0.1521E+02
     10.827  0.6450E+00  0.1529E+02
     10.941  0.3441E+00  0.1532E+02
     11.056  0.6350E+00  0.1540E+02
     11.170  0.1277E+01  0.1554E+02
     11.285  0.5275E+00  0.1560E+02
     11.399  0.3761E+00  0.1565E+02
     11.514  0.1163E+01  0.1578E+02
     11.628  0.1742E+01  0.1598E+02
     11.743  0.5884E+00  0.1605E+02
     11.857  0.1337E+01  0.1620E+02
     11.972  0.1076E+01  0.1632E+02
     12.086  0.9742E+00  0.1644E+02
     12.201  0.9542E+00  0.1654E+02
     12.315  0.1419E+00  0.1656E+02
     12.430  0.3599E+00  0.1660E+02
     12.544  0.4292E+00  0.1665E+02
     12.659  0.2062E+01  0.1689E+02
     12.773  0.5750E+00  0.1695E+02
     12.888  0.4086E+00  0.1700E+02
     13.002  0.8034E+00  0.1709E+02
     13.117  0.1304E+01  0.1724E+02
     13.231  0.6527E+00  0.1732E+02
     13.346  0.1420E+01  0.1748E+02
     13.460  0.4020E+00  0.1752E+02
     13.575  0.7987E+00  0.1762E+02
     13.689  0.7151E+00  0.1770E+02
     13.804  0.6434E+00  0.1777E+02
     13.918  0.8996E+00  0.1787E+02
     14.033  0.7597E+00  0.1796E+02
     14.147  0.1362E+01  0.1812E+02
     14.262  0.1059E+01  0.1824E+02
     14.376  0.1136E+01  0.1837E+02
     14.491  0.5079E+00  0.1843E+02
     14.605  0.9555E+00  0.1854E+02
     14.720  0.6824E+00  0.1861E+02
     14.834  0.1285E+01  0.1876E+02
     14.949  0.7219E+00  0.1884E+02
     15.063  0.2260E+00  0.1887E+02
     15.178  0.6024E+00  0.1894E+02
     15.292  0.1373E+01  0.1910E+02
     15.407  0.6705E+00  0.1917E+02
     15.521  0.8341E+00  0.1927E+02
     15.636  0.9476E+00  0.1938E+02
     15.750  0.7545E+00  0.1946E+02
     15.865  0.1128E+01  0.1959E+02
     15.979  0.1304E+01  0.1974E+02
     16.094  0.9450E+00  0.1985E+02
     16.208  0.1432E+01  0.2001E+02
     16.323  0.1664E+01  0.2020E+02
     16.437  0.5668E+00  0.2027E+02
     16.552  0.6897E+00  0.2035E+02
     16.666  0.2845E+00  0.2038E+02
     16.781  0.4973E+00  0.2044E+02
     16.895  0.1531E+01  0.2061E+02
     17.010  0.4551E+00  0.2067E+02
     17.124  0.1454E+00  0.2068E+02
     17.239  0.8412E+00  0.2078E+02
     17.353  0.2602E+01  0.2108E+02
     17.468  0.1376E+01  0.2123E+02
     17.582  0.1373E+01  0.2139E+02
     17.697  0.3597E+00  0.2143E+02
     17.811  0.6939E+00  0.2151E+02
     17.926  0.1035E+01  0.2163E+02
     18.040  0.8261E+00  0.2172E+02
     18.155  0.7787E+00  0.2181E+02
     18.269  0.1745E+01  0.2201E+02
     18.384  0.9603E+00  0.2212E+02
     18.498  0.7952E+00  0.2221E+02
     18.613  0.8302E+00  0.2231E+02
     18.727  0.1657E+01  0.2250E+02
     18.842  0.1163E+01  0.2263E+02
     18.956  0.5700E+00  0.2270E+02
     19.071  0.8192E+00  0.2279E+02
     19.185  0.5502E+00  0.2285E+02
     19.300  0.1335E+01  0.2301E+02
     19.414  0.9714E+00  0.2312E+02
     19.529  0.1638E+01  0.2331E+02
     19.643  0.1287E+01  0.2345E+02
     19.758  0.1214E+01  0.2359E+02
     19.872  0.1141E+01  0.2372E+02
     19.987  0.1440E+01  0.2389E+02
     20.101  0.8427E+00  0.2398E+02
     20.216  0.1435E+01  0.2415E+02
     20.330  0.1966E+01  0.2437E+02
     20.445  0.1039E+01  0.2449E+02
     20.559  0.6665E+00  0.2457E+02
     20.674  0.1116E+01  0.2470E+02
     20.788  0.1247E+01  0.2484E+02
     20.903  0.1455E+01  0.2501E+02
     21.017  0.8956E+00  0.2511E+02
     21.132  0.6748E+00  0.2519E+02
     21.246  0.1649E+01  0.2538E+02
     21.361  0.1251E+01  0.2552E+02
     21.475  0.7076E+00  0.2560E+02
     21.590  0.1390E+01  0.2576E+02
     21.704  0.1522E+01  0.2593E+02
     21.819  0.1013E+01  0.2605E+02
     21.933  0.8103E+00  0.2614E+02
     22.048  0.1037E+01  0.2626E+02
     22.162  0.1734E+01  0.2646E+02
     22.277  0.9142E+00  0.2656E+02
     22.391  0.5857E+00  0.2663E+02
     22.506  0.6021E+00  0.2670E+02
     22.620  0.6799E+00  0.2678E+02
     22.735  0.1758E+01  0.2698E+02
     22.849  0.2036E+01  0.2721E+02
     22.964  0.8490E+00  0.2731E+02
     23.078  0.7194E+00  0.2739E+02
     23.193  0.3274E+00  0.2743E+02
     23.307  0.4068E+00  0.2748E+02
     23.422  0.1092E+01  0.2760E+02
     23.536  0.1161E+01  0.2773E+02
     23.651  0.1640E+01  0.2792E+02
     23.765  0.1447E+01  0.2809E+02
     23.880  0.1457E+01  0.2825E+02
     23.994  0.5680E+00  0.2832E+02
     24.109  0.7286E+00  0.2840E+02
     24.223  0.1617E+01  0.2859E+02
     24.338  0.1891E+01  0.2880E+02
     24.452  0.1048E+01  0.2892E+02
     24.567  0.1050E+01  0.2904E+02
     24.681  0.1862E+01  0.2926E+02
     24.796  0.7091E+00  0.2934E+02
     24.910  0.2437E+01  0.2962E+02
     25.025  0.5195E+00  0.2968E+02
     25.139  0.6395E+00  0.2975E+02
     25.254  0.6801E+00  0.2983E+02
     25.368  0.8531E+00  0.2993E+02
     25.483  0.2139E+01  0.3017E+02
     25.597  0.1802E+01  0.3038E+02
     25.712  0.3840E+00  0.3042E+02
     25.826  0.4665E+00  0.3047E+02
     25.941  0.2622E+00  0.3050E+02
     26.056  0.1277E+01  0.3065E+02
     26.170  0.1202E+01  0.3079E+02
     26.285  0.1766E+01  0.3099E+02
     26.399  0.7847E+00  0.3108E+02
     26.514  0.1438E+01  0.3125E+02
     26.628  0.1235E+01  0.3139E+02
     26.743  0.1325E+01  0.3154E+02
     26.857  0.7250E+00  0.3162E+02
     26.972  0.7386E+00  0.3171E+02
     27.086  0.8712E+00  0.3181E+02
     27.201  0.3712E+00  0.3185E+02
     27.315  0.1962E+00  0.3187E+02
     27.430  0.4119E+00  0.3192E+02
     27.544  0.1868E-01  0.3192E+02
     27.659  0.1446E+00  0.3194E+02
     27.773  0.2784E-01  0.3194E+02
     27.888  0.1992E-05  0.3194E+02
     28.002  0.6790E-14  0.3194E+02
     28.117  0.0000E+00  0.3194E+02
     28.231  0.0000E+00  0.3194E+02
     28.346  0.0000E+00  0.3194E+02
     28.460  0.0000E+00  0.3194E+02
     28.575  0.0000E+00  0.3194E+02
     28.689  0.0000E+00  0.3194E+02
     28.804  0.0000E+00  0.3194E+02
     28.918  0.9045E-11  0.3194E+02
     29.033  0.1487E-03  0.3194E+02
     29.147  0.1595E+00  0.3196E+02
     29.262  0.1894E+00  0.3198E+02
     29.376  0.3200E-03  0.3198E+02
     29.491  0.4084E-10  0.3198E+02
     29.605  0.8132E-14  0.3198E+02
     29.720  0.2046E-05  0.3198E+02
     29.834  0.2728E-01  0.3198E+02
     29.949  0.1450E+00  0.3200E+02
     30.063  0.2378E-02  0.3200E+02
     30.178  0.4998E-08  0.3200E+02
     30.292  0.0000E+00  0.3200E+02
     30.407  0.0000E+00  0.3200E+02
     30.521  0.0000E+00  0.3200E+02
     30.636  0.0000E+00  0.3200E+02
     30.750  0.0000E+00  0.3200E+02
     30.865  0.0000E+00  0.3200E+02
     30.979  0.0000E+00  0.3200E+02
     31.094  0.0000E+00  0.3200E+02
     31.208  0.0000E+00  0.3200E+02
     31.323  0.0000E+00  0.3200E+02
     31.437  0.0000E+00  0.3200E+02
