   2   2   0   0
  0.9152720E+01  0.2456455E-09  0.2456455E-09  0.3764525E-09  0.5000000E-15
  1.000000000000000E-004
  CAR 
 unknown system                          
    181.41103859    -24.65252828  301      4.36809072      1.00000000
    -24.653  0.0000E+00  0.0000E+00
    -23.966  0.0000E+00  0.0000E+00
    -23.279  0.0000E+00  0.0000E+00
    -22.592  0.0000E+00  0.0000E+00
    -21.905  0.0000E+00  0.0000E+00
    -21.218  0.0000E+00  0.0000E+00
    -20.531  0.0000E+00  0.0000E+00
    -19.844  0.0000E+00  0.0000E+00
    -19.157  0.0000E+00  0.0000E+00
    -18.471  0.0000E+00  0.0000E+00
    -17.784  0.0000E+00  0.0000E+00
    -17.097  0.0000E+00  0.0000E+00
    -16.410  0.0000E+00  0.0000E+00
    -15.723  0.0000E+00  0.0000E+00
    -15.036  0.7953E-01  0.5463E-01
    -14.349  0.1749E+00  0.2729E+00
    -13.662  0.1760E+00  0.4751E+00
    -12.976  0.1466E+00  0.6771E+00
    -12.289  0.1972E+00  0.9132E+00
    -11.602  0.1133E+00  0.1092E+01
    -10.915  0.1372E+00  0.1351E+01
    -10.228  0.1360E+00  0.1552E+01
     -9.541  0.1322E+00  0.1841E+01
     -8.854  0.6530E-01  0.1962E+01
     -8.167  0.1462E+00  0.2184E+01
     -7.481  0.1924E+00  0.2472E+01
     -6.794  0.1491E+00  0.2714E+01
     -6.107  0.1463E+00  0.2885E+01
     -5.420  0.2704E+00  0.3179E+01
     -4.733  0.1543E+00  0.3356E+01
     -4.046  0.2024E+00  0.3695E+01
     -3.359  0.3396E+00  0.4053E+01
     -2.672  0.3757E+00  0.4466E+01
     -1.986  0.4552E+00  0.5073E+01
     -1.299  0.4524E+00  0.5710E+01
     -0.612  0.2692E+00  0.6140E+01
      0.075  0.3950E+00  0.6594E+01
      0.762  0.2815E+00  0.6985E+01
      1.449  0.3225E+00  0.7340E+01
      2.136  0.2802E+00  0.7644E+01
      2.823  0.1712E+00  0.7861E+01
      3.509  0.8490E-01  0.7954E+01
      4.196  0.2022E-01  0.8000E+01
      4.883  0.1564E-01  0.8011E+01
      5.570  0.8484E-01  0.8093E+01
      6.257  0.2552E+00  0.8356E+01
      6.944  0.1749E+00  0.8617E+01
      7.631  0.1428E+00  0.8793E+01
      8.318  0.1308E+00  0.8972E+01
      9.005  0.1385E+00  0.9126E+01
      9.691  0.1712E+00  0.9312E+01
     10.378  0.1205E+00  0.9499E+01
     11.065  0.1878E+00  0.9698E+01
     11.752  0.1797E+00  0.9912E+01
     12.439  0.4915E+00  0.1044E+02
     13.126  0.7930E+00  0.1121E+02
     13.813  0.4948E+00  0.1192E+02
     14.500  0.3487E+00  0.1243E+02
     15.186  0.6262E+00  0.1313E+02
     15.873  0.5446E+00  0.1376E+02
     16.560  0.2607E+00  0.1420E+02
     17.247  0.5974E+00  0.1484E+02
     17.934  0.3742E+00  0.1530E+02
     18.621  0.3965E+00  0.1576E+02
     19.308  0.4502E+00  0.1631E+02
     19.995  0.3505E+00  0.1673E+02
     20.681  0.3036E+00  0.1706E+02
     21.368  0.2210E+00  0.1743E+02
     22.055  0.2642E+00  0.1779E+02
     22.742  0.4963E+00  0.1839E+02
     23.429  0.4794E+00  0.1904E+02
     24.116  0.2829E+00  0.1945E+02
     24.803  0.3536E+00  0.1991E+02
     25.490  0.3332E+00  0.2034E+02
     26.176  0.5112E+00  0.2092E+02
     26.863  0.6302E+00  0.2170E+02
     27.550  0.5183E+00  0.2237E+02
     28.237  0.6074E+00  0.2305E+02
     28.924  0.6415E+00  0.2387E+02
     29.611  0.6380E+00  0.2466E+02
     30.298  0.3697E+00  0.2514E+02
     30.985  0.4603E+00  0.2568E+02
     31.672  0.3121E+00  0.2604E+02
     32.358  0.3674E+00  0.2646E+02
     33.045  0.3191E+00  0.2685E+02
     33.732  0.4429E+00  0.2730E+02
     34.419  0.4570E+00  0.2779E+02
     35.106  0.6381E+00  0.2850E+02
     35.793  0.6619E+00  0.2930E+02
     36.480  0.4314E+00  0.2987E+02
     37.167  0.3008E+00  0.3022E+02
     37.853  0.2680E+00  0.3050E+02
     38.540  0.4539E+00  0.3097E+02
     39.227  0.4077E+00  0.3152E+02
     39.914  0.3149E+00  0.3196E+02
     40.601  0.3473E+00  0.3236E+02
     41.288  0.3851E+00  0.3281E+02
     41.975  0.4208E+00  0.3328E+02
     42.662  0.5208E+00  0.3388E+02
     43.348  0.5848E+00  0.3456E+02
     44.035  0.4681E+00  0.3517E+02
     44.722  0.4608E+00  0.3570E+02
     45.409  0.5263E+00  0.3628E+02
     46.096  0.6858E+00  0.3700E+02
     46.783  0.4653E+00  0.3763E+02
     47.470  0.6360E+00  0.3838E+02
     48.157  0.4741E+00  0.3905E+02
     48.843  0.6312E+00  0.3983E+02
     49.530  0.7703E+00  0.4075E+02
     50.217  0.7018E+00  0.4154E+02
     50.904  0.6776E+00  0.4232E+02
     51.591  0.6611E+00  0.4306E+02
     52.278  0.6040E+00  0.4377E+02
     52.965  0.6256E+00  0.4448E+02
     53.652  0.5237E+00  0.4513E+02
     54.339  0.5965E+00  0.4586E+02
     55.025  0.4974E+00  0.4648E+02
     55.712  0.5509E+00  0.4711E+02
     56.399  0.4702E+00  0.4770E+02
     57.086  0.5833E+00  0.4837E+02
     57.773  0.4331E+00  0.4897E+02
     58.460  0.5460E+00  0.4959E+02
     59.147  0.4338E+00  0.5010E+02
     59.834  0.5481E+00  0.5078E+02
     60.520  0.5557E+00  0.5148E+02
     61.207  0.5874E+00  0.5214E+02
     61.894  0.5654E+00  0.5285E+02
     62.581  0.7592E+00  0.5372E+02
     63.268  0.5906E+00  0.5444E+02
     63.955  0.6913E+00  0.5518E+02
     64.642  0.6077E+00  0.5592E+02
     65.329  0.7497E+00  0.5673E+02
     66.015  0.6004E+00  0.5747E+02
     66.702  0.5944E+00  0.5821E+02
     67.389  0.6113E+00  0.5888E+02
     68.076  0.7520E+00  0.5972E+02
     68.763  0.6388E+00  0.6047E+02
     69.450  0.7731E+00  0.6134E+02
     70.137  0.6620E+00  0.6211E+02
     70.824  0.6958E+00  0.6293E+02
     71.510  0.6545E+00  0.6370E+02
     72.197  0.7050E+00  0.6445E+02
     72.884  0.5852E+00  0.6525E+02
     73.571  0.6413E+00  0.6603E+02
     74.258  0.6697E+00  0.6684E+02
     74.945  0.6469E+00  0.6761E+02
     75.632  0.6318E+00  0.6839E+02
     76.319  0.6606E+00  0.6909E+02
     77.005  0.7655E+00  0.6998E+02
     77.692  0.7453E+00  0.7075E+02
     78.379  0.6431E+00  0.7154E+02
     79.066  0.6456E+00  0.7235E+02
     79.753  0.7005E+00  0.7318E+02
     80.440  0.6309E+00  0.7393E+02
     81.127  0.6578E+00  0.7472E+02
     81.814  0.6122E+00  0.7540E+02
     82.501  0.6466E+00  0.7625E+02
     83.187  0.5970E+00  0.7700E+02
     83.874  0.6915E+00  0.7785E+02
     84.561  0.8137E+00  0.7881E+02
     85.248  0.6619E+00  0.7966E+02
     85.935  0.7594E+00  0.8064E+02
     86.622  0.8113E+00  0.8155E+02
     87.309  0.7026E+00  0.8244E+02
     87.996  0.7476E+00  0.8323E+02
     88.682  0.8854E+00  0.8421E+02
     89.369  0.7210E+00  0.8504E+02
     90.056  0.7381E+00  0.8590E+02
     90.743  0.6639E+00  0.8669E+02
     91.430  0.6988E+00  0.8749E+02
     92.117  0.6109E+00  0.8833E+02
     92.804  0.6401E+00  0.8918E+02
     93.491  0.7157E+00  0.9006E+02
     94.177  0.7887E+00  0.9093E+02
     94.864  0.7007E+00  0.9178E+02
     95.551  0.6152E+00  0.9258E+02
     96.238  0.8737E+00  0.9352E+02
     96.925  0.7787E+00  0.9433E+02
     97.612  0.8371E+00  0.9525E+02
     98.299  0.7487E+00  0.9616E+02
     98.986  0.7517E+00  0.9702E+02
     99.672  0.8348E+00  0.9797E+02
    100.359  0.7751E+00  0.9886E+02
    101.046  0.6618E+00  0.9973E+02
    101.733  0.7273E+00  0.1006E+03
    102.420  0.8272E+00  0.1017E+03
    103.107  0.7769E+00  0.1026E+03
    103.794  0.8018E+00  0.1035E+03
    104.481  0.7759E+00  0.1045E+03
    105.168  0.8204E+00  0.1055E+03
    105.854  0.8219E+00  0.1064E+03
    106.541  0.7461E+00  0.1072E+03
    107.228  0.8365E+00  0.1082E+03
    107.915  0.8111E+00  0.1092E+03
    108.602  0.8027E+00  0.1101E+03
    109.289  0.8187E+00  0.1110E+03
    109.976  0.9147E+00  0.1119E+03
    110.663  0.6532E+00  0.1128E+03
    111.349  0.7110E+00  0.1138E+03
    112.036  0.7137E+00  0.1147E+03
    112.723  0.7680E+00  0.1156E+03
    113.410  0.8113E+00  0.1165E+03
    114.097  0.9138E+00  0.1175E+03
    114.784  0.8351E+00  0.1184E+03
    115.471  0.8699E+00  0.1194E+03
    116.158  0.8323E+00  0.1203E+03
    116.844  0.8133E+00  0.1213E+03
    117.531  0.7509E+00  0.1223E+03
    118.218  0.7821E+00  0.1231E+03
    118.905  0.8257E+00  0.1242E+03
    119.592  0.9274E+00  0.1252E+03
    120.279  0.7709E+00  0.1261E+03
    120.966  0.9007E+00  0.1272E+03
    121.653  0.8418E+00  0.1282E+03
    122.339  0.8408E+00  0.1292E+03
    123.026  0.8704E+00  0.1301E+03
    123.713  0.9406E+00  0.1312E+03
    124.400  0.9041E+00  0.1322E+03
    125.087  0.7506E+00  0.1331E+03
    125.774  0.8234E+00  0.1342E+03
    126.461  0.9572E+00  0.1353E+03
    127.148  0.7130E+00  0.1362E+03
    127.835  0.7799E+00  0.1372E+03
    128.521  0.9778E+00  0.1382E+03
    129.208  0.8800E+00  0.1393E+03
    129.895  0.8453E+00  0.1402E+03
    130.582  0.7015E+00  0.1411E+03
    131.269  0.9188E+00  0.1422E+03
    131.956  0.9591E+00  0.1433E+03
    132.643  0.8668E+00  0.1442E+03
    133.330  0.7885E+00  0.1453E+03
    134.016  0.9440E+00  0.1463E+03
    134.703  0.8294E+00  0.1473E+03
    135.390  0.1118E+01  0.1485E+03
    136.077  0.8656E+00  0.1496E+03
    136.764  0.8807E+00  0.1506E+03
    137.451  0.7658E+00  0.1516E+03
    138.138  0.7613E+00  0.1526E+03
    138.825  0.8879E+00  0.1536E+03
    139.511  0.8671E+00  0.1546E+03
    140.198  0.7947E+00  0.1556E+03
    140.885  0.9113E+00  0.1566E+03
    141.572  0.9549E+00  0.1576E+03
    142.259  0.8660E+00  0.1587E+03
    142.946  0.9526E+00  0.1597E+03
    143.633  0.9301E+00  0.1607E+03
    144.320  0.9837E+00  0.1617E+03
    145.006  0.8190E+00  0.1627E+03
    145.693  0.8809E+00  0.1638E+03
    146.380  0.1100E+01  0.1651E+03
    147.067  0.9224E+00  0.1662E+03
    147.754  0.8528E+00  0.1672E+03
    148.441  0.9478E+00  0.1683E+03
    149.128  0.1014E+01  0.1694E+03
    149.815  0.7866E+00  0.1704E+03
    150.502  0.9067E+00  0.1714E+03
    151.188  0.8497E+00  0.1725E+03
    151.875  0.8455E+00  0.1736E+03
    152.562  0.9925E+00  0.1747E+03
    153.249  0.9929E+00  0.1758E+03
    153.936  0.8737E+00  0.1768E+03
    154.623  0.1045E+01  0.1779E+03
    155.310  0.8329E+00  0.1790E+03
    155.997  0.8957E+00  0.1801E+03
    156.683  0.1014E+01  0.1813E+03
    157.370  0.1020E+01  0.1825E+03
    158.057  0.7635E+00  0.1835E+03
    158.744  0.9078E+00  0.1846E+03
    159.431  0.9867E+00  0.1857E+03
    160.118  0.8879E+00  0.1868E+03
    160.805  0.1055E+01  0.1879E+03
    161.492  0.8778E+00  0.1890E+03
    162.178  0.1029E+01  0.1902E+03
    162.865  0.9688E+00  0.1913E+03
    163.552  0.9027E+00  0.1924E+03
    164.239  0.9664E+00  0.1936E+03
    164.926  0.8919E+00  0.1946E+03
    165.613  0.8036E+00  0.1956E+03
    166.300  0.7822E+00  0.1965E+03
    166.987  0.8677E+00  0.1975E+03
    167.673  0.7293E+00  0.1984E+03
    168.360  0.4930E+00  0.1990E+03
    169.047  0.2759E+00  0.1994E+03
    169.734  0.3024E+00  0.1997E+03
    170.421  0.1245E+00  0.1999E+03
    171.108  0.4819E-01  0.2000E+03
    171.795  0.1517E-01  0.2000E+03
    172.482  0.0000E+00  0.2000E+03
    173.168  0.0000E+00  0.2000E+03
    173.855  0.0000E+00  0.2000E+03
    174.542  0.0000E+00  0.2000E+03
    175.229  0.0000E+00  0.2000E+03
    175.916  0.0000E+00  0.2000E+03
    176.603  0.0000E+00  0.2000E+03
    177.290  0.0000E+00  0.2000E+03
    177.977  0.0000E+00  0.2000E+03
    178.664  0.0000E+00  0.2000E+03
    179.350  0.0000E+00  0.2000E+03
    180.037  0.0000E+00  0.2000E+03
    180.724  0.0000E+00  0.2000E+03
    181.411  0.0000E+00  0.2000E+03
