 vasp.6.5.0 16Dec24 (build Jan 23 2025 15:25:19) complex                        
  
 executed on             LinuxIFC date 2026.08.13  23:05:15
 running   16 mpi-ranks, with    1 threads/rank, on    1 nodes
 distrk:  each k-point on    8 cores,    2 groups
 distr:  one band on NCORE=   2 cores,    4 groups


--------------------------------------------------------------------------------------------------------


 INCAR:
   EDIFF = 1e-06
   ENCUT = 600.0
   IBRION = -1
   ISMEAR = 0
   ISYM = -1
   KPAR = 2
   LASPH = True
   LCHARG = True
   LWAVE = True
   NBANDS = 100
   NPAR = 4
   NSW = 0
   PREC = Accurate
   SIGMA = 0.05

 POTCAR:    PAW_PBE C 08Apr2002                   
 POTCAR:    PAW_PBE C 08Apr2002                   
   VRHFIN =C: s2p2                                                                                  
   LEXCH  = PE                                                                                      
   EATOM  =   147.1560 eV,   10.8157 Ry                                                             
                                                                                                    
   TITEL  = PAW_PBE C 08Apr2002                                                                     
   LULTRA =        F    use ultrasoft PP ?                                                          
   IUNSCR =        1    unscreen: 0-lin 1-nonlin 2-no                                               
   RPACOR =    1.200    partial core radius                                                         
   POMASS =   12.011; ZVAL   =    4.000    mass and valenz                                          
   RCORE  =    1.500    outmost cutoff radius                                                       
   RWIGS  =    1.630; RWIGS  =    0.863    wigner-seitz radius (au A)                               
   ENMAX  =  400.000; ENMIN  =  300.000 eV                                                          
   ICORE  =        2    local potential                                                             
   LCOR   =        T    correct aug charges                                                         
   LPAW   =        T    paw PP                                                                      
   EAUG   =  644.873                                                                                
   DEXC   =    0.000                                                                                
   RMAX   =    1.529    core radius for proj-oper                                                   
   RAUG   =    1.300    factor for augmentation sphere                                              
   RDEP   =    1.501    radius for radial grids                                                     
   RDEPT  =    1.300    core radius for aug-charge                                                  
                                                                                                    
   Atomic configuration                                                                             
    4 entries                                                                                       
     n  l   j            E        occ.                                                              
     1  0  0.50      -273.3789   2.0000                                                             
     2  0  0.50       -13.7508   2.0000                                                             
     2  1  0.50        -5.2854   2.0000                                                             
     3  2  1.50        -5.4423   0.0000                                                             
   Description                                                                                      
     l       E           TYP  RCUT    TYP  RCUT                                                     
     0    -13.7508458     23  1.200                                                                 
     0     -8.2022199     23  1.200                                                                 
     1     -5.2854383     23  1.500                                                                 
     1     34.0145650     23  1.500                                                                 
     2     -5.4423304      7  1.500                                                                 
  local pseudopotential read in
  partial core-charges read in
  partial kinetic energy density read in
  atomic valenz-charges read in
  non local Contribution for L=           0  read in
    real space projection operators read in
  non local Contribution for L=           0  read in
    real space projection operators read in
  non local Contribution for L=           1  read in
    real space projection operators read in
  non local Contribution for L=           1  read in
    real space projection operators read in
    PAW grid and wavefunctions read in
 
   number of l-projection  operators is LMAX  =           4
   number of lm-projection operators is LMMAX =           8
 
  PAW_PBE C 08Apr2002                   :
 energy of atom  1       EATOM= -147.1560
 kinetic energy error for atom=    0.0057 (will be added to EATOM!!)
 
 
 POSCAR: C2
  positions in direct lattice
  No initial velocities read in


 exchange-correlation table for PE
   RHO(1)=    0.500       N(1)  =     2000
   RHO(2)=  100.500       N(2)  =     4000
 


--------------------------------------------------------------------------------------------------------


 ion  position               nearest neighbor table
   1  0.833  0.833  1.000-   2 1.42   2 1.42   2 1.42
   2  0.167  0.167  0.000-   1 1.42   1 1.42   1 1.42
 

IMPORTANT INFORMATION: All symmetrisations will be switched off!
NOSYMM: (Re-)initialisation of all symmetry stuff for point group C_1.


----------------------------------------------------------------------------------------

                                     Primitive cell                                     

  volume of cell :      18.3054

  direct lattice vectors                    reciprocal lattice vectors
     1.228282440  2.102524030  0.323858600     0.407072497  0.246385124 -0.055674433
    -1.228282440  2.102524030  0.323858600    -0.407072497  0.246385124 -0.055674433
     0.000000000  0.829731840  3.671947260     0.000000000 -0.043461377  0.282155819

  length of vectors
     2.456454649  2.456454649  3.764525416     0.479075453  0.479075453  0.285483446

  position of ions in fractional coordinates (direct lattice)
     0.833355530  0.833355530  0.999906960
     0.166644470  0.166644470  0.000093040

  ion indices of the primitive-cell ions
   primitive index   ion index
                 1           1
                 2           2

----------------------------------------------------------------------------------------

 
 
 KPOINTS: pymatgen with grid density = 2710 / numb

Automatic generation of k-mesh.
 Grid dimensions read from file:
 generate k-points for:   12   12    8

 Generating k-lattice:

  Cartesian coordinates                     Fractional coordinates (reciprocal lattice)
     0.033922708  0.020532094 -0.004639536     0.083333333  0.000000000  0.000000000
    -0.033922708  0.020532094 -0.004639536     0.000000000  0.083333333  0.000000000
     0.000000000 -0.005432672  0.035269477     0.000000000  0.000000000  0.125000000

  Length of vectors
     0.039922954  0.039922954  0.035685431

  Shift w.r.t. Gamma in fractional coordinates (k-lattice)
     0.500000000  0.500000000  0.500000000

 
 Subroutine IBZKPT returns following result:
 ===========================================
 
 Found   1152 irreducible k-points:
 
 Following reciprocal coordinates:
            Coordinates               Weight
  0.041667  0.041667  0.062500      1.000000
  0.125000  0.041667  0.062500      1.000000
  0.208333  0.041667  0.062500      1.000000
  0.291667  0.041667  0.062500      1.000000
  0.375000  0.041667  0.062500      1.000000
  0.458333  0.041667  0.062500      1.000000
 -0.458333  0.041667  0.062500      1.000000
 -0.375000  0.041667  0.062500      1.000000
 -0.291667  0.041667  0.062500      1.000000
 -0.208333  0.041667  0.062500      1.000000
 -0.125000  0.041667  0.062500      1.000000
 -0.041667  0.041667  0.062500      1.000000
  0.041667  0.125000  0.062500      1.000000
  0.125000  0.125000  0.062500      1.000000
  0.208333  0.125000  0.062500      1.000000
  0.291667  0.125000  0.062500      1.000000
  0.375000  0.125000  0.062500      1.000000
  0.458333  0.125000  0.062500      1.000000
 -0.458333  0.125000  0.062500      1.000000
 -0.375000  0.125000  0.062500      1.000000
 -0.291667  0.125000  0.062500      1.000000
 -0.208333  0.125000  0.062500      1.000000
 -0.125000  0.125000  0.062500      1.000000
 -0.041667  0.125000  0.062500      1.000000
  0.041667  0.208333  0.062500      1.000000
  0.125000  0.208333  0.062500      1.000000
  0.208333  0.208333  0.062500      1.000000
  0.291667  0.208333  0.062500      1.000000
  0.375000  0.208333  0.062500      1.000000
  0.458333  0.208333  0.062500      1.000000
 -0.458333  0.208333  0.062500      1.000000
 -0.375000  0.208333  0.062500      1.000000
 -0.291667  0.208333  0.062500      1.000000
 -0.208333  0.208333  0.062500      1.000000
 -0.125000  0.208333  0.062500      1.000000
 -0.041667  0.208333  0.062500      1.000000
  0.041667  0.291667  0.062500      1.000000
  0.125000  0.291667  0.062500      1.000000
  0.208333  0.291667  0.062500      1.000000
  0.291667  0.291667  0.062500      1.000000
  0.375000  0.291667  0.062500      1.000000
  0.458333  0.291667  0.062500      1.000000
 -0.458333  0.291667  0.062500      1.000000
 -0.375000  0.291667  0.062500      1.000000
 -0.291667  0.291667  0.062500      1.000000
 -0.208333  0.291667  0.062500      1.000000
 -0.125000  0.291667  0.062500      1.000000
 -0.041667  0.291667  0.062500      1.000000
  0.041667  0.375000  0.062500      1.000000
  0.125000  0.375000  0.062500      1.000000
  0.208333  0.375000  0.062500      1.000000
  0.291667  0.375000  0.062500      1.000000
  0.375000  0.375000  0.062500      1.000000
  0.458333  0.375000  0.062500      1.000000
 -0.458333  0.375000  0.062500      1.000000
 -0.375000  0.375000  0.062500      1.000000
 -0.291667  0.375000  0.062500      1.000000
 -0.208333  0.375000  0.062500      1.000000
 -0.125000  0.375000  0.062500      1.000000
 -0.041667  0.375000  0.062500      1.000000
  0.041667  0.458333  0.062500      1.000000
  0.125000  0.458333  0.062500      1.000000
  0.208333  0.458333  0.062500      1.000000
  0.291667  0.458333  0.062500      1.000000
  0.375000  0.458333  0.062500      1.000000
  0.458333  0.458333  0.062500      1.000000
 -0.458333  0.458333  0.062500      1.000000
 -0.375000  0.458333  0.062500      1.000000
 -0.291667  0.458333  0.062500      1.000000
 -0.208333  0.458333  0.062500      1.000000
 -0.125000  0.458333  0.062500      1.000000
 -0.041667  0.458333  0.062500      1.000000
  0.041667 -0.458333  0.062500      1.000000
  0.125000 -0.458333  0.062500      1.000000
  0.208333 -0.458333  0.062500      1.000000
  0.291667 -0.458333  0.062500      1.000000
  0.375000 -0.458333  0.062500      1.000000
  0.458333 -0.458333  0.062500      1.000000
 -0.458333 -0.458333  0.062500      1.000000
 -0.375000 -0.458333  0.062500      1.000000
 -0.291667 -0.458333  0.062500      1.000000
 -0.208333 -0.458333  0.062500      1.000000
 -0.125000 -0.458333  0.062500      1.000000
 -0.041667 -0.458333  0.062500      1.000000
  0.041667 -0.375000  0.062500      1.000000
  0.125000 -0.375000  0.062500      1.000000
  0.208333 -0.375000  0.062500      1.000000
  0.291667 -0.375000  0.062500      1.000000
  0.375000 -0.375000  0.062500      1.000000
  0.458333 -0.375000  0.062500      1.000000
 -0.458333 -0.375000  0.062500      1.000000
 -0.375000 -0.375000  0.062500      1.000000
 -0.291667 -0.375000  0.062500      1.000000
 -0.208333 -0.375000  0.062500      1.000000
 -0.125000 -0.375000  0.062500      1.000000
 -0.041667 -0.375000  0.062500      1.000000
  0.041667 -0.291667  0.062500      1.000000
  0.125000 -0.291667  0.062500      1.000000
  0.208333 -0.291667  0.062500      1.000000
  0.291667 -0.291667  0.062500      1.000000
  0.375000 -0.291667  0.062500      1.000000
  0.458333 -0.291667  0.062500      1.000000
 -0.458333 -0.291667  0.062500      1.000000
 -0.375000 -0.291667  0.062500      1.000000
 -0.291667 -0.291667  0.062500      1.000000
 -0.208333 -0.291667  0.062500      1.000000
 -0.125000 -0.291667  0.062500      1.000000
 -0.041667 -0.291667  0.062500      1.000000
  0.041667 -0.208333  0.062500      1.000000
  0.125000 -0.208333  0.062500      1.000000
  0.208333 -0.208333  0.062500      1.000000
  0.291667 -0.208333  0.062500      1.000000
  0.375000 -0.208333  0.062500      1.000000
  0.458333 -0.208333  0.062500      1.000000
 -0.458333 -0.208333  0.062500      1.000000
 -0.375000 -0.208333  0.062500      1.000000
 -0.291667 -0.208333  0.062500      1.000000
 -0.208333 -0.208333  0.062500      1.000000
 -0.125000 -0.208333  0.062500      1.000000
 -0.041667 -0.208333  0.062500      1.000000
  0.041667 -0.125000  0.062500      1.000000
  0.125000 -0.125000  0.062500      1.000000
  0.208333 -0.125000  0.062500      1.000000
  0.291667 -0.125000  0.062500      1.000000
  0.375000 -0.125000  0.062500      1.000000
  0.458333 -0.125000  0.062500      1.000000
 -0.458333 -0.125000  0.062500      1.000000
 -0.375000 -0.125000  0.062500      1.000000
 -0.291667 -0.125000  0.062500      1.000000
 -0.208333 -0.125000  0.062500      1.000000
 -0.125000 -0.125000  0.062500      1.000000
 -0.041667 -0.125000  0.062500      1.000000
  0.041667 -0.041667  0.062500      1.000000
  0.125000 -0.041667  0.062500      1.000000
  0.208333 -0.041667  0.062500      1.000000
  0.291667 -0.041667  0.062500      1.000000
  0.375000 -0.041667  0.062500      1.000000
  0.458333 -0.041667  0.062500      1.000000
 -0.458333 -0.041667  0.062500      1.000000
 -0.375000 -0.041667  0.062500      1.000000
 -0.291667 -0.041667  0.062500      1.000000
 -0.208333 -0.041667  0.062500      1.000000
 -0.125000 -0.041667  0.062500      1.000000
 -0.041667 -0.041667  0.062500      1.000000
  0.041667  0.041667  0.187500      1.000000
  0.125000  0.041667  0.187500      1.000000
  0.208333  0.041667  0.187500      1.000000
  0.291667  0.041667  0.187500      1.000000
  0.375000  0.041667  0.187500      1.000000
  0.458333  0.041667  0.187500      1.000000
 -0.458333  0.041667  0.187500      1.000000
 -0.375000  0.041667  0.187500      1.000000
 -0.291667  0.041667  0.187500      1.000000
 -0.208333  0.041667  0.187500      1.000000
 -0.125000  0.041667  0.187500      1.000000
 -0.041667  0.041667  0.187500      1.000000
  0.041667  0.125000  0.187500      1.000000
  0.125000  0.125000  0.187500      1.000000
  0.208333  0.125000  0.187500      1.000000
  0.291667  0.125000  0.187500      1.000000
  0.375000  0.125000  0.187500      1.000000
  0.458333  0.125000  0.187500      1.000000
 -0.458333  0.125000  0.187500      1.000000
 -0.375000  0.125000  0.187500      1.000000
 -0.291667  0.125000  0.187500      1.000000
 -0.208333  0.125000  0.187500      1.000000
 -0.125000  0.125000  0.187500      1.000000
 -0.041667  0.125000  0.187500      1.000000
  0.041667  0.208333  0.187500      1.000000
  0.125000  0.208333  0.187500      1.000000
  0.208333  0.208333  0.187500      1.000000
  0.291667  0.208333  0.187500      1.000000
  0.375000  0.208333  0.187500      1.000000
  0.458333  0.208333  0.187500      1.000000
 -0.458333  0.208333  0.187500      1.000000
 -0.375000  0.208333  0.187500      1.000000
 -0.291667  0.208333  0.187500      1.000000
 -0.208333  0.208333  0.187500      1.000000
 -0.125000  0.208333  0.187500      1.000000
 -0.041667  0.208333  0.187500      1.000000
  0.041667  0.291667  0.187500      1.000000
  0.125000  0.291667  0.187500      1.000000
  0.208333  0.291667  0.187500      1.000000
  0.291667  0.291667  0.187500      1.000000
  0.375000  0.291667  0.187500      1.000000
  0.458333  0.291667  0.187500      1.000000
 -0.458333  0.291667  0.187500      1.000000
 -0.375000  0.291667  0.187500      1.000000
 -0.291667  0.291667  0.187500      1.000000
 -0.208333  0.291667  0.187500      1.000000
 -0.125000  0.291667  0.187500      1.000000
 -0.041667  0.291667  0.187500      1.000000
  0.041667  0.375000  0.187500      1.000000
  0.125000  0.375000  0.187500      1.000000
  0.208333  0.375000  0.187500      1.000000
  0.291667  0.375000  0.187500      1.000000
  0.375000  0.375000  0.187500      1.000000
  0.458333  0.375000  0.187500      1.000000
 -0.458333  0.375000  0.187500      1.000000
 -0.375000  0.375000  0.187500      1.000000
 -0.291667  0.375000  0.187500      1.000000
 -0.208333  0.375000  0.187500      1.000000
 -0.125000  0.375000  0.187500      1.000000
 -0.041667  0.375000  0.187500      1.000000
  0.041667  0.458333  0.187500      1.000000
  0.125000  0.458333  0.187500      1.000000
  0.208333  0.458333  0.187500      1.000000
  0.291667  0.458333  0.187500      1.000000
  0.375000  0.458333  0.187500      1.000000
  0.458333  0.458333  0.187500      1.000000
 -0.458333  0.458333  0.187500      1.000000
 -0.375000  0.458333  0.187500      1.000000
 -0.291667  0.458333  0.187500      1.000000
 -0.208333  0.458333  0.187500      1.000000
 -0.125000  0.458333  0.187500      1.000000
 -0.041667  0.458333  0.187500      1.000000
  0.041667 -0.458333  0.187500      1.000000
  0.125000 -0.458333  0.187500      1.000000
  0.208333 -0.458333  0.187500      1.000000
  0.291667 -0.458333  0.187500      1.000000
  0.375000 -0.458333  0.187500      1.000000
  0.458333 -0.458333  0.187500      1.000000
 -0.458333 -0.458333  0.187500      1.000000
 -0.375000 -0.458333  0.187500      1.000000
 -0.291667 -0.458333  0.187500      1.000000
 -0.208333 -0.458333  0.187500      1.000000
 -0.125000 -0.458333  0.187500      1.000000
 -0.041667 -0.458333  0.187500      1.000000
  0.041667 -0.375000  0.187500      1.000000
  0.125000 -0.375000  0.187500      1.000000
  0.208333 -0.375000  0.187500      1.000000
  0.291667 -0.375000  0.187500      1.000000
  0.375000 -0.375000  0.187500      1.000000
  0.458333 -0.375000  0.187500      1.000000
 -0.458333 -0.375000  0.187500      1.000000
 -0.375000 -0.375000  0.187500      1.000000
 -0.291667 -0.375000  0.187500      1.000000
 -0.208333 -0.375000  0.187500      1.000000
 -0.125000 -0.375000  0.187500      1.000000
 -0.041667 -0.375000  0.187500      1.000000
  0.041667 -0.291667  0.187500      1.000000
  0.125000 -0.291667  0.187500      1.000000
  0.208333 -0.291667  0.187500      1.000000
  0.291667 -0.291667  0.187500      1.000000
  0.375000 -0.291667  0.187500      1.000000
  0.458333 -0.291667  0.187500      1.000000
 -0.458333 -0.291667  0.187500      1.000000
 -0.375000 -0.291667  0.187500      1.000000
 -0.291667 -0.291667  0.187500      1.000000
 -0.208333 -0.291667  0.187500      1.000000
 -0.125000 -0.291667  0.187500      1.000000
 -0.041667 -0.291667  0.187500      1.000000
  0.041667 -0.208333  0.187500      1.000000
  0.125000 -0.208333  0.187500      1.000000
  0.208333 -0.208333  0.187500      1.000000
  0.291667 -0.208333  0.187500      1.000000
  0.375000 -0.208333  0.187500      1.000000
  0.458333 -0.208333  0.187500      1.000000
 -0.458333 -0.208333  0.187500      1.000000
 -0.375000 -0.208333  0.187500      1.000000
 -0.291667 -0.208333  0.187500      1.000000
 -0.208333 -0.208333  0.187500      1.000000
 -0.125000 -0.208333  0.187500      1.000000
 -0.041667 -0.208333  0.187500      1.000000
  0.041667 -0.125000  0.187500      1.000000
  0.125000 -0.125000  0.187500      1.000000
  0.208333 -0.125000  0.187500      1.000000
  0.291667 -0.125000  0.187500      1.000000
  0.375000 -0.125000  0.187500      1.000000
  0.458333 -0.125000  0.187500      1.000000
 -0.458333 -0.125000  0.187500      1.000000
 -0.375000 -0.125000  0.187500      1.000000
 -0.291667 -0.125000  0.187500      1.000000
 -0.208333 -0.125000  0.187500      1.000000
 -0.125000 -0.125000  0.187500      1.000000
 -0.041667 -0.125000  0.187500      1.000000
  0.041667 -0.041667  0.187500      1.000000
  0.125000 -0.041667  0.187500      1.000000
  0.208333 -0.041667  0.187500      1.000000
  0.291667 -0.041667  0.187500      1.000000
  0.375000 -0.041667  0.187500      1.000000
  0.458333 -0.041667  0.187500      1.000000
 -0.458333 -0.041667  0.187500      1.000000
 -0.375000 -0.041667  0.187500      1.000000
 -0.291667 -0.041667  0.187500      1.000000
 -0.208333 -0.041667  0.187500      1.000000
 -0.125000 -0.041667  0.187500      1.000000
 -0.041667 -0.041667  0.187500      1.000000
  0.041667  0.041667  0.312500      1.000000
  0.125000  0.041667  0.312500      1.000000
  0.208333  0.041667  0.312500      1.000000
  0.291667  0.041667  0.312500      1.000000
  0.375000  0.041667  0.312500      1.000000
  0.458333  0.041667  0.312500      1.000000
 -0.458333  0.041667  0.312500      1.000000
 -0.375000  0.041667  0.312500      1.000000
 -0.291667  0.041667  0.312500      1.000000
 -0.208333  0.041667  0.312500      1.000000
 -0.125000  0.041667  0.312500      1.000000
 -0.041667  0.041667  0.312500      1.000000
  0.041667  0.125000  0.312500      1.000000
  0.125000  0.125000  0.312500      1.000000
  0.208333  0.125000  0.312500      1.000000
  0.291667  0.125000  0.312500      1.000000
  0.375000  0.125000  0.312500      1.000000
  0.458333  0.125000  0.312500      1.000000
 -0.458333  0.125000  0.312500      1.000000
 -0.375000  0.125000  0.312500      1.000000
 -0.291667  0.125000  0.312500      1.000000
 -0.208333  0.125000  0.312500      1.000000
 -0.125000  0.125000  0.312500      1.000000
 -0.041667  0.125000  0.312500      1.000000
  0.041667  0.208333  0.312500      1.000000
  0.125000  0.208333  0.312500      1.000000
  0.208333  0.208333  0.312500      1.000000
  0.291667  0.208333  0.312500      1.000000
  0.375000  0.208333  0.312500      1.000000
  0.458333  0.208333  0.312500      1.000000
 -0.458333  0.208333  0.312500      1.000000
 -0.375000  0.208333  0.312500      1.000000
 -0.291667  0.208333  0.312500      1.000000
 -0.208333  0.208333  0.312500      1.000000
 -0.125000  0.208333  0.312500      1.000000
 -0.041667  0.208333  0.312500      1.000000
  0.041667  0.291667  0.312500      1.000000
  0.125000  0.291667  0.312500      1.000000
  0.208333  0.291667  0.312500      1.000000
  0.291667  0.291667  0.312500      1.000000
  0.375000  0.291667  0.312500      1.000000
  0.458333  0.291667  0.312500      1.000000
 -0.458333  0.291667  0.312500      1.000000
 -0.375000  0.291667  0.312500      1.000000
 -0.291667  0.291667  0.312500      1.000000
 -0.208333  0.291667  0.312500      1.000000
 -0.125000  0.291667  0.312500      1.000000
 -0.041667  0.291667  0.312500      1.000000
  0.041667  0.375000  0.312500      1.000000
  0.125000  0.375000  0.312500      1.000000
  0.208333  0.375000  0.312500      1.000000
  0.291667  0.375000  0.312500      1.000000
  0.375000  0.375000  0.312500      1.000000
  0.458333  0.375000  0.312500      1.000000
 -0.458333  0.375000  0.312500      1.000000
 -0.375000  0.375000  0.312500      1.000000
 -0.291667  0.375000  0.312500      1.000000
 -0.208333  0.375000  0.312500      1.000000
 -0.125000  0.375000  0.312500      1.000000
 -0.041667  0.375000  0.312500      1.000000
  0.041667  0.458333  0.312500      1.000000
  0.125000  0.458333  0.312500      1.000000
  0.208333  0.458333  0.312500      1.000000
  0.291667  0.458333  0.312500      1.000000
  0.375000  0.458333  0.312500      1.000000
  0.458333  0.458333  0.312500      1.000000
 -0.458333  0.458333  0.312500      1.000000
 -0.375000  0.458333  0.312500      1.000000
 -0.291667  0.458333  0.312500      1.000000
 -0.208333  0.458333  0.312500      1.000000
 -0.125000  0.458333  0.312500      1.000000
 -0.041667  0.458333  0.312500      1.000000
  0.041667 -0.458333  0.312500      1.000000
  0.125000 -0.458333  0.312500      1.000000
  0.208333 -0.458333  0.312500      1.000000
  0.291667 -0.458333  0.312500      1.000000
  0.375000 -0.458333  0.312500      1.000000
  0.458333 -0.458333  0.312500      1.000000
 -0.458333 -0.458333  0.312500      1.000000
 -0.375000 -0.458333  0.312500      1.000000
 -0.291667 -0.458333  0.312500      1.000000
 -0.208333 -0.458333  0.312500      1.000000
 -0.125000 -0.458333  0.312500      1.000000
 -0.041667 -0.458333  0.312500      1.000000
  0.041667 -0.375000  0.312500      1.000000
  0.125000 -0.375000  0.312500      1.000000
  0.208333 -0.375000  0.312500      1.000000
  0.291667 -0.375000  0.312500      1.000000
  0.375000 -0.375000  0.312500      1.000000
  0.458333 -0.375000  0.312500      1.000000
 -0.458333 -0.375000  0.312500      1.000000
 -0.375000 -0.375000  0.312500      1.000000
 -0.291667 -0.375000  0.312500      1.000000
 -0.208333 -0.375000  0.312500      1.000000
 -0.125000 -0.375000  0.312500      1.000000
 -0.041667 -0.375000  0.312500      1.000000
  0.041667 -0.291667  0.312500      1.000000
  0.125000 -0.291667  0.312500      1.000000
  0.208333 -0.291667  0.312500      1.000000
  0.291667 -0.291667  0.312500      1.000000
  0.375000 -0.291667  0.312500      1.000000
  0.458333 -0.291667  0.312500      1.000000
 -0.458333 -0.291667  0.312500      1.000000
 -0.375000 -0.291667  0.312500      1.000000
 -0.291667 -0.291667  0.312500      1.000000
 -0.208333 -0.291667  0.312500      1.000000
 -0.125000 -0.291667  0.312500      1.000000
 -0.041667 -0.291667  0.312500      1.000000
  0.041667 -0.208333  0.312500      1.000000
  0.125000 -0.208333  0.312500      1.000000
  0.208333 -0.208333  0.312500      1.000000
  0.291667 -0.208333  0.312500      1.000000
  0.375000 -0.208333  0.312500      1.000000
  0.458333 -0.208333  0.312500      1.000000
 -0.458333 -0.208333  0.312500      1.000000
 -0.375000 -0.208333  0.312500      1.000000
 -0.291667 -0.208333  0.312500      1.000000
 -0.208333 -0.208333  0.312500      1.000000
 -0.125000 -0.208333  0.312500      1.000000
 -0.041667 -0.208333  0.312500      1.000000
  0.041667 -0.125000  0.312500      1.000000
  0.125000 -0.125000  0.312500      1.000000
  0.208333 -0.125000  0.312500      1.000000
  0.291667 -0.125000  0.312500      1.000000
  0.375000 -0.125000  0.312500      1.000000
  0.458333 -0.125000  0.312500      1.000000
 -0.458333 -0.125000  0.312500      1.000000
 -0.375000 -0.125000  0.312500      1.000000
 -0.291667 -0.125000  0.312500      1.000000
 -0.208333 -0.125000  0.312500      1.000000
 -0.125000 -0.125000  0.312500      1.000000
 -0.041667 -0.125000  0.312500      1.000000
  0.041667 -0.041667  0.312500      1.000000
  0.125000 -0.041667  0.312500      1.000000
  0.208333 -0.041667  0.312500      1.000000
  0.291667 -0.041667  0.312500      1.000000
  0.375000 -0.041667  0.312500      1.000000
  0.458333 -0.041667  0.312500      1.000000
 -0.458333 -0.041667  0.312500      1.000000
 -0.375000 -0.041667  0.312500      1.000000
 -0.291667 -0.041667  0.312500      1.000000
 -0.208333 -0.041667  0.312500      1.000000
 -0.125000 -0.041667  0.312500      1.000000
 -0.041667 -0.041667  0.312500      1.000000
  0.041667  0.041667  0.437500      1.000000
  0.125000  0.041667  0.437500      1.000000
  0.208333  0.041667  0.437500      1.000000
  0.291667  0.041667  0.437500      1.000000
  0.375000  0.041667  0.437500      1.000000
  0.458333  0.041667  0.437500      1.000000
 -0.458333  0.041667  0.437500      1.000000
 -0.375000  0.041667  0.437500      1.000000
 -0.291667  0.041667  0.437500      1.000000
 -0.208333  0.041667  0.437500      1.000000
 -0.125000  0.041667  0.437500      1.000000
 -0.041667  0.041667  0.437500      1.000000
  0.041667  0.125000  0.437500      1.000000
  0.125000  0.125000  0.437500      1.000000
  0.208333  0.125000  0.437500      1.000000
  0.291667  0.125000  0.437500      1.000000
  0.375000  0.125000  0.437500      1.000000
  0.458333  0.125000  0.437500      1.000000
 -0.458333  0.125000  0.437500      1.000000
 -0.375000  0.125000  0.437500      1.000000
 -0.291667  0.125000  0.437500      1.000000
 -0.208333  0.125000  0.437500      1.000000
 -0.125000  0.125000  0.437500      1.000000
 -0.041667  0.125000  0.437500      1.000000
  0.041667  0.208333  0.437500      1.000000
  0.125000  0.208333  0.437500      1.000000
  0.208333  0.208333  0.437500      1.000000
  0.291667  0.208333  0.437500      1.000000
  0.375000  0.208333  0.437500      1.000000
  0.458333  0.208333  0.437500      1.000000
 -0.458333  0.208333  0.437500      1.000000
 -0.375000  0.208333  0.437500      1.000000
 -0.291667  0.208333  0.437500      1.000000
 -0.208333  0.208333  0.437500      1.000000
 -0.125000  0.208333  0.437500      1.000000
 -0.041667  0.208333  0.437500      1.000000
  0.041667  0.291667  0.437500      1.000000
  0.125000  0.291667  0.437500      1.000000
  0.208333  0.291667  0.437500      1.000000
  0.291667  0.291667  0.437500      1.000000
  0.375000  0.291667  0.437500      1.000000
  0.458333  0.291667  0.437500      1.000000
 -0.458333  0.291667  0.437500      1.000000
 -0.375000  0.291667  0.437500      1.000000
 -0.291667  0.291667  0.437500      1.000000
 -0.208333  0.291667  0.437500      1.000000
 -0.125000  0.291667  0.437500      1.000000
 -0.041667  0.291667  0.437500      1.000000
  0.041667  0.375000  0.437500      1.000000
  0.125000  0.375000  0.437500      1.000000
  0.208333  0.375000  0.437500      1.000000
  0.291667  0.375000  0.437500      1.000000
  0.375000  0.375000  0.437500      1.000000
  0.458333  0.375000  0.437500      1.000000
 -0.458333  0.375000  0.437500      1.000000
 -0.375000  0.375000  0.437500      1.000000
 -0.291667  0.375000  0.437500      1.000000
 -0.208333  0.375000  0.437500      1.000000
 -0.125000  0.375000  0.437500      1.000000
 -0.041667  0.375000  0.437500      1.000000
  0.041667  0.458333  0.437500      1.000000
  0.125000  0.458333  0.437500      1.000000
  0.208333  0.458333  0.437500      1.000000
  0.291667  0.458333  0.437500      1.000000
  0.375000  0.458333  0.437500      1.000000
  0.458333  0.458333  0.437500      1.000000
 -0.458333  0.458333  0.437500      1.000000
 -0.375000  0.458333  0.437500      1.000000
 -0.291667  0.458333  0.437500      1.000000
 -0.208333  0.458333  0.437500      1.000000
 -0.125000  0.458333  0.437500      1.000000
 -0.041667  0.458333  0.437500      1.000000
  0.041667 -0.458333  0.437500      1.000000
  0.125000 -0.458333  0.437500      1.000000
  0.208333 -0.458333  0.437500      1.000000
  0.291667 -0.458333  0.437500      1.000000
  0.375000 -0.458333  0.437500      1.000000
  0.458333 -0.458333  0.437500      1.000000
 -0.458333 -0.458333  0.437500      1.000000
 -0.375000 -0.458333  0.437500      1.000000
 -0.291667 -0.458333  0.437500      1.000000
 -0.208333 -0.458333  0.437500      1.000000
 -0.125000 -0.458333  0.437500      1.000000
 -0.041667 -0.458333  0.437500      1.000000
  0.041667 -0.375000  0.437500      1.000000
  0.125000 -0.375000  0.437500      1.000000
  0.208333 -0.375000  0.437500      1.000000
  0.291667 -0.375000  0.437500      1.000000
  0.375000 -0.375000  0.437500      1.000000
  0.458333 -0.375000  0.437500      1.000000
 -0.458333 -0.375000  0.437500      1.000000
 -0.375000 -0.375000  0.437500      1.000000
 -0.291667 -0.375000  0.437500      1.000000
 -0.208333 -0.375000  0.437500      1.000000
 -0.125000 -0.375000  0.437500      1.000000
 -0.041667 -0.375000  0.437500      1.000000
  0.041667 -0.291667  0.437500      1.000000
  0.125000 -0.291667  0.437500      1.000000
  0.208333 -0.291667  0.437500      1.000000
  0.291667 -0.291667  0.437500      1.000000
  0.375000 -0.291667  0.437500      1.000000
  0.458333 -0.291667  0.437500      1.000000
 -0.458333 -0.291667  0.437500      1.000000
 -0.375000 -0.291667  0.437500      1.000000
 -0.291667 -0.291667  0.437500      1.000000
 -0.208333 -0.291667  0.437500      1.000000
 -0.125000 -0.291667  0.437500      1.000000
 -0.041667 -0.291667  0.437500      1.000000
  0.041667 -0.208333  0.437500      1.000000
  0.125000 -0.208333  0.437500      1.000000
  0.208333 -0.208333  0.437500      1.000000
  0.291667 -0.208333  0.437500      1.000000
  0.375000 -0.208333  0.437500      1.000000
  0.458333 -0.208333  0.437500      1.000000
 -0.458333 -0.208333  0.437500      1.000000
 -0.375000 -0.208333  0.437500      1.000000
 -0.291667 -0.208333  0.437500      1.000000
 -0.208333 -0.208333  0.437500      1.000000
 -0.125000 -0.208333  0.437500      1.000000
 -0.041667 -0.208333  0.437500      1.000000
  0.041667 -0.125000  0.437500      1.000000
  0.125000 -0.125000  0.437500      1.000000
  0.208333 -0.125000  0.437500      1.000000
  0.291667 -0.125000  0.437500      1.000000
  0.375000 -0.125000  0.437500      1.000000
  0.458333 -0.125000  0.437500      1.000000
 -0.458333 -0.125000  0.437500      1.000000
 -0.375000 -0.125000  0.437500      1.000000
 -0.291667 -0.125000  0.437500      1.000000
 -0.208333 -0.125000  0.437500      1.000000
 -0.125000 -0.125000  0.437500      1.000000
 -0.041667 -0.125000  0.437500      1.000000
  0.041667 -0.041667  0.437500      1.000000
  0.125000 -0.041667  0.437500      1.000000
  0.208333 -0.041667  0.437500      1.000000
  0.291667 -0.041667  0.437500      1.000000
  0.375000 -0.041667  0.437500      1.000000
  0.458333 -0.041667  0.437500      1.000000
 -0.458333 -0.041667  0.437500      1.000000
 -0.375000 -0.041667  0.437500      1.000000
 -0.291667 -0.041667  0.437500      1.000000
 -0.208333 -0.041667  0.437500      1.000000
 -0.125000 -0.041667  0.437500      1.000000
 -0.041667 -0.041667  0.437500      1.000000
  0.041667  0.041667 -0.437500      1.000000
  0.125000  0.041667 -0.437500      1.000000
  0.208333  0.041667 -0.437500      1.000000
  0.291667  0.041667 -0.437500      1.000000
  0.375000  0.041667 -0.437500      1.000000
  0.458333  0.041667 -0.437500      1.000000
 -0.458333  0.041667 -0.437500      1.000000
 -0.375000  0.041667 -0.437500      1.000000
 -0.291667  0.041667 -0.437500      1.000000
 -0.208333  0.041667 -0.437500      1.000000
 -0.125000  0.041667 -0.437500      1.000000
 -0.041667  0.041667 -0.437500      1.000000
  0.041667  0.125000 -0.437500      1.000000
  0.125000  0.125000 -0.437500      1.000000
  0.208333  0.125000 -0.437500      1.000000
  0.291667  0.125000 -0.437500      1.000000
  0.375000  0.125000 -0.437500      1.000000
  0.458333  0.125000 -0.437500      1.000000
 -0.458333  0.125000 -0.437500      1.000000
 -0.375000  0.125000 -0.437500      1.000000
 -0.291667  0.125000 -0.437500      1.000000
 -0.208333  0.125000 -0.437500      1.000000
 -0.125000  0.125000 -0.437500      1.000000
 -0.041667  0.125000 -0.437500      1.000000
  0.041667  0.208333 -0.437500      1.000000
  0.125000  0.208333 -0.437500      1.000000
  0.208333  0.208333 -0.437500      1.000000
  0.291667  0.208333 -0.437500      1.000000
  0.375000  0.208333 -0.437500      1.000000
  0.458333  0.208333 -0.437500      1.000000
 -0.458333  0.208333 -0.437500      1.000000
 -0.375000  0.208333 -0.437500      1.000000
 -0.291667  0.208333 -0.437500      1.000000
 -0.208333  0.208333 -0.437500      1.000000
 -0.125000  0.208333 -0.437500      1.000000
 -0.041667  0.208333 -0.437500      1.000000
  0.041667  0.291667 -0.437500      1.000000
  0.125000  0.291667 -0.437500      1.000000
  0.208333  0.291667 -0.437500      1.000000
  0.291667  0.291667 -0.437500      1.000000
  0.375000  0.291667 -0.437500      1.000000
  0.458333  0.291667 -0.437500      1.000000
 -0.458333  0.291667 -0.437500      1.000000
 -0.375000  0.291667 -0.437500      1.000000
 -0.291667  0.291667 -0.437500      1.000000
 -0.208333  0.291667 -0.437500      1.000000
 -0.125000  0.291667 -0.437500      1.000000
 -0.041667  0.291667 -0.437500      1.000000
  0.041667  0.375000 -0.437500      1.000000
  0.125000  0.375000 -0.437500      1.000000
  0.208333  0.375000 -0.437500      1.000000
  0.291667  0.375000 -0.437500      1.000000
  0.375000  0.375000 -0.437500      1.000000
  0.458333  0.375000 -0.437500      1.000000
 -0.458333  0.375000 -0.437500      1.000000
 -0.375000  0.375000 -0.437500      1.000000
 -0.291667  0.375000 -0.437500      1.000000
 -0.208333  0.375000 -0.437500      1.000000
 -0.125000  0.375000 -0.437500      1.000000
 -0.041667  0.375000 -0.437500      1.000000
  0.041667  0.458333 -0.437500      1.000000
  0.125000  0.458333 -0.437500      1.000000
  0.208333  0.458333 -0.437500      1.000000
  0.291667  0.458333 -0.437500      1.000000
  0.375000  0.458333 -0.437500      1.000000
  0.458333  0.458333 -0.437500      1.000000
 -0.458333  0.458333 -0.437500      1.000000
 -0.375000  0.458333 -0.437500      1.000000
 -0.291667  0.458333 -0.437500      1.000000
 -0.208333  0.458333 -0.437500      1.000000
 -0.125000  0.458333 -0.437500      1.000000
 -0.041667  0.458333 -0.437500      1.000000
  0.041667 -0.458333 -0.437500      1.000000
  0.125000 -0.458333 -0.437500      1.000000
  0.208333 -0.458333 -0.437500      1.000000
  0.291667 -0.458333 -0.437500      1.000000
  0.375000 -0.458333 -0.437500      1.000000
  0.458333 -0.458333 -0.437500      1.000000
 -0.458333 -0.458333 -0.437500      1.000000
 -0.375000 -0.458333 -0.437500      1.000000
 -0.291667 -0.458333 -0.437500      1.000000
 -0.208333 -0.458333 -0.437500      1.000000
 -0.125000 -0.458333 -0.437500      1.000000
 -0.041667 -0.458333 -0.437500      1.000000
  0.041667 -0.375000 -0.437500      1.000000
  0.125000 -0.375000 -0.437500      1.000000
  0.208333 -0.375000 -0.437500      1.000000
  0.291667 -0.375000 -0.437500      1.000000
  0.375000 -0.375000 -0.437500      1.000000
  0.458333 -0.375000 -0.437500      1.000000
 -0.458333 -0.375000 -0.437500      1.000000
 -0.375000 -0.375000 -0.437500      1.000000
 -0.291667 -0.375000 -0.437500      1.000000
 -0.208333 -0.375000 -0.437500      1.000000
 -0.125000 -0.375000 -0.437500      1.000000
 -0.041667 -0.375000 -0.437500      1.000000
  0.041667 -0.291667 -0.437500      1.000000
  0.125000 -0.291667 -0.437500      1.000000
  0.208333 -0.291667 -0.437500      1.000000
  0.291667 -0.291667 -0.437500      1.000000
  0.375000 -0.291667 -0.437500      1.000000
  0.458333 -0.291667 -0.437500      1.000000
 -0.458333 -0.291667 -0.437500      1.000000
 -0.375000 -0.291667 -0.437500      1.000000
 -0.291667 -0.291667 -0.437500      1.000000
 -0.208333 -0.291667 -0.437500      1.000000
 -0.125000 -0.291667 -0.437500      1.000000
 -0.041667 -0.291667 -0.437500      1.000000
  0.041667 -0.208333 -0.437500      1.000000
  0.125000 -0.208333 -0.437500      1.000000
  0.208333 -0.208333 -0.437500      1.000000
  0.291667 -0.208333 -0.437500      1.000000
  0.375000 -0.208333 -0.437500      1.000000
  0.458333 -0.208333 -0.437500      1.000000
 -0.458333 -0.208333 -0.437500      1.000000
 -0.375000 -0.208333 -0.437500      1.000000
 -0.291667 -0.208333 -0.437500      1.000000
 -0.208333 -0.208333 -0.437500      1.000000
 -0.125000 -0.208333 -0.437500      1.000000
 -0.041667 -0.208333 -0.437500      1.000000
  0.041667 -0.125000 -0.437500      1.000000
  0.125000 -0.125000 -0.437500      1.000000
  0.208333 -0.125000 -0.437500      1.000000
  0.291667 -0.125000 -0.437500      1.000000
  0.375000 -0.125000 -0.437500      1.000000
  0.458333 -0.125000 -0.437500      1.000000
 -0.458333 -0.125000 -0.437500      1.000000
 -0.375000 -0.125000 -0.437500      1.000000
 -0.291667 -0.125000 -0.437500      1.000000
 -0.208333 -0.125000 -0.437500      1.000000
 -0.125000 -0.125000 -0.437500      1.000000
 -0.041667 -0.125000 -0.437500      1.000000
  0.041667 -0.041667 -0.437500      1.000000
  0.125000 -0.041667 -0.437500      1.000000
  0.208333 -0.041667 -0.437500      1.000000
  0.291667 -0.041667 -0.437500      1.000000
  0.375000 -0.041667 -0.437500      1.000000
  0.458333 -0.041667 -0.437500      1.000000
 -0.458333 -0.041667 -0.437500      1.000000
 -0.375000 -0.041667 -0.437500      1.000000
 -0.291667 -0.041667 -0.437500      1.000000
 -0.208333 -0.041667 -0.437500      1.000000
 -0.125000 -0.041667 -0.437500      1.000000
 -0.041667 -0.041667 -0.437500      1.000000
  0.041667  0.041667 -0.312500      1.000000
  0.125000  0.041667 -0.312500      1.000000
  0.208333  0.041667 -0.312500      1.000000
  0.291667  0.041667 -0.312500      1.000000
  0.375000  0.041667 -0.312500      1.000000
  0.458333  0.041667 -0.312500      1.000000
 -0.458333  0.041667 -0.312500      1.000000
 -0.375000  0.041667 -0.312500      1.000000
 -0.291667  0.041667 -0.312500      1.000000
 -0.208333  0.041667 -0.312500      1.000000
 -0.125000  0.041667 -0.312500      1.000000
 -0.041667  0.041667 -0.312500      1.000000
  0.041667  0.125000 -0.312500      1.000000
  0.125000  0.125000 -0.312500      1.000000
  0.208333  0.125000 -0.312500      1.000000
  0.291667  0.125000 -0.312500      1.000000
  0.375000  0.125000 -0.312500      1.000000
  0.458333  0.125000 -0.312500      1.000000
 -0.458333  0.125000 -0.312500      1.000000
 -0.375000  0.125000 -0.312500      1.000000
 -0.291667  0.125000 -0.312500      1.000000
 -0.208333  0.125000 -0.312500      1.000000
 -0.125000  0.125000 -0.312500      1.000000
 -0.041667  0.125000 -0.312500      1.000000
  0.041667  0.208333 -0.312500      1.000000
  0.125000  0.208333 -0.312500      1.000000
  0.208333  0.208333 -0.312500      1.000000
  0.291667  0.208333 -0.312500      1.000000
  0.375000  0.208333 -0.312500      1.000000
  0.458333  0.208333 -0.312500      1.000000
 -0.458333  0.208333 -0.312500      1.000000
 -0.375000  0.208333 -0.312500      1.000000
 -0.291667  0.208333 -0.312500      1.000000
 -0.208333  0.208333 -0.312500      1.000000
 -0.125000  0.208333 -0.312500      1.000000
 -0.041667  0.208333 -0.312500      1.000000
  0.041667  0.291667 -0.312500      1.000000
  0.125000  0.291667 -0.312500      1.000000
  0.208333  0.291667 -0.312500      1.000000
  0.291667  0.291667 -0.312500      1.000000
  0.375000  0.291667 -0.312500      1.000000
  0.458333  0.291667 -0.312500      1.000000
 -0.458333  0.291667 -0.312500      1.000000
 -0.375000  0.291667 -0.312500      1.000000
 -0.291667  0.291667 -0.312500      1.000000
 -0.208333  0.291667 -0.312500      1.000000
 -0.125000  0.291667 -0.312500      1.000000
 -0.041667  0.291667 -0.312500      1.000000
  0.041667  0.375000 -0.312500      1.000000
  0.125000  0.375000 -0.312500      1.000000
  0.208333  0.375000 -0.312500      1.000000
  0.291667  0.375000 -0.312500      1.000000
  0.375000  0.375000 -0.312500      1.000000
  0.458333  0.375000 -0.312500      1.000000
 -0.458333  0.375000 -0.312500      1.000000
 -0.375000  0.375000 -0.312500      1.000000
 -0.291667  0.375000 -0.312500      1.000000
 -0.208333  0.375000 -0.312500      1.000000
 -0.125000  0.375000 -0.312500      1.000000
 -0.041667  0.375000 -0.312500      1.000000
  0.041667  0.458333 -0.312500      1.000000
  0.125000  0.458333 -0.312500      1.000000
  0.208333  0.458333 -0.312500      1.000000
  0.291667  0.458333 -0.312500      1.000000
  0.375000  0.458333 -0.312500      1.000000
  0.458333  0.458333 -0.312500      1.000000
 -0.458333  0.458333 -0.312500      1.000000
 -0.375000  0.458333 -0.312500      1.000000
 -0.291667  0.458333 -0.312500      1.000000
 -0.208333  0.458333 -0.312500      1.000000
 -0.125000  0.458333 -0.312500      1.000000
 -0.041667  0.458333 -0.312500      1.000000
  0.041667 -0.458333 -0.312500      1.000000
  0.125000 -0.458333 -0.312500      1.000000
  0.208333 -0.458333 -0.312500      1.000000
  0.291667 -0.458333 -0.312500      1.000000
  0.375000 -0.458333 -0.312500      1.000000
  0.458333 -0.458333 -0.312500      1.000000
 -0.458333 -0.458333 -0.312500      1.000000
 -0.375000 -0.458333 -0.312500      1.000000
 -0.291667 -0.458333 -0.312500      1.000000
 -0.208333 -0.458333 -0.312500      1.000000
 -0.125000 -0.458333 -0.312500      1.000000
 -0.041667 -0.458333 -0.312500      1.000000
  0.041667 -0.375000 -0.312500      1.000000
  0.125000 -0.375000 -0.312500      1.000000
  0.208333 -0.375000 -0.312500      1.000000
  0.291667 -0.375000 -0.312500      1.000000
  0.375000 -0.375000 -0.312500      1.000000
  0.458333 -0.375000 -0.312500      1.000000
 -0.458333 -0.375000 -0.312500      1.000000
 -0.375000 -0.375000 -0.312500      1.000000
 -0.291667 -0.375000 -0.312500      1.000000
 -0.208333 -0.375000 -0.312500      1.000000
 -0.125000 -0.375000 -0.312500      1.000000
 -0.041667 -0.375000 -0.312500      1.000000
  0.041667 -0.291667 -0.312500      1.000000
  0.125000 -0.291667 -0.312500      1.000000
  0.208333 -0.291667 -0.312500      1.000000
  0.291667 -0.291667 -0.312500      1.000000
  0.375000 -0.291667 -0.312500      1.000000
  0.458333 -0.291667 -0.312500      1.000000
 -0.458333 -0.291667 -0.312500      1.000000
 -0.375000 -0.291667 -0.312500      1.000000
 -0.291667 -0.291667 -0.312500      1.000000
 -0.208333 -0.291667 -0.312500      1.000000
 -0.125000 -0.291667 -0.312500      1.000000
 -0.041667 -0.291667 -0.312500      1.000000
  0.041667 -0.208333 -0.312500      1.000000
  0.125000 -0.208333 -0.312500      1.000000
  0.208333 -0.208333 -0.312500      1.000000
  0.291667 -0.208333 -0.312500      1.000000
  0.375000 -0.208333 -0.312500      1.000000
  0.458333 -0.208333 -0.312500      1.000000
 -0.458333 -0.208333 -0.312500      1.000000
 -0.375000 -0.208333 -0.312500      1.000000
 -0.291667 -0.208333 -0.312500      1.000000
 -0.208333 -0.208333 -0.312500      1.000000
 -0.125000 -0.208333 -0.312500      1.000000
 -0.041667 -0.208333 -0.312500      1.000000
  0.041667 -0.125000 -0.312500      1.000000
  0.125000 -0.125000 -0.312500      1.000000
  0.208333 -0.125000 -0.312500      1.000000
  0.291667 -0.125000 -0.312500      1.000000
  0.375000 -0.125000 -0.312500      1.000000
  0.458333 -0.125000 -0.312500      1.000000
 -0.458333 -0.125000 -0.312500      1.000000
 -0.375000 -0.125000 -0.312500      1.000000
 -0.291667 -0.125000 -0.312500      1.000000
 -0.208333 -0.125000 -0.312500      1.000000
 -0.125000 -0.125000 -0.312500      1.000000
 -0.041667 -0.125000 -0.312500      1.000000
  0.041667 -0.041667 -0.312500      1.000000
  0.125000 -0.041667 -0.312500      1.000000
  0.208333 -0.041667 -0.312500      1.000000
  0.291667 -0.041667 -0.312500      1.000000
  0.375000 -0.041667 -0.312500      1.000000
  0.458333 -0.041667 -0.312500      1.000000
 -0.458333 -0.041667 -0.312500      1.000000
 -0.375000 -0.041667 -0.312500      1.000000
 -0.291667 -0.041667 -0.312500      1.000000
 -0.208333 -0.041667 -0.312500      1.000000
 -0.125000 -0.041667 -0.312500      1.000000
 -0.041667 -0.041667 -0.312500      1.000000
  0.041667  0.041667 -0.187500      1.000000
  0.125000  0.041667 -0.187500      1.000000
  0.208333  0.041667 -0.187500      1.000000
  0.291667  0.041667 -0.187500      1.000000
  0.375000  0.041667 -0.187500      1.000000
  0.458333  0.041667 -0.187500      1.000000
 -0.458333  0.041667 -0.187500      1.000000
 -0.375000  0.041667 -0.187500      1.000000
 -0.291667  0.041667 -0.187500      1.000000
 -0.208333  0.041667 -0.187500      1.000000
 -0.125000  0.041667 -0.187500      1.000000
 -0.041667  0.041667 -0.187500      1.000000
  0.041667  0.125000 -0.187500      1.000000
  0.125000  0.125000 -0.187500      1.000000
  0.208333  0.125000 -0.187500      1.000000
  0.291667  0.125000 -0.187500      1.000000
  0.375000  0.125000 -0.187500      1.000000
  0.458333  0.125000 -0.187500      1.000000
 -0.458333  0.125000 -0.187500      1.000000
 -0.375000  0.125000 -0.187500      1.000000
 -0.291667  0.125000 -0.187500      1.000000
 -0.208333  0.125000 -0.187500      1.000000
 -0.125000  0.125000 -0.187500      1.000000
 -0.041667  0.125000 -0.187500      1.000000
  0.041667  0.208333 -0.187500      1.000000
  0.125000  0.208333 -0.187500      1.000000
  0.208333  0.208333 -0.187500      1.000000
  0.291667  0.208333 -0.187500      1.000000
  0.375000  0.208333 -0.187500      1.000000
  0.458333  0.208333 -0.187500      1.000000
 -0.458333  0.208333 -0.187500      1.000000
 -0.375000  0.208333 -0.187500      1.000000
 -0.291667  0.208333 -0.187500      1.000000
 -0.208333  0.208333 -0.187500      1.000000
 -0.125000  0.208333 -0.187500      1.000000
 -0.041667  0.208333 -0.187500      1.000000
  0.041667  0.291667 -0.187500      1.000000
  0.125000  0.291667 -0.187500      1.000000
  0.208333  0.291667 -0.187500      1.000000
  0.291667  0.291667 -0.187500      1.000000
  0.375000  0.291667 -0.187500      1.000000
  0.458333  0.291667 -0.187500      1.000000
 -0.458333  0.291667 -0.187500      1.000000
 -0.375000  0.291667 -0.187500      1.000000
 -0.291667  0.291667 -0.187500      1.000000
 -0.208333  0.291667 -0.187500      1.000000
 -0.125000  0.291667 -0.187500      1.000000
 -0.041667  0.291667 -0.187500      1.000000
  0.041667  0.375000 -0.187500      1.000000
  0.125000  0.375000 -0.187500      1.000000
  0.208333  0.375000 -0.187500      1.000000
  0.291667  0.375000 -0.187500      1.000000
  0.375000  0.375000 -0.187500      1.000000
  0.458333  0.375000 -0.187500      1.000000
 -0.458333  0.375000 -0.187500      1.000000
 -0.375000  0.375000 -0.187500      1.000000
 -0.291667  0.375000 -0.187500      1.000000
 -0.208333  0.375000 -0.187500      1.000000
 -0.125000  0.375000 -0.187500      1.000000
 -0.041667  0.375000 -0.187500      1.000000
  0.041667  0.458333 -0.187500      1.000000
  0.125000  0.458333 -0.187500      1.000000
  0.208333  0.458333 -0.187500      1.000000
  0.291667  0.458333 -0.187500      1.000000
  0.375000  0.458333 -0.187500      1.000000
  0.458333  0.458333 -0.187500      1.000000
 -0.458333  0.458333 -0.187500      1.000000
 -0.375000  0.458333 -0.187500      1.000000
 -0.291667  0.458333 -0.187500      1.000000
 -0.208333  0.458333 -0.187500      1.000000
 -0.125000  0.458333 -0.187500      1.000000
 -0.041667  0.458333 -0.187500      1.000000
  0.041667 -0.458333 -0.187500      1.000000
  0.125000 -0.458333 -0.187500      1.000000
  0.208333 -0.458333 -0.187500      1.000000
  0.291667 -0.458333 -0.187500      1.000000
  0.375000 -0.458333 -0.187500      1.000000
  0.458333 -0.458333 -0.187500      1.000000
 -0.458333 -0.458333 -0.187500      1.000000
 -0.375000 -0.458333 -0.187500      1.000000
 -0.291667 -0.458333 -0.187500      1.000000
 -0.208333 -0.458333 -0.187500      1.000000
 -0.125000 -0.458333 -0.187500      1.000000
 -0.041667 -0.458333 -0.187500      1.000000
  0.041667 -0.375000 -0.187500      1.000000
  0.125000 -0.375000 -0.187500      1.000000
  0.208333 -0.375000 -0.187500      1.000000
  0.291667 -0.375000 -0.187500      1.000000
  0.375000 -0.375000 -0.187500      1.000000
  0.458333 -0.375000 -0.187500      1.000000
 -0.458333 -0.375000 -0.187500      1.000000
 -0.375000 -0.375000 -0.187500      1.000000
 -0.291667 -0.375000 -0.187500      1.000000
 -0.208333 -0.375000 -0.187500      1.000000
 -0.125000 -0.375000 -0.187500      1.000000
 -0.041667 -0.375000 -0.187500      1.000000
  0.041667 -0.291667 -0.187500      1.000000
  0.125000 -0.291667 -0.187500      1.000000
  0.208333 -0.291667 -0.187500      1.000000
  0.291667 -0.291667 -0.187500      1.000000
  0.375000 -0.291667 -0.187500      1.000000
  0.458333 -0.291667 -0.187500      1.000000
 -0.458333 -0.291667 -0.187500      1.000000
 -0.375000 -0.291667 -0.187500      1.000000
 -0.291667 -0.291667 -0.187500      1.000000
 -0.208333 -0.291667 -0.187500      1.000000
 -0.125000 -0.291667 -0.187500      1.000000
 -0.041667 -0.291667 -0.187500      1.000000
  0.041667 -0.208333 -0.187500      1.000000
  0.125000 -0.208333 -0.187500      1.000000
  0.208333 -0.208333 -0.187500      1.000000
  0.291667 -0.208333 -0.187500      1.000000
  0.375000 -0.208333 -0.187500      1.000000
  0.458333 -0.208333 -0.187500      1.000000
 -0.458333 -0.208333 -0.187500      1.000000
 -0.375000 -0.208333 -0.187500      1.000000
 -0.291667 -0.208333 -0.187500      1.000000
 -0.208333 -0.208333 -0.187500      1.000000
 -0.125000 -0.208333 -0.187500      1.000000
 -0.041667 -0.208333 -0.187500      1.000000
  0.041667 -0.125000 -0.187500      1.000000
  0.125000 -0.125000 -0.187500      1.000000
  0.208333 -0.125000 -0.187500      1.000000
  0.291667 -0.125000 -0.187500      1.000000
  0.375000 -0.125000 -0.187500      1.000000
  0.458333 -0.125000 -0.187500      1.000000
 -0.458333 -0.125000 -0.187500      1.000000
 -0.375000 -0.125000 -0.187500      1.000000
 -0.291667 -0.125000 -0.187500      1.000000
 -0.208333 -0.125000 -0.187500      1.000000
 -0.125000 -0.125000 -0.187500      1.000000
 -0.041667 -0.125000 -0.187500      1.000000
  0.041667 -0.041667 -0.187500      1.000000
  0.125000 -0.041667 -0.187500      1.000000
  0.208333 -0.041667 -0.187500      1.000000
  0.291667 -0.041667 -0.187500      1.000000
  0.375000 -0.041667 -0.187500      1.000000
  0.458333 -0.041667 -0.187500      1.000000
 -0.458333 -0.041667 -0.187500      1.000000
 -0.375000 -0.041667 -0.187500      1.000000
 -0.291667 -0.041667 -0.187500      1.000000
 -0.208333 -0.041667 -0.187500      1.000000
 -0.125000 -0.041667 -0.187500      1.000000
 -0.041667 -0.041667 -0.187500      1.000000
  0.041667  0.041667 -0.062500      1.000000
  0.125000  0.041667 -0.062500      1.000000
  0.208333  0.041667 -0.062500      1.000000
  0.291667  0.041667 -0.062500      1.000000
  0.375000  0.041667 -0.062500      1.000000
  0.458333  0.041667 -0.062500      1.000000
 -0.458333  0.041667 -0.062500      1.000000
 -0.375000  0.041667 -0.062500      1.000000
 -0.291667  0.041667 -0.062500      1.000000
 -0.208333  0.041667 -0.062500      1.000000
 -0.125000  0.041667 -0.062500      1.000000
 -0.041667  0.041667 -0.062500      1.000000
  0.041667  0.125000 -0.062500      1.000000
  0.125000  0.125000 -0.062500      1.000000
  0.208333  0.125000 -0.062500      1.000000
  0.291667  0.125000 -0.062500      1.000000
  0.375000  0.125000 -0.062500      1.000000
  0.458333  0.125000 -0.062500      1.000000
 -0.458333  0.125000 -0.062500      1.000000
 -0.375000  0.125000 -0.062500      1.000000
 -0.291667  0.125000 -0.062500      1.000000
 -0.208333  0.125000 -0.062500      1.000000
 -0.125000  0.125000 -0.062500      1.000000
 -0.041667  0.125000 -0.062500      1.000000
  0.041667  0.208333 -0.062500      1.000000
  0.125000  0.208333 -0.062500      1.000000
  0.208333  0.208333 -0.062500      1.000000
  0.291667  0.208333 -0.062500      1.000000
  0.375000  0.208333 -0.062500      1.000000
  0.458333  0.208333 -0.062500      1.000000
 -0.458333  0.208333 -0.062500      1.000000
 -0.375000  0.208333 -0.062500      1.000000
 -0.291667  0.208333 -0.062500      1.000000
 -0.208333  0.208333 -0.062500      1.000000
 -0.125000  0.208333 -0.062500      1.000000
 -0.041667  0.208333 -0.062500      1.000000
  0.041667  0.291667 -0.062500      1.000000
  0.125000  0.291667 -0.062500      1.000000
  0.208333  0.291667 -0.062500      1.000000
  0.291667  0.291667 -0.062500      1.000000
  0.375000  0.291667 -0.062500      1.000000
  0.458333  0.291667 -0.062500      1.000000
 -0.458333  0.291667 -0.062500      1.000000
 -0.375000  0.291667 -0.062500      1.000000
 -0.291667  0.291667 -0.062500      1.000000
 -0.208333  0.291667 -0.062500      1.000000
 -0.125000  0.291667 -0.062500      1.000000
 -0.041667  0.291667 -0.062500      1.000000
  0.041667  0.375000 -0.062500      1.000000
  0.125000  0.375000 -0.062500      1.000000
  0.208333  0.375000 -0.062500      1.000000
  0.291667  0.375000 -0.062500      1.000000
  0.375000  0.375000 -0.062500      1.000000
  0.458333  0.375000 -0.062500      1.000000
 -0.458333  0.375000 -0.062500      1.000000
 -0.375000  0.375000 -0.062500      1.000000
 -0.291667  0.375000 -0.062500      1.000000
 -0.208333  0.375000 -0.062500      1.000000
 -0.125000  0.375000 -0.062500      1.000000
 -0.041667  0.375000 -0.062500      1.000000
  0.041667  0.458333 -0.062500      1.000000
  0.125000  0.458333 -0.062500      1.000000
  0.208333  0.458333 -0.062500      1.000000
  0.291667  0.458333 -0.062500      1.000000
  0.375000  0.458333 -0.062500      1.000000
  0.458333  0.458333 -0.062500      1.000000
 -0.458333  0.458333 -0.062500      1.000000
 -0.375000  0.458333 -0.062500      1.000000
 -0.291667  0.458333 -0.062500      1.000000
 -0.208333  0.458333 -0.062500      1.000000
 -0.125000  0.458333 -0.062500      1.000000
 -0.041667  0.458333 -0.062500      1.000000
  0.041667 -0.458333 -0.062500      1.000000
  0.125000 -0.458333 -0.062500      1.000000
  0.208333 -0.458333 -0.062500      1.000000
  0.291667 -0.458333 -0.062500      1.000000
  0.375000 -0.458333 -0.062500      1.000000
  0.458333 -0.458333 -0.062500      1.000000
 -0.458333 -0.458333 -0.062500      1.000000
 -0.375000 -0.458333 -0.062500      1.000000
 -0.291667 -0.458333 -0.062500      1.000000
 -0.208333 -0.458333 -0.062500      1.000000
 -0.125000 -0.458333 -0.062500      1.000000
 -0.041667 -0.458333 -0.062500      1.000000
  0.041667 -0.375000 -0.062500      1.000000
  0.125000 -0.375000 -0.062500      1.000000
  0.208333 -0.375000 -0.062500      1.000000
  0.291667 -0.375000 -0.062500      1.000000
  0.375000 -0.375000 -0.062500      1.000000
  0.458333 -0.375000 -0.062500      1.000000
 -0.458333 -0.375000 -0.062500      1.000000
 -0.375000 -0.375000 -0.062500      1.000000
 -0.291667 -0.375000 -0.062500      1.000000
 -0.208333 -0.375000 -0.062500      1.000000
 -0.125000 -0.375000 -0.062500      1.000000
 -0.041667 -0.375000 -0.062500      1.000000
  0.041667 -0.291667 -0.062500      1.000000
  0.125000 -0.291667 -0.062500      1.000000
  0.208333 -0.291667 -0.062500      1.000000
  0.291667 -0.291667 -0.062500      1.000000
  0.375000 -0.291667 -0.062500      1.000000
  0.458333 -0.291667 -0.062500      1.000000
 -0.458333 -0.291667 -0.062500      1.000000
 -0.375000 -0.291667 -0.062500      1.000000
 -0.291667 -0.291667 -0.062500      1.000000
 -0.208333 -0.291667 -0.062500      1.000000
 -0.125000 -0.291667 -0.062500      1.000000
 -0.041667 -0.291667 -0.062500      1.000000
  0.041667 -0.208333 -0.062500      1.000000
  0.125000 -0.208333 -0.062500      1.000000
  0.208333 -0.208333 -0.062500      1.000000
  0.291667 -0.208333 -0.062500      1.000000
  0.375000 -0.208333 -0.062500      1.000000
  0.458333 -0.208333 -0.062500      1.000000
 -0.458333 -0.208333 -0.062500      1.000000
 -0.375000 -0.208333 -0.062500      1.000000
 -0.291667 -0.208333 -0.062500      1.000000
 -0.208333 -0.208333 -0.062500      1.000000
 -0.125000 -0.208333 -0.062500      1.000000
 -0.041667 -0.208333 -0.062500      1.000000
  0.041667 -0.125000 -0.062500      1.000000
  0.125000 -0.125000 -0.062500      1.000000
  0.208333 -0.125000 -0.062500      1.000000
  0.291667 -0.125000 -0.062500      1.000000
  0.375000 -0.125000 -0.062500      1.000000
  0.458333 -0.125000 -0.062500      1.000000
 -0.458333 -0.125000 -0.062500      1.000000
 -0.375000 -0.125000 -0.062500      1.000000
 -0.291667 -0.125000 -0.062500      1.000000
 -0.208333 -0.125000 -0.062500      1.000000
 -0.125000 -0.125000 -0.062500      1.000000
 -0.041667 -0.125000 -0.062500      1.000000
  0.041667 -0.041667 -0.062500      1.000000
  0.125000 -0.041667 -0.062500      1.000000
  0.208333 -0.041667 -0.062500      1.000000
  0.291667 -0.041667 -0.062500      1.000000
  0.375000 -0.041667 -0.062500      1.000000
  0.458333 -0.041667 -0.062500      1.000000
 -0.458333 -0.041667 -0.062500      1.000000
 -0.375000 -0.041667 -0.062500      1.000000
 -0.291667 -0.041667 -0.062500      1.000000
 -0.208333 -0.041667 -0.062500      1.000000
 -0.125000 -0.041667 -0.062500      1.000000
 -0.041667 -0.041667 -0.062500      1.000000
 
 Following cartesian coordinates:
            Coordinates               Weight
  0.000000  0.017816  0.012995      1.000000
  0.033923  0.038348  0.008356      1.000000
  0.067845  0.058880  0.003716      1.000000
  0.101768  0.079412 -0.000923      1.000000
  0.135691  0.099944 -0.005563      1.000000
  0.169614  0.120476 -0.010202      1.000000
 -0.203536 -0.105377  0.040832      1.000000
 -0.169614 -0.084845  0.036193      1.000000
 -0.135691 -0.064313  0.031553      1.000000
 -0.101768 -0.043781  0.026914      1.000000
 -0.067845 -0.023248  0.022274      1.000000
 -0.033923 -0.002716  0.017635      1.000000
 -0.033923  0.038348  0.008356      1.000000
  0.000000  0.058880  0.003716      1.000000
  0.033923  0.079412 -0.000923      1.000000
  0.067845  0.099944 -0.005563      1.000000
  0.101768  0.120476 -0.010202      1.000000
  0.135691  0.141008 -0.014842      1.000000
 -0.237459 -0.084845  0.036193      1.000000
 -0.203536 -0.064313  0.031553      1.000000
 -0.169614 -0.043781  0.026914      1.000000
 -0.135691 -0.023248  0.022274      1.000000
 -0.101768 -0.002716  0.017635      1.000000
 -0.067845  0.017816  0.012995      1.000000
 -0.067845  0.058880  0.003716      1.000000
 -0.033923  0.079412 -0.000923      1.000000
  0.000000  0.099944 -0.005563      1.000000
  0.033923  0.120476 -0.010202      1.000000
  0.067845  0.141008 -0.014842      1.000000
  0.101768  0.161540 -0.019482      1.000000
 -0.271382 -0.064313  0.031553      1.000000
 -0.237459 -0.043781  0.026914      1.000000
 -0.203536 -0.023248  0.022274      1.000000
 -0.169614 -0.002716  0.017635      1.000000
 -0.135691  0.017816  0.012995      1.000000
 -0.101768  0.038348  0.008356      1.000000
 -0.101768  0.079412 -0.000923      1.000000
 -0.067845  0.099944 -0.005563      1.000000
 -0.033923  0.120476 -0.010202      1.000000
  0.000000  0.141008 -0.014842      1.000000
  0.033923  0.161540 -0.019482      1.000000
  0.067845  0.182073 -0.024121      1.000000
 -0.305304 -0.043781  0.026914      1.000000
 -0.271382 -0.023248  0.022274      1.000000
 -0.237459 -0.002716  0.017635      1.000000
 -0.203536  0.017816  0.012995      1.000000
 -0.169614  0.038348  0.008356      1.000000
 -0.135691  0.058880  0.003716      1.000000
 -0.135691  0.099944 -0.005563      1.000000
 -0.101768  0.120476 -0.010202      1.000000
 -0.067845  0.141008 -0.014842      1.000000
 -0.033923  0.161540 -0.019482      1.000000
  0.000000  0.182073 -0.024121      1.000000
  0.033923  0.202605 -0.028761      1.000000
 -0.339227 -0.023248  0.022274      1.000000
 -0.305304 -0.002716  0.017635      1.000000
 -0.271382  0.017816  0.012995      1.000000
 -0.237459  0.038348  0.008356      1.000000
 -0.203536  0.058880  0.003716      1.000000
 -0.169614  0.079412 -0.000923      1.000000
 -0.169614  0.120476 -0.010202      1.000000
 -0.135691  0.141008 -0.014842      1.000000
 -0.101768  0.161540 -0.019482      1.000000
 -0.067845  0.182073 -0.024121      1.000000
 -0.033923  0.202605 -0.028761      1.000000
  0.000000  0.223137 -0.033400      1.000000
 -0.373150 -0.002716  0.017635      1.000000
 -0.339227  0.017816  0.012995      1.000000
 -0.305304  0.038348  0.008356      1.000000
 -0.271382  0.058880  0.003716      1.000000
 -0.237459  0.079412 -0.000923      1.000000
 -0.203536  0.099944 -0.005563      1.000000
  0.203536 -0.105377  0.040832      1.000000
  0.237459 -0.084845  0.036193      1.000000
  0.271382 -0.064313  0.031553      1.000000
  0.305304 -0.043781  0.026914      1.000000
  0.339227 -0.023248  0.022274      1.000000
  0.373150 -0.002716  0.017635      1.000000
  0.000000 -0.228569  0.068670      1.000000
  0.033923 -0.208037  0.064030      1.000000
  0.067845 -0.187505  0.059391      1.000000
  0.101768 -0.166973  0.054751      1.000000
  0.135691 -0.146441  0.050111      1.000000
  0.169614 -0.125909  0.045472      1.000000
  0.169614 -0.084845  0.036193      1.000000
  0.203536 -0.064313  0.031553      1.000000
  0.237459 -0.043781  0.026914      1.000000
  0.271382 -0.023248  0.022274      1.000000
  0.305304 -0.002716  0.017635      1.000000
  0.339227  0.017816  0.012995      1.000000
 -0.033923 -0.208037  0.064030      1.000000
  0.000000 -0.187505  0.059391      1.000000
  0.033923 -0.166973  0.054751      1.000000
  0.067845 -0.146441  0.050111      1.000000
  0.101768 -0.125909  0.045472      1.000000
  0.135691 -0.105377  0.040832      1.000000
  0.135691 -0.064313  0.031553      1.000000
  0.169614 -0.043781  0.026914      1.000000
  0.203536 -0.023248  0.022274      1.000000
  0.237459 -0.002716  0.017635      1.000000
  0.271382  0.017816  0.012995      1.000000
  0.305304  0.038348  0.008356      1.000000
 -0.067845 -0.187505  0.059391      1.000000
 -0.033923 -0.166973  0.054751      1.000000
  0.000000 -0.146441  0.050111      1.000000
  0.033923 -0.125909  0.045472      1.000000
  0.067845 -0.105377  0.040832      1.000000
  0.101768 -0.084845  0.036193      1.000000
  0.101768 -0.043781  0.026914      1.000000
  0.135691 -0.023248  0.022274      1.000000
  0.169614 -0.002716  0.017635      1.000000
  0.203536  0.017816  0.012995      1.000000
  0.237459  0.038348  0.008356      1.000000
  0.271382  0.058880  0.003716      1.000000
 -0.101768 -0.166973  0.054751      1.000000
 -0.067845 -0.146441  0.050111      1.000000
 -0.033923 -0.125909  0.045472      1.000000
  0.000000 -0.105377  0.040832      1.000000
  0.033923 -0.084845  0.036193      1.000000
  0.067845 -0.064313  0.031553      1.000000
  0.067845 -0.023248  0.022274      1.000000
  0.101768 -0.002716  0.017635      1.000000
  0.135691  0.017816  0.012995      1.000000
  0.169614  0.038348  0.008356      1.000000
  0.203536  0.058880  0.003716      1.000000
  0.237459  0.079412 -0.000923      1.000000
 -0.135691 -0.146441  0.050111      1.000000
 -0.101768 -0.125909  0.045472      1.000000
 -0.067845 -0.105377  0.040832      1.000000
 -0.033923 -0.084845  0.036193      1.000000
  0.000000 -0.064313  0.031553      1.000000
  0.033923 -0.043781  0.026914      1.000000
  0.033923 -0.002716  0.017635      1.000000
  0.067845  0.017816  0.012995      1.000000
  0.101768  0.038348  0.008356      1.000000
  0.135691  0.058880  0.003716      1.000000
  0.169614  0.079412 -0.000923      1.000000
  0.203536  0.099944 -0.005563      1.000000
 -0.169614 -0.125909  0.045472      1.000000
 -0.135691 -0.105377  0.040832      1.000000
 -0.101768 -0.084845  0.036193      1.000000
 -0.067845 -0.064313  0.031553      1.000000
 -0.033923 -0.043781  0.026914      1.000000
  0.000000 -0.023248  0.022274      1.000000
  0.000000  0.012383  0.048265      1.000000
  0.033923  0.032915  0.043625      1.000000
  0.067845  0.053447  0.038986      1.000000
  0.101768  0.073979  0.034346      1.000000
  0.135691  0.094511  0.029707      1.000000
  0.169614  0.115044  0.025067      1.000000
 -0.203536 -0.110809  0.076102      1.000000
 -0.169614 -0.090277  0.071462      1.000000
 -0.135691 -0.069745  0.066823      1.000000
 -0.101768 -0.049213  0.062183      1.000000
 -0.067845 -0.028681  0.057544      1.000000
 -0.033923 -0.008149  0.052904      1.000000
 -0.033923  0.032915  0.043625      1.000000
  0.000000  0.053447  0.038986      1.000000
  0.033923  0.073979  0.034346      1.000000
  0.067845  0.094511  0.029707      1.000000
  0.101768  0.115044  0.025067      1.000000
  0.135691  0.135576  0.020427      1.000000
 -0.237459 -0.090277  0.071462      1.000000
 -0.203536 -0.069745  0.066823      1.000000
 -0.169614 -0.049213  0.062183      1.000000
 -0.135691 -0.028681  0.057544      1.000000
 -0.101768 -0.008149  0.052904      1.000000
 -0.067845  0.012383  0.048265      1.000000
 -0.067845  0.053447  0.038986      1.000000
 -0.033923  0.073979  0.034346      1.000000
  0.000000  0.094511  0.029707      1.000000
  0.033923  0.115044  0.025067      1.000000
  0.067845  0.135576  0.020427      1.000000
  0.101768  0.156108  0.015788      1.000000
 -0.271382 -0.069745  0.066823      1.000000
 -0.237459 -0.049213  0.062183      1.000000
 -0.203536 -0.028681  0.057544      1.000000
 -0.169614 -0.008149  0.052904      1.000000
 -0.135691  0.012383  0.048265      1.000000
 -0.101768  0.032915  0.043625      1.000000
 -0.101768  0.073979  0.034346      1.000000
 -0.067845  0.094511  0.029707      1.000000
 -0.033923  0.115044  0.025067      1.000000
  0.000000  0.135576  0.020427      1.000000
  0.033923  0.156108  0.015788      1.000000
  0.067845  0.176640  0.011148      1.000000
 -0.305304 -0.049213  0.062183      1.000000
 -0.271382 -0.028681  0.057544      1.000000
 -0.237459 -0.008149  0.052904      1.000000
 -0.203536  0.012383  0.048265      1.000000
 -0.169614  0.032915  0.043625      1.000000
 -0.135691  0.053447  0.038986      1.000000
 -0.135691  0.094511  0.029707      1.000000
 -0.101768  0.115044  0.025067      1.000000
 -0.067845  0.135576  0.020427      1.000000
 -0.033923  0.156108  0.015788      1.000000
  0.000000  0.176640  0.011148      1.000000
  0.033923  0.197172  0.006509      1.000000
 -0.339227 -0.028681  0.057544      1.000000
 -0.305304 -0.008149  0.052904      1.000000
 -0.271382  0.012383  0.048265      1.000000
 -0.237459  0.032915  0.043625      1.000000
 -0.203536  0.053447  0.038986      1.000000
 -0.169614  0.073979  0.034346      1.000000
 -0.169614  0.115044  0.025067      1.000000
 -0.135691  0.135576  0.020427      1.000000
 -0.101768  0.156108  0.015788      1.000000
 -0.067845  0.176640  0.011148      1.000000
 -0.033923  0.197172  0.006509      1.000000
  0.000000  0.217704  0.001869      1.000000
 -0.373150 -0.008149  0.052904      1.000000
 -0.339227  0.012383  0.048265      1.000000
 -0.305304  0.032915  0.043625      1.000000
 -0.271382  0.053447  0.038986      1.000000
 -0.237459  0.073979  0.034346      1.000000
 -0.203536  0.094511  0.029707      1.000000
  0.203536 -0.110809  0.076102      1.000000
  0.237459 -0.090277  0.071462      1.000000
  0.271382 -0.069745  0.066823      1.000000
  0.305304 -0.049213  0.062183      1.000000
  0.339227 -0.028681  0.057544      1.000000
  0.373150 -0.008149  0.052904      1.000000
  0.000000 -0.234002  0.103939      1.000000
  0.033923 -0.213470  0.099300      1.000000
  0.067845 -0.192938  0.094660      1.000000
  0.101768 -0.172406  0.090021      1.000000
  0.135691 -0.151874  0.085381      1.000000
  0.169614 -0.131342  0.080741      1.000000
  0.169614 -0.090277  0.071462      1.000000
  0.203536 -0.069745  0.066823      1.000000
  0.237459 -0.049213  0.062183      1.000000
  0.271382 -0.028681  0.057544      1.000000
  0.305304 -0.008149  0.052904      1.000000
  0.339227  0.012383  0.048265      1.000000
 -0.033923 -0.213470  0.099300      1.000000
  0.000000 -0.192938  0.094660      1.000000
  0.033923 -0.172406  0.090021      1.000000
  0.067845 -0.151874  0.085381      1.000000
  0.101768 -0.131342  0.080741      1.000000
  0.135691 -0.110809  0.076102      1.000000
  0.135691 -0.069745  0.066823      1.000000
  0.169614 -0.049213  0.062183      1.000000
  0.203536 -0.028681  0.057544      1.000000
  0.237459 -0.008149  0.052904      1.000000
  0.271382  0.012383  0.048265      1.000000
  0.305304  0.032915  0.043625      1.000000
 -0.067845 -0.192938  0.094660      1.000000
 -0.033923 -0.172406  0.090021      1.000000
  0.000000 -0.151874  0.085381      1.000000
  0.033923 -0.131342  0.080741      1.000000
  0.067845 -0.110809  0.076102      1.000000
  0.101768 -0.090277  0.071462      1.000000
  0.101768 -0.049213  0.062183      1.000000
  0.135691 -0.028681  0.057544      1.000000
  0.169614 -0.008149  0.052904      1.000000
  0.203536  0.012383  0.048265      1.000000
  0.237459  0.032915  0.043625      1.000000
  0.271382  0.053447  0.038986      1.000000
 -0.101768 -0.172406  0.090021      1.000000
 -0.067845 -0.151874  0.085381      1.000000
 -0.033923 -0.131342  0.080741      1.000000
  0.000000 -0.110809  0.076102      1.000000
  0.033923 -0.090277  0.071462      1.000000
  0.067845 -0.069745  0.066823      1.000000
  0.067845 -0.028681  0.057544      1.000000
  0.101768 -0.008149  0.052904      1.000000
  0.135691  0.012383  0.048265      1.000000
  0.169614  0.032915  0.043625      1.000000
  0.203536  0.053447  0.038986      1.000000
  0.237459  0.073979  0.034346      1.000000
 -0.135691 -0.151874  0.085381      1.000000
 -0.101768 -0.131342  0.080741      1.000000
 -0.067845 -0.110809  0.076102      1.000000
 -0.033923 -0.090277  0.071462      1.000000
  0.000000 -0.069745  0.066823      1.000000
  0.033923 -0.049213  0.062183      1.000000
  0.033923 -0.008149  0.052904      1.000000
  0.067845  0.012383  0.048265      1.000000
  0.101768  0.032915  0.043625      1.000000
  0.135691  0.053447  0.038986      1.000000
  0.169614  0.073979  0.034346      1.000000
  0.203536  0.094511  0.029707      1.000000
 -0.169614 -0.131342  0.080741      1.000000
 -0.135691 -0.110809  0.076102      1.000000
 -0.101768 -0.090277  0.071462      1.000000
 -0.067845 -0.069745  0.066823      1.000000
 -0.033923 -0.049213  0.062183      1.000000
  0.000000 -0.028681  0.057544      1.000000
  0.000000  0.006950  0.083534      1.000000
  0.033923  0.027483  0.078895      1.000000
  0.067845  0.048015  0.074255      1.000000
  0.101768  0.068547  0.069616      1.000000
  0.135691  0.089079  0.064976      1.000000
  0.169614  0.109611  0.060336      1.000000
 -0.203536 -0.116242  0.111371      1.000000
 -0.169614 -0.095710  0.106732      1.000000
 -0.135691 -0.075178  0.102092      1.000000
 -0.101768 -0.054646  0.097453      1.000000
 -0.067845 -0.034114  0.092813      1.000000
 -0.033923 -0.013582  0.088174      1.000000
 -0.033923  0.027483  0.078895      1.000000
  0.000000  0.048015  0.074255      1.000000
  0.033923  0.068547  0.069616      1.000000
  0.067845  0.089079  0.064976      1.000000
  0.101768  0.109611  0.060336      1.000000
  0.135691  0.130143  0.055697      1.000000
 -0.237459 -0.095710  0.106732      1.000000
 -0.203536 -0.075178  0.102092      1.000000
 -0.169614 -0.054646  0.097453      1.000000
 -0.135691 -0.034114  0.092813      1.000000
 -0.101768 -0.013582  0.088174      1.000000
 -0.067845  0.006950  0.083534      1.000000
 -0.067845  0.048015  0.074255      1.000000
 -0.033923  0.068547  0.069616      1.000000
  0.000000  0.089079  0.064976      1.000000
  0.033923  0.109611  0.060336      1.000000
  0.067845  0.130143  0.055697      1.000000
  0.101768  0.150675  0.051057      1.000000
 -0.271382 -0.075178  0.102092      1.000000
 -0.237459 -0.054646  0.097453      1.000000
 -0.203536 -0.034114  0.092813      1.000000
 -0.169614 -0.013582  0.088174      1.000000
 -0.135691  0.006950  0.083534      1.000000
 -0.101768  0.027483  0.078895      1.000000
 -0.101768  0.068547  0.069616      1.000000
 -0.067845  0.089079  0.064976      1.000000
 -0.033923  0.109611  0.060336      1.000000
  0.000000  0.130143  0.055697      1.000000
  0.033923  0.150675  0.051057      1.000000
  0.067845  0.171207  0.046418      1.000000
 -0.305304 -0.054646  0.097453      1.000000
 -0.271382 -0.034114  0.092813      1.000000
 -0.237459 -0.013582  0.088174      1.000000
 -0.203536  0.006950  0.083534      1.000000
 -0.169614  0.027483  0.078895      1.000000
 -0.135691  0.048015  0.074255      1.000000
 -0.135691  0.089079  0.064976      1.000000
 -0.101768  0.109611  0.060336      1.000000
 -0.067845  0.130143  0.055697      1.000000
 -0.033923  0.150675  0.051057      1.000000
  0.000000  0.171207  0.046418      1.000000
  0.033923  0.191739  0.041778      1.000000
 -0.339227 -0.034114  0.092813      1.000000
 -0.305304 -0.013582  0.088174      1.000000
 -0.271382  0.006950  0.083534      1.000000
 -0.237459  0.027483  0.078895      1.000000
 -0.203536  0.048015  0.074255      1.000000
 -0.169614  0.068547  0.069616      1.000000
 -0.169614  0.109611  0.060336      1.000000
 -0.135691  0.130143  0.055697      1.000000
 -0.101768  0.150675  0.051057      1.000000
 -0.067845  0.171207  0.046418      1.000000
 -0.033923  0.191739  0.041778      1.000000
  0.000000  0.212271  0.037139      1.000000
 -0.373150 -0.013582  0.088174      1.000000
 -0.339227  0.006950  0.083534      1.000000
 -0.305304  0.027483  0.078895      1.000000
 -0.271382  0.048015  0.074255      1.000000
 -0.237459  0.068547  0.069616      1.000000
 -0.203536  0.089079  0.064976      1.000000
  0.203536 -0.116242  0.111371      1.000000
  0.237459 -0.095710  0.106732      1.000000
  0.271382 -0.075178  0.102092      1.000000
  0.305304 -0.054646  0.097453      1.000000
  0.339227 -0.034114  0.092813      1.000000
  0.373150 -0.013582  0.088174      1.000000
  0.000000 -0.239435  0.139209      1.000000
  0.033923 -0.218903  0.134569      1.000000
  0.067845 -0.198371  0.129930      1.000000
  0.101768 -0.177838  0.125290      1.000000
  0.135691 -0.157306  0.120650      1.000000
  0.169614 -0.136774  0.116011      1.000000
  0.169614 -0.095710  0.106732      1.000000
  0.203536 -0.075178  0.102092      1.000000
  0.237459 -0.054646  0.097453      1.000000
  0.271382 -0.034114  0.092813      1.000000
  0.305304 -0.013582  0.088174      1.000000
  0.339227  0.006950  0.083534      1.000000
 -0.033923 -0.218903  0.134569      1.000000
  0.000000 -0.198371  0.129930      1.000000
  0.033923 -0.177838  0.125290      1.000000
  0.067845 -0.157306  0.120650      1.000000
  0.101768 -0.136774  0.116011      1.000000
  0.135691 -0.116242  0.111371      1.000000
  0.135691 -0.075178  0.102092      1.000000
  0.169614 -0.054646  0.097453      1.000000
  0.203536 -0.034114  0.092813      1.000000
  0.237459 -0.013582  0.088174      1.000000
  0.271382  0.006950  0.083534      1.000000
  0.305304  0.027483  0.078895      1.000000
 -0.067845 -0.198371  0.129930      1.000000
 -0.033923 -0.177838  0.125290      1.000000
  0.000000 -0.157306  0.120650      1.000000
  0.033923 -0.136774  0.116011      1.000000
  0.067845 -0.116242  0.111371      1.000000
  0.101768 -0.095710  0.106732      1.000000
  0.101768 -0.054646  0.097453      1.000000
  0.135691 -0.034114  0.092813      1.000000
  0.169614 -0.013582  0.088174      1.000000
  0.203536  0.006950  0.083534      1.000000
  0.237459  0.027483  0.078895      1.000000
  0.271382  0.048015  0.074255      1.000000
 -0.101768 -0.177838  0.125290      1.000000
 -0.067845 -0.157306  0.120650      1.000000
 -0.033923 -0.136774  0.116011      1.000000
  0.000000 -0.116242  0.111371      1.000000
  0.033923 -0.095710  0.106732      1.000000
  0.067845 -0.075178  0.102092      1.000000
  0.067845 -0.034114  0.092813      1.000000
  0.101768 -0.013582  0.088174      1.000000
  0.135691  0.006950  0.083534      1.000000
  0.169614  0.027483  0.078895      1.000000
  0.203536  0.048015  0.074255      1.000000
  0.237459  0.068547  0.069616      1.000000
 -0.135691 -0.157306  0.120650      1.000000
 -0.101768 -0.136774  0.116011      1.000000
 -0.067845 -0.116242  0.111371      1.000000
 -0.033923 -0.095710  0.106732      1.000000
  0.000000 -0.075178  0.102092      1.000000
  0.033923 -0.054646  0.097453      1.000000
  0.033923 -0.013582  0.088174      1.000000
  0.067845  0.006950  0.083534      1.000000
  0.101768  0.027483  0.078895      1.000000
  0.135691  0.048015  0.074255      1.000000
  0.169614  0.068547  0.069616      1.000000
  0.203536  0.089079  0.064976      1.000000
 -0.169614 -0.136774  0.116011      1.000000
 -0.135691 -0.116242  0.111371      1.000000
 -0.101768 -0.095710  0.106732      1.000000
 -0.067845 -0.075178  0.102092      1.000000
 -0.033923 -0.054646  0.097453      1.000000
  0.000000 -0.034114  0.092813      1.000000
  0.000000  0.001518  0.118804      1.000000
  0.033923  0.022050  0.114164      1.000000
  0.067845  0.042582  0.109525      1.000000
  0.101768  0.063114  0.104885      1.000000
  0.135691  0.083646  0.100245      1.000000
  0.169614  0.104178  0.095606      1.000000
 -0.203536 -0.121675  0.146641      1.000000
 -0.169614 -0.101143  0.142001      1.000000
 -0.135691 -0.080611  0.137362      1.000000
 -0.101768 -0.060079  0.132722      1.000000
 -0.067845 -0.039546  0.128083      1.000000
 -0.033923 -0.019014  0.123443      1.000000
 -0.033923  0.022050  0.114164      1.000000
  0.000000  0.042582  0.109525      1.000000
  0.033923  0.063114  0.104885      1.000000
  0.067845  0.083646  0.100245      1.000000
  0.101768  0.104178  0.095606      1.000000
  0.135691  0.124710  0.090966      1.000000
 -0.237459 -0.101143  0.142001      1.000000
 -0.203536 -0.080611  0.137362      1.000000
 -0.169614 -0.060079  0.132722      1.000000
 -0.135691 -0.039546  0.128083      1.000000
 -0.101768 -0.019014  0.123443      1.000000
 -0.067845  0.001518  0.118804      1.000000
 -0.067845  0.042582  0.109525      1.000000
 -0.033923  0.063114  0.104885      1.000000
  0.000000  0.083646  0.100245      1.000000
  0.033923  0.104178  0.095606      1.000000
  0.067845  0.124710  0.090966      1.000000
  0.101768  0.145242  0.086327      1.000000
 -0.271382 -0.080611  0.137362      1.000000
 -0.237459 -0.060079  0.132722      1.000000
 -0.203536 -0.039546  0.128083      1.000000
 -0.169614 -0.019014  0.123443      1.000000
 -0.135691  0.001518  0.118804      1.000000
 -0.101768  0.022050  0.114164      1.000000
 -0.101768  0.063114  0.104885      1.000000
 -0.067845  0.083646  0.100245      1.000000
 -0.033923  0.104178  0.095606      1.000000
  0.000000  0.124710  0.090966      1.000000
  0.033923  0.145242  0.086327      1.000000
  0.067845  0.165774  0.081687      1.000000
 -0.305304 -0.060079  0.132722      1.000000
 -0.271382 -0.039546  0.128083      1.000000
 -0.237459 -0.019014  0.123443      1.000000
 -0.203536  0.001518  0.118804      1.000000
 -0.169614  0.022050  0.114164      1.000000
 -0.135691  0.042582  0.109525      1.000000
 -0.135691  0.083646  0.100245      1.000000
 -0.101768  0.104178  0.095606      1.000000
 -0.067845  0.124710  0.090966      1.000000
 -0.033923  0.145242  0.086327      1.000000
  0.000000  0.165774  0.081687      1.000000
  0.033923  0.186307  0.077048      1.000000
 -0.339227 -0.039546  0.128083      1.000000
 -0.305304 -0.019014  0.123443      1.000000
 -0.271382  0.001518  0.118804      1.000000
 -0.237459  0.022050  0.114164      1.000000
 -0.203536  0.042582  0.109525      1.000000
 -0.169614  0.063114  0.104885      1.000000
 -0.169614  0.104178  0.095606      1.000000
 -0.135691  0.124710  0.090966      1.000000
 -0.101768  0.145242  0.086327      1.000000
 -0.067845  0.165774  0.081687      1.000000
 -0.033923  0.186307  0.077048      1.000000
  0.000000  0.206839  0.072408      1.000000
 -0.373150 -0.019014  0.123443      1.000000
 -0.339227  0.001518  0.118804      1.000000
 -0.305304  0.022050  0.114164      1.000000
 -0.271382  0.042582  0.109525      1.000000
 -0.237459  0.063114  0.104885      1.000000
 -0.203536  0.083646  0.100245      1.000000
  0.203536 -0.121675  0.146641      1.000000
  0.237459 -0.101143  0.142001      1.000000
  0.271382 -0.080611  0.137362      1.000000
  0.305304 -0.060079  0.132722      1.000000
  0.339227 -0.039546  0.128083      1.000000
  0.373150 -0.019014  0.123443      1.000000
  0.000000 -0.244867  0.174478      1.000000
  0.033923 -0.224335  0.169839      1.000000
  0.067845 -0.203803  0.165199      1.000000
  0.101768 -0.183271  0.160559      1.000000
  0.135691 -0.162739  0.155920      1.000000
  0.169614 -0.142207  0.151280      1.000000
  0.169614 -0.101143  0.142001      1.000000
  0.203536 -0.080611  0.137362      1.000000
  0.237459 -0.060079  0.132722      1.000000
  0.271382 -0.039546  0.128083      1.000000
  0.305304 -0.019014  0.123443      1.000000
  0.339227  0.001518  0.118804      1.000000
 -0.033923 -0.224335  0.169839      1.000000
  0.000000 -0.203803  0.165199      1.000000
  0.033923 -0.183271  0.160559      1.000000
  0.067845 -0.162739  0.155920      1.000000
  0.101768 -0.142207  0.151280      1.000000
  0.135691 -0.121675  0.146641      1.000000
  0.135691 -0.080611  0.137362      1.000000
  0.169614 -0.060079  0.132722      1.000000
  0.203536 -0.039546  0.128083      1.000000
  0.237459 -0.019014  0.123443      1.000000
  0.271382  0.001518  0.118804      1.000000
  0.305304  0.022050  0.114164      1.000000
 -0.067845 -0.203803  0.165199      1.000000
 -0.033923 -0.183271  0.160559      1.000000
  0.000000 -0.162739  0.155920      1.000000
  0.033923 -0.142207  0.151280      1.000000
  0.067845 -0.121675  0.146641      1.000000
  0.101768 -0.101143  0.142001      1.000000
  0.101768 -0.060079  0.132722      1.000000
  0.135691 -0.039546  0.128083      1.000000
  0.169614 -0.019014  0.123443      1.000000
  0.203536  0.001518  0.118804      1.000000
  0.237459  0.022050  0.114164      1.000000
  0.271382  0.042582  0.109525      1.000000
 -0.101768 -0.183271  0.160559      1.000000
 -0.067845 -0.162739  0.155920      1.000000
 -0.033923 -0.142207  0.151280      1.000000
  0.000000 -0.121675  0.146641      1.000000
  0.033923 -0.101143  0.142001      1.000000
  0.067845 -0.080611  0.137362      1.000000
  0.067845 -0.039546  0.128083      1.000000
  0.101768 -0.019014  0.123443      1.000000
  0.135691  0.001518  0.118804      1.000000
  0.169614  0.022050  0.114164      1.000000
  0.203536  0.042582  0.109525      1.000000
  0.237459  0.063114  0.104885      1.000000
 -0.135691 -0.162739  0.155920      1.000000
 -0.101768 -0.142207  0.151280      1.000000
 -0.067845 -0.121675  0.146641      1.000000
 -0.033923 -0.101143  0.142001      1.000000
  0.000000 -0.080611  0.137362      1.000000
  0.033923 -0.060079  0.132722      1.000000
  0.033923 -0.019014  0.123443      1.000000
  0.067845  0.001518  0.118804      1.000000
  0.101768  0.022050  0.114164      1.000000
  0.135691  0.042582  0.109525      1.000000
  0.169614  0.063114  0.104885      1.000000
  0.203536  0.083646  0.100245      1.000000
 -0.169614 -0.142207  0.151280      1.000000
 -0.135691 -0.121675  0.146641      1.000000
 -0.101768 -0.101143  0.142001      1.000000
 -0.067845 -0.080611  0.137362      1.000000
 -0.033923 -0.060079  0.132722      1.000000
  0.000000 -0.039546  0.128083      1.000000
  0.000000  0.039546 -0.128083      1.000000
  0.033923  0.060079 -0.132722      1.000000
  0.067845  0.080611 -0.137362      1.000000
  0.101768  0.101143 -0.142001      1.000000
  0.135691  0.121675 -0.146641      1.000000
  0.169614  0.142207 -0.151280      1.000000
 -0.203536 -0.083646 -0.100245      1.000000
 -0.169614 -0.063114 -0.104885      1.000000
 -0.135691 -0.042582 -0.109525      1.000000
 -0.101768 -0.022050 -0.114164      1.000000
 -0.067845 -0.001518 -0.118804      1.000000
 -0.033923  0.019014 -0.123443      1.000000
 -0.033923  0.060079 -0.132722      1.000000
  0.000000  0.080611 -0.137362      1.000000
  0.033923  0.101143 -0.142001      1.000000
  0.067845  0.121675 -0.146641      1.000000
  0.101768  0.142207 -0.151280      1.000000
  0.135691  0.162739 -0.155920      1.000000
 -0.237459 -0.063114 -0.104885      1.000000
 -0.203536 -0.042582 -0.109525      1.000000
 -0.169614 -0.022050 -0.114164      1.000000
 -0.135691 -0.001518 -0.118804      1.000000
 -0.101768  0.019014 -0.123443      1.000000
 -0.067845  0.039546 -0.128083      1.000000
 -0.067845  0.080611 -0.137362      1.000000
 -0.033923  0.101143 -0.142001      1.000000
  0.000000  0.121675 -0.146641      1.000000
  0.033923  0.142207 -0.151280      1.000000
  0.067845  0.162739 -0.155920      1.000000
  0.101768  0.183271 -0.160559      1.000000
 -0.271382 -0.042582 -0.109525      1.000000
 -0.237459 -0.022050 -0.114164      1.000000
 -0.203536 -0.001518 -0.118804      1.000000
 -0.169614  0.019014 -0.123443      1.000000
 -0.135691  0.039546 -0.128083      1.000000
 -0.101768  0.060079 -0.132722      1.000000
 -0.101768  0.101143 -0.142001      1.000000
 -0.067845  0.121675 -0.146641      1.000000
 -0.033923  0.142207 -0.151280      1.000000
  0.000000  0.162739 -0.155920      1.000000
  0.033923  0.183271 -0.160559      1.000000
  0.067845  0.203803 -0.165199      1.000000
 -0.305304 -0.022050 -0.114164      1.000000
 -0.271382 -0.001518 -0.118804      1.000000
 -0.237459  0.019014 -0.123443      1.000000
 -0.203536  0.039546 -0.128083      1.000000
 -0.169614  0.060079 -0.132722      1.000000
 -0.135691  0.080611 -0.137362      1.000000
 -0.135691  0.121675 -0.146641      1.000000
 -0.101768  0.142207 -0.151280      1.000000
 -0.067845  0.162739 -0.155920      1.000000
 -0.033923  0.183271 -0.160559      1.000000
  0.000000  0.203803 -0.165199      1.000000
  0.033923  0.224335 -0.169839      1.000000
 -0.339227 -0.001518 -0.118804      1.000000
 -0.305304  0.019014 -0.123443      1.000000
 -0.271382  0.039546 -0.128083      1.000000
 -0.237459  0.060079 -0.132722      1.000000
 -0.203536  0.080611 -0.137362      1.000000
 -0.169614  0.101143 -0.142001      1.000000
 -0.169614  0.142207 -0.151280      1.000000
 -0.135691  0.162739 -0.155920      1.000000
 -0.101768  0.183271 -0.160559      1.000000
 -0.067845  0.203803 -0.165199      1.000000
 -0.033923  0.224335 -0.169839      1.000000
  0.000000  0.244867 -0.174478      1.000000
 -0.373150  0.019014 -0.123443      1.000000
 -0.339227  0.039546 -0.128083      1.000000
 -0.305304  0.060079 -0.132722      1.000000
 -0.271382  0.080611 -0.137362      1.000000
 -0.237459  0.101143 -0.142001      1.000000
 -0.203536  0.121675 -0.146641      1.000000
  0.203536 -0.083646 -0.100245      1.000000
  0.237459 -0.063114 -0.104885      1.000000
  0.271382 -0.042582 -0.109525      1.000000
  0.305304 -0.022050 -0.114164      1.000000
  0.339227 -0.001518 -0.118804      1.000000
  0.373150  0.019014 -0.123443      1.000000
  0.000000 -0.206839 -0.072408      1.000000
  0.033923 -0.186307 -0.077048      1.000000
  0.067845 -0.165774 -0.081687      1.000000
  0.101768 -0.145242 -0.086327      1.000000
  0.135691 -0.124710 -0.090966      1.000000
  0.169614 -0.104178 -0.095606      1.000000
  0.169614 -0.063114 -0.104885      1.000000
  0.203536 -0.042582 -0.109525      1.000000
  0.237459 -0.022050 -0.114164      1.000000
  0.271382 -0.001518 -0.118804      1.000000
  0.305304  0.019014 -0.123443      1.000000
  0.339227  0.039546 -0.128083      1.000000
 -0.033923 -0.186307 -0.077048      1.000000
  0.000000 -0.165774 -0.081687      1.000000
  0.033923 -0.145242 -0.086327      1.000000
  0.067845 -0.124710 -0.090966      1.000000
  0.101768 -0.104178 -0.095606      1.000000
  0.135691 -0.083646 -0.100245      1.000000
  0.135691 -0.042582 -0.109525      1.000000
  0.169614 -0.022050 -0.114164      1.000000
  0.203536 -0.001518 -0.118804      1.000000
  0.237459  0.019014 -0.123443      1.000000
  0.271382  0.039546 -0.128083      1.000000
  0.305304  0.060079 -0.132722      1.000000
 -0.067845 -0.165774 -0.081687      1.000000
 -0.033923 -0.145242 -0.086327      1.000000
  0.000000 -0.124710 -0.090966      1.000000
  0.033923 -0.104178 -0.095606      1.000000
  0.067845 -0.083646 -0.100245      1.000000
  0.101768 -0.063114 -0.104885      1.000000
  0.101768 -0.022050 -0.114164      1.000000
  0.135691 -0.001518 -0.118804      1.000000
  0.169614  0.019014 -0.123443      1.000000
  0.203536  0.039546 -0.128083      1.000000
  0.237459  0.060079 -0.132722      1.000000
  0.271382  0.080611 -0.137362      1.000000
 -0.101768 -0.145242 -0.086327      1.000000
 -0.067845 -0.124710 -0.090966      1.000000
 -0.033923 -0.104178 -0.095606      1.000000
  0.000000 -0.083646 -0.100245      1.000000
  0.033923 -0.063114 -0.104885      1.000000
  0.067845 -0.042582 -0.109525      1.000000
  0.067845 -0.001518 -0.118804      1.000000
  0.101768  0.019014 -0.123443      1.000000
  0.135691  0.039546 -0.128083      1.000000
  0.169614  0.060079 -0.132722      1.000000
  0.203536  0.080611 -0.137362      1.000000
  0.237459  0.101143 -0.142001      1.000000
 -0.135691 -0.124710 -0.090966      1.000000
 -0.101768 -0.104178 -0.095606      1.000000
 -0.067845 -0.083646 -0.100245      1.000000
 -0.033923 -0.063114 -0.104885      1.000000
  0.000000 -0.042582 -0.109525      1.000000
  0.033923 -0.022050 -0.114164      1.000000
  0.033923  0.019014 -0.123443      1.000000
  0.067845  0.039546 -0.128083      1.000000
  0.101768  0.060079 -0.132722      1.000000
  0.135691  0.080611 -0.137362      1.000000
  0.169614  0.101143 -0.142001      1.000000
  0.203536  0.121675 -0.146641      1.000000
 -0.169614 -0.104178 -0.095606      1.000000
 -0.135691 -0.083646 -0.100245      1.000000
 -0.101768 -0.063114 -0.104885      1.000000
 -0.067845 -0.042582 -0.109525      1.000000
 -0.033923 -0.022050 -0.114164      1.000000
  0.000000 -0.001518 -0.118804      1.000000
  0.000000  0.034114 -0.092813      1.000000
  0.033923  0.054646 -0.097453      1.000000
  0.067845  0.075178 -0.102092      1.000000
  0.101768  0.095710 -0.106732      1.000000
  0.135691  0.116242 -0.111371      1.000000
  0.169614  0.136774 -0.116011      1.000000
 -0.203536 -0.089079 -0.064976      1.000000
 -0.169614 -0.068547 -0.069616      1.000000
 -0.135691 -0.048015 -0.074255      1.000000
 -0.101768 -0.027483 -0.078895      1.000000
 -0.067845 -0.006950 -0.083534      1.000000
 -0.033923  0.013582 -0.088174      1.000000
 -0.033923  0.054646 -0.097453      1.000000
  0.000000  0.075178 -0.102092      1.000000
  0.033923  0.095710 -0.106732      1.000000
  0.067845  0.116242 -0.111371      1.000000
  0.101768  0.136774 -0.116011      1.000000
  0.135691  0.157306 -0.120650      1.000000
 -0.237459 -0.068547 -0.069616      1.000000
 -0.203536 -0.048015 -0.074255      1.000000
 -0.169614 -0.027483 -0.078895      1.000000
 -0.135691 -0.006950 -0.083534      1.000000
 -0.101768  0.013582 -0.088174      1.000000
 -0.067845  0.034114 -0.092813      1.000000
 -0.067845  0.075178 -0.102092      1.000000
 -0.033923  0.095710 -0.106732      1.000000
  0.000000  0.116242 -0.111371      1.000000
  0.033923  0.136774 -0.116011      1.000000
  0.067845  0.157306 -0.120650      1.000000
  0.101768  0.177838 -0.125290      1.000000
 -0.271382 -0.048015 -0.074255      1.000000
 -0.237459 -0.027483 -0.078895      1.000000
 -0.203536 -0.006950 -0.083534      1.000000
 -0.169614  0.013582 -0.088174      1.000000
 -0.135691  0.034114 -0.092813      1.000000
 -0.101768  0.054646 -0.097453      1.000000
 -0.101768  0.095710 -0.106732      1.000000
 -0.067845  0.116242 -0.111371      1.000000
 -0.033923  0.136774 -0.116011      1.000000
  0.000000  0.157306 -0.120650      1.000000
  0.033923  0.177838 -0.125290      1.000000
  0.067845  0.198371 -0.129930      1.000000
 -0.305304 -0.027483 -0.078895      1.000000
 -0.271382 -0.006950 -0.083534      1.000000
 -0.237459  0.013582 -0.088174      1.000000
 -0.203536  0.034114 -0.092813      1.000000
 -0.169614  0.054646 -0.097453      1.000000
 -0.135691  0.075178 -0.102092      1.000000
 -0.135691  0.116242 -0.111371      1.000000
 -0.101768  0.136774 -0.116011      1.000000
 -0.067845  0.157306 -0.120650      1.000000
 -0.033923  0.177838 -0.125290      1.000000
  0.000000  0.198371 -0.129930      1.000000
  0.033923  0.218903 -0.134569      1.000000
 -0.339227 -0.006950 -0.083534      1.000000
 -0.305304  0.013582 -0.088174      1.000000
 -0.271382  0.034114 -0.092813      1.000000
 -0.237459  0.054646 -0.097453      1.000000
 -0.203536  0.075178 -0.102092      1.000000
 -0.169614  0.095710 -0.106732      1.000000
 -0.169614  0.136774 -0.116011      1.000000
 -0.135691  0.157306 -0.120650      1.000000
 -0.101768  0.177838 -0.125290      1.000000
 -0.067845  0.198371 -0.129930      1.000000
 -0.033923  0.218903 -0.134569      1.000000
  0.000000  0.239435 -0.139209      1.000000
 -0.373150  0.013582 -0.088174      1.000000
 -0.339227  0.034114 -0.092813      1.000000
 -0.305304  0.054646 -0.097453      1.000000
 -0.271382  0.075178 -0.102092      1.000000
 -0.237459  0.095710 -0.106732      1.000000
 -0.203536  0.116242 -0.111371      1.000000
  0.203536 -0.089079 -0.064976      1.000000
  0.237459 -0.068547 -0.069616      1.000000
  0.271382 -0.048015 -0.074255      1.000000
  0.305304 -0.027483 -0.078895      1.000000
  0.339227 -0.006950 -0.083534      1.000000
  0.373150  0.013582 -0.088174      1.000000
  0.000000 -0.212271 -0.037139      1.000000
  0.033923 -0.191739 -0.041778      1.000000
  0.067845 -0.171207 -0.046418      1.000000
  0.101768 -0.150675 -0.051057      1.000000
  0.135691 -0.130143 -0.055697      1.000000
  0.169614 -0.109611 -0.060336      1.000000
  0.169614 -0.068547 -0.069616      1.000000
  0.203536 -0.048015 -0.074255      1.000000
  0.237459 -0.027483 -0.078895      1.000000
  0.271382 -0.006950 -0.083534      1.000000
  0.305304  0.013582 -0.088174      1.000000
  0.339227  0.034114 -0.092813      1.000000
 -0.033923 -0.191739 -0.041778      1.000000
  0.000000 -0.171207 -0.046418      1.000000
  0.033923 -0.150675 -0.051057      1.000000
  0.067845 -0.130143 -0.055697      1.000000
  0.101768 -0.109611 -0.060336      1.000000
  0.135691 -0.089079 -0.064976      1.000000
  0.135691 -0.048015 -0.074255      1.000000
  0.169614 -0.027483 -0.078895      1.000000
  0.203536 -0.006950 -0.083534      1.000000
  0.237459  0.013582 -0.088174      1.000000
  0.271382  0.034114 -0.092813      1.000000
  0.305304  0.054646 -0.097453      1.000000
 -0.067845 -0.171207 -0.046418      1.000000
 -0.033923 -0.150675 -0.051057      1.000000
  0.000000 -0.130143 -0.055697      1.000000
  0.033923 -0.109611 -0.060336      1.000000
  0.067845 -0.089079 -0.064976      1.000000
  0.101768 -0.068547 -0.069616      1.000000
  0.101768 -0.027483 -0.078895      1.000000
  0.135691 -0.006950 -0.083534      1.000000
  0.169614  0.013582 -0.088174      1.000000
  0.203536  0.034114 -0.092813      1.000000
  0.237459  0.054646 -0.097453      1.000000
  0.271382  0.075178 -0.102092      1.000000
 -0.101768 -0.150675 -0.051057      1.000000
 -0.067845 -0.130143 -0.055697      1.000000
 -0.033923 -0.109611 -0.060336      1.000000
  0.000000 -0.089079 -0.064976      1.000000
  0.033923 -0.068547 -0.069616      1.000000
  0.067845 -0.048015 -0.074255      1.000000
  0.067845 -0.006950 -0.083534      1.000000
  0.101768  0.013582 -0.088174      1.000000
  0.135691  0.034114 -0.092813      1.000000
  0.169614  0.054646 -0.097453      1.000000
  0.203536  0.075178 -0.102092      1.000000
  0.237459  0.095710 -0.106732      1.000000
 -0.135691 -0.130143 -0.055697      1.000000
 -0.101768 -0.109611 -0.060336      1.000000
 -0.067845 -0.089079 -0.064976      1.000000
 -0.033923 -0.068547 -0.069616      1.000000
  0.000000 -0.048015 -0.074255      1.000000
  0.033923 -0.027483 -0.078895      1.000000
  0.033923  0.013582 -0.088174      1.000000
  0.067845  0.034114 -0.092813      1.000000
  0.101768  0.054646 -0.097453      1.000000
  0.135691  0.075178 -0.102092      1.000000
  0.169614  0.095710 -0.106732      1.000000
  0.203536  0.116242 -0.111371      1.000000
 -0.169614 -0.109611 -0.060336      1.000000
 -0.135691 -0.089079 -0.064976      1.000000
 -0.101768 -0.068547 -0.069616      1.000000
 -0.067845 -0.048015 -0.074255      1.000000
 -0.033923 -0.027483 -0.078895      1.000000
  0.000000 -0.006950 -0.083534      1.000000
  0.000000  0.028681 -0.057544      1.000000
  0.033923  0.049213 -0.062183      1.000000
  0.067845  0.069745 -0.066823      1.000000
  0.101768  0.090277 -0.071462      1.000000
  0.135691  0.110809 -0.076102      1.000000
  0.169614  0.131342 -0.080741      1.000000
 -0.203536 -0.094511 -0.029707      1.000000
 -0.169614 -0.073979 -0.034346      1.000000
 -0.135691 -0.053447 -0.038986      1.000000
 -0.101768 -0.032915 -0.043625      1.000000
 -0.067845 -0.012383 -0.048265      1.000000
 -0.033923  0.008149 -0.052904      1.000000
 -0.033923  0.049213 -0.062183      1.000000
  0.000000  0.069745 -0.066823      1.000000
  0.033923  0.090277 -0.071462      1.000000
  0.067845  0.110809 -0.076102      1.000000
  0.101768  0.131342 -0.080741      1.000000
  0.135691  0.151874 -0.085381      1.000000
 -0.237459 -0.073979 -0.034346      1.000000
 -0.203536 -0.053447 -0.038986      1.000000
 -0.169614 -0.032915 -0.043625      1.000000
 -0.135691 -0.012383 -0.048265      1.000000
 -0.101768  0.008149 -0.052904      1.000000
 -0.067845  0.028681 -0.057544      1.000000
 -0.067845  0.069745 -0.066823      1.000000
 -0.033923  0.090277 -0.071462      1.000000
  0.000000  0.110809 -0.076102      1.000000
  0.033923  0.131342 -0.080741      1.000000
  0.067845  0.151874 -0.085381      1.000000
  0.101768  0.172406 -0.090021      1.000000
 -0.271382 -0.053447 -0.038986      1.000000
 -0.237459 -0.032915 -0.043625      1.000000
 -0.203536 -0.012383 -0.048265      1.000000
 -0.169614  0.008149 -0.052904      1.000000
 -0.135691  0.028681 -0.057544      1.000000
 -0.101768  0.049213 -0.062183      1.000000
 -0.101768  0.090277 -0.071462      1.000000
 -0.067845  0.110809 -0.076102      1.000000
 -0.033923  0.131342 -0.080741      1.000000
  0.000000  0.151874 -0.085381      1.000000
  0.033923  0.172406 -0.090021      1.000000
  0.067845  0.192938 -0.094660      1.000000
 -0.305304 -0.032915 -0.043625      1.000000
 -0.271382 -0.012383 -0.048265      1.000000
 -0.237459  0.008149 -0.052904      1.000000
 -0.203536  0.028681 -0.057544      1.000000
 -0.169614  0.049213 -0.062183      1.000000
 -0.135691  0.069745 -0.066823      1.000000
 -0.135691  0.110809 -0.076102      1.000000
 -0.101768  0.131342 -0.080741      1.000000
 -0.067845  0.151874 -0.085381      1.000000
 -0.033923  0.172406 -0.090021      1.000000
  0.000000  0.192938 -0.094660      1.000000
  0.033923  0.213470 -0.099300      1.000000
 -0.339227 -0.012383 -0.048265      1.000000
 -0.305304  0.008149 -0.052904      1.000000
 -0.271382  0.028681 -0.057544      1.000000
 -0.237459  0.049213 -0.062183      1.000000
 -0.203536  0.069745 -0.066823      1.000000
 -0.169614  0.090277 -0.071462      1.000000
 -0.169614  0.131342 -0.080741      1.000000
 -0.135691  0.151874 -0.085381      1.000000
 -0.101768  0.172406 -0.090021      1.000000
 -0.067845  0.192938 -0.094660      1.000000
 -0.033923  0.213470 -0.099300      1.000000
  0.000000  0.234002 -0.103939      1.000000
 -0.373150  0.008149 -0.052904      1.000000
 -0.339227  0.028681 -0.057544      1.000000
 -0.305304  0.049213 -0.062183      1.000000
 -0.271382  0.069745 -0.066823      1.000000
 -0.237459  0.090277 -0.071462      1.000000
 -0.203536  0.110809 -0.076102      1.000000
  0.203536 -0.094511 -0.029707      1.000000
  0.237459 -0.073979 -0.034346      1.000000
  0.271382 -0.053447 -0.038986      1.000000
  0.305304 -0.032915 -0.043625      1.000000
  0.339227 -0.012383 -0.048265      1.000000
  0.373150  0.008149 -0.052904      1.000000
  0.000000 -0.217704 -0.001869      1.000000
  0.033923 -0.197172 -0.006509      1.000000
  0.067845 -0.176640 -0.011148      1.000000
  0.101768 -0.156108 -0.015788      1.000000
  0.135691 -0.135576 -0.020427      1.000000
  0.169614 -0.115044 -0.025067      1.000000
  0.169614 -0.073979 -0.034346      1.000000
  0.203536 -0.053447 -0.038986      1.000000
  0.237459 -0.032915 -0.043625      1.000000
  0.271382 -0.012383 -0.048265      1.000000
  0.305304  0.008149 -0.052904      1.000000
  0.339227  0.028681 -0.057544      1.000000
 -0.033923 -0.197172 -0.006509      1.000000
  0.000000 -0.176640 -0.011148      1.000000
  0.033923 -0.156108 -0.015788      1.000000
  0.067845 -0.135576 -0.020427      1.000000
  0.101768 -0.115044 -0.025067      1.000000
  0.135691 -0.094511 -0.029707      1.000000
  0.135691 -0.053447 -0.038986      1.000000
  0.169614 -0.032915 -0.043625      1.000000
  0.203536 -0.012383 -0.048265      1.000000
  0.237459  0.008149 -0.052904      1.000000
  0.271382  0.028681 -0.057544      1.000000
  0.305304  0.049213 -0.062183      1.000000
 -0.067845 -0.176640 -0.011148      1.000000
 -0.033923 -0.156108 -0.015788      1.000000
  0.000000 -0.135576 -0.020427      1.000000
  0.033923 -0.115044 -0.025067      1.000000
  0.067845 -0.094511 -0.029707      1.000000
  0.101768 -0.073979 -0.034346      1.000000
  0.101768 -0.032915 -0.043625      1.000000
  0.135691 -0.012383 -0.048265      1.000000
  0.169614  0.008149 -0.052904      1.000000
  0.203536  0.028681 -0.057544      1.000000
  0.237459  0.049213 -0.062183      1.000000
  0.271382  0.069745 -0.066823      1.000000
 -0.101768 -0.156108 -0.015788      1.000000
 -0.067845 -0.135576 -0.020427      1.000000
 -0.033923 -0.115044 -0.025067      1.000000
  0.000000 -0.094511 -0.029707      1.000000
  0.033923 -0.073979 -0.034346      1.000000
  0.067845 -0.053447 -0.038986      1.000000
  0.067845 -0.012383 -0.048265      1.000000
  0.101768  0.008149 -0.052904      1.000000
  0.135691  0.028681 -0.057544      1.000000
  0.169614  0.049213 -0.062183      1.000000
  0.203536  0.069745 -0.066823      1.000000
  0.237459  0.090277 -0.071462      1.000000
 -0.135691 -0.135576 -0.020427      1.000000
 -0.101768 -0.115044 -0.025067      1.000000
 -0.067845 -0.094511 -0.029707      1.000000
 -0.033923 -0.073979 -0.034346      1.000000
  0.000000 -0.053447 -0.038986      1.000000
  0.033923 -0.032915 -0.043625      1.000000
  0.033923  0.008149 -0.052904      1.000000
  0.067845  0.028681 -0.057544      1.000000
  0.101768  0.049213 -0.062183      1.000000
  0.135691  0.069745 -0.066823      1.000000
  0.169614  0.090277 -0.071462      1.000000
  0.203536  0.110809 -0.076102      1.000000
 -0.169614 -0.115044 -0.025067      1.000000
 -0.135691 -0.094511 -0.029707      1.000000
 -0.101768 -0.073979 -0.034346      1.000000
 -0.067845 -0.053447 -0.038986      1.000000
 -0.033923 -0.032915 -0.043625      1.000000
  0.000000 -0.012383 -0.048265      1.000000
  0.000000  0.023248 -0.022274      1.000000
  0.033923  0.043781 -0.026914      1.000000
  0.067845  0.064313 -0.031553      1.000000
  0.101768  0.084845 -0.036193      1.000000
  0.135691  0.105377 -0.040832      1.000000
  0.169614  0.125909 -0.045472      1.000000
 -0.203536 -0.099944  0.005563      1.000000
 -0.169614 -0.079412  0.000923      1.000000
 -0.135691 -0.058880 -0.003716      1.000000
 -0.101768 -0.038348 -0.008356      1.000000
 -0.067845 -0.017816 -0.012995      1.000000
 -0.033923  0.002716 -0.017635      1.000000
 -0.033923  0.043781 -0.026914      1.000000
  0.000000  0.064313 -0.031553      1.000000
  0.033923  0.084845 -0.036193      1.000000
  0.067845  0.105377 -0.040832      1.000000
  0.101768  0.125909 -0.045472      1.000000
  0.135691  0.146441 -0.050111      1.000000
 -0.237459 -0.079412  0.000923      1.000000
 -0.203536 -0.058880 -0.003716      1.000000
 -0.169614 -0.038348 -0.008356      1.000000
 -0.135691 -0.017816 -0.012995      1.000000
 -0.101768  0.002716 -0.017635      1.000000
 -0.067845  0.023248 -0.022274      1.000000
 -0.067845  0.064313 -0.031553      1.000000
 -0.033923  0.084845 -0.036193      1.000000
  0.000000  0.105377 -0.040832      1.000000
  0.033923  0.125909 -0.045472      1.000000
  0.067845  0.146441 -0.050111      1.000000
  0.101768  0.166973 -0.054751      1.000000
 -0.271382 -0.058880 -0.003716      1.000000
 -0.237459 -0.038348 -0.008356      1.000000
 -0.203536 -0.017816 -0.012995      1.000000
 -0.169614  0.002716 -0.017635      1.000000
 -0.135691  0.023248 -0.022274      1.000000
 -0.101768  0.043781 -0.026914      1.000000
 -0.101768  0.084845 -0.036193      1.000000
 -0.067845  0.105377 -0.040832      1.000000
 -0.033923  0.125909 -0.045472      1.000000
  0.000000  0.146441 -0.050111      1.000000
  0.033923  0.166973 -0.054751      1.000000
  0.067845  0.187505 -0.059391      1.000000
 -0.305304 -0.038348 -0.008356      1.000000
 -0.271382 -0.017816 -0.012995      1.000000
 -0.237459  0.002716 -0.017635      1.000000
 -0.203536  0.023248 -0.022274      1.000000
 -0.169614  0.043781 -0.026914      1.000000
 -0.135691  0.064313 -0.031553      1.000000
 -0.135691  0.105377 -0.040832      1.000000
 -0.101768  0.125909 -0.045472      1.000000
 -0.067845  0.146441 -0.050111      1.000000
 -0.033923  0.166973 -0.054751      1.000000
  0.000000  0.187505 -0.059391      1.000000
  0.033923  0.208037 -0.064030      1.000000
 -0.339227 -0.017816 -0.012995      1.000000
 -0.305304  0.002716 -0.017635      1.000000
 -0.271382  0.023248 -0.022274      1.000000
 -0.237459  0.043781 -0.026914      1.000000
 -0.203536  0.064313 -0.031553      1.000000
 -0.169614  0.084845 -0.036193      1.000000
 -0.169614  0.125909 -0.045472      1.000000
 -0.135691  0.146441 -0.050111      1.000000
 -0.101768  0.166973 -0.054751      1.000000
 -0.067845  0.187505 -0.059391      1.000000
 -0.033923  0.208037 -0.064030      1.000000
  0.000000  0.228569 -0.068670      1.000000
 -0.373150  0.002716 -0.017635      1.000000
 -0.339227  0.023248 -0.022274      1.000000
 -0.305304  0.043781 -0.026914      1.000000
 -0.271382  0.064313 -0.031553      1.000000
 -0.237459  0.084845 -0.036193      1.000000
 -0.203536  0.105377 -0.040832      1.000000
  0.203536 -0.099944  0.005563      1.000000
  0.237459 -0.079412  0.000923      1.000000
  0.271382 -0.058880 -0.003716      1.000000
  0.305304 -0.038348 -0.008356      1.000000
  0.339227 -0.017816 -0.012995      1.000000
  0.373150  0.002716 -0.017635      1.000000
  0.000000 -0.223137  0.033400      1.000000
  0.033923 -0.202605  0.028761      1.000000
  0.067845 -0.182073  0.024121      1.000000
  0.101768 -0.161540  0.019482      1.000000
  0.135691 -0.141008  0.014842      1.000000
  0.169614 -0.120476  0.010202      1.000000
  0.169614 -0.079412  0.000923      1.000000
  0.203536 -0.058880 -0.003716      1.000000
  0.237459 -0.038348 -0.008356      1.000000
  0.271382 -0.017816 -0.012995      1.000000
  0.305304  0.002716 -0.017635      1.000000
  0.339227  0.023248 -0.022274      1.000000
 -0.033923 -0.202605  0.028761      1.000000
  0.000000 -0.182073  0.024121      1.000000
  0.033923 -0.161540  0.019482      1.000000
  0.067845 -0.141008  0.014842      1.000000
  0.101768 -0.120476  0.010202      1.000000
  0.135691 -0.099944  0.005563      1.000000
  0.135691 -0.058880 -0.003716      1.000000
  0.169614 -0.038348 -0.008356      1.000000
  0.203536 -0.017816 -0.012995      1.000000
  0.237459  0.002716 -0.017635      1.000000
  0.271382  0.023248 -0.022274      1.000000
  0.305304  0.043781 -0.026914      1.000000
 -0.067845 -0.182073  0.024121      1.000000
 -0.033923 -0.161540  0.019482      1.000000
  0.000000 -0.141008  0.014842      1.000000
  0.033923 -0.120476  0.010202      1.000000
  0.067845 -0.099944  0.005563      1.000000
  0.101768 -0.079412  0.000923      1.000000
  0.101768 -0.038348 -0.008356      1.000000
  0.135691 -0.017816 -0.012995      1.000000
  0.169614  0.002716 -0.017635      1.000000
  0.203536  0.023248 -0.022274      1.000000
  0.237459  0.043781 -0.026914      1.000000
  0.271382  0.064313 -0.031553      1.000000
 -0.101768 -0.161540  0.019482      1.000000
 -0.067845 -0.141008  0.014842      1.000000
 -0.033923 -0.120476  0.010202      1.000000
  0.000000 -0.099944  0.005563      1.000000
  0.033923 -0.079412  0.000923      1.000000
  0.067845 -0.058880 -0.003716      1.000000
  0.067845 -0.017816 -0.012995      1.000000
  0.101768  0.002716 -0.017635      1.000000
  0.135691  0.023248 -0.022274      1.000000
  0.169614  0.043781 -0.026914      1.000000
  0.203536  0.064313 -0.031553      1.000000
  0.237459  0.084845 -0.036193      1.000000
 -0.135691 -0.141008  0.014842      1.000000
 -0.101768 -0.120476  0.010202      1.000000
 -0.067845 -0.099944  0.005563      1.000000
 -0.033923 -0.079412  0.000923      1.000000
  0.000000 -0.058880 -0.003716      1.000000
  0.033923 -0.038348 -0.008356      1.000000
  0.033923  0.002716 -0.017635      1.000000
  0.067845  0.023248 -0.022274      1.000000
  0.101768  0.043781 -0.026914      1.000000
  0.135691  0.064313 -0.031553      1.000000
  0.169614  0.084845 -0.036193      1.000000
  0.203536  0.105377 -0.040832      1.000000
 -0.169614 -0.120476  0.010202      1.000000
 -0.135691 -0.099944  0.005563      1.000000
 -0.101768 -0.079412  0.000923      1.000000
 -0.067845 -0.058880 -0.003716      1.000000
 -0.033923 -0.038348 -0.008356      1.000000
  0.000000 -0.017816 -0.012995      1.000000
 


--------------------------------------------------------------------------------------------------------




 Dimension of arrays:
   k-points           NKPTS =   1152   k-points in BZ     NKDIM =   1152   number of bands    NBANDS=    100
   number of dos      NEDOS =    301   number of ions     NIONS =      2
   non local maximal  LDIM  =      4   non local SUM 2l+1 LMDIM =      8
   total plane-waves  NPLWV =  12000
   max r-space proj   IRMAX =      1   max aug-charges    IRDMAX=   7935
   dimension x,y,z NGX =    20 NGY =   20 NGZ =   30
   dimension x,y,z NGXF=    40 NGYF=   40 NGZF=   60
   support grid    NGXF=    40 NGYF=   40 NGZF=   60
   ions per type =               2
   NGX,Y,Z   is equivalent  to a cutoff of  13.54, 13.54, 13.25 a.u.
   NGXF,Y,Z  is equivalent  to a cutoff of  27.07, 27.07, 26.50 a.u.

 SYSTEM =  unknown system                          
 POSCAR =  C2                                      

 Startparameter for this run:
   NWRITE =      2    write-flag & timer
   PREC   = accura    normal or accurate (medium, high low for compatibility)
   ISTART =      0    job   : 0-new  1-cont  2-samecut
   ICHARG =      2    charge: 1-file 2-atom 10-const
   ISPIN  =      1    spin polarized calculation?
   LNONCOLLINEAR =      F non collinear calculations
   LSORBIT =      F    spin-orbit coupling
   INIWAV =      1    electr: 0-lowe 1-rand  2-diag
   LASPH  =      T    aspherical Exc in radial PAW
 Electronic Relaxation 1
   ENCUT  =  600.0 eV  44.10 Ry    6.64 a.u.   4.91  4.91  7.52*2*pi/ulx,y,z
   ENINI  =  600.0     initial cutoff
   ENAUG  =  644.9 eV  augmentation charge cutoff
   NELM   =     60;   NELMIN=  2; NELMDL= -5     # of ELM steps 
   EDIFF  = 0.1E-05   stopping-criterion for ELM
   LREAL  =      F    real-space projection
   NLSPLINE    = F    spline interpolate recip. space projectors
   LCOMPAT=      F    compatible to vasp.4.4
   GGA_COMPAT  = T    GGA compatible to vasp.4.4-vasp.4.6
   LMAXPAW     = -100 max onsite density
   LMAXMIX     =    2 max onsite mixed and CHGCAR
   VOSKOWN=      0    Vosko Wilk Nusair interpolation
   ROPT   =    0.00000
 Ionic relaxation
   EDIFFG = 0.1E-04   stopping-criterion for IOM
   NSW    =      0    number of steps for IOM
   NBLOCK =      1;   KBLOCK =      1    inner block; outer block 
   IBRION =     -1    ionic relax: 0-MD 1-quasi-New 2-CG
   NFREE  =      0    steps in history (QN), initial steepest desc. (CG)
   ISIF   =      2    stress and relaxation
   IWAVPR =     10    prediction:  0-non 1-charg 2-wave 3-comb
   ISYM   =     -1    0-nonsym 1-usesym 2-fastsym
   LCORR  =      T    Harris-Foulkes like correction to forces

   POTIM  = 0.5000    time-step for ionic-motion
   TEIN   =    0.0    initial temperature
   TEBEG  =    0.0;   TEEND  =   0.0 temperature during run
   SMASS  =  -3.00    Nose mass-parameter (am)
   estimated Nose-frequenzy (Omega)   =  0.10E-29 period in steps = 0.13E+47 mass=  -0.138E-27a.u.
   SCALEE = 1.0000    scale energy and forces
   NPACO  =    256;   APACO  = 10.0  distance and # of slots for P.C.
   PSTRESS=    0.0 pullay stress

  Mass of Ions in am
   POMASS =  12.01
  Ionic Valenz
   ZVAL   =   4.00
  Atomic Wigner-Seitz radii
   RWIGS  =  -1.00
  virtual crystal weights 
   VCA    =   1.00
   NELECT =       8.0000    total number of electrons
   NUPDOWN=      -1.0000    fix difference up-down

 DOS related values:
   EMIN   =  10.00;   EMAX   =-10.00  energy-range for DOS
   EFERMI =   0.00;   METHOD = LEGACY      
   ISMEAR =     0;   SIGMA  =   0.05  broadening in eV -4-tet -1-fermi 0-gaus
   EFERMI_NEDOS =   21; number of points for ismear=-14 and -15

 Electronic relaxation 2 (details)
   IALGO  =     38    algorithm
   LDIAG  =      T    sub-space diagonalisation (order eigenvalues)
   LSUBROT=      F    optimize rotation matrix (better conditioning)
   TURBO    =      0    0=normal 1=particle mesh
   IRESTART =      0    0=no restart 2=restart with 2 vectors
   NREBOOT  =      0    no. of reboots
   NMIN     =      0    reboot dimension
   EREF     =   0.00    reference energy to select bands
   IMIX   =      4    mixing-type and parameters
     AMIX     =   0.40;   BMIX     =  1.00
     AMIX_MAG =   1.60;   BMIX_MAG =  1.00
     AMIN     =   0.10
     WC   =   100.;   INIMIX=   1;  MIXPRE=   1;  MAXMIX= -45

 Intra band minimization:
   WEIMIN = 0.0000     energy-eigenvalue tresh-hold
   EBREAK =  0.25E-08  absolut break condition
   DEPER  =   0.30     relativ break condition  

   TIME   =   0.40     timestep for ELM

  volume/ion in A,a.u.               =       9.15        61.77
  Fermi-wavevector in a.u.,A,eV,Ry     =   1.242352  2.347705 20.999765  1.543439
  Thomas-Fermi vector in A             =   2.376710
 
 Write flags
   LWAVE        =      T    write WAVECAR
   LDOWNSAMPLE  =      F    k-point downsampling of WAVECAR
   LCHARG       =      T    write CHGCAR
   LVTOT        =      F    write LOCPOT, total local potential
   LVHAR        =      F    write LOCPOT, Hartree potential only
   WRT_POTENTIAL= false  ! write potential to hdf5 file
   LELF         =      F    write electronic localiz. function (ELF)
   LORBIT       =      0    0 simple, 1 ext, 2 COOP (PROOUT), +10 PAW based schemes


 Python interface
   PLUGINS active      =      F    recompile with -DPLUGINS to activate
 
 Dipole corrections
   LMONO      =      F    monopole corrections only (constant potential shift)
   LDIPOL     =      F    correct potential (dipole corrections)
   IDIPOL     =      0    1-x, 2-y, 3-z, 4-all directions 
   EPSILON    =  1.0000000 bulk dielectric constant
   LVACPOTAV  =      F  vacuum potentials using an averaging scheme for the charge density
   VACPOTFLAT =  0.1000000 required flatness to determine vacuum potential
 
Coulomb truncation method
  LTRUNCATE          =      F  Coulomb kernel truncation to be used
  IDIMENSIONALITY    =      3  Dimensionality of cutoff (0 molecules / 2 surfaces)
  ISURFACE           =     -1  Direction of surface normal
  LCOARSEN           =      F  Coarsen the charge grid before padding, preferred

 
 Exchange correlation treatment:
   GGA     = PE    functional components
   XC_C    = 1    coefficients multiplying the functional components
   LIBXC   =     F    Libxc                    
   VOSKOWN =     0    Vosko Wilk Nusair interpolation
   LHFCALC =     F    Hartree Fock is set to
   LHFONE  =     F    Hartree Fock one center treatment
   AEXX    =    0.0000 exact exchange contribution

 Parameters of functionals:
   PE:
     No parameter
 
 Van der Waals corrections
   IVDW    =     0    specifies the selected vdW correction

 Linear response parameters
   LEPSILON=     F    determine dielectric tensor
   LRPA    =     F    only Hartree local field effects (RPA)
   LNABLA  =     F    use nabla operator in PAW spheres
   LVEL    =     F    velocity operator in full k-point grid
   CSHIFT  =0.1000    complex shift for real part using Kramers Kronig
   OMEGAMAX=  -1.0    maximum frequency
   DEG_THRESHOLD= 0.2000000E-02 threshold for treating states as degnerate
   RTIME   =   -0.100 relaxation time in fs
  (WPLASMAI=    0.000 imaginary part of plasma frequency in eV, 0.658/RTIME)
   DFIELD  = 0.0000000 0.0000000 0.0000000 field for delta impulse in time
 
  Optional k-point grid parameters
   LKPOINTS_OPT  =     F    use optional k-point grid
   KPOINTS_OPT_MODE=     1    mode for optional k-point grid
 
 Orbital magnetization related:
   ORBITALMAG=     F  switch on orbital magnetization
   LCHIMAG   =     F  perturbation theory with respect to B field
   DQ        =  0.001000  dq finite difference perturbation B field
   LLRAUG    =     F  two centre corrections for induced B field
   LBONE     =     F  B-component reconstruction in AE one-centre
   LVGVCALC  =     T  calculate vGv susceptibility
   LVGVAPPL  =     F  apply vGv susceptibility instead of pGv for G=0

 Random number generation:
   RANDOM_GENERATOR = DEFAULT
   PCG_SEED         = not used


--------------------------------------------------------------------------------------------------------


 Static calculation
 charge density and potential will be updated during run
 non-spin polarized calculation
 Variant of blocked Davidson
 Davidson routine will perform the subspace rotation
 perform sub-space diagonalisation
    after iterative eigenvector-optimisation
 modified Broyden-mixing scheme, WC =      100.0
 initial mixing is a Kerker type mixing with AMIX =  0.4000 and BMIX =      1.0000
 Hartree-type preconditioning will be used
 using additional bands           96
 reciprocal scheme for non local part
 use partial core corrections
 calculate Harris-corrections to forces 
   (improved forces if not selfconsistent)
 use gradient corrections 
 use of overlap-Matrix (Vanderbilt PP)
 Gauss-broadening in eV      SIGMA  =   0.05


--------------------------------------------------------------------------------------------------------


  energy-cutoff  :      600.00
  volume of cell :       18.31
      direct lattice vectors                 reciprocal lattice vectors
     1.228282440  2.102524030  0.323858600     0.407072497  0.246385124 -0.055674433
    -1.228282440  2.102524030  0.323858600    -0.407072497  0.246385124 -0.055674433
     0.000000000  0.829731840  3.671947260     0.000000000 -0.043461377  0.282155819

  length of vectors
     2.456454649  2.456454649  3.764525416     0.479075453  0.479075453  0.285483446


 
 k-points in units of 2pi/SCALE and weight: pymatgen with grid density = 2710 / numb
   0.00000000  0.01781576  0.01299520       0.001
   0.03392271  0.03834785  0.00835567       0.001
   0.06784542  0.05887994  0.00371613       0.001
   0.10176812  0.07941204 -0.00092341       0.001
   0.13569083  0.09994413 -0.00556294       0.001
   0.16961354  0.12047623 -0.01020248       0.001
  -0.20353625 -0.10537680  0.04083242       0.001
  -0.16961354 -0.08484471  0.03619288       0.001
  -0.13569083 -0.06431262  0.03155335       0.001
  -0.10176812 -0.04378052  0.02691381       0.001
  -0.06784542 -0.02324843  0.02227427       0.001
  -0.03392271 -0.00271634  0.01763474       0.001
  -0.03392271  0.03834785  0.00835567       0.001
   0.00000000  0.05887994  0.00371613       0.001
   0.03392271  0.07941204 -0.00092341       0.001
   0.06784542  0.09994413 -0.00556294       0.001
   0.10176812  0.12047623 -0.01020248       0.001
   0.13569083  0.14100832 -0.01484201       0.001
  -0.23745896 -0.08484471  0.03619288       0.001
  -0.20353625 -0.06431262  0.03155335       0.001
  -0.16961354 -0.04378052  0.02691381       0.001
  -0.13569083 -0.02324843  0.02227427       0.001
  -0.10176812 -0.00271634  0.01763474       0.001
  -0.06784542  0.01781576  0.01299520       0.001
  -0.06784542  0.05887994  0.00371613       0.001
  -0.03392271  0.07941204 -0.00092341       0.001
   0.00000000  0.09994413 -0.00556294       0.001
   0.03392271  0.12047623 -0.01020248       0.001
   0.06784542  0.14100832 -0.01484201       0.001
   0.10176812  0.16154041 -0.01948155       0.001
  -0.27138166 -0.06431262  0.03155335       0.001
  -0.23745896 -0.04378052  0.02691381       0.001
  -0.20353625 -0.02324843  0.02227427       0.001
  -0.16961354 -0.00271634  0.01763474       0.001
  -0.13569083  0.01781576  0.01299520       0.001
  -0.10176812  0.03834785  0.00835567       0.001
  -0.10176812  0.07941204 -0.00092341       0.001
  -0.06784542  0.09994413 -0.00556294       0.001
  -0.03392271  0.12047623 -0.01020248       0.001
   0.00000000  0.14100832 -0.01484201       0.001
   0.03392271  0.16154041 -0.01948155       0.001
   0.06784542  0.18207251 -0.02412109       0.001
  -0.30530437 -0.04378052  0.02691381       0.001
  -0.27138166 -0.02324843  0.02227427       0.001
  -0.23745896 -0.00271634  0.01763474       0.001
  -0.20353625  0.01781576  0.01299520       0.001
  -0.16961354  0.03834785  0.00835567       0.001
  -0.13569083  0.05887994  0.00371613       0.001
  -0.13569083  0.09994413 -0.00556294       0.001
  -0.10176812  0.12047623 -0.01020248       0.001
  -0.06784542  0.14100832 -0.01484201       0.001
  -0.03392271  0.16154041 -0.01948155       0.001
   0.00000000  0.18207251 -0.02412109       0.001
   0.03392271  0.20260460 -0.02876062       0.001
  -0.33922708 -0.02324843  0.02227427       0.001
  -0.30530437 -0.00271634  0.01763474       0.001
  -0.27138166  0.01781576  0.01299520       0.001
  -0.23745896  0.03834785  0.00835567       0.001
  -0.20353625  0.05887994  0.00371613       0.001
  -0.16961354  0.07941204 -0.00092341       0.001
  -0.16961354  0.12047623 -0.01020248       0.001
  -0.13569083  0.14100832 -0.01484201       0.001
  -0.10176812  0.16154041 -0.01948155       0.001
  -0.06784542  0.18207251 -0.02412109       0.001
  -0.03392271  0.20260460 -0.02876062       0.001
   0.00000000  0.22313669 -0.03340016       0.001
  -0.37314979 -0.00271634  0.01763474       0.001
  -0.33922708  0.01781576  0.01299520       0.001
  -0.30530437  0.03834785  0.00835567       0.001
  -0.27138166  0.05887994  0.00371613       0.001
  -0.23745896  0.07941204 -0.00092341       0.001
  -0.20353625  0.09994413 -0.00556294       0.001
   0.20353625 -0.10537680  0.04083242       0.001
   0.23745896 -0.08484471  0.03619288       0.001
   0.27138166 -0.06431262  0.03155335       0.001
   0.30530437 -0.04378052  0.02691381       0.001
   0.33922708 -0.02324843  0.02227427       0.001
   0.37314979 -0.00271634  0.01763474       0.001
   0.00000000 -0.22856937  0.06866964       0.001
   0.03392271 -0.20803727  0.06403010       0.001
   0.06784542 -0.18750518  0.05939056       0.001
   0.10176812 -0.16697309  0.05475103       0.001
   0.13569083 -0.14644099  0.05011149       0.001
   0.16961354 -0.12590890  0.04547196       0.001
   0.16961354 -0.08484471  0.03619288       0.001
   0.20353625 -0.06431262  0.03155335       0.001
   0.23745896 -0.04378052  0.02691381       0.001
   0.27138166 -0.02324843  0.02227427       0.001
   0.30530437 -0.00271634  0.01763474       0.001
   0.33922708  0.01781576  0.01299520       0.001
  -0.03392271 -0.20803727  0.06403010       0.001
   0.00000000 -0.18750518  0.05939056       0.001
   0.03392271 -0.16697309  0.05475103       0.001
   0.06784542 -0.14644099  0.05011149       0.001
   0.10176812 -0.12590890  0.04547196       0.001
   0.13569083 -0.10537680  0.04083242       0.001
   0.13569083 -0.06431262  0.03155335       0.001
   0.16961354 -0.04378052  0.02691381       0.001
   0.20353625 -0.02324843  0.02227427       0.001
   0.23745896 -0.00271634  0.01763474       0.001
   0.27138166  0.01781576  0.01299520       0.001
   0.30530437  0.03834785  0.00835567       0.001
  -0.06784542 -0.18750518  0.05939056       0.001
  -0.03392271 -0.16697309  0.05475103       0.001
   0.00000000 -0.14644099  0.05011149       0.001
   0.03392271 -0.12590890  0.04547196       0.001
   0.06784542 -0.10537680  0.04083242       0.001
   0.10176812 -0.08484471  0.03619288       0.001
   0.10176812 -0.04378052  0.02691381       0.001
   0.13569083 -0.02324843  0.02227427       0.001
   0.16961354 -0.00271634  0.01763474       0.001
   0.20353625  0.01781576  0.01299520       0.001
   0.23745896  0.03834785  0.00835567       0.001
   0.27138166  0.05887994  0.00371613       0.001
  -0.10176812 -0.16697309  0.05475103       0.001
  -0.06784542 -0.14644099  0.05011149       0.001
  -0.03392271 -0.12590890  0.04547196       0.001
   0.00000000 -0.10537680  0.04083242       0.001
   0.03392271 -0.08484471  0.03619288       0.001
   0.06784542 -0.06431262  0.03155335       0.001
   0.06784542 -0.02324843  0.02227427       0.001
   0.10176812 -0.00271634  0.01763474       0.001
   0.13569083  0.01781576  0.01299520       0.001
   0.16961354  0.03834785  0.00835567       0.001
   0.20353625  0.05887994  0.00371613       0.001
   0.23745896  0.07941204 -0.00092341       0.001
  -0.13569083 -0.14644099  0.05011149       0.001
  -0.10176812 -0.12590890  0.04547196       0.001
  -0.06784542 -0.10537680  0.04083242       0.001
  -0.03392271 -0.08484471  0.03619288       0.001
   0.00000000 -0.06431262  0.03155335       0.001
   0.03392271 -0.04378052  0.02691381       0.001
   0.03392271 -0.00271634  0.01763474       0.001
   0.06784542  0.01781576  0.01299520       0.001
   0.10176812  0.03834785  0.00835567       0.001
   0.13569083  0.05887994  0.00371613       0.001
   0.16961354  0.07941204 -0.00092341       0.001
   0.20353625  0.09994413 -0.00556294       0.001
  -0.16961354 -0.12590890  0.04547196       0.001
  -0.13569083 -0.10537680  0.04083242       0.001
  -0.10176812 -0.08484471  0.03619288       0.001
  -0.06784542 -0.06431262  0.03155335       0.001
  -0.03392271 -0.04378052  0.02691381       0.001
   0.00000000 -0.02324843  0.02227427       0.001
   0.00000000  0.01238309  0.04826468       0.001
   0.03392271  0.03291518  0.04362514       0.001
   0.06784542  0.05344727  0.03898561       0.001
   0.10176812  0.07397937  0.03434607       0.001
   0.13569083  0.09451146  0.02970654       0.001
   0.16961354  0.11504355  0.02506700       0.001
  -0.20353625 -0.11080948  0.07610190       0.001
  -0.16961354 -0.09027738  0.07146236       0.001
  -0.13569083 -0.06974529  0.06682282       0.001
  -0.10176812 -0.04921320  0.06218329       0.001
  -0.06784542 -0.02868110  0.05754375       0.001
  -0.03392271 -0.00814901  0.05290422       0.001
  -0.03392271  0.03291518  0.04362514       0.001
   0.00000000  0.05344727  0.03898561       0.001
   0.03392271  0.07397937  0.03434607       0.001
   0.06784542  0.09451146  0.02970654       0.001
   0.10176812  0.11504355  0.02506700       0.001
   0.13569083  0.13557565  0.02042746       0.001
  -0.23745896 -0.09027738  0.07146236       0.001
  -0.20353625 -0.06974529  0.06682282       0.001
  -0.16961354 -0.04921320  0.06218329       0.001
  -0.13569083 -0.02868110  0.05754375       0.001
  -0.10176812 -0.00814901  0.05290422       0.001
  -0.06784542  0.01238309  0.04826468       0.001
  -0.06784542  0.05344727  0.03898561       0.001
  -0.03392271  0.07397937  0.03434607       0.001
   0.00000000  0.09451146  0.02970654       0.001
   0.03392271  0.11504355  0.02506700       0.001
   0.06784542  0.13557565  0.02042746       0.001
   0.10176812  0.15610774  0.01578793       0.001
  -0.27138166 -0.06974529  0.06682282       0.001
  -0.23745896 -0.04921320  0.06218329       0.001
  -0.20353625 -0.02868110  0.05754375       0.001
  -0.16961354 -0.00814901  0.05290422       0.001
  -0.13569083  0.01238309  0.04826468       0.001
  -0.10176812  0.03291518  0.04362514       0.001
  -0.10176812  0.07397937  0.03434607       0.001
  -0.06784542  0.09451146  0.02970654       0.001
  -0.03392271  0.11504355  0.02506700       0.001
   0.00000000  0.13557565  0.02042746       0.001
   0.03392271  0.15610774  0.01578793       0.001
   0.06784542  0.17663983  0.01114839       0.001
  -0.30530437 -0.04921320  0.06218329       0.001
  -0.27138166 -0.02868110  0.05754375       0.001
  -0.23745896 -0.00814901  0.05290422       0.001
  -0.20353625  0.01238309  0.04826468       0.001
  -0.16961354  0.03291518  0.04362514       0.001
  -0.13569083  0.05344727  0.03898561       0.001
  -0.13569083  0.09451146  0.02970654       0.001
  -0.10176812  0.11504355  0.02506700       0.001
  -0.06784542  0.13557565  0.02042746       0.001
  -0.03392271  0.15610774  0.01578793       0.001
   0.00000000  0.17663983  0.01114839       0.001
   0.03392271  0.19717193  0.00650886       0.001
  -0.33922708 -0.02868110  0.05754375       0.001
  -0.30530437 -0.00814901  0.05290422       0.001
  -0.27138166  0.01238309  0.04826468       0.001
  -0.23745896  0.03291518  0.04362514       0.001
  -0.20353625  0.05344727  0.03898561       0.001
  -0.16961354  0.07397937  0.03434607       0.001
  -0.16961354  0.11504355  0.02506700       0.001
  -0.13569083  0.13557565  0.02042746       0.001
  -0.10176812  0.15610774  0.01578793       0.001
  -0.06784542  0.17663983  0.01114839       0.001
  -0.03392271  0.19717193  0.00650886       0.001
   0.00000000  0.21770402  0.00186932       0.001
  -0.37314979 -0.00814901  0.05290422       0.001
  -0.33922708  0.01238309  0.04826468       0.001
  -0.30530437  0.03291518  0.04362514       0.001
  -0.27138166  0.05344727  0.03898561       0.001
  -0.23745896  0.07397937  0.03434607       0.001
  -0.20353625  0.09451146  0.02970654       0.001
   0.20353625 -0.11080948  0.07610190       0.001
   0.23745896 -0.09027738  0.07146236       0.001
   0.27138166 -0.06974529  0.06682282       0.001
   0.30530437 -0.04921320  0.06218329       0.001
   0.33922708 -0.02868110  0.05754375       0.001
   0.37314979 -0.00814901  0.05290422       0.001
   0.00000000 -0.23400204  0.10393911       0.001
   0.03392271 -0.21346994  0.09929958       0.001
   0.06784542 -0.19293785  0.09466004       0.001
   0.10176812 -0.17240576  0.09002050       0.001
   0.13569083 -0.15187366  0.08538097       0.001
   0.16961354 -0.13134157  0.08074143       0.001
   0.16961354 -0.09027738  0.07146236       0.001
   0.20353625 -0.06974529  0.06682282       0.001
   0.23745896 -0.04921320  0.06218329       0.001
   0.27138166 -0.02868110  0.05754375       0.001
   0.30530437 -0.00814901  0.05290422       0.001
   0.33922708  0.01238309  0.04826468       0.001
  -0.03392271 -0.21346994  0.09929958       0.001
   0.00000000 -0.19293785  0.09466004       0.001
   0.03392271 -0.17240576  0.09002050       0.001
   0.06784542 -0.15187366  0.08538097       0.001
   0.10176812 -0.13134157  0.08074143       0.001
   0.13569083 -0.11080948  0.07610190       0.001
   0.13569083 -0.06974529  0.06682282       0.001
   0.16961354 -0.04921320  0.06218329       0.001
   0.20353625 -0.02868110  0.05754375       0.001
   0.23745896 -0.00814901  0.05290422       0.001
   0.27138166  0.01238309  0.04826468       0.001
   0.30530437  0.03291518  0.04362514       0.001
  -0.06784542 -0.19293785  0.09466004       0.001
  -0.03392271 -0.17240576  0.09002050       0.001
   0.00000000 -0.15187366  0.08538097       0.001
   0.03392271 -0.13134157  0.08074143       0.001
   0.06784542 -0.11080948  0.07610190       0.001
   0.10176812 -0.09027738  0.07146236       0.001
   0.10176812 -0.04921320  0.06218329       0.001
   0.13569083 -0.02868110  0.05754375       0.001
   0.16961354 -0.00814901  0.05290422       0.001
   0.20353625  0.01238309  0.04826468       0.001
   0.23745896  0.03291518  0.04362514       0.001
   0.27138166  0.05344727  0.03898561       0.001
  -0.10176812 -0.17240576  0.09002050       0.001
  -0.06784542 -0.15187366  0.08538097       0.001
  -0.03392271 -0.13134157  0.08074143       0.001
   0.00000000 -0.11080948  0.07610190       0.001
   0.03392271 -0.09027738  0.07146236       0.001
   0.06784542 -0.06974529  0.06682282       0.001
   0.06784542 -0.02868110  0.05754375       0.001
   0.10176812 -0.00814901  0.05290422       0.001
   0.13569083  0.01238309  0.04826468       0.001
   0.16961354  0.03291518  0.04362514       0.001
   0.20353625  0.05344727  0.03898561       0.001
   0.23745896  0.07397937  0.03434607       0.001
  -0.13569083 -0.15187366  0.08538097       0.001
  -0.10176812 -0.13134157  0.08074143       0.001
  -0.06784542 -0.11080948  0.07610190       0.001
  -0.03392271 -0.09027738  0.07146236       0.001
   0.00000000 -0.06974529  0.06682282       0.001
   0.03392271 -0.04921320  0.06218329       0.001
   0.03392271 -0.00814901  0.05290422       0.001
   0.06784542  0.01238309  0.04826468       0.001
   0.10176812  0.03291518  0.04362514       0.001
   0.13569083  0.05344727  0.03898561       0.001
   0.16961354  0.07397937  0.03434607       0.001
   0.20353625  0.09451146  0.02970654       0.001
  -0.16961354 -0.13134157  0.08074143       0.001
  -0.13569083 -0.11080948  0.07610190       0.001
  -0.10176812 -0.09027738  0.07146236       0.001
  -0.06784542 -0.06974529  0.06682282       0.001
  -0.03392271 -0.04921320  0.06218329       0.001
   0.00000000 -0.02868110  0.05754375       0.001
   0.00000000  0.00695041  0.08353416       0.001
   0.03392271  0.02748251  0.07889462       0.001
   0.06784542  0.04801460  0.07425509       0.001
   0.10176812  0.06854669  0.06961555       0.001
   0.13569083  0.08907879  0.06497601       0.001
   0.16961354  0.10961088  0.06033648       0.001
  -0.20353625 -0.11624215  0.11137137       0.001
  -0.16961354 -0.09571005  0.10673184       0.001
  -0.13569083 -0.07517796  0.10209230       0.001
  -0.10176812 -0.05464587  0.09745277       0.001
  -0.06784542 -0.03411377  0.09281323       0.001
  -0.03392271 -0.01358168  0.08817369       0.001
  -0.03392271  0.02748251  0.07889462       0.001
   0.00000000  0.04801460  0.07425509       0.001
   0.03392271  0.06854669  0.06961555       0.001
   0.06784542  0.08907879  0.06497601       0.001
   0.10176812  0.10961088  0.06033648       0.001
   0.13569083  0.13014298  0.05569694       0.001
  -0.23745896 -0.09571005  0.10673184       0.001
  -0.20353625 -0.07517796  0.10209230       0.001
  -0.16961354 -0.05464587  0.09745277       0.001
  -0.13569083 -0.03411377  0.09281323       0.001
  -0.10176812 -0.01358168  0.08817369       0.001
  -0.06784542  0.00695041  0.08353416       0.001
  -0.06784542  0.04801460  0.07425509       0.001
  -0.03392271  0.06854669  0.06961555       0.001
   0.00000000  0.08907879  0.06497601       0.001
   0.03392271  0.10961088  0.06033648       0.001
   0.06784542  0.13014298  0.05569694       0.001
   0.10176812  0.15067507  0.05105740       0.001
  -0.27138166 -0.07517796  0.10209230       0.001
  -0.23745896 -0.05464587  0.09745277       0.001
  -0.20353625 -0.03411377  0.09281323       0.001
  -0.16961354 -0.01358168  0.08817369       0.001
  -0.13569083  0.00695041  0.08353416       0.001
  -0.10176812  0.02748251  0.07889462       0.001
  -0.10176812  0.06854669  0.06961555       0.001
  -0.06784542  0.08907879  0.06497601       0.001
  -0.03392271  0.10961088  0.06033648       0.001
   0.00000000  0.13014298  0.05569694       0.001
   0.03392271  0.15067507  0.05105740       0.001
   0.06784542  0.17120716  0.04641787       0.001
  -0.30530437 -0.05464587  0.09745277       0.001
  -0.27138166 -0.03411377  0.09281323       0.001
  -0.23745896 -0.01358168  0.08817369       0.001
  -0.20353625  0.00695041  0.08353416       0.001
  -0.16961354  0.02748251  0.07889462       0.001
  -0.13569083  0.04801460  0.07425509       0.001
  -0.13569083  0.08907879  0.06497601       0.001
  -0.10176812  0.10961088  0.06033648       0.001
  -0.06784542  0.13014298  0.05569694       0.001
  -0.03392271  0.15067507  0.05105740       0.001
   0.00000000  0.17120716  0.04641787       0.001
   0.03392271  0.19173926  0.04177833       0.001
  -0.33922708 -0.03411377  0.09281323       0.001
  -0.30530437 -0.01358168  0.08817369       0.001
  -0.27138166  0.00695041  0.08353416       0.001
  -0.23745896  0.02748251  0.07889462       0.001
  -0.20353625  0.04801460  0.07425509       0.001
  -0.16961354  0.06854669  0.06961555       0.001
  -0.16961354  0.10961088  0.06033648       0.001
  -0.13569083  0.13014298  0.05569694       0.001
  -0.10176812  0.15067507  0.05105740       0.001
  -0.06784542  0.17120716  0.04641787       0.001
  -0.03392271  0.19173926  0.04177833       0.001
   0.00000000  0.21227135  0.03713880       0.001
  -0.37314979 -0.01358168  0.08817369       0.001
  -0.33922708  0.00695041  0.08353416       0.001
  -0.30530437  0.02748251  0.07889462       0.001
  -0.27138166  0.04801460  0.07425509       0.001
  -0.23745896  0.06854669  0.06961555       0.001
  -0.20353625  0.08907879  0.06497601       0.001
   0.20353625 -0.11624215  0.11137137       0.001
   0.23745896 -0.09571005  0.10673184       0.001
   0.27138166 -0.07517796  0.10209230       0.001
   0.30530437 -0.05464587  0.09745277       0.001
   0.33922708 -0.03411377  0.09281323       0.001
   0.37314979 -0.01358168  0.08817369       0.001
   0.00000000 -0.23943471  0.13920859       0.001
   0.03392271 -0.21890262  0.13456905       0.001
   0.06784542 -0.19837052  0.12992952       0.001
   0.10176812 -0.17783843  0.12528998       0.001
   0.13569083 -0.15730634  0.12065045       0.001
   0.16961354 -0.13677424  0.11601091       0.001
   0.16961354 -0.09571005  0.10673184       0.001
   0.20353625 -0.07517796  0.10209230       0.001
   0.23745896 -0.05464587  0.09745277       0.001
   0.27138166 -0.03411377  0.09281323       0.001
   0.30530437 -0.01358168  0.08817369       0.001
   0.33922708  0.00695041  0.08353416       0.001
  -0.03392271 -0.21890262  0.13456905       0.001
   0.00000000 -0.19837052  0.12992952       0.001
   0.03392271 -0.17783843  0.12528998       0.001
   0.06784542 -0.15730634  0.12065045       0.001
   0.10176812 -0.13677424  0.11601091       0.001
   0.13569083 -0.11624215  0.11137137       0.001
   0.13569083 -0.07517796  0.10209230       0.001
   0.16961354 -0.05464587  0.09745277       0.001
   0.20353625 -0.03411377  0.09281323       0.001
   0.23745896 -0.01358168  0.08817369       0.001
   0.27138166  0.00695041  0.08353416       0.001
   0.30530437  0.02748251  0.07889462       0.001
  -0.06784542 -0.19837052  0.12992952       0.001
  -0.03392271 -0.17783843  0.12528998       0.001
   0.00000000 -0.15730634  0.12065045       0.001
   0.03392271 -0.13677424  0.11601091       0.001
   0.06784542 -0.11624215  0.11137137       0.001
   0.10176812 -0.09571005  0.10673184       0.001
   0.10176812 -0.05464587  0.09745277       0.001
   0.13569083 -0.03411377  0.09281323       0.001
   0.16961354 -0.01358168  0.08817369       0.001
   0.20353625  0.00695041  0.08353416       0.001
   0.23745896  0.02748251  0.07889462       0.001
   0.27138166  0.04801460  0.07425509       0.001
  -0.10176812 -0.17783843  0.12528998       0.001
  -0.06784542 -0.15730634  0.12065045       0.001
  -0.03392271 -0.13677424  0.11601091       0.001
   0.00000000 -0.11624215  0.11137137       0.001
   0.03392271 -0.09571005  0.10673184       0.001
   0.06784542 -0.07517796  0.10209230       0.001
   0.06784542 -0.03411377  0.09281323       0.001
   0.10176812 -0.01358168  0.08817369       0.001
   0.13569083  0.00695041  0.08353416       0.001
   0.16961354  0.02748251  0.07889462       0.001
   0.20353625  0.04801460  0.07425509       0.001
   0.23745896  0.06854669  0.06961555       0.001
  -0.13569083 -0.15730634  0.12065045       0.001
  -0.10176812 -0.13677424  0.11601091       0.001
  -0.06784542 -0.11624215  0.11137137       0.001
  -0.03392271 -0.09571005  0.10673184       0.001
   0.00000000 -0.07517796  0.10209230       0.001
   0.03392271 -0.05464587  0.09745277       0.001
   0.03392271 -0.01358168  0.08817369       0.001
   0.06784542  0.00695041  0.08353416       0.001
   0.10176812  0.02748251  0.07889462       0.001
   0.13569083  0.04801460  0.07425509       0.001
   0.16961354  0.06854669  0.06961555       0.001
   0.20353625  0.08907879  0.06497601       0.001
  -0.16961354 -0.13677424  0.11601091       0.001
  -0.13569083 -0.11624215  0.11137137       0.001
  -0.10176812 -0.09571005  0.10673184       0.001
  -0.06784542 -0.07517796  0.10209230       0.001
  -0.03392271 -0.05464587  0.09745277       0.001
   0.00000000 -0.03411377  0.09281323       0.001
   0.00000000  0.00151774  0.11880363       0.001
   0.03392271  0.02204984  0.11416410       0.001
   0.06784542  0.04258193  0.10952456       0.001
   0.10176812  0.06311402  0.10488503       0.001
   0.13569083  0.08364612  0.10024549       0.001
   0.16961354  0.10417821  0.09560595       0.001
  -0.20353625 -0.12167482  0.14664085       0.001
  -0.16961354 -0.10114273  0.14200132       0.001
  -0.13569083 -0.08061063  0.13736178       0.001
  -0.10176812 -0.06007854  0.13272224       0.001
  -0.06784542 -0.03954645  0.12808271       0.001
  -0.03392271 -0.01901435  0.12344317       0.001
  -0.03392271  0.02204984  0.11416410       0.001
   0.00000000  0.04258193  0.10952456       0.001
   0.03392271  0.06311402  0.10488503       0.001
   0.06784542  0.08364612  0.10024549       0.001
   0.10176812  0.10417821  0.09560595       0.001
   0.13569083  0.12471030  0.09096642       0.001
  -0.23745896 -0.10114273  0.14200132       0.001
  -0.20353625 -0.08061063  0.13736178       0.001
  -0.16961354 -0.06007854  0.13272224       0.001
  -0.13569083 -0.03954645  0.12808271       0.001
  -0.10176812 -0.01901435  0.12344317       0.001
  -0.06784542  0.00151774  0.11880363       0.001
  -0.06784542  0.04258193  0.10952456       0.001
  -0.03392271  0.06311402  0.10488503       0.001
   0.00000000  0.08364612  0.10024549       0.001
   0.03392271  0.10417821  0.09560595       0.001
   0.06784542  0.12471030  0.09096642       0.001
   0.10176812  0.14524240  0.08632688       0.001
  -0.27138166 -0.08061063  0.13736178       0.001
  -0.23745896 -0.06007854  0.13272224       0.001
  -0.20353625 -0.03954645  0.12808271       0.001
  -0.16961354 -0.01901435  0.12344317       0.001
  -0.13569083  0.00151774  0.11880363       0.001
  -0.10176812  0.02204984  0.11416410       0.001
  -0.10176812  0.06311402  0.10488503       0.001
  -0.06784542  0.08364612  0.10024549       0.001
  -0.03392271  0.10417821  0.09560595       0.001
   0.00000000  0.12471030  0.09096642       0.001
   0.03392271  0.14524240  0.08632688       0.001
   0.06784542  0.16577449  0.08168735       0.001
  -0.30530437 -0.06007854  0.13272224       0.001
  -0.27138166 -0.03954645  0.12808271       0.001
  -0.23745896 -0.01901435  0.12344317       0.001
  -0.20353625  0.00151774  0.11880363       0.001
  -0.16961354  0.02204984  0.11416410       0.001
  -0.13569083  0.04258193  0.10952456       0.001
  -0.13569083  0.08364612  0.10024549       0.001
  -0.10176812  0.10417821  0.09560595       0.001
  -0.06784542  0.12471030  0.09096642       0.001
  -0.03392271  0.14524240  0.08632688       0.001
   0.00000000  0.16577449  0.08168735       0.001
   0.03392271  0.18630658  0.07704781       0.001
  -0.33922708 -0.03954645  0.12808271       0.001
  -0.30530437 -0.01901435  0.12344317       0.001
  -0.27138166  0.00151774  0.11880363       0.001
  -0.23745896  0.02204984  0.11416410       0.001
  -0.20353625  0.04258193  0.10952456       0.001
  -0.16961354  0.06311402  0.10488503       0.001
  -0.16961354  0.10417821  0.09560595       0.001
  -0.13569083  0.12471030  0.09096642       0.001
  -0.10176812  0.14524240  0.08632688       0.001
  -0.06784542  0.16577449  0.08168735       0.001
  -0.03392271  0.18630658  0.07704781       0.001
   0.00000000  0.20683868  0.07240827       0.001
  -0.37314979 -0.01901435  0.12344317       0.001
  -0.33922708  0.00151774  0.11880363       0.001
  -0.30530437  0.02204984  0.11416410       0.001
  -0.27138166  0.04258193  0.10952456       0.001
  -0.23745896  0.06311402  0.10488503       0.001
  -0.20353625  0.08364612  0.10024549       0.001
   0.20353625 -0.12167482  0.14664085       0.001
   0.23745896 -0.10114273  0.14200132       0.001
   0.27138166 -0.08061063  0.13736178       0.001
   0.30530437 -0.06007854  0.13272224       0.001
   0.33922708 -0.03954645  0.12808271       0.001
   0.37314979 -0.01901435  0.12344317       0.001
   0.00000000 -0.24486738  0.17447807       0.001
   0.03392271 -0.22433529  0.16983853       0.001
   0.06784542 -0.20380320  0.16519900       0.001
   0.10176812 -0.18327110  0.16055946       0.001
   0.13569083 -0.16273901  0.15591992       0.001
   0.16961354 -0.14220691  0.15128039       0.001
   0.16961354 -0.10114273  0.14200132       0.001
   0.20353625 -0.08061063  0.13736178       0.001
   0.23745896 -0.06007854  0.13272224       0.001
   0.27138166 -0.03954645  0.12808271       0.001
   0.30530437 -0.01901435  0.12344317       0.001
   0.33922708  0.00151774  0.11880363       0.001
  -0.03392271 -0.22433529  0.16983853       0.001
   0.00000000 -0.20380320  0.16519900       0.001
   0.03392271 -0.18327110  0.16055946       0.001
   0.06784542 -0.16273901  0.15591992       0.001
   0.10176812 -0.14220691  0.15128039       0.001
   0.13569083 -0.12167482  0.14664085       0.001
   0.13569083 -0.08061063  0.13736178       0.001
   0.16961354 -0.06007854  0.13272224       0.001
   0.20353625 -0.03954645  0.12808271       0.001
   0.23745896 -0.01901435  0.12344317       0.001
   0.27138166  0.00151774  0.11880363       0.001
   0.30530437  0.02204984  0.11416410       0.001
  -0.06784542 -0.20380320  0.16519900       0.001
  -0.03392271 -0.18327110  0.16055946       0.001
   0.00000000 -0.16273901  0.15591992       0.001
   0.03392271 -0.14220691  0.15128039       0.001
   0.06784542 -0.12167482  0.14664085       0.001
   0.10176812 -0.10114273  0.14200132       0.001
   0.10176812 -0.06007854  0.13272224       0.001
   0.13569083 -0.03954645  0.12808271       0.001
   0.16961354 -0.01901435  0.12344317       0.001
   0.20353625  0.00151774  0.11880363       0.001
   0.23745896  0.02204984  0.11416410       0.001
   0.27138166  0.04258193  0.10952456       0.001
  -0.10176812 -0.18327110  0.16055946       0.001
  -0.06784542 -0.16273901  0.15591992       0.001
  -0.03392271 -0.14220691  0.15128039       0.001
   0.00000000 -0.12167482  0.14664085       0.001
   0.03392271 -0.10114273  0.14200132       0.001
   0.06784542 -0.08061063  0.13736178       0.001
   0.06784542 -0.03954645  0.12808271       0.001
   0.10176812 -0.01901435  0.12344317       0.001
   0.13569083  0.00151774  0.11880363       0.001
   0.16961354  0.02204984  0.11416410       0.001
   0.20353625  0.04258193  0.10952456       0.001
   0.23745896  0.06311402  0.10488503       0.001
  -0.13569083 -0.16273901  0.15591992       0.001
  -0.10176812 -0.14220691  0.15128039       0.001
  -0.06784542 -0.12167482  0.14664085       0.001
  -0.03392271 -0.10114273  0.14200132       0.001
   0.00000000 -0.08061063  0.13736178       0.001
   0.03392271 -0.06007854  0.13272224       0.001
   0.03392271 -0.01901435  0.12344317       0.001
   0.06784542  0.00151774  0.11880363       0.001
   0.10176812  0.02204984  0.11416410       0.001
   0.13569083  0.04258193  0.10952456       0.001
   0.16961354  0.06311402  0.10488503       0.001
   0.20353625  0.08364612  0.10024549       0.001
  -0.16961354 -0.14220691  0.15128039       0.001
  -0.13569083 -0.12167482  0.14664085       0.001
  -0.10176812 -0.10114273  0.14200132       0.001
  -0.06784542 -0.08061063  0.13736178       0.001
  -0.03392271 -0.06007854  0.13272224       0.001
   0.00000000 -0.03954645  0.12808271       0.001
   0.00000000  0.03954645 -0.12808271       0.001
   0.03392271  0.06007854 -0.13272224       0.001
   0.06784542  0.08061063 -0.13736178       0.001
   0.10176812  0.10114273 -0.14200132       0.001
   0.13569083  0.12167482 -0.14664085       0.001
   0.16961354  0.14220691 -0.15128039       0.001
  -0.20353625 -0.08364612 -0.10024549       0.001
  -0.16961354 -0.06311402 -0.10488503       0.001
  -0.13569083 -0.04258193 -0.10952456       0.001
  -0.10176812 -0.02204984 -0.11416410       0.001
  -0.06784542 -0.00151774 -0.11880363       0.001
  -0.03392271  0.01901435 -0.12344317       0.001
  -0.03392271  0.06007854 -0.13272224       0.001
   0.00000000  0.08061063 -0.13736178       0.001
   0.03392271  0.10114273 -0.14200132       0.001
   0.06784542  0.12167482 -0.14664085       0.001
   0.10176812  0.14220691 -0.15128039       0.001
   0.13569083  0.16273901 -0.15591992       0.001
  -0.23745896 -0.06311402 -0.10488503       0.001
  -0.20353625 -0.04258193 -0.10952456       0.001
  -0.16961354 -0.02204984 -0.11416410       0.001
  -0.13569083 -0.00151774 -0.11880363       0.001
  -0.10176812  0.01901435 -0.12344317       0.001
  -0.06784542  0.03954645 -0.12808271       0.001
  -0.06784542  0.08061063 -0.13736178       0.001
  -0.03392271  0.10114273 -0.14200132       0.001
   0.00000000  0.12167482 -0.14664085       0.001
   0.03392271  0.14220691 -0.15128039       0.001
   0.06784542  0.16273901 -0.15591992       0.001
   0.10176812  0.18327110 -0.16055946       0.001
  -0.27138166 -0.04258193 -0.10952456       0.001
  -0.23745896 -0.02204984 -0.11416410       0.001
  -0.20353625 -0.00151774 -0.11880363       0.001
  -0.16961354  0.01901435 -0.12344317       0.001
  -0.13569083  0.03954645 -0.12808271       0.001
  -0.10176812  0.06007854 -0.13272224       0.001
  -0.10176812  0.10114273 -0.14200132       0.001
  -0.06784542  0.12167482 -0.14664085       0.001
  -0.03392271  0.14220691 -0.15128039       0.001
   0.00000000  0.16273901 -0.15591992       0.001
   0.03392271  0.18327110 -0.16055946       0.001
   0.06784542  0.20380320 -0.16519900       0.001
  -0.30530437 -0.02204984 -0.11416410       0.001
  -0.27138166 -0.00151774 -0.11880363       0.001
  -0.23745896  0.01901435 -0.12344317       0.001
  -0.20353625  0.03954645 -0.12808271       0.001
  -0.16961354  0.06007854 -0.13272224       0.001
  -0.13569083  0.08061063 -0.13736178       0.001
  -0.13569083  0.12167482 -0.14664085       0.001
  -0.10176812  0.14220691 -0.15128039       0.001
  -0.06784542  0.16273901 -0.15591992       0.001
  -0.03392271  0.18327110 -0.16055946       0.001
   0.00000000  0.20380320 -0.16519900       0.001
   0.03392271  0.22433529 -0.16983853       0.001
  -0.33922708 -0.00151774 -0.11880363       0.001
  -0.30530437  0.01901435 -0.12344317       0.001
  -0.27138166  0.03954645 -0.12808271       0.001
  -0.23745896  0.06007854 -0.13272224       0.001
  -0.20353625  0.08061063 -0.13736178       0.001
  -0.16961354  0.10114273 -0.14200132       0.001
  -0.16961354  0.14220691 -0.15128039       0.001
  -0.13569083  0.16273901 -0.15591992       0.001
  -0.10176812  0.18327110 -0.16055946       0.001
  -0.06784542  0.20380320 -0.16519900       0.001
  -0.03392271  0.22433529 -0.16983853       0.001
   0.00000000  0.24486738 -0.17447807       0.001
  -0.37314979  0.01901435 -0.12344317       0.001
  -0.33922708  0.03954645 -0.12808271       0.001
  -0.30530437  0.06007854 -0.13272224       0.001
  -0.27138166  0.08061063 -0.13736178       0.001
  -0.23745896  0.10114273 -0.14200132       0.001
  -0.20353625  0.12167482 -0.14664085       0.001
   0.20353625 -0.08364612 -0.10024549       0.001
   0.23745896 -0.06311402 -0.10488503       0.001
   0.27138166 -0.04258193 -0.10952456       0.001
   0.30530437 -0.02204984 -0.11416410       0.001
   0.33922708 -0.00151774 -0.11880363       0.001
   0.37314979  0.01901435 -0.12344317       0.001
   0.00000000 -0.20683868 -0.07240827       0.001
   0.03392271 -0.18630658 -0.07704781       0.001
   0.06784542 -0.16577449 -0.08168735       0.001
   0.10176812 -0.14524240 -0.08632688       0.001
   0.13569083 -0.12471030 -0.09096642       0.001
   0.16961354 -0.10417821 -0.09560595       0.001
   0.16961354 -0.06311402 -0.10488503       0.001
   0.20353625 -0.04258193 -0.10952456       0.001
   0.23745896 -0.02204984 -0.11416410       0.001
   0.27138166 -0.00151774 -0.11880363       0.001
   0.30530437  0.01901435 -0.12344317       0.001
   0.33922708  0.03954645 -0.12808271       0.001
  -0.03392271 -0.18630658 -0.07704781       0.001
   0.00000000 -0.16577449 -0.08168735       0.001
   0.03392271 -0.14524240 -0.08632688       0.001
   0.06784542 -0.12471030 -0.09096642       0.001
   0.10176812 -0.10417821 -0.09560595       0.001
   0.13569083 -0.08364612 -0.10024549       0.001
   0.13569083 -0.04258193 -0.10952456       0.001
   0.16961354 -0.02204984 -0.11416410       0.001
   0.20353625 -0.00151774 -0.11880363       0.001
   0.23745896  0.01901435 -0.12344317       0.001
   0.27138166  0.03954645 -0.12808271       0.001
   0.30530437  0.06007854 -0.13272224       0.001
  -0.06784542 -0.16577449 -0.08168735       0.001
  -0.03392271 -0.14524240 -0.08632688       0.001
   0.00000000 -0.12471030 -0.09096642       0.001
   0.03392271 -0.10417821 -0.09560595       0.001
   0.06784542 -0.08364612 -0.10024549       0.001
   0.10176812 -0.06311402 -0.10488503       0.001
   0.10176812 -0.02204984 -0.11416410       0.001
   0.13569083 -0.00151774 -0.11880363       0.001
   0.16961354  0.01901435 -0.12344317       0.001
   0.20353625  0.03954645 -0.12808271       0.001
   0.23745896  0.06007854 -0.13272224       0.001
   0.27138166  0.08061063 -0.13736178       0.001
  -0.10176812 -0.14524240 -0.08632688       0.001
  -0.06784542 -0.12471030 -0.09096642       0.001
  -0.03392271 -0.10417821 -0.09560595       0.001
   0.00000000 -0.08364612 -0.10024549       0.001
   0.03392271 -0.06311402 -0.10488503       0.001
   0.06784542 -0.04258193 -0.10952456       0.001
   0.06784542 -0.00151774 -0.11880363       0.001
   0.10176812  0.01901435 -0.12344317       0.001
   0.13569083  0.03954645 -0.12808271       0.001
   0.16961354  0.06007854 -0.13272224       0.001
   0.20353625  0.08061063 -0.13736178       0.001
   0.23745896  0.10114273 -0.14200132       0.001
  -0.13569083 -0.12471030 -0.09096642       0.001
  -0.10176812 -0.10417821 -0.09560595       0.001
  -0.06784542 -0.08364612 -0.10024549       0.001
  -0.03392271 -0.06311402 -0.10488503       0.001
   0.00000000 -0.04258193 -0.10952456       0.001
   0.03392271 -0.02204984 -0.11416410       0.001
   0.03392271  0.01901435 -0.12344317       0.001
   0.06784542  0.03954645 -0.12808271       0.001
   0.10176812  0.06007854 -0.13272224       0.001
   0.13569083  0.08061063 -0.13736178       0.001
   0.16961354  0.10114273 -0.14200132       0.001
   0.20353625  0.12167482 -0.14664085       0.001
  -0.16961354 -0.10417821 -0.09560595       0.001
  -0.13569083 -0.08364612 -0.10024549       0.001
  -0.10176812 -0.06311402 -0.10488503       0.001
  -0.06784542 -0.04258193 -0.10952456       0.001
  -0.03392271 -0.02204984 -0.11416410       0.001
   0.00000000 -0.00151774 -0.11880363       0.001
   0.00000000  0.03411377 -0.09281323       0.001
   0.03392271  0.05464587 -0.09745277       0.001
   0.06784542  0.07517796 -0.10209230       0.001
   0.10176812  0.09571005 -0.10673184       0.001
   0.13569083  0.11624215 -0.11137137       0.001
   0.16961354  0.13677424 -0.11601091       0.001
  -0.20353625 -0.08907879 -0.06497601       0.001
  -0.16961354 -0.06854669 -0.06961555       0.001
  -0.13569083 -0.04801460 -0.07425509       0.001
  -0.10176812 -0.02748251 -0.07889462       0.001
  -0.06784542 -0.00695041 -0.08353416       0.001
  -0.03392271  0.01358168 -0.08817369       0.001
  -0.03392271  0.05464587 -0.09745277       0.001
   0.00000000  0.07517796 -0.10209230       0.001
   0.03392271  0.09571005 -0.10673184       0.001
   0.06784542  0.11624215 -0.11137137       0.001
   0.10176812  0.13677424 -0.11601091       0.001
   0.13569083  0.15730634 -0.12065045       0.001
  -0.23745896 -0.06854669 -0.06961555       0.001
  -0.20353625 -0.04801460 -0.07425509       0.001
  -0.16961354 -0.02748251 -0.07889462       0.001
  -0.13569083 -0.00695041 -0.08353416       0.001
  -0.10176812  0.01358168 -0.08817369       0.001
  -0.06784542  0.03411377 -0.09281323       0.001
  -0.06784542  0.07517796 -0.10209230       0.001
  -0.03392271  0.09571005 -0.10673184       0.001
   0.00000000  0.11624215 -0.11137137       0.001
   0.03392271  0.13677424 -0.11601091       0.001
   0.06784542  0.15730634 -0.12065045       0.001
   0.10176812  0.17783843 -0.12528998       0.001
  -0.27138166 -0.04801460 -0.07425509       0.001
  -0.23745896 -0.02748251 -0.07889462       0.001
  -0.20353625 -0.00695041 -0.08353416       0.001
  -0.16961354  0.01358168 -0.08817369       0.001
  -0.13569083  0.03411377 -0.09281323       0.001
  -0.10176812  0.05464587 -0.09745277       0.001
  -0.10176812  0.09571005 -0.10673184       0.001
  -0.06784542  0.11624215 -0.11137137       0.001
  -0.03392271  0.13677424 -0.11601091       0.001
   0.00000000  0.15730634 -0.12065045       0.001
   0.03392271  0.17783843 -0.12528998       0.001
   0.06784542  0.19837052 -0.12992952       0.001
  -0.30530437 -0.02748251 -0.07889462       0.001
  -0.27138166 -0.00695041 -0.08353416       0.001
  -0.23745896  0.01358168 -0.08817369       0.001
  -0.20353625  0.03411377 -0.09281323       0.001
  -0.16961354  0.05464587 -0.09745277       0.001
  -0.13569083  0.07517796 -0.10209230       0.001
  -0.13569083  0.11624215 -0.11137137       0.001
  -0.10176812  0.13677424 -0.11601091       0.001
  -0.06784542  0.15730634 -0.12065045       0.001
  -0.03392271  0.17783843 -0.12528998       0.001
   0.00000000  0.19837052 -0.12992952       0.001
   0.03392271  0.21890262 -0.13456905       0.001
  -0.33922708 -0.00695041 -0.08353416       0.001
  -0.30530437  0.01358168 -0.08817369       0.001
  -0.27138166  0.03411377 -0.09281323       0.001
  -0.23745896  0.05464587 -0.09745277       0.001
  -0.20353625  0.07517796 -0.10209230       0.001
  -0.16961354  0.09571005 -0.10673184       0.001
  -0.16961354  0.13677424 -0.11601091       0.001
  -0.13569083  0.15730634 -0.12065045       0.001
  -0.10176812  0.17783843 -0.12528998       0.001
  -0.06784542  0.19837052 -0.12992952       0.001
  -0.03392271  0.21890262 -0.13456905       0.001
   0.00000000  0.23943471 -0.13920859       0.001
  -0.37314979  0.01358168 -0.08817369       0.001
  -0.33922708  0.03411377 -0.09281323       0.001
  -0.30530437  0.05464587 -0.09745277       0.001
  -0.27138166  0.07517796 -0.10209230       0.001
  -0.23745896  0.09571005 -0.10673184       0.001
  -0.20353625  0.11624215 -0.11137137       0.001
   0.20353625 -0.08907879 -0.06497601       0.001
   0.23745896 -0.06854669 -0.06961555       0.001
   0.27138166 -0.04801460 -0.07425509       0.001
   0.30530437 -0.02748251 -0.07889462       0.001
   0.33922708 -0.00695041 -0.08353416       0.001
   0.37314979  0.01358168 -0.08817369       0.001
   0.00000000 -0.21227135 -0.03713880       0.001
   0.03392271 -0.19173926 -0.04177833       0.001
   0.06784542 -0.17120716 -0.04641787       0.001
   0.10176812 -0.15067507 -0.05105740       0.001
   0.13569083 -0.13014298 -0.05569694       0.001
   0.16961354 -0.10961088 -0.06033648       0.001
   0.16961354 -0.06854669 -0.06961555       0.001
   0.20353625 -0.04801460 -0.07425509       0.001
   0.23745896 -0.02748251 -0.07889462       0.001
   0.27138166 -0.00695041 -0.08353416       0.001
   0.30530437  0.01358168 -0.08817369       0.001
   0.33922708  0.03411377 -0.09281323       0.001
  -0.03392271 -0.19173926 -0.04177833       0.001
   0.00000000 -0.17120716 -0.04641787       0.001
   0.03392271 -0.15067507 -0.05105740       0.001
   0.06784542 -0.13014298 -0.05569694       0.001
   0.10176812 -0.10961088 -0.06033648       0.001
   0.13569083 -0.08907879 -0.06497601       0.001
   0.13569083 -0.04801460 -0.07425509       0.001
   0.16961354 -0.02748251 -0.07889462       0.001
   0.20353625 -0.00695041 -0.08353416       0.001
   0.23745896  0.01358168 -0.08817369       0.001
   0.27138166  0.03411377 -0.09281323       0.001
   0.30530437  0.05464587 -0.09745277       0.001
  -0.06784542 -0.17120716 -0.04641787       0.001
  -0.03392271 -0.15067507 -0.05105740       0.001
   0.00000000 -0.13014298 -0.05569694       0.001
   0.03392271 -0.10961088 -0.06033648       0.001
   0.06784542 -0.08907879 -0.06497601       0.001
   0.10176812 -0.06854669 -0.06961555       0.001
   0.10176812 -0.02748251 -0.07889462       0.001
   0.13569083 -0.00695041 -0.08353416       0.001
   0.16961354  0.01358168 -0.08817369       0.001
   0.20353625  0.03411377 -0.09281323       0.001
   0.23745896  0.05464587 -0.09745277       0.001
   0.27138166  0.07517796 -0.10209230       0.001
  -0.10176812 -0.15067507 -0.05105740       0.001
  -0.06784542 -0.13014298 -0.05569694       0.001
  -0.03392271 -0.10961088 -0.06033648       0.001
   0.00000000 -0.08907879 -0.06497601       0.001
   0.03392271 -0.06854669 -0.06961555       0.001
   0.06784542 -0.04801460 -0.07425509       0.001
   0.06784542 -0.00695041 -0.08353416       0.001
   0.10176812  0.01358168 -0.08817369       0.001
   0.13569083  0.03411377 -0.09281323       0.001
   0.16961354  0.05464587 -0.09745277       0.001
   0.20353625  0.07517796 -0.10209230       0.001
   0.23745896  0.09571005 -0.10673184       0.001
  -0.13569083 -0.13014298 -0.05569694       0.001
  -0.10176812 -0.10961088 -0.06033648       0.001
  -0.06784542 -0.08907879 -0.06497601       0.001
  -0.03392271 -0.06854669 -0.06961555       0.001
   0.00000000 -0.04801460 -0.07425509       0.001
   0.03392271 -0.02748251 -0.07889462       0.001
   0.03392271  0.01358168 -0.08817369       0.001
   0.06784542  0.03411377 -0.09281323       0.001
   0.10176812  0.05464587 -0.09745277       0.001
   0.13569083  0.07517796 -0.10209230       0.001
   0.16961354  0.09571005 -0.10673184       0.001
   0.20353625  0.11624215 -0.11137137       0.001
  -0.16961354 -0.10961088 -0.06033648       0.001
  -0.13569083 -0.08907879 -0.06497601       0.001
  -0.10176812 -0.06854669 -0.06961555       0.001
  -0.06784542 -0.04801460 -0.07425509       0.001
  -0.03392271 -0.02748251 -0.07889462       0.001
   0.00000000 -0.00695041 -0.08353416       0.001
   0.00000000  0.02868110 -0.05754375       0.001
   0.03392271  0.04921320 -0.06218329       0.001
   0.06784542  0.06974529 -0.06682282       0.001
   0.10176812  0.09027738 -0.07146236       0.001
   0.13569083  0.11080948 -0.07610190       0.001
   0.16961354  0.13134157 -0.08074143       0.001
  -0.20353625 -0.09451146 -0.02970654       0.001
  -0.16961354 -0.07397937 -0.03434607       0.001
  -0.13569083 -0.05344727 -0.03898561       0.001
  -0.10176812 -0.03291518 -0.04362514       0.001
  -0.06784542 -0.01238309 -0.04826468       0.001
  -0.03392271  0.00814901 -0.05290422       0.001
  -0.03392271  0.04921320 -0.06218329       0.001
   0.00000000  0.06974529 -0.06682282       0.001
   0.03392271  0.09027738 -0.07146236       0.001
   0.06784542  0.11080948 -0.07610190       0.001
   0.10176812  0.13134157 -0.08074143       0.001
   0.13569083  0.15187366 -0.08538097       0.001
  -0.23745896 -0.07397937 -0.03434607       0.001
  -0.20353625 -0.05344727 -0.03898561       0.001
  -0.16961354 -0.03291518 -0.04362514       0.001
  -0.13569083 -0.01238309 -0.04826468       0.001
  -0.10176812  0.00814901 -0.05290422       0.001
  -0.06784542  0.02868110 -0.05754375       0.001
  -0.06784542  0.06974529 -0.06682282       0.001
  -0.03392271  0.09027738 -0.07146236       0.001
   0.00000000  0.11080948 -0.07610190       0.001
   0.03392271  0.13134157 -0.08074143       0.001
   0.06784542  0.15187366 -0.08538097       0.001
   0.10176812  0.17240576 -0.09002050       0.001
  -0.27138166 -0.05344727 -0.03898561       0.001
  -0.23745896 -0.03291518 -0.04362514       0.001
  -0.20353625 -0.01238309 -0.04826468       0.001
  -0.16961354  0.00814901 -0.05290422       0.001
  -0.13569083  0.02868110 -0.05754375       0.001
  -0.10176812  0.04921320 -0.06218329       0.001
  -0.10176812  0.09027738 -0.07146236       0.001
  -0.06784542  0.11080948 -0.07610190       0.001
  -0.03392271  0.13134157 -0.08074143       0.001
   0.00000000  0.15187366 -0.08538097       0.001
   0.03392271  0.17240576 -0.09002050       0.001
   0.06784542  0.19293785 -0.09466004       0.001
  -0.30530437 -0.03291518 -0.04362514       0.001
  -0.27138166 -0.01238309 -0.04826468       0.001
  -0.23745896  0.00814901 -0.05290422       0.001
  -0.20353625  0.02868110 -0.05754375       0.001
  -0.16961354  0.04921320 -0.06218329       0.001
  -0.13569083  0.06974529 -0.06682282       0.001
  -0.13569083  0.11080948 -0.07610190       0.001
  -0.10176812  0.13134157 -0.08074143       0.001
  -0.06784542  0.15187366 -0.08538097       0.001
  -0.03392271  0.17240576 -0.09002050       0.001
   0.00000000  0.19293785 -0.09466004       0.001
   0.03392271  0.21346994 -0.09929958       0.001
  -0.33922708 -0.01238309 -0.04826468       0.001
  -0.30530437  0.00814901 -0.05290422       0.001
  -0.27138166  0.02868110 -0.05754375       0.001
  -0.23745896  0.04921320 -0.06218329       0.001
  -0.20353625  0.06974529 -0.06682282       0.001
  -0.16961354  0.09027738 -0.07146236       0.001
  -0.16961354  0.13134157 -0.08074143       0.001
  -0.13569083  0.15187366 -0.08538097       0.001
  -0.10176812  0.17240576 -0.09002050       0.001
  -0.06784542  0.19293785 -0.09466004       0.001
  -0.03392271  0.21346994 -0.09929958       0.001
   0.00000000  0.23400204 -0.10393911       0.001
  -0.37314979  0.00814901 -0.05290422       0.001
  -0.33922708  0.02868110 -0.05754375       0.001
  -0.30530437  0.04921320 -0.06218329       0.001
  -0.27138166  0.06974529 -0.06682282       0.001
  -0.23745896  0.09027738 -0.07146236       0.001
  -0.20353625  0.11080948 -0.07610190       0.001
   0.20353625 -0.09451146 -0.02970654       0.001
   0.23745896 -0.07397937 -0.03434607       0.001
   0.27138166 -0.05344727 -0.03898561       0.001
   0.30530437 -0.03291518 -0.04362514       0.001
   0.33922708 -0.01238309 -0.04826468       0.001
   0.37314979  0.00814901 -0.05290422       0.001
   0.00000000 -0.21770402 -0.00186932       0.001
   0.03392271 -0.19717193 -0.00650886       0.001
   0.06784542 -0.17663983 -0.01114839       0.001
   0.10176812 -0.15610774 -0.01578793       0.001
   0.13569083 -0.13557565 -0.02042746       0.001
   0.16961354 -0.11504355 -0.02506700       0.001
   0.16961354 -0.07397937 -0.03434607       0.001
   0.20353625 -0.05344727 -0.03898561       0.001
   0.23745896 -0.03291518 -0.04362514       0.001
   0.27138166 -0.01238309 -0.04826468       0.001
   0.30530437  0.00814901 -0.05290422       0.001
   0.33922708  0.02868110 -0.05754375       0.001
  -0.03392271 -0.19717193 -0.00650886       0.001
   0.00000000 -0.17663983 -0.01114839       0.001
   0.03392271 -0.15610774 -0.01578793       0.001
   0.06784542 -0.13557565 -0.02042746       0.001
   0.10176812 -0.11504355 -0.02506700       0.001
   0.13569083 -0.09451146 -0.02970654       0.001
   0.13569083 -0.05344727 -0.03898561       0.001
   0.16961354 -0.03291518 -0.04362514       0.001
   0.20353625 -0.01238309 -0.04826468       0.001
   0.23745896  0.00814901 -0.05290422       0.001
   0.27138166  0.02868110 -0.05754375       0.001
   0.30530437  0.04921320 -0.06218329       0.001
  -0.06784542 -0.17663983 -0.01114839       0.001
  -0.03392271 -0.15610774 -0.01578793       0.001
   0.00000000 -0.13557565 -0.02042746       0.001
   0.03392271 -0.11504355 -0.02506700       0.001
   0.06784542 -0.09451146 -0.02970654       0.001
   0.10176812 -0.07397937 -0.03434607       0.001
   0.10176812 -0.03291518 -0.04362514       0.001
   0.13569083 -0.01238309 -0.04826468       0.001
   0.16961354  0.00814901 -0.05290422       0.001
   0.20353625  0.02868110 -0.05754375       0.001
   0.23745896  0.04921320 -0.06218329       0.001
   0.27138166  0.06974529 -0.06682282       0.001
  -0.10176812 -0.15610774 -0.01578793       0.001
  -0.06784542 -0.13557565 -0.02042746       0.001
  -0.03392271 -0.11504355 -0.02506700       0.001
   0.00000000 -0.09451146 -0.02970654       0.001
   0.03392271 -0.07397937 -0.03434607       0.001
   0.06784542 -0.05344727 -0.03898561       0.001
   0.06784542 -0.01238309 -0.04826468       0.001
   0.10176812  0.00814901 -0.05290422       0.001
   0.13569083  0.02868110 -0.05754375       0.001
   0.16961354  0.04921320 -0.06218329       0.001
   0.20353625  0.06974529 -0.06682282       0.001
   0.23745896  0.09027738 -0.07146236       0.001
  -0.13569083 -0.13557565 -0.02042746       0.001
  -0.10176812 -0.11504355 -0.02506700       0.001
  -0.06784542 -0.09451146 -0.02970654       0.001
  -0.03392271 -0.07397937 -0.03434607       0.001
   0.00000000 -0.05344727 -0.03898561       0.001
   0.03392271 -0.03291518 -0.04362514       0.001
   0.03392271  0.00814901 -0.05290422       0.001
   0.06784542  0.02868110 -0.05754375       0.001
   0.10176812  0.04921320 -0.06218329       0.001
   0.13569083  0.06974529 -0.06682282       0.001
   0.16961354  0.09027738 -0.07146236       0.001
   0.20353625  0.11080948 -0.07610190       0.001
  -0.16961354 -0.11504355 -0.02506700       0.001
  -0.13569083 -0.09451146 -0.02970654       0.001
  -0.10176812 -0.07397937 -0.03434607       0.001
  -0.06784542 -0.05344727 -0.03898561       0.001
  -0.03392271 -0.03291518 -0.04362514       0.001
   0.00000000 -0.01238309 -0.04826468       0.001
   0.00000000  0.02324843 -0.02227427       0.001
   0.03392271  0.04378052 -0.02691381       0.001
   0.06784542  0.06431262 -0.03155335       0.001
   0.10176812  0.08484471 -0.03619288       0.001
   0.13569083  0.10537680 -0.04083242       0.001
   0.16961354  0.12590890 -0.04547196       0.001
  -0.20353625 -0.09994413  0.00556294       0.001
  -0.16961354 -0.07941204  0.00092341       0.001
  -0.13569083 -0.05887994 -0.00371613       0.001
  -0.10176812 -0.03834785 -0.00835567       0.001
  -0.06784542 -0.01781576 -0.01299520       0.001
  -0.03392271  0.00271634 -0.01763474       0.001
  -0.03392271  0.04378052 -0.02691381       0.001
   0.00000000  0.06431262 -0.03155335       0.001
   0.03392271  0.08484471 -0.03619288       0.001
   0.06784542  0.10537680 -0.04083242       0.001
   0.10176812  0.12590890 -0.04547196       0.001
   0.13569083  0.14644099 -0.05011149       0.001
  -0.23745896 -0.07941204  0.00092341       0.001
  -0.20353625 -0.05887994 -0.00371613       0.001
  -0.16961354 -0.03834785 -0.00835567       0.001
  -0.13569083 -0.01781576 -0.01299520       0.001
  -0.10176812  0.00271634 -0.01763474       0.001
  -0.06784542  0.02324843 -0.02227427       0.001
  -0.06784542  0.06431262 -0.03155335       0.001
  -0.03392271  0.08484471 -0.03619288       0.001
   0.00000000  0.10537680 -0.04083242       0.001
   0.03392271  0.12590890 -0.04547196       0.001
   0.06784542  0.14644099 -0.05011149       0.001
   0.10176812  0.16697309 -0.05475103       0.001
  -0.27138166 -0.05887994 -0.00371613       0.001
  -0.23745896 -0.03834785 -0.00835567       0.001
  -0.20353625 -0.01781576 -0.01299520       0.001
  -0.16961354  0.00271634 -0.01763474       0.001
  -0.13569083  0.02324843 -0.02227427       0.001
  -0.10176812  0.04378052 -0.02691381       0.001
  -0.10176812  0.08484471 -0.03619288       0.001
  -0.06784542  0.10537680 -0.04083242       0.001
  -0.03392271  0.12590890 -0.04547196       0.001
   0.00000000  0.14644099 -0.05011149       0.001
   0.03392271  0.16697309 -0.05475103       0.001
   0.06784542  0.18750518 -0.05939056       0.001
  -0.30530437 -0.03834785 -0.00835567       0.001
  -0.27138166 -0.01781576 -0.01299520       0.001
  -0.23745896  0.00271634 -0.01763474       0.001
  -0.20353625  0.02324843 -0.02227427       0.001
  -0.16961354  0.04378052 -0.02691381       0.001
  -0.13569083  0.06431262 -0.03155335       0.001
  -0.13569083  0.10537680 -0.04083242       0.001
  -0.10176812  0.12590890 -0.04547196       0.001
  -0.06784542  0.14644099 -0.05011149       0.001
  -0.03392271  0.16697309 -0.05475103       0.001
   0.00000000  0.18750518 -0.05939056       0.001
   0.03392271  0.20803727 -0.06403010       0.001
  -0.33922708 -0.01781576 -0.01299520       0.001
  -0.30530437  0.00271634 -0.01763474       0.001
  -0.27138166  0.02324843 -0.02227427       0.001
  -0.23745896  0.04378052 -0.02691381       0.001
  -0.20353625  0.06431262 -0.03155335       0.001
  -0.16961354  0.08484471 -0.03619288       0.001
  -0.16961354  0.12590890 -0.04547196       0.001
  -0.13569083  0.14644099 -0.05011149       0.001
  -0.10176812  0.16697309 -0.05475103       0.001
  -0.06784542  0.18750518 -0.05939056       0.001
  -0.03392271  0.20803727 -0.06403010       0.001
   0.00000000  0.22856937 -0.06866964       0.001
  -0.37314979  0.00271634 -0.01763474       0.001
  -0.33922708  0.02324843 -0.02227427       0.001
  -0.30530437  0.04378052 -0.02691381       0.001
  -0.27138166  0.06431262 -0.03155335       0.001
  -0.23745896  0.08484471 -0.03619288       0.001
  -0.20353625  0.10537680 -0.04083242       0.001
   0.20353625 -0.09994413  0.00556294       0.001
   0.23745896 -0.07941204  0.00092341       0.001
   0.27138166 -0.05887994 -0.00371613       0.001
   0.30530437 -0.03834785 -0.00835567       0.001
   0.33922708 -0.01781576 -0.01299520       0.001
   0.37314979  0.00271634 -0.01763474       0.001
   0.00000000 -0.22313669  0.03340016       0.001
   0.03392271 -0.20260460  0.02876062       0.001
   0.06784542 -0.18207251  0.02412109       0.001
   0.10176812 -0.16154041  0.01948155       0.001
   0.13569083 -0.14100832  0.01484201       0.001
   0.16961354 -0.12047623  0.01020248       0.001
   0.16961354 -0.07941204  0.00092341       0.001
   0.20353625 -0.05887994 -0.00371613       0.001
   0.23745896 -0.03834785 -0.00835567       0.001
   0.27138166 -0.01781576 -0.01299520       0.001
   0.30530437  0.00271634 -0.01763474       0.001
   0.33922708  0.02324843 -0.02227427       0.001
  -0.03392271 -0.20260460  0.02876062       0.001
   0.00000000 -0.18207251  0.02412109       0.001
   0.03392271 -0.16154041  0.01948155       0.001
   0.06784542 -0.14100832  0.01484201       0.001
   0.10176812 -0.12047623  0.01020248       0.001
   0.13569083 -0.09994413  0.00556294       0.001
   0.13569083 -0.05887994 -0.00371613       0.001
   0.16961354 -0.03834785 -0.00835567       0.001
   0.20353625 -0.01781576 -0.01299520       0.001
   0.23745896  0.00271634 -0.01763474       0.001
   0.27138166  0.02324843 -0.02227427       0.001
   0.30530437  0.04378052 -0.02691381       0.001
  -0.06784542 -0.18207251  0.02412109       0.001
  -0.03392271 -0.16154041  0.01948155       0.001
   0.00000000 -0.14100832  0.01484201       0.001
   0.03392271 -0.12047623  0.01020248       0.001
   0.06784542 -0.09994413  0.00556294       0.001
   0.10176812 -0.07941204  0.00092341       0.001
   0.10176812 -0.03834785 -0.00835567       0.001
   0.13569083 -0.01781576 -0.01299520       0.001
   0.16961354  0.00271634 -0.01763474       0.001
   0.20353625  0.02324843 -0.02227427       0.001
   0.23745896  0.04378052 -0.02691381       0.001
   0.27138166  0.06431262 -0.03155335       0.001
  -0.10176812 -0.16154041  0.01948155       0.001
  -0.06784542 -0.14100832  0.01484201       0.001
  -0.03392271 -0.12047623  0.01020248       0.001
   0.00000000 -0.09994413  0.00556294       0.001
   0.03392271 -0.07941204  0.00092341       0.001
   0.06784542 -0.05887994 -0.00371613       0.001
   0.06784542 -0.01781576 -0.01299520       0.001
   0.10176812  0.00271634 -0.01763474       0.001
   0.13569083  0.02324843 -0.02227427       0.001
   0.16961354  0.04378052 -0.02691381       0.001
   0.20353625  0.06431262 -0.03155335       0.001
   0.23745896  0.08484471 -0.03619288       0.001
  -0.13569083 -0.14100832  0.01484201       0.001
  -0.10176812 -0.12047623  0.01020248       0.001
  -0.06784542 -0.09994413  0.00556294       0.001
  -0.03392271 -0.07941204  0.00092341       0.001
   0.00000000 -0.05887994 -0.00371613       0.001
   0.03392271 -0.03834785 -0.00835567       0.001
   0.03392271  0.00271634 -0.01763474       0.001
   0.06784542  0.02324843 -0.02227427       0.001
   0.10176812  0.04378052 -0.02691381       0.001
   0.13569083  0.06431262 -0.03155335       0.001
   0.16961354  0.08484471 -0.03619288       0.001
   0.20353625  0.10537680 -0.04083242       0.001
  -0.16961354 -0.12047623  0.01020248       0.001
  -0.13569083 -0.09994413  0.00556294       0.001
  -0.10176812 -0.07941204  0.00092341       0.001
  -0.06784542 -0.05887994 -0.00371613       0.001
  -0.03392271 -0.03834785 -0.00835567       0.001
   0.00000000 -0.01781576 -0.01299520       0.001
 
 k-points in reciprocal lattice and weights: pymatgen with grid density = 2710 / numb
   0.04166667  0.04166667  0.06250000       0.001
   0.12500000  0.04166667  0.06250000       0.001
   0.20833333  0.04166667  0.06250000       0.001
   0.29166667  0.04166667  0.06250000       0.001
   0.37500000  0.04166667  0.06250000       0.001
   0.45833333  0.04166667  0.06250000       0.001
  -0.45833333  0.04166667  0.06250000       0.001
  -0.37500000  0.04166667  0.06250000       0.001
  -0.29166667  0.04166667  0.06250000       0.001
  -0.20833333  0.04166667  0.06250000       0.001
  -0.12500000  0.04166667  0.06250000       0.001
  -0.04166667  0.04166667  0.06250000       0.001
   0.04166667  0.12500000  0.06250000       0.001
   0.12500000  0.12500000  0.06250000       0.001
   0.20833333  0.12500000  0.06250000       0.001
   0.29166667  0.12500000  0.06250000       0.001
   0.37500000  0.12500000  0.06250000       0.001
   0.45833333  0.12500000  0.06250000       0.001
  -0.45833333  0.12500000  0.06250000       0.001
  -0.37500000  0.12500000  0.06250000       0.001
  -0.29166667  0.12500000  0.06250000       0.001
  -0.20833333  0.12500000  0.06250000       0.001
  -0.12500000  0.12500000  0.06250000       0.001
  -0.04166667  0.12500000  0.06250000       0.001
   0.04166667  0.20833333  0.06250000       0.001
   0.12500000  0.20833333  0.06250000       0.001
   0.20833333  0.20833333  0.06250000       0.001
   0.29166667  0.20833333  0.06250000       0.001
   0.37500000  0.20833333  0.06250000       0.001
   0.45833333  0.20833333  0.06250000       0.001
  -0.45833333  0.20833333  0.06250000       0.001
  -0.37500000  0.20833333  0.06250000       0.001
  -0.29166667  0.20833333  0.06250000       0.001
  -0.20833333  0.20833333  0.06250000       0.001
  -0.12500000  0.20833333  0.06250000       0.001
  -0.04166667  0.20833333  0.06250000       0.001
   0.04166667  0.29166667  0.06250000       0.001
   0.12500000  0.29166667  0.06250000       0.001
   0.20833333  0.29166667  0.06250000       0.001
   0.29166667  0.29166667  0.06250000       0.001
   0.37500000  0.29166667  0.06250000       0.001
   0.45833333  0.29166667  0.06250000       0.001
  -0.45833333  0.29166667  0.06250000       0.001
  -0.37500000  0.29166667  0.06250000       0.001
  -0.29166667  0.29166667  0.06250000       0.001
  -0.20833333  0.29166667  0.06250000       0.001
  -0.12500000  0.29166667  0.06250000       0.001
  -0.04166667  0.29166667  0.06250000       0.001
   0.04166667  0.37500000  0.06250000       0.001
   0.12500000  0.37500000  0.06250000       0.001
   0.20833333  0.37500000  0.06250000       0.001
   0.29166667  0.37500000  0.06250000       0.001
   0.37500000  0.37500000  0.06250000       0.001
   0.45833333  0.37500000  0.06250000       0.001
  -0.45833333  0.37500000  0.06250000       0.001
  -0.37500000  0.37500000  0.06250000       0.001
  -0.29166667  0.37500000  0.06250000       0.001
  -0.20833333  0.37500000  0.06250000       0.001
  -0.12500000  0.37500000  0.06250000       0.001
  -0.04166667  0.37500000  0.06250000       0.001
   0.04166667  0.45833333  0.06250000       0.001
   0.12500000  0.45833333  0.06250000       0.001
   0.20833333  0.45833333  0.06250000       0.001
   0.29166667  0.45833333  0.06250000       0.001
   0.37500000  0.45833333  0.06250000       0.001
   0.45833333  0.45833333  0.06250000       0.001
  -0.45833333  0.45833333  0.06250000       0.001
  -0.37500000  0.45833333  0.06250000       0.001
  -0.29166667  0.45833333  0.06250000       0.001
  -0.20833333  0.45833333  0.06250000       0.001
  -0.12500000  0.45833333  0.06250000       0.001
  -0.04166667  0.45833333  0.06250000       0.001
   0.04166667 -0.45833333  0.06250000       0.001
   0.12500000 -0.45833333  0.06250000       0.001
   0.20833333 -0.45833333  0.06250000       0.001
   0.29166667 -0.45833333  0.06250000       0.001
   0.37500000 -0.45833333  0.06250000       0.001
   0.45833333 -0.45833333  0.06250000       0.001
  -0.45833333 -0.45833333  0.06250000       0.001
  -0.37500000 -0.45833333  0.06250000       0.001
  -0.29166667 -0.45833333  0.06250000       0.001
  -0.20833333 -0.45833333  0.06250000       0.001
  -0.12500000 -0.45833333  0.06250000       0.001
  -0.04166667 -0.45833333  0.06250000       0.001
   0.04166667 -0.37500000  0.06250000       0.001
   0.12500000 -0.37500000  0.06250000       0.001
   0.20833333 -0.37500000  0.06250000       0.001
   0.29166667 -0.37500000  0.06250000       0.001
   0.37500000 -0.37500000  0.06250000       0.001
   0.45833333 -0.37500000  0.06250000       0.001
  -0.45833333 -0.37500000  0.06250000       0.001
  -0.37500000 -0.37500000  0.06250000       0.001
  -0.29166667 -0.37500000  0.06250000       0.001
  -0.20833333 -0.37500000  0.06250000       0.001
  -0.12500000 -0.37500000  0.06250000       0.001
  -0.04166667 -0.37500000  0.06250000       0.001
   0.04166667 -0.29166667  0.06250000       0.001
   0.12500000 -0.29166667  0.06250000       0.001
   0.20833333 -0.29166667  0.06250000       0.001
   0.29166667 -0.29166667  0.06250000       0.001
   0.37500000 -0.29166667  0.06250000       0.001
   0.45833333 -0.29166667  0.06250000       0.001
  -0.45833333 -0.29166667  0.06250000       0.001
  -0.37500000 -0.29166667  0.06250000       0.001
  -0.29166667 -0.29166667  0.06250000       0.001
  -0.20833333 -0.29166667  0.06250000       0.001
  -0.12500000 -0.29166667  0.06250000       0.001
  -0.04166667 -0.29166667  0.06250000       0.001
   0.04166667 -0.20833333  0.06250000       0.001
   0.12500000 -0.20833333  0.06250000       0.001
   0.20833333 -0.20833333  0.06250000       0.001
   0.29166667 -0.20833333  0.06250000       0.001
   0.37500000 -0.20833333  0.06250000       0.001
   0.45833333 -0.20833333  0.06250000       0.001
  -0.45833333 -0.20833333  0.06250000       0.001
  -0.37500000 -0.20833333  0.06250000       0.001
  -0.29166667 -0.20833333  0.06250000       0.001
  -0.20833333 -0.20833333  0.06250000       0.001
  -0.12500000 -0.20833333  0.06250000       0.001
  -0.04166667 -0.20833333  0.06250000       0.001
   0.04166667 -0.12500000  0.06250000       0.001
   0.12500000 -0.12500000  0.06250000       0.001
   0.20833333 -0.12500000  0.06250000       0.001
   0.29166667 -0.12500000  0.06250000       0.001
   0.37500000 -0.12500000  0.06250000       0.001
   0.45833333 -0.12500000  0.06250000       0.001
  -0.45833333 -0.12500000  0.06250000       0.001
  -0.37500000 -0.12500000  0.06250000       0.001
  -0.29166667 -0.12500000  0.06250000       0.001
  -0.20833333 -0.12500000  0.06250000       0.001
  -0.12500000 -0.12500000  0.06250000       0.001
  -0.04166667 -0.12500000  0.06250000       0.001
   0.04166667 -0.04166667  0.06250000       0.001
   0.12500000 -0.04166667  0.06250000       0.001
   0.20833333 -0.04166667  0.06250000       0.001
   0.29166667 -0.04166667  0.06250000       0.001
   0.37500000 -0.04166667  0.06250000       0.001
   0.45833333 -0.04166667  0.06250000       0.001
  -0.45833333 -0.04166667  0.06250000       0.001
  -0.37500000 -0.04166667  0.06250000       0.001
  -0.29166667 -0.04166667  0.06250000       0.001
  -0.20833333 -0.04166667  0.06250000       0.001
  -0.12500000 -0.04166667  0.06250000       0.001
  -0.04166667 -0.04166667  0.06250000       0.001
   0.04166667  0.04166667  0.18750000       0.001
   0.12500000  0.04166667  0.18750000       0.001
   0.20833333  0.04166667  0.18750000       0.001
   0.29166667  0.04166667  0.18750000       0.001
   0.37500000  0.04166667  0.18750000       0.001
   0.45833333  0.04166667  0.18750000       0.001
  -0.45833333  0.04166667  0.18750000       0.001
  -0.37500000  0.04166667  0.18750000       0.001
  -0.29166667  0.04166667  0.18750000       0.001
  -0.20833333  0.04166667  0.18750000       0.001
  -0.12500000  0.04166667  0.18750000       0.001
  -0.04166667  0.04166667  0.18750000       0.001
   0.04166667  0.12500000  0.18750000       0.001
   0.12500000  0.12500000  0.18750000       0.001
   0.20833333  0.12500000  0.18750000       0.001
   0.29166667  0.12500000  0.18750000       0.001
   0.37500000  0.12500000  0.18750000       0.001
   0.45833333  0.12500000  0.18750000       0.001
  -0.45833333  0.12500000  0.18750000       0.001
  -0.37500000  0.12500000  0.18750000       0.001
  -0.29166667  0.12500000  0.18750000       0.001
  -0.20833333  0.12500000  0.18750000       0.001
  -0.12500000  0.12500000  0.18750000       0.001
  -0.04166667  0.12500000  0.18750000       0.001
   0.04166667  0.20833333  0.18750000       0.001
   0.12500000  0.20833333  0.18750000       0.001
   0.20833333  0.20833333  0.18750000       0.001
   0.29166667  0.20833333  0.18750000       0.001
   0.37500000  0.20833333  0.18750000       0.001
   0.45833333  0.20833333  0.18750000       0.001
  -0.45833333  0.20833333  0.18750000       0.001
  -0.37500000  0.20833333  0.18750000       0.001
  -0.29166667  0.20833333  0.18750000       0.001
  -0.20833333  0.20833333  0.18750000       0.001
  -0.12500000  0.20833333  0.18750000       0.001
  -0.04166667  0.20833333  0.18750000       0.001
   0.04166667  0.29166667  0.18750000       0.001
   0.12500000  0.29166667  0.18750000       0.001
   0.20833333  0.29166667  0.18750000       0.001
   0.29166667  0.29166667  0.18750000       0.001
   0.37500000  0.29166667  0.18750000       0.001
   0.45833333  0.29166667  0.18750000       0.001
  -0.45833333  0.29166667  0.18750000       0.001
  -0.37500000  0.29166667  0.18750000       0.001
  -0.29166667  0.29166667  0.18750000       0.001
  -0.20833333  0.29166667  0.18750000       0.001
  -0.12500000  0.29166667  0.18750000       0.001
  -0.04166667  0.29166667  0.18750000       0.001
   0.04166667  0.37500000  0.18750000       0.001
   0.12500000  0.37500000  0.18750000       0.001
   0.20833333  0.37500000  0.18750000       0.001
   0.29166667  0.37500000  0.18750000       0.001
   0.37500000  0.37500000  0.18750000       0.001
   0.45833333  0.37500000  0.18750000       0.001
  -0.45833333  0.37500000  0.18750000       0.001
  -0.37500000  0.37500000  0.18750000       0.001
  -0.29166667  0.37500000  0.18750000       0.001
  -0.20833333  0.37500000  0.18750000       0.001
  -0.12500000  0.37500000  0.18750000       0.001
  -0.04166667  0.37500000  0.18750000       0.001
   0.04166667  0.45833333  0.18750000       0.001
   0.12500000  0.45833333  0.18750000       0.001
   0.20833333  0.45833333  0.18750000       0.001
   0.29166667  0.45833333  0.18750000       0.001
   0.37500000  0.45833333  0.18750000       0.001
   0.45833333  0.45833333  0.18750000       0.001
  -0.45833333  0.45833333  0.18750000       0.001
  -0.37500000  0.45833333  0.18750000       0.001
  -0.29166667  0.45833333  0.18750000       0.001
  -0.20833333  0.45833333  0.18750000       0.001
  -0.12500000  0.45833333  0.18750000       0.001
  -0.04166667  0.45833333  0.18750000       0.001
   0.04166667 -0.45833333  0.18750000       0.001
   0.12500000 -0.45833333  0.18750000       0.001
   0.20833333 -0.45833333  0.18750000       0.001
   0.29166667 -0.45833333  0.18750000       0.001
   0.37500000 -0.45833333  0.18750000       0.001
   0.45833333 -0.45833333  0.18750000       0.001
  -0.45833333 -0.45833333  0.18750000       0.001
  -0.37500000 -0.45833333  0.18750000       0.001
  -0.29166667 -0.45833333  0.18750000       0.001
  -0.20833333 -0.45833333  0.18750000       0.001
  -0.12500000 -0.45833333  0.18750000       0.001
  -0.04166667 -0.45833333  0.18750000       0.001
   0.04166667 -0.37500000  0.18750000       0.001
   0.12500000 -0.37500000  0.18750000       0.001
   0.20833333 -0.37500000  0.18750000       0.001
   0.29166667 -0.37500000  0.18750000       0.001
   0.37500000 -0.37500000  0.18750000       0.001
   0.45833333 -0.37500000  0.18750000       0.001
  -0.45833333 -0.37500000  0.18750000       0.001
  -0.37500000 -0.37500000  0.18750000       0.001
  -0.29166667 -0.37500000  0.18750000       0.001
  -0.20833333 -0.37500000  0.18750000       0.001
  -0.12500000 -0.37500000  0.18750000       0.001
  -0.04166667 -0.37500000  0.18750000       0.001
   0.04166667 -0.29166667  0.18750000       0.001
   0.12500000 -0.29166667  0.18750000       0.001
   0.20833333 -0.29166667  0.18750000       0.001
   0.29166667 -0.29166667  0.18750000       0.001
   0.37500000 -0.29166667  0.18750000       0.001
   0.45833333 -0.29166667  0.18750000       0.001
  -0.45833333 -0.29166667  0.18750000       0.001
  -0.37500000 -0.29166667  0.18750000       0.001
  -0.29166667 -0.29166667  0.18750000       0.001
  -0.20833333 -0.29166667  0.18750000       0.001
  -0.12500000 -0.29166667  0.18750000       0.001
  -0.04166667 -0.29166667  0.18750000       0.001
   0.04166667 -0.20833333  0.18750000       0.001
   0.12500000 -0.20833333  0.18750000       0.001
   0.20833333 -0.20833333  0.18750000       0.001
   0.29166667 -0.20833333  0.18750000       0.001
   0.37500000 -0.20833333  0.18750000       0.001
   0.45833333 -0.20833333  0.18750000       0.001
  -0.45833333 -0.20833333  0.18750000       0.001
  -0.37500000 -0.20833333  0.18750000       0.001
  -0.29166667 -0.20833333  0.18750000       0.001
  -0.20833333 -0.20833333  0.18750000       0.001
  -0.12500000 -0.20833333  0.18750000       0.001
  -0.04166667 -0.20833333  0.18750000       0.001
   0.04166667 -0.12500000  0.18750000       0.001
   0.12500000 -0.12500000  0.18750000       0.001
   0.20833333 -0.12500000  0.18750000       0.001
   0.29166667 -0.12500000  0.18750000       0.001
   0.37500000 -0.12500000  0.18750000       0.001
   0.45833333 -0.12500000  0.18750000       0.001
  -0.45833333 -0.12500000  0.18750000       0.001
  -0.37500000 -0.12500000  0.18750000       0.001
  -0.29166667 -0.12500000  0.18750000       0.001
  -0.20833333 -0.12500000  0.18750000       0.001
  -0.12500000 -0.12500000  0.18750000       0.001
  -0.04166667 -0.12500000  0.18750000       0.001
   0.04166667 -0.04166667  0.18750000       0.001
   0.12500000 -0.04166667  0.18750000       0.001
   0.20833333 -0.04166667  0.18750000       0.001
   0.29166667 -0.04166667  0.18750000       0.001
   0.37500000 -0.04166667  0.18750000       0.001
   0.45833333 -0.04166667  0.18750000       0.001
  -0.45833333 -0.04166667  0.18750000       0.001
  -0.37500000 -0.04166667  0.18750000       0.001
  -0.29166667 -0.04166667  0.18750000       0.001
  -0.20833333 -0.04166667  0.18750000       0.001
  -0.12500000 -0.04166667  0.18750000       0.001
  -0.04166667 -0.04166667  0.18750000       0.001
   0.04166667  0.04166667  0.31250000       0.001
   0.12500000  0.04166667  0.31250000       0.001
   0.20833333  0.04166667  0.31250000       0.001
   0.29166667  0.04166667  0.31250000       0.001
   0.37500000  0.04166667  0.31250000       0.001
   0.45833333  0.04166667  0.31250000       0.001
  -0.45833333  0.04166667  0.31250000       0.001
  -0.37500000  0.04166667  0.31250000       0.001
  -0.29166667  0.04166667  0.31250000       0.001
  -0.20833333  0.04166667  0.31250000       0.001
  -0.12500000  0.04166667  0.31250000       0.001
  -0.04166667  0.04166667  0.31250000       0.001
   0.04166667  0.12500000  0.31250000       0.001
   0.12500000  0.12500000  0.31250000       0.001
   0.20833333  0.12500000  0.31250000       0.001
   0.29166667  0.12500000  0.31250000       0.001
   0.37500000  0.12500000  0.31250000       0.001
   0.45833333  0.12500000  0.31250000       0.001
  -0.45833333  0.12500000  0.31250000       0.001
  -0.37500000  0.12500000  0.31250000       0.001
  -0.29166667  0.12500000  0.31250000       0.001
  -0.20833333  0.12500000  0.31250000       0.001
  -0.12500000  0.12500000  0.31250000       0.001
  -0.04166667  0.12500000  0.31250000       0.001
   0.04166667  0.20833333  0.31250000       0.001
   0.12500000  0.20833333  0.31250000       0.001
   0.20833333  0.20833333  0.31250000       0.001
   0.29166667  0.20833333  0.31250000       0.001
   0.37500000  0.20833333  0.31250000       0.001
   0.45833333  0.20833333  0.31250000       0.001
  -0.45833333  0.20833333  0.31250000       0.001
  -0.37500000  0.20833333  0.31250000       0.001
  -0.29166667  0.20833333  0.31250000       0.001
  -0.20833333  0.20833333  0.31250000       0.001
  -0.12500000  0.20833333  0.31250000       0.001
  -0.04166667  0.20833333  0.31250000       0.001
   0.04166667  0.29166667  0.31250000       0.001
   0.12500000  0.29166667  0.31250000       0.001
   0.20833333  0.29166667  0.31250000       0.001
   0.29166667  0.29166667  0.31250000       0.001
   0.37500000  0.29166667  0.31250000       0.001
   0.45833333  0.29166667  0.31250000       0.001
  -0.45833333  0.29166667  0.31250000       0.001
  -0.37500000  0.29166667  0.31250000       0.001
  -0.29166667  0.29166667  0.31250000       0.001
  -0.20833333  0.29166667  0.31250000       0.001
  -0.12500000  0.29166667  0.31250000       0.001
  -0.04166667  0.29166667  0.31250000       0.001
   0.04166667  0.37500000  0.31250000       0.001
   0.12500000  0.37500000  0.31250000       0.001
   0.20833333  0.37500000  0.31250000       0.001
   0.29166667  0.37500000  0.31250000       0.001
   0.37500000  0.37500000  0.31250000       0.001
   0.45833333  0.37500000  0.31250000       0.001
  -0.45833333  0.37500000  0.31250000       0.001
  -0.37500000  0.37500000  0.31250000       0.001
  -0.29166667  0.37500000  0.31250000       0.001
  -0.20833333  0.37500000  0.31250000       0.001
  -0.12500000  0.37500000  0.31250000       0.001
  -0.04166667  0.37500000  0.31250000       0.001
   0.04166667  0.45833333  0.31250000       0.001
   0.12500000  0.45833333  0.31250000       0.001
   0.20833333  0.45833333  0.31250000       0.001
   0.29166667  0.45833333  0.31250000       0.001
   0.37500000  0.45833333  0.31250000       0.001
   0.45833333  0.45833333  0.31250000       0.001
  -0.45833333  0.45833333  0.31250000       0.001
  -0.37500000  0.45833333  0.31250000       0.001
  -0.29166667  0.45833333  0.31250000       0.001
  -0.20833333  0.45833333  0.31250000       0.001
  -0.12500000  0.45833333  0.31250000       0.001
  -0.04166667  0.45833333  0.31250000       0.001
   0.04166667 -0.45833333  0.31250000       0.001
   0.12500000 -0.45833333  0.31250000       0.001
   0.20833333 -0.45833333  0.31250000       0.001
   0.29166667 -0.45833333  0.31250000       0.001
   0.37500000 -0.45833333  0.31250000       0.001
   0.45833333 -0.45833333  0.31250000       0.001
  -0.45833333 -0.45833333  0.31250000       0.001
  -0.37500000 -0.45833333  0.31250000       0.001
  -0.29166667 -0.45833333  0.31250000       0.001
  -0.20833333 -0.45833333  0.31250000       0.001
  -0.12500000 -0.45833333  0.31250000       0.001
  -0.04166667 -0.45833333  0.31250000       0.001
   0.04166667 -0.37500000  0.31250000       0.001
   0.12500000 -0.37500000  0.31250000       0.001
   0.20833333 -0.37500000  0.31250000       0.001
   0.29166667 -0.37500000  0.31250000       0.001
   0.37500000 -0.37500000  0.31250000       0.001
   0.45833333 -0.37500000  0.31250000       0.001
  -0.45833333 -0.37500000  0.31250000       0.001
  -0.37500000 -0.37500000  0.31250000       0.001
  -0.29166667 -0.37500000  0.31250000       0.001
  -0.20833333 -0.37500000  0.31250000       0.001
  -0.12500000 -0.37500000  0.31250000       0.001
  -0.04166667 -0.37500000  0.31250000       0.001
   0.04166667 -0.29166667  0.31250000       0.001
   0.12500000 -0.29166667  0.31250000       0.001
   0.20833333 -0.29166667  0.31250000       0.001
   0.29166667 -0.29166667  0.31250000       0.001
   0.37500000 -0.29166667  0.31250000       0.001
   0.45833333 -0.29166667  0.31250000       0.001
  -0.45833333 -0.29166667  0.31250000       0.001
  -0.37500000 -0.29166667  0.31250000       0.001
  -0.29166667 -0.29166667  0.31250000       0.001
  -0.20833333 -0.29166667  0.31250000       0.001
  -0.12500000 -0.29166667  0.31250000       0.001
  -0.04166667 -0.29166667  0.31250000       0.001
   0.04166667 -0.20833333  0.31250000       0.001
   0.12500000 -0.20833333  0.31250000       0.001
   0.20833333 -0.20833333  0.31250000       0.001
   0.29166667 -0.20833333  0.31250000       0.001
   0.37500000 -0.20833333  0.31250000       0.001
   0.45833333 -0.20833333  0.31250000       0.001
  -0.45833333 -0.20833333  0.31250000       0.001
  -0.37500000 -0.20833333  0.31250000       0.001
  -0.29166667 -0.20833333  0.31250000       0.001
  -0.20833333 -0.20833333  0.31250000       0.001
  -0.12500000 -0.20833333  0.31250000       0.001
  -0.04166667 -0.20833333  0.31250000       0.001
   0.04166667 -0.12500000  0.31250000       0.001
   0.12500000 -0.12500000  0.31250000       0.001
   0.20833333 -0.12500000  0.31250000       0.001
   0.29166667 -0.12500000  0.31250000       0.001
   0.37500000 -0.12500000  0.31250000       0.001
   0.45833333 -0.12500000  0.31250000       0.001
  -0.45833333 -0.12500000  0.31250000       0.001
  -0.37500000 -0.12500000  0.31250000       0.001
  -0.29166667 -0.12500000  0.31250000       0.001
  -0.20833333 -0.12500000  0.31250000       0.001
  -0.12500000 -0.12500000  0.31250000       0.001
  -0.04166667 -0.12500000  0.31250000       0.001
   0.04166667 -0.04166667  0.31250000       0.001
   0.12500000 -0.04166667  0.31250000       0.001
   0.20833333 -0.04166667  0.31250000       0.001
   0.29166667 -0.04166667  0.31250000       0.001
   0.37500000 -0.04166667  0.31250000       0.001
   0.45833333 -0.04166667  0.31250000       0.001
  -0.45833333 -0.04166667  0.31250000       0.001
  -0.37500000 -0.04166667  0.31250000       0.001
  -0.29166667 -0.04166667  0.31250000       0.001
  -0.20833333 -0.04166667  0.31250000       0.001
  -0.12500000 -0.04166667  0.31250000       0.001
  -0.04166667 -0.04166667  0.31250000       0.001
   0.04166667  0.04166667  0.43750000       0.001
   0.12500000  0.04166667  0.43750000       0.001
   0.20833333  0.04166667  0.43750000       0.001
   0.29166667  0.04166667  0.43750000       0.001
   0.37500000  0.04166667  0.43750000       0.001
   0.45833333  0.04166667  0.43750000       0.001
  -0.45833333  0.04166667  0.43750000       0.001
  -0.37500000  0.04166667  0.43750000       0.001
  -0.29166667  0.04166667  0.43750000       0.001
  -0.20833333  0.04166667  0.43750000       0.001
  -0.12500000  0.04166667  0.43750000       0.001
  -0.04166667  0.04166667  0.43750000       0.001
   0.04166667  0.12500000  0.43750000       0.001
   0.12500000  0.12500000  0.43750000       0.001
   0.20833333  0.12500000  0.43750000       0.001
   0.29166667  0.12500000  0.43750000       0.001
   0.37500000  0.12500000  0.43750000       0.001
   0.45833333  0.12500000  0.43750000       0.001
  -0.45833333  0.12500000  0.43750000       0.001
  -0.37500000  0.12500000  0.43750000       0.001
  -0.29166667  0.12500000  0.43750000       0.001
  -0.20833333  0.12500000  0.43750000       0.001
  -0.12500000  0.12500000  0.43750000       0.001
  -0.04166667  0.12500000  0.43750000       0.001
   0.04166667  0.20833333  0.43750000       0.001
   0.12500000  0.20833333  0.43750000       0.001
   0.20833333  0.20833333  0.43750000       0.001
   0.29166667  0.20833333  0.43750000       0.001
   0.37500000  0.20833333  0.43750000       0.001
   0.45833333  0.20833333  0.43750000       0.001
  -0.45833333  0.20833333  0.43750000       0.001
  -0.37500000  0.20833333  0.43750000       0.001
  -0.29166667  0.20833333  0.43750000       0.001
  -0.20833333  0.20833333  0.43750000       0.001
  -0.12500000  0.20833333  0.43750000       0.001
  -0.04166667  0.20833333  0.43750000       0.001
   0.04166667  0.29166667  0.43750000       0.001
   0.12500000  0.29166667  0.43750000       0.001
   0.20833333  0.29166667  0.43750000       0.001
   0.29166667  0.29166667  0.43750000       0.001
   0.37500000  0.29166667  0.43750000       0.001
   0.45833333  0.29166667  0.43750000       0.001
  -0.45833333  0.29166667  0.43750000       0.001
  -0.37500000  0.29166667  0.43750000       0.001
  -0.29166667  0.29166667  0.43750000       0.001
  -0.20833333  0.29166667  0.43750000       0.001
  -0.12500000  0.29166667  0.43750000       0.001
  -0.04166667  0.29166667  0.43750000       0.001
   0.04166667  0.37500000  0.43750000       0.001
   0.12500000  0.37500000  0.43750000       0.001
   0.20833333  0.37500000  0.43750000       0.001
   0.29166667  0.37500000  0.43750000       0.001
   0.37500000  0.37500000  0.43750000       0.001
   0.45833333  0.37500000  0.43750000       0.001
  -0.45833333  0.37500000  0.43750000       0.001
  -0.37500000  0.37500000  0.43750000       0.001
  -0.29166667  0.37500000  0.43750000       0.001
  -0.20833333  0.37500000  0.43750000       0.001
  -0.12500000  0.37500000  0.43750000       0.001
  -0.04166667  0.37500000  0.43750000       0.001
   0.04166667  0.45833333  0.43750000       0.001
   0.12500000  0.45833333  0.43750000       0.001
   0.20833333  0.45833333  0.43750000       0.001
   0.29166667  0.45833333  0.43750000       0.001
   0.37500000  0.45833333  0.43750000       0.001
   0.45833333  0.45833333  0.43750000       0.001
  -0.45833333  0.45833333  0.43750000       0.001
  -0.37500000  0.45833333  0.43750000       0.001
  -0.29166667  0.45833333  0.43750000       0.001
  -0.20833333  0.45833333  0.43750000       0.001
  -0.12500000  0.45833333  0.43750000       0.001
  -0.04166667  0.45833333  0.43750000       0.001
   0.04166667 -0.45833333  0.43750000       0.001
   0.12500000 -0.45833333  0.43750000       0.001
   0.20833333 -0.45833333  0.43750000       0.001
   0.29166667 -0.45833333  0.43750000       0.001
   0.37500000 -0.45833333  0.43750000       0.001
   0.45833333 -0.45833333  0.43750000       0.001
  -0.45833333 -0.45833333  0.43750000       0.001
  -0.37500000 -0.45833333  0.43750000       0.001
  -0.29166667 -0.45833333  0.43750000       0.001
  -0.20833333 -0.45833333  0.43750000       0.001
  -0.12500000 -0.45833333  0.43750000       0.001
  -0.04166667 -0.45833333  0.43750000       0.001
   0.04166667 -0.37500000  0.43750000       0.001
   0.12500000 -0.37500000  0.43750000       0.001
   0.20833333 -0.37500000  0.43750000       0.001
   0.29166667 -0.37500000  0.43750000       0.001
   0.37500000 -0.37500000  0.43750000       0.001
   0.45833333 -0.37500000  0.43750000       0.001
  -0.45833333 -0.37500000  0.43750000       0.001
  -0.37500000 -0.37500000  0.43750000       0.001
  -0.29166667 -0.37500000  0.43750000       0.001
  -0.20833333 -0.37500000  0.43750000       0.001
  -0.12500000 -0.37500000  0.43750000       0.001
  -0.04166667 -0.37500000  0.43750000       0.001
   0.04166667 -0.29166667  0.43750000       0.001
   0.12500000 -0.29166667  0.43750000       0.001
   0.20833333 -0.29166667  0.43750000       0.001
   0.29166667 -0.29166667  0.43750000       0.001
   0.37500000 -0.29166667  0.43750000       0.001
   0.45833333 -0.29166667  0.43750000       0.001
  -0.45833333 -0.29166667  0.43750000       0.001
  -0.37500000 -0.29166667  0.43750000       0.001
  -0.29166667 -0.29166667  0.43750000       0.001
  -0.20833333 -0.29166667  0.43750000       0.001
  -0.12500000 -0.29166667  0.43750000       0.001
  -0.04166667 -0.29166667  0.43750000       0.001
   0.04166667 -0.20833333  0.43750000       0.001
   0.12500000 -0.20833333  0.43750000       0.001
   0.20833333 -0.20833333  0.43750000       0.001
   0.29166667 -0.20833333  0.43750000       0.001
   0.37500000 -0.20833333  0.43750000       0.001
   0.45833333 -0.20833333  0.43750000       0.001
  -0.45833333 -0.20833333  0.43750000       0.001
  -0.37500000 -0.20833333  0.43750000       0.001
  -0.29166667 -0.20833333  0.43750000       0.001
  -0.20833333 -0.20833333  0.43750000       0.001
  -0.12500000 -0.20833333  0.43750000       0.001
  -0.04166667 -0.20833333  0.43750000       0.001
   0.04166667 -0.12500000  0.43750000       0.001
   0.12500000 -0.12500000  0.43750000       0.001
   0.20833333 -0.12500000  0.43750000       0.001
   0.29166667 -0.12500000  0.43750000       0.001
   0.37500000 -0.12500000  0.43750000       0.001
   0.45833333 -0.12500000  0.43750000       0.001
  -0.45833333 -0.12500000  0.43750000       0.001
  -0.37500000 -0.12500000  0.43750000       0.001
  -0.29166667 -0.12500000  0.43750000       0.001
  -0.20833333 -0.12500000  0.43750000       0.001
  -0.12500000 -0.12500000  0.43750000       0.001
  -0.04166667 -0.12500000  0.43750000       0.001
   0.04166667 -0.04166667  0.43750000       0.001
   0.12500000 -0.04166667  0.43750000       0.001
   0.20833333 -0.04166667  0.43750000       0.001
   0.29166667 -0.04166667  0.43750000       0.001
   0.37500000 -0.04166667  0.43750000       0.001
   0.45833333 -0.04166667  0.43750000       0.001
  -0.45833333 -0.04166667  0.43750000       0.001
  -0.37500000 -0.04166667  0.43750000       0.001
  -0.29166667 -0.04166667  0.43750000       0.001
  -0.20833333 -0.04166667  0.43750000       0.001
  -0.12500000 -0.04166667  0.43750000       0.001
  -0.04166667 -0.04166667  0.43750000       0.001
   0.04166667  0.04166667 -0.43750000       0.001
   0.12500000  0.04166667 -0.43750000       0.001
   0.20833333  0.04166667 -0.43750000       0.001
   0.29166667  0.04166667 -0.43750000       0.001
   0.37500000  0.04166667 -0.43750000       0.001
   0.45833333  0.04166667 -0.43750000       0.001
  -0.45833333  0.04166667 -0.43750000       0.001
  -0.37500000  0.04166667 -0.43750000       0.001
  -0.29166667  0.04166667 -0.43750000       0.001
  -0.20833333  0.04166667 -0.43750000       0.001
  -0.12500000  0.04166667 -0.43750000       0.001
  -0.04166667  0.04166667 -0.43750000       0.001
   0.04166667  0.12500000 -0.43750000       0.001
   0.12500000  0.12500000 -0.43750000       0.001
   0.20833333  0.12500000 -0.43750000       0.001
   0.29166667  0.12500000 -0.43750000       0.001
   0.37500000  0.12500000 -0.43750000       0.001
   0.45833333  0.12500000 -0.43750000       0.001
  -0.45833333  0.12500000 -0.43750000       0.001
  -0.37500000  0.12500000 -0.43750000       0.001
  -0.29166667  0.12500000 -0.43750000       0.001
  -0.20833333  0.12500000 -0.43750000       0.001
  -0.12500000  0.12500000 -0.43750000       0.001
  -0.04166667  0.12500000 -0.43750000       0.001
   0.04166667  0.20833333 -0.43750000       0.001
   0.12500000  0.20833333 -0.43750000       0.001
   0.20833333  0.20833333 -0.43750000       0.001
   0.29166667  0.20833333 -0.43750000       0.001
   0.37500000  0.20833333 -0.43750000       0.001
   0.45833333  0.20833333 -0.43750000       0.001
  -0.45833333  0.20833333 -0.43750000       0.001
  -0.37500000  0.20833333 -0.43750000       0.001
  -0.29166667  0.20833333 -0.43750000       0.001
  -0.20833333  0.20833333 -0.43750000       0.001
  -0.12500000  0.20833333 -0.43750000       0.001
  -0.04166667  0.20833333 -0.43750000       0.001
   0.04166667  0.29166667 -0.43750000       0.001
   0.12500000  0.29166667 -0.43750000       0.001
   0.20833333  0.29166667 -0.43750000       0.001
   0.29166667  0.29166667 -0.43750000       0.001
   0.37500000  0.29166667 -0.43750000       0.001
   0.45833333  0.29166667 -0.43750000       0.001
  -0.45833333  0.29166667 -0.43750000       0.001
  -0.37500000  0.29166667 -0.43750000       0.001
  -0.29166667  0.29166667 -0.43750000       0.001
  -0.20833333  0.29166667 -0.43750000       0.001
  -0.12500000  0.29166667 -0.43750000       0.001
  -0.04166667  0.29166667 -0.43750000       0.001
   0.04166667  0.37500000 -0.43750000       0.001
   0.12500000  0.37500000 -0.43750000       0.001
   0.20833333  0.37500000 -0.43750000       0.001
   0.29166667  0.37500000 -0.43750000       0.001
   0.37500000  0.37500000 -0.43750000       0.001
   0.45833333  0.37500000 -0.43750000       0.001
  -0.45833333  0.37500000 -0.43750000       0.001
  -0.37500000  0.37500000 -0.43750000       0.001
  -0.29166667  0.37500000 -0.43750000       0.001
  -0.20833333  0.37500000 -0.43750000       0.001
  -0.12500000  0.37500000 -0.43750000       0.001
  -0.04166667  0.37500000 -0.43750000       0.001
   0.04166667  0.45833333 -0.43750000       0.001
   0.12500000  0.45833333 -0.43750000       0.001
   0.20833333  0.45833333 -0.43750000       0.001
   0.29166667  0.45833333 -0.43750000       0.001
   0.37500000  0.45833333 -0.43750000       0.001
   0.45833333  0.45833333 -0.43750000       0.001
  -0.45833333  0.45833333 -0.43750000       0.001
  -0.37500000  0.45833333 -0.43750000       0.001
  -0.29166667  0.45833333 -0.43750000       0.001
  -0.20833333  0.45833333 -0.43750000       0.001
  -0.12500000  0.45833333 -0.43750000       0.001
  -0.04166667  0.45833333 -0.43750000       0.001
   0.04166667 -0.45833333 -0.43750000       0.001
   0.12500000 -0.45833333 -0.43750000       0.001
   0.20833333 -0.45833333 -0.43750000       0.001
   0.29166667 -0.45833333 -0.43750000       0.001
   0.37500000 -0.45833333 -0.43750000       0.001
   0.45833333 -0.45833333 -0.43750000       0.001
  -0.45833333 -0.45833333 -0.43750000       0.001
  -0.37500000 -0.45833333 -0.43750000       0.001
  -0.29166667 -0.45833333 -0.43750000       0.001
  -0.20833333 -0.45833333 -0.43750000       0.001
  -0.12500000 -0.45833333 -0.43750000       0.001
  -0.04166667 -0.45833333 -0.43750000       0.001
   0.04166667 -0.37500000 -0.43750000       0.001
   0.12500000 -0.37500000 -0.43750000       0.001
   0.20833333 -0.37500000 -0.43750000       0.001
   0.29166667 -0.37500000 -0.43750000       0.001
   0.37500000 -0.37500000 -0.43750000       0.001
   0.45833333 -0.37500000 -0.43750000       0.001
  -0.45833333 -0.37500000 -0.43750000       0.001
  -0.37500000 -0.37500000 -0.43750000       0.001
  -0.29166667 -0.37500000 -0.43750000       0.001
  -0.20833333 -0.37500000 -0.43750000       0.001
  -0.12500000 -0.37500000 -0.43750000       0.001
  -0.04166667 -0.37500000 -0.43750000       0.001
   0.04166667 -0.29166667 -0.43750000       0.001
   0.12500000 -0.29166667 -0.43750000       0.001
   0.20833333 -0.29166667 -0.43750000       0.001
   0.29166667 -0.29166667 -0.43750000       0.001
   0.37500000 -0.29166667 -0.43750000       0.001
   0.45833333 -0.29166667 -0.43750000       0.001
  -0.45833333 -0.29166667 -0.43750000       0.001
  -0.37500000 -0.29166667 -0.43750000       0.001
  -0.29166667 -0.29166667 -0.43750000       0.001
  -0.20833333 -0.29166667 -0.43750000       0.001
  -0.12500000 -0.29166667 -0.43750000       0.001
  -0.04166667 -0.29166667 -0.43750000       0.001
   0.04166667 -0.20833333 -0.43750000       0.001
   0.12500000 -0.20833333 -0.43750000       0.001
   0.20833333 -0.20833333 -0.43750000       0.001
   0.29166667 -0.20833333 -0.43750000       0.001
   0.37500000 -0.20833333 -0.43750000       0.001
   0.45833333 -0.20833333 -0.43750000       0.001
  -0.45833333 -0.20833333 -0.43750000       0.001
  -0.37500000 -0.20833333 -0.43750000       0.001
  -0.29166667 -0.20833333 -0.43750000       0.001
  -0.20833333 -0.20833333 -0.43750000       0.001
  -0.12500000 -0.20833333 -0.43750000       0.001
  -0.04166667 -0.20833333 -0.43750000       0.001
   0.04166667 -0.12500000 -0.43750000       0.001
   0.12500000 -0.12500000 -0.43750000       0.001
   0.20833333 -0.12500000 -0.43750000       0.001
   0.29166667 -0.12500000 -0.43750000       0.001
   0.37500000 -0.12500000 -0.43750000       0.001
   0.45833333 -0.12500000 -0.43750000       0.001
  -0.45833333 -0.12500000 -0.43750000       0.001
  -0.37500000 -0.12500000 -0.43750000       0.001
  -0.29166667 -0.12500000 -0.43750000       0.001
  -0.20833333 -0.12500000 -0.43750000       0.001
  -0.12500000 -0.12500000 -0.43750000       0.001
  -0.04166667 -0.12500000 -0.43750000       0.001
   0.04166667 -0.04166667 -0.43750000       0.001
   0.12500000 -0.04166667 -0.43750000       0.001
   0.20833333 -0.04166667 -0.43750000       0.001
   0.29166667 -0.04166667 -0.43750000       0.001
   0.37500000 -0.04166667 -0.43750000       0.001
   0.45833333 -0.04166667 -0.43750000       0.001
  -0.45833333 -0.04166667 -0.43750000       0.001
  -0.37500000 -0.04166667 -0.43750000       0.001
  -0.29166667 -0.04166667 -0.43750000       0.001
  -0.20833333 -0.04166667 -0.43750000       0.001
  -0.12500000 -0.04166667 -0.43750000       0.001
  -0.04166667 -0.04166667 -0.43750000       0.001
   0.04166667  0.04166667 -0.31250000       0.001
   0.12500000  0.04166667 -0.31250000       0.001
   0.20833333  0.04166667 -0.31250000       0.001
   0.29166667  0.04166667 -0.31250000       0.001
   0.37500000  0.04166667 -0.31250000       0.001
   0.45833333  0.04166667 -0.31250000       0.001
  -0.45833333  0.04166667 -0.31250000       0.001
  -0.37500000  0.04166667 -0.31250000       0.001
  -0.29166667  0.04166667 -0.31250000       0.001
  -0.20833333  0.04166667 -0.31250000       0.001
  -0.12500000  0.04166667 -0.31250000       0.001
  -0.04166667  0.04166667 -0.31250000       0.001
   0.04166667  0.12500000 -0.31250000       0.001
   0.12500000  0.12500000 -0.31250000       0.001
   0.20833333  0.12500000 -0.31250000       0.001
   0.29166667  0.12500000 -0.31250000       0.001
   0.37500000  0.12500000 -0.31250000       0.001
   0.45833333  0.12500000 -0.31250000       0.001
  -0.45833333  0.12500000 -0.31250000       0.001
  -0.37500000  0.12500000 -0.31250000       0.001
  -0.29166667  0.12500000 -0.31250000       0.001
  -0.20833333  0.12500000 -0.31250000       0.001
  -0.12500000  0.12500000 -0.31250000       0.001
  -0.04166667  0.12500000 -0.31250000       0.001
   0.04166667  0.20833333 -0.31250000       0.001
   0.12500000  0.20833333 -0.31250000       0.001
   0.20833333  0.20833333 -0.31250000       0.001
   0.29166667  0.20833333 -0.31250000       0.001
   0.37500000  0.20833333 -0.31250000       0.001
   0.45833333  0.20833333 -0.31250000       0.001
  -0.45833333  0.20833333 -0.31250000       0.001
  -0.37500000  0.20833333 -0.31250000       0.001
  -0.29166667  0.20833333 -0.31250000       0.001
  -0.20833333  0.20833333 -0.31250000       0.001
  -0.12500000  0.20833333 -0.31250000       0.001
  -0.04166667  0.20833333 -0.31250000       0.001
   0.04166667  0.29166667 -0.31250000       0.001
   0.12500000  0.29166667 -0.31250000       0.001
   0.20833333  0.29166667 -0.31250000       0.001
   0.29166667  0.29166667 -0.31250000       0.001
   0.37500000  0.29166667 -0.31250000       0.001
   0.45833333  0.29166667 -0.31250000       0.001
  -0.45833333  0.29166667 -0.31250000       0.001
  -0.37500000  0.29166667 -0.31250000       0.001
  -0.29166667  0.29166667 -0.31250000       0.001
  -0.20833333  0.29166667 -0.31250000       0.001
  -0.12500000  0.29166667 -0.31250000       0.001
  -0.04166667  0.29166667 -0.31250000       0.001
   0.04166667  0.37500000 -0.31250000       0.001
   0.12500000  0.37500000 -0.31250000       0.001
   0.20833333  0.37500000 -0.31250000       0.001
   0.29166667  0.37500000 -0.31250000       0.001
   0.37500000  0.37500000 -0.31250000       0.001
   0.45833333  0.37500000 -0.31250000       0.001
  -0.45833333  0.37500000 -0.31250000       0.001
  -0.37500000  0.37500000 -0.31250000       0.001
  -0.29166667  0.37500000 -0.31250000       0.001
  -0.20833333  0.37500000 -0.31250000       0.001
  -0.12500000  0.37500000 -0.31250000       0.001
  -0.04166667  0.37500000 -0.31250000       0.001
   0.04166667  0.45833333 -0.31250000       0.001
   0.12500000  0.45833333 -0.31250000       0.001
   0.20833333  0.45833333 -0.31250000       0.001
   0.29166667  0.45833333 -0.31250000       0.001
   0.37500000  0.45833333 -0.31250000       0.001
   0.45833333  0.45833333 -0.31250000       0.001
  -0.45833333  0.45833333 -0.31250000       0.001
  -0.37500000  0.45833333 -0.31250000       0.001
  -0.29166667  0.45833333 -0.31250000       0.001
  -0.20833333  0.45833333 -0.31250000       0.001
  -0.12500000  0.45833333 -0.31250000       0.001
  -0.04166667  0.45833333 -0.31250000       0.001
   0.04166667 -0.45833333 -0.31250000       0.001
   0.12500000 -0.45833333 -0.31250000       0.001
   0.20833333 -0.45833333 -0.31250000       0.001
   0.29166667 -0.45833333 -0.31250000       0.001
   0.37500000 -0.45833333 -0.31250000       0.001
   0.45833333 -0.45833333 -0.31250000       0.001
  -0.45833333 -0.45833333 -0.31250000       0.001
  -0.37500000 -0.45833333 -0.31250000       0.001
  -0.29166667 -0.45833333 -0.31250000       0.001
  -0.20833333 -0.45833333 -0.31250000       0.001
  -0.12500000 -0.45833333 -0.31250000       0.001
  -0.04166667 -0.45833333 -0.31250000       0.001
   0.04166667 -0.37500000 -0.31250000       0.001
   0.12500000 -0.37500000 -0.31250000       0.001
   0.20833333 -0.37500000 -0.31250000       0.001
   0.29166667 -0.37500000 -0.31250000       0.001
   0.37500000 -0.37500000 -0.31250000       0.001
   0.45833333 -0.37500000 -0.31250000       0.001
  -0.45833333 -0.37500000 -0.31250000       0.001
  -0.37500000 -0.37500000 -0.31250000       0.001
  -0.29166667 -0.37500000 -0.31250000       0.001
  -0.20833333 -0.37500000 -0.31250000       0.001
  -0.12500000 -0.37500000 -0.31250000       0.001
  -0.04166667 -0.37500000 -0.31250000       0.001
   0.04166667 -0.29166667 -0.31250000       0.001
   0.12500000 -0.29166667 -0.31250000       0.001
   0.20833333 -0.29166667 -0.31250000       0.001
   0.29166667 -0.29166667 -0.31250000       0.001
   0.37500000 -0.29166667 -0.31250000       0.001
   0.45833333 -0.29166667 -0.31250000       0.001
  -0.45833333 -0.29166667 -0.31250000       0.001
  -0.37500000 -0.29166667 -0.31250000       0.001
  -0.29166667 -0.29166667 -0.31250000       0.001
  -0.20833333 -0.29166667 -0.31250000       0.001
  -0.12500000 -0.29166667 -0.31250000       0.001
  -0.04166667 -0.29166667 -0.31250000       0.001
   0.04166667 -0.20833333 -0.31250000       0.001
   0.12500000 -0.20833333 -0.31250000       0.001
   0.20833333 -0.20833333 -0.31250000       0.001
   0.29166667 -0.20833333 -0.31250000       0.001
   0.37500000 -0.20833333 -0.31250000       0.001
   0.45833333 -0.20833333 -0.31250000       0.001
  -0.45833333 -0.20833333 -0.31250000       0.001
  -0.37500000 -0.20833333 -0.31250000       0.001
  -0.29166667 -0.20833333 -0.31250000       0.001
  -0.20833333 -0.20833333 -0.31250000       0.001
  -0.12500000 -0.20833333 -0.31250000       0.001
  -0.04166667 -0.20833333 -0.31250000       0.001
   0.04166667 -0.12500000 -0.31250000       0.001
   0.12500000 -0.12500000 -0.31250000       0.001
   0.20833333 -0.12500000 -0.31250000       0.001
   0.29166667 -0.12500000 -0.31250000       0.001
   0.37500000 -0.12500000 -0.31250000       0.001
   0.45833333 -0.12500000 -0.31250000       0.001
  -0.45833333 -0.12500000 -0.31250000       0.001
  -0.37500000 -0.12500000 -0.31250000       0.001
  -0.29166667 -0.12500000 -0.31250000       0.001
  -0.20833333 -0.12500000 -0.31250000       0.001
  -0.12500000 -0.12500000 -0.31250000       0.001
  -0.04166667 -0.12500000 -0.31250000       0.001
   0.04166667 -0.04166667 -0.31250000       0.001
   0.12500000 -0.04166667 -0.31250000       0.001
   0.20833333 -0.04166667 -0.31250000       0.001
   0.29166667 -0.04166667 -0.31250000       0.001
   0.37500000 -0.04166667 -0.31250000       0.001
   0.45833333 -0.04166667 -0.31250000       0.001
  -0.45833333 -0.04166667 -0.31250000       0.001
  -0.37500000 -0.04166667 -0.31250000       0.001
  -0.29166667 -0.04166667 -0.31250000       0.001
  -0.20833333 -0.04166667 -0.31250000       0.001
  -0.12500000 -0.04166667 -0.31250000       0.001
  -0.04166667 -0.04166667 -0.31250000       0.001
   0.04166667  0.04166667 -0.18750000       0.001
   0.12500000  0.04166667 -0.18750000       0.001
   0.20833333  0.04166667 -0.18750000       0.001
   0.29166667  0.04166667 -0.18750000       0.001
   0.37500000  0.04166667 -0.18750000       0.001
   0.45833333  0.04166667 -0.18750000       0.001
  -0.45833333  0.04166667 -0.18750000       0.001
  -0.37500000  0.04166667 -0.18750000       0.001
  -0.29166667  0.04166667 -0.18750000       0.001
  -0.20833333  0.04166667 -0.18750000       0.001
  -0.12500000  0.04166667 -0.18750000       0.001
  -0.04166667  0.04166667 -0.18750000       0.001
   0.04166667  0.12500000 -0.18750000       0.001
   0.12500000  0.12500000 -0.18750000       0.001
   0.20833333  0.12500000 -0.18750000       0.001
   0.29166667  0.12500000 -0.18750000       0.001
   0.37500000  0.12500000 -0.18750000       0.001
   0.45833333  0.12500000 -0.18750000       0.001
  -0.45833333  0.12500000 -0.18750000       0.001
  -0.37500000  0.12500000 -0.18750000       0.001
  -0.29166667  0.12500000 -0.18750000       0.001
  -0.20833333  0.12500000 -0.18750000       0.001
  -0.12500000  0.12500000 -0.18750000       0.001
  -0.04166667  0.12500000 -0.18750000       0.001
   0.04166667  0.20833333 -0.18750000       0.001
   0.12500000  0.20833333 -0.18750000       0.001
   0.20833333  0.20833333 -0.18750000       0.001
   0.29166667  0.20833333 -0.18750000       0.001
   0.37500000  0.20833333 -0.18750000       0.001
   0.45833333  0.20833333 -0.18750000       0.001
  -0.45833333  0.20833333 -0.18750000       0.001
  -0.37500000  0.20833333 -0.18750000       0.001
  -0.29166667  0.20833333 -0.18750000       0.001
  -0.20833333  0.20833333 -0.18750000       0.001
  -0.12500000  0.20833333 -0.18750000       0.001
  -0.04166667  0.20833333 -0.18750000       0.001
   0.04166667  0.29166667 -0.18750000       0.001
   0.12500000  0.29166667 -0.18750000       0.001
   0.20833333  0.29166667 -0.18750000       0.001
   0.29166667  0.29166667 -0.18750000       0.001
   0.37500000  0.29166667 -0.18750000       0.001
   0.45833333  0.29166667 -0.18750000       0.001
  -0.45833333  0.29166667 -0.18750000       0.001
  -0.37500000  0.29166667 -0.18750000       0.001
  -0.29166667  0.29166667 -0.18750000       0.001
  -0.20833333  0.29166667 -0.18750000       0.001
  -0.12500000  0.29166667 -0.18750000       0.001
  -0.04166667  0.29166667 -0.18750000       0.001
   0.04166667  0.37500000 -0.18750000       0.001
   0.12500000  0.37500000 -0.18750000       0.001
   0.20833333  0.37500000 -0.18750000       0.001
   0.29166667  0.37500000 -0.18750000       0.001
   0.37500000  0.37500000 -0.18750000       0.001
   0.45833333  0.37500000 -0.18750000       0.001
  -0.45833333  0.37500000 -0.18750000       0.001
  -0.37500000  0.37500000 -0.18750000       0.001
  -0.29166667  0.37500000 -0.18750000       0.001
  -0.20833333  0.37500000 -0.18750000       0.001
  -0.12500000  0.37500000 -0.18750000       0.001
  -0.04166667  0.37500000 -0.18750000       0.001
   0.04166667  0.45833333 -0.18750000       0.001
   0.12500000  0.45833333 -0.18750000       0.001
   0.20833333  0.45833333 -0.18750000       0.001
   0.29166667  0.45833333 -0.18750000       0.001
   0.37500000  0.45833333 -0.18750000       0.001
   0.45833333  0.45833333 -0.18750000       0.001
  -0.45833333  0.45833333 -0.18750000       0.001
  -0.37500000  0.45833333 -0.18750000       0.001
  -0.29166667  0.45833333 -0.18750000       0.001
  -0.20833333  0.45833333 -0.18750000       0.001
  -0.12500000  0.45833333 -0.18750000       0.001
  -0.04166667  0.45833333 -0.18750000       0.001
   0.04166667 -0.45833333 -0.18750000       0.001
   0.12500000 -0.45833333 -0.18750000       0.001
   0.20833333 -0.45833333 -0.18750000       0.001
   0.29166667 -0.45833333 -0.18750000       0.001
   0.37500000 -0.45833333 -0.18750000       0.001
   0.45833333 -0.45833333 -0.18750000       0.001
  -0.45833333 -0.45833333 -0.18750000       0.001
  -0.37500000 -0.45833333 -0.18750000       0.001
  -0.29166667 -0.45833333 -0.18750000       0.001
  -0.20833333 -0.45833333 -0.18750000       0.001
  -0.12500000 -0.45833333 -0.18750000       0.001
  -0.04166667 -0.45833333 -0.18750000       0.001
   0.04166667 -0.37500000 -0.18750000       0.001
   0.12500000 -0.37500000 -0.18750000       0.001
   0.20833333 -0.37500000 -0.18750000       0.001
   0.29166667 -0.37500000 -0.18750000       0.001
   0.37500000 -0.37500000 -0.18750000       0.001
   0.45833333 -0.37500000 -0.18750000       0.001
  -0.45833333 -0.37500000 -0.18750000       0.001
  -0.37500000 -0.37500000 -0.18750000       0.001
  -0.29166667 -0.37500000 -0.18750000       0.001
  -0.20833333 -0.37500000 -0.18750000       0.001
  -0.12500000 -0.37500000 -0.18750000       0.001
  -0.04166667 -0.37500000 -0.18750000       0.001
   0.04166667 -0.29166667 -0.18750000       0.001
   0.12500000 -0.29166667 -0.18750000       0.001
   0.20833333 -0.29166667 -0.18750000       0.001
   0.29166667 -0.29166667 -0.18750000       0.001
   0.37500000 -0.29166667 -0.18750000       0.001
   0.45833333 -0.29166667 -0.18750000       0.001
  -0.45833333 -0.29166667 -0.18750000       0.001
  -0.37500000 -0.29166667 -0.18750000       0.001
  -0.29166667 -0.29166667 -0.18750000       0.001
  -0.20833333 -0.29166667 -0.18750000       0.001
  -0.12500000 -0.29166667 -0.18750000       0.001
  -0.04166667 -0.29166667 -0.18750000       0.001
   0.04166667 -0.20833333 -0.18750000       0.001
   0.12500000 -0.20833333 -0.18750000       0.001
   0.20833333 -0.20833333 -0.18750000       0.001
   0.29166667 -0.20833333 -0.18750000       0.001
   0.37500000 -0.20833333 -0.18750000       0.001
   0.45833333 -0.20833333 -0.18750000       0.001
  -0.45833333 -0.20833333 -0.18750000       0.001
  -0.37500000 -0.20833333 -0.18750000       0.001
  -0.29166667 -0.20833333 -0.18750000       0.001
  -0.20833333 -0.20833333 -0.18750000       0.001
  -0.12500000 -0.20833333 -0.18750000       0.001
  -0.04166667 -0.20833333 -0.18750000       0.001
   0.04166667 -0.12500000 -0.18750000       0.001
   0.12500000 -0.12500000 -0.18750000       0.001
   0.20833333 -0.12500000 -0.18750000       0.001
   0.29166667 -0.12500000 -0.18750000       0.001
   0.37500000 -0.12500000 -0.18750000       0.001
   0.45833333 -0.12500000 -0.18750000       0.001
  -0.45833333 -0.12500000 -0.18750000       0.001
  -0.37500000 -0.12500000 -0.18750000       0.001
  -0.29166667 -0.12500000 -0.18750000       0.001
  -0.20833333 -0.12500000 -0.18750000       0.001
  -0.12500000 -0.12500000 -0.18750000       0.001
  -0.04166667 -0.12500000 -0.18750000       0.001
   0.04166667 -0.04166667 -0.18750000       0.001
   0.12500000 -0.04166667 -0.18750000       0.001
   0.20833333 -0.04166667 -0.18750000       0.001
   0.29166667 -0.04166667 -0.18750000       0.001
   0.37500000 -0.04166667 -0.18750000       0.001
   0.45833333 -0.04166667 -0.18750000       0.001
  -0.45833333 -0.04166667 -0.18750000       0.001
  -0.37500000 -0.04166667 -0.18750000       0.001
  -0.29166667 -0.04166667 -0.18750000       0.001
  -0.20833333 -0.04166667 -0.18750000       0.001
  -0.12500000 -0.04166667 -0.18750000       0.001
  -0.04166667 -0.04166667 -0.18750000       0.001
   0.04166667  0.04166667 -0.06250000       0.001
   0.12500000  0.04166667 -0.06250000       0.001
   0.20833333  0.04166667 -0.06250000       0.001
   0.29166667  0.04166667 -0.06250000       0.001
   0.37500000  0.04166667 -0.06250000       0.001
   0.45833333  0.04166667 -0.06250000       0.001
  -0.45833333  0.04166667 -0.06250000       0.001
  -0.37500000  0.04166667 -0.06250000       0.001
  -0.29166667  0.04166667 -0.06250000       0.001
  -0.20833333  0.04166667 -0.06250000       0.001
  -0.12500000  0.04166667 -0.06250000       0.001
  -0.04166667  0.04166667 -0.06250000       0.001
   0.04166667  0.12500000 -0.06250000       0.001
   0.12500000  0.12500000 -0.06250000       0.001
   0.20833333  0.12500000 -0.06250000       0.001
   0.29166667  0.12500000 -0.06250000       0.001
   0.37500000  0.12500000 -0.06250000       0.001
   0.45833333  0.12500000 -0.06250000       0.001
  -0.45833333  0.12500000 -0.06250000       0.001
  -0.37500000  0.12500000 -0.06250000       0.001
  -0.29166667  0.12500000 -0.06250000       0.001
  -0.20833333  0.12500000 -0.06250000       0.001
  -0.12500000  0.12500000 -0.06250000       0.001
  -0.04166667  0.12500000 -0.06250000       0.001
   0.04166667  0.20833333 -0.06250000       0.001
   0.12500000  0.20833333 -0.06250000       0.001
   0.20833333  0.20833333 -0.06250000       0.001
   0.29166667  0.20833333 -0.06250000       0.001
   0.37500000  0.20833333 -0.06250000       0.001
   0.45833333  0.20833333 -0.06250000       0.001
  -0.45833333  0.20833333 -0.06250000       0.001
  -0.37500000  0.20833333 -0.06250000       0.001
  -0.29166667  0.20833333 -0.06250000       0.001
  -0.20833333  0.20833333 -0.06250000       0.001
  -0.12500000  0.20833333 -0.06250000       0.001
  -0.04166667  0.20833333 -0.06250000       0.001
   0.04166667  0.29166667 -0.06250000       0.001
   0.12500000  0.29166667 -0.06250000       0.001
   0.20833333  0.29166667 -0.06250000       0.001
   0.29166667  0.29166667 -0.06250000       0.001
   0.37500000  0.29166667 -0.06250000       0.001
   0.45833333  0.29166667 -0.06250000       0.001
  -0.45833333  0.29166667 -0.06250000       0.001
  -0.37500000  0.29166667 -0.06250000       0.001
  -0.29166667  0.29166667 -0.06250000       0.001
  -0.20833333  0.29166667 -0.06250000       0.001
  -0.12500000  0.29166667 -0.06250000       0.001
  -0.04166667  0.29166667 -0.06250000       0.001
   0.04166667  0.37500000 -0.06250000       0.001
   0.12500000  0.37500000 -0.06250000       0.001
   0.20833333  0.37500000 -0.06250000       0.001
   0.29166667  0.37500000 -0.06250000       0.001
   0.37500000  0.37500000 -0.06250000       0.001
   0.45833333  0.37500000 -0.06250000       0.001
  -0.45833333  0.37500000 -0.06250000       0.001
  -0.37500000  0.37500000 -0.06250000       0.001
  -0.29166667  0.37500000 -0.06250000       0.001
  -0.20833333  0.37500000 -0.06250000       0.001
  -0.12500000  0.37500000 -0.06250000       0.001
  -0.04166667  0.37500000 -0.06250000       0.001
   0.04166667  0.45833333 -0.06250000       0.001
   0.12500000  0.45833333 -0.06250000       0.001
   0.20833333  0.45833333 -0.06250000       0.001
   0.29166667  0.45833333 -0.06250000       0.001
   0.37500000  0.45833333 -0.06250000       0.001
   0.45833333  0.45833333 -0.06250000       0.001
  -0.45833333  0.45833333 -0.06250000       0.001
  -0.37500000  0.45833333 -0.06250000       0.001
  -0.29166667  0.45833333 -0.06250000       0.001
  -0.20833333  0.45833333 -0.06250000       0.001
  -0.12500000  0.45833333 -0.06250000       0.001
  -0.04166667  0.45833333 -0.06250000       0.001
   0.04166667 -0.45833333 -0.06250000       0.001
   0.12500000 -0.45833333 -0.06250000       0.001
   0.20833333 -0.45833333 -0.06250000       0.001
   0.29166667 -0.45833333 -0.06250000       0.001
   0.37500000 -0.45833333 -0.06250000       0.001
   0.45833333 -0.45833333 -0.06250000       0.001
  -0.45833333 -0.45833333 -0.06250000       0.001
  -0.37500000 -0.45833333 -0.06250000       0.001
  -0.29166667 -0.45833333 -0.06250000       0.001
  -0.20833333 -0.45833333 -0.06250000       0.001
  -0.12500000 -0.45833333 -0.06250000       0.001
  -0.04166667 -0.45833333 -0.06250000       0.001
   0.04166667 -0.37500000 -0.06250000       0.001
   0.12500000 -0.37500000 -0.06250000       0.001
   0.20833333 -0.37500000 -0.06250000       0.001
   0.29166667 -0.37500000 -0.06250000       0.001
   0.37500000 -0.37500000 -0.06250000       0.001
   0.45833333 -0.37500000 -0.06250000       0.001
  -0.45833333 -0.37500000 -0.06250000       0.001
  -0.37500000 -0.37500000 -0.06250000       0.001
  -0.29166667 -0.37500000 -0.06250000       0.001
  -0.20833333 -0.37500000 -0.06250000       0.001
  -0.12500000 -0.37500000 -0.06250000       0.001
  -0.04166667 -0.37500000 -0.06250000       0.001
   0.04166667 -0.29166667 -0.06250000       0.001
   0.12500000 -0.29166667 -0.06250000       0.001
   0.20833333 -0.29166667 -0.06250000       0.001
   0.29166667 -0.29166667 -0.06250000       0.001
   0.37500000 -0.29166667 -0.06250000       0.001
   0.45833333 -0.29166667 -0.06250000       0.001
  -0.45833333 -0.29166667 -0.06250000       0.001
  -0.37500000 -0.29166667 -0.06250000       0.001
  -0.29166667 -0.29166667 -0.06250000       0.001
  -0.20833333 -0.29166667 -0.06250000       0.001
  -0.12500000 -0.29166667 -0.06250000       0.001
  -0.04166667 -0.29166667 -0.06250000       0.001
   0.04166667 -0.20833333 -0.06250000       0.001
   0.12500000 -0.20833333 -0.06250000       0.001
   0.20833333 -0.20833333 -0.06250000       0.001
   0.29166667 -0.20833333 -0.06250000       0.001
   0.37500000 -0.20833333 -0.06250000       0.001
   0.45833333 -0.20833333 -0.06250000       0.001
  -0.45833333 -0.20833333 -0.06250000       0.001
  -0.37500000 -0.20833333 -0.06250000       0.001
  -0.29166667 -0.20833333 -0.06250000       0.001
  -0.20833333 -0.20833333 -0.06250000       0.001
  -0.12500000 -0.20833333 -0.06250000       0.001
  -0.04166667 -0.20833333 -0.06250000       0.001
   0.04166667 -0.12500000 -0.06250000       0.001
   0.12500000 -0.12500000 -0.06250000       0.001
   0.20833333 -0.12500000 -0.06250000       0.001
   0.29166667 -0.12500000 -0.06250000       0.001
   0.37500000 -0.12500000 -0.06250000       0.001
   0.45833333 -0.12500000 -0.06250000       0.001
  -0.45833333 -0.12500000 -0.06250000       0.001
  -0.37500000 -0.12500000 -0.06250000       0.001
  -0.29166667 -0.12500000 -0.06250000       0.001
  -0.20833333 -0.12500000 -0.06250000       0.001
  -0.12500000 -0.12500000 -0.06250000       0.001
  -0.04166667 -0.12500000 -0.06250000       0.001
   0.04166667 -0.04166667 -0.06250000       0.001
   0.12500000 -0.04166667 -0.06250000       0.001
   0.20833333 -0.04166667 -0.06250000       0.001
   0.29166667 -0.04166667 -0.06250000       0.001
   0.37500000 -0.04166667 -0.06250000       0.001
   0.45833333 -0.04166667 -0.06250000       0.001
  -0.45833333 -0.04166667 -0.06250000       0.001
  -0.37500000 -0.04166667 -0.06250000       0.001
  -0.29166667 -0.04166667 -0.06250000       0.001
  -0.20833333 -0.04166667 -0.06250000       0.001
  -0.12500000 -0.04166667 -0.06250000       0.001
  -0.04166667 -0.04166667 -0.06250000       0.001
 
 position of ions in fractional coordinates (direct lattice) 
   0.83335553  0.83335553  0.99990696
   0.16664447  0.16664447  0.00009304
 
 position of ions in cartesian coordinates  (Angst):
   0.00000000  4.33395470  4.21138433
   0.00000000  0.70082520  0.10828013
 


--------------------------------------------------------------------------------------------------------


 k-point     1 :   0.0417 0.0417 0.0625  plane waves:     609
 k-point     2 :   0.1250 0.0417 0.0625  plane waves:     607
 k-point     3 :   0.2083 0.0417 0.0625  plane waves:     609
 k-point     4 :   0.2917 0.0417 0.0625  plane waves:     613
 k-point     5 :   0.3750 0.0417 0.0625  plane waves:     616
 k-point     6 :   0.4583 0.0417 0.0625  plane waves:     613
 k-point     7 :  -0.4583 0.0417 0.0625  plane waves:     616
 k-point     8 :  -0.3750 0.0417 0.0625  plane waves:     615
 k-point     9 :  -0.2917 0.0417 0.0625  plane waves:     613
 k-point    10 :  -0.2083 0.0417 0.0625  plane waves:     608
 k-point    11 :  -0.1250 0.0417 0.0625  plane waves:     609
 k-point    12 :  -0.0417 0.0417 0.0625  plane waves:     602
 k-point    13 :   0.0417 0.1250 0.0625  plane waves:     607
 k-point    14 :   0.1250 0.1250 0.0625  plane waves:     608
 k-point    15 :   0.2083 0.1250 0.0625  plane waves:     607
 k-point    16 :   0.2917 0.1250 0.0625  plane waves:     610
 k-point    17 :   0.3750 0.1250 0.0625  plane waves:     609
 k-point    18 :   0.4583 0.1250 0.0625  plane waves:     616
 k-point    19 :  -0.4583 0.1250 0.0625  plane waves:     623
 k-point    20 :  -0.3750 0.1250 0.0625  plane waves:     619
 k-point    21 :  -0.2917 0.1250 0.0625  plane waves:     614
 k-point    22 :  -0.2083 0.1250 0.0625  plane waves:     611
 k-point    23 :  -0.1250 0.1250 0.0625  plane waves:     603
 k-point    24 :  -0.0417 0.1250 0.0625  plane waves:     606
 k-point    25 :   0.0417 0.2083 0.0625  plane waves:     609
 k-point    26 :   0.1250 0.2083 0.0625  plane waves:     607
 k-point    27 :   0.2083 0.2083 0.0625  plane waves:     608
 k-point    28 :   0.2917 0.2083 0.0625  plane waves:     607
 k-point    29 :   0.3750 0.2083 0.0625  plane waves:     608
 k-point    30 :   0.4583 0.2083 0.0625  plane waves:     617
 k-point    31 :  -0.4583 0.2083 0.0625  plane waves:     622
 k-point    32 :  -0.3750 0.2083 0.0625  plane waves:     624
 k-point    33 :  -0.2917 0.2083 0.0625  plane waves:     617
 k-point    34 :  -0.2083 0.2083 0.0625  plane waves:     613
 k-point    35 :  -0.1250 0.2083 0.0625  plane waves:     608
 k-point    36 :  -0.0417 0.2083 0.0625  plane waves:     612
 k-point    37 :   0.0417 0.2917 0.0625  plane waves:     613
 k-point    38 :   0.1250 0.2917 0.0625  plane waves:     610
 k-point    39 :   0.2083 0.2917 0.0625  plane waves:     607
 k-point    40 :   0.2917 0.2917 0.0625  plane waves:     610
 k-point    41 :   0.3750 0.2917 0.0625  plane waves:     608
 k-point    42 :   0.4583 0.2917 0.0625  plane waves:     616
 k-point    43 :  -0.4583 0.2917 0.0625  plane waves:     618
 k-point    44 :  -0.3750 0.2917 0.0625  plane waves:     626
 k-point    45 :  -0.2917 0.2917 0.0625  plane waves:     624
 k-point    46 :  -0.2083 0.2917 0.0625  plane waves:     616
 k-point    47 :  -0.1250 0.2917 0.0625  plane waves:     614
 k-point    48 :  -0.0417 0.2917 0.0625  plane waves:     614
 k-point    49 :   0.0417 0.3750 0.0625  plane waves:     616
 k-point    50 :   0.1250 0.3750 0.0625  plane waves:     609
 k-point    51 :   0.2083 0.3750 0.0625  plane waves:     608
 k-point    52 :   0.2917 0.3750 0.0625  plane waves:     608
 k-point    53 :   0.3750 0.3750 0.0625  plane waves:     610
 k-point    54 :   0.4583 0.3750 0.0625  plane waves:     606
 k-point    55 :  -0.4583 0.3750 0.0625  plane waves:     612
 k-point    56 :  -0.3750 0.3750 0.0625  plane waves:     619
 k-point    57 :  -0.2917 0.3750 0.0625  plane waves:     621
 k-point    58 :  -0.2083 0.3750 0.0625  plane waves:     621
 k-point    59 :  -0.1250 0.3750 0.0625  plane waves:     618
 k-point    60 :  -0.0417 0.3750 0.0625  plane waves:     621
 k-point    61 :   0.0417 0.4583 0.0625  plane waves:     613
 k-point    62 :   0.1250 0.4583 0.0625  plane waves:     616
 k-point    63 :   0.2083 0.4583 0.0625  plane waves:     617
 k-point    64 :   0.2917 0.4583 0.0625  plane waves:     616
 k-point    65 :   0.3750 0.4583 0.0625  plane waves:     606
 k-point    66 :   0.4583 0.4583 0.0625  plane waves:     609
 k-point    67 :  -0.4583 0.4583 0.0625  plane waves:     611
 k-point    68 :  -0.3750 0.4583 0.0625  plane waves:     611
 k-point    69 :  -0.2917 0.4583 0.0625  plane waves:     618
 k-point    70 :  -0.2083 0.4583 0.0625  plane waves:     617
 k-point    71 :  -0.1250 0.4583 0.0625  plane waves:     618
 k-point    72 :  -0.0417 0.4583 0.0625  plane waves:     612
 k-point    73 :   0.0417-0.4583 0.0625  plane waves:     616
 k-point    74 :   0.1250-0.4583 0.0625  plane waves:     623
 k-point    75 :   0.2083-0.4583 0.0625  plane waves:     622
 k-point    76 :   0.2917-0.4583 0.0625  plane waves:     618
 k-point    77 :   0.3750-0.4583 0.0625  plane waves:     612
 k-point    78 :   0.4583-0.4583 0.0625  plane waves:     611
 k-point    79 :  -0.4583-0.4583 0.0625  plane waves:     608
 k-point    80 :  -0.3750-0.4583 0.0625  plane waves:     604
 k-point    81 :  -0.2917-0.4583 0.0625  plane waves:     609
 k-point    82 :  -0.2083-0.4583 0.0625  plane waves:     613
 k-point    83 :  -0.1250-0.4583 0.0625  plane waves:     616
 k-point    84 :  -0.0417-0.4583 0.0625  plane waves:     618
 k-point    85 :   0.0417-0.3750 0.0625  plane waves:     615
 k-point    86 :   0.1250-0.3750 0.0625  plane waves:     619
 k-point    87 :   0.2083-0.3750 0.0625  plane waves:     624
 k-point    88 :   0.2917-0.3750 0.0625  plane waves:     626
 k-point    89 :   0.3750-0.3750 0.0625  plane waves:     619
 k-point    90 :   0.4583-0.3750 0.0625  plane waves:     611
 k-point    91 :  -0.4583-0.3750 0.0625  plane waves:     604
 k-point    92 :  -0.3750-0.3750 0.0625  plane waves:     608
 k-point    93 :  -0.2917-0.3750 0.0625  plane waves:     609
 k-point    94 :  -0.2083-0.3750 0.0625  plane waves:     610
 k-point    95 :  -0.1250-0.3750 0.0625  plane waves:     607
 k-point    96 :  -0.0417-0.3750 0.0625  plane waves:     610
 k-point    97 :   0.0417-0.2917 0.0625  plane waves:     613
 k-point    98 :   0.1250-0.2917 0.0625  plane waves:     614
 k-point    99 :   0.2083-0.2917 0.0625  plane waves:     617
 k-point   100 :   0.2917-0.2917 0.0625  plane waves:     624
 k-point   101 :   0.3750-0.2917 0.0625  plane waves:     621
 k-point   102 :   0.4583-0.2917 0.0625  plane waves:     618
 k-point   103 :  -0.4583-0.2917 0.0625  plane waves:     609
 k-point   104 :  -0.3750-0.2917 0.0625  plane waves:     609
 k-point   105 :  -0.2917-0.2917 0.0625  plane waves:     603
 k-point   106 :  -0.2083-0.2917 0.0625  plane waves:     607
 k-point   107 :  -0.1250-0.2917 0.0625  plane waves:     612
 k-point   108 :  -0.0417-0.2917 0.0625  plane waves:     609
 k-point   109 :   0.0417-0.2083 0.0625  plane waves:     608
 k-point   110 :   0.1250-0.2083 0.0625  plane waves:     611
 k-point   111 :   0.2083-0.2083 0.0625  plane waves:     613
 k-point   112 :   0.2917-0.2083 0.0625  plane waves:     616
 k-point   113 :   0.3750-0.2083 0.0625  plane waves:     621
 k-point   114 :   0.4583-0.2083 0.0625  plane waves:     617
 k-point   115 :  -0.4583-0.2083 0.0625  plane waves:     613
 k-point   116 :  -0.3750-0.2083 0.0625  plane waves:     610
 k-point   117 :  -0.2917-0.2083 0.0625  plane waves:     607
 k-point   118 :  -0.2083-0.2083 0.0625  plane waves:     608
 k-point   119 :  -0.1250-0.2083 0.0625  plane waves:     608
 k-point   120 :  -0.0417-0.2083 0.0625  plane waves:     610
 k-point   121 :   0.0417-0.1250 0.0625  plane waves:     609
 k-point   122 :   0.1250-0.1250 0.0625  plane waves:     603
 k-point   123 :   0.2083-0.1250 0.0625  plane waves:     608
 k-point   124 :   0.2917-0.1250 0.0625  plane waves:     614
 k-point   125 :   0.3750-0.1250 0.0625  plane waves:     618
 k-point   126 :   0.4583-0.1250 0.0625  plane waves:     618
 k-point   127 :  -0.4583-0.1250 0.0625  plane waves:     616
 k-point   128 :  -0.3750-0.1250 0.0625  plane waves:     607
 k-point   129 :  -0.2917-0.1250 0.0625  plane waves:     612
 k-point   130 :  -0.2083-0.1250 0.0625  plane waves:     608
 k-point   131 :  -0.1250-0.1250 0.0625  plane waves:     598
 k-point   132 :  -0.0417-0.1250 0.0625  plane waves:     605
 k-point   133 :   0.0417-0.0417 0.0625  plane waves:     602
 k-point   134 :   0.1250-0.0417 0.0625  plane waves:     606
 k-point   135 :   0.2083-0.0417 0.0625  plane waves:     612
 k-point   136 :   0.2917-0.0417 0.0625  plane waves:     614
 k-point   137 :   0.3750-0.0417 0.0625  plane waves:     621
 k-point   138 :   0.4583-0.0417 0.0625  plane waves:     612
 k-point   139 :  -0.4583-0.0417 0.0625  plane waves:     618
 k-point   140 :  -0.3750-0.0417 0.0625  plane waves:     610
 k-point   141 :  -0.2917-0.0417 0.0625  plane waves:     609
 k-point   142 :  -0.2083-0.0417 0.0625  plane waves:     610
 k-point   143 :  -0.1250-0.0417 0.0625  plane waves:     605
 k-point   144 :  -0.0417-0.0417 0.0625  plane waves:     602
 k-point   145 :   0.0417 0.0417 0.1875  plane waves:     601
 k-point   146 :   0.1250 0.0417 0.1875  plane waves:     604
 k-point   147 :   0.2083 0.0417 0.1875  plane waves:     609
 k-point   148 :   0.2917 0.0417 0.1875  plane waves:     612
 k-point   149 :   0.3750 0.0417 0.1875  plane waves:     617
 k-point   150 :   0.4583 0.0417 0.1875  plane waves:     614
 k-point   151 :  -0.4583 0.0417 0.1875  plane waves:     609
 k-point   152 :  -0.3750 0.0417 0.1875  plane waves:     610
 k-point   153 :  -0.2917 0.0417 0.1875  plane waves:     610
 k-point   154 :  -0.2083 0.0417 0.1875  plane waves:     611
 k-point   155 :  -0.1250 0.0417 0.1875  plane waves:     607
 k-point   156 :  -0.0417 0.0417 0.1875  plane waves:     606
 k-point   157 :   0.0417 0.1250 0.1875  plane waves:     604
 k-point   158 :   0.1250 0.1250 0.1875  plane waves:     604
 k-point   159 :   0.2083 0.1250 0.1875  plane waves:     607
 k-point   160 :   0.2917 0.1250 0.1875  plane waves:     609
 k-point   161 :   0.3750 0.1250 0.1875  plane waves:     614
 k-point   162 :   0.4583 0.1250 0.1875  plane waves:     617
 k-point   163 :  -0.4583 0.1250 0.1875  plane waves:     621
 k-point   164 :  -0.3750 0.1250 0.1875  plane waves:     619
 k-point   165 :  -0.2917 0.1250 0.1875  plane waves:     614
 k-point   166 :  -0.2083 0.1250 0.1875  plane waves:     609
 k-point   167 :  -0.1250 0.1250 0.1875  plane waves:     611
 k-point   168 :  -0.0417 0.1250 0.1875  plane waves:     605
 k-point   169 :   0.0417 0.2083 0.1875  plane waves:     609
 k-point   170 :   0.1250 0.2083 0.1875  plane waves:     607
 k-point   171 :   0.2083 0.2083 0.1875  plane waves:     612
 k-point   172 :   0.2917 0.2083 0.1875  plane waves:     611
 k-point   173 :   0.3750 0.2083 0.1875  plane waves:     610
 k-point   174 :   0.4583 0.2083 0.1875  plane waves:     613
 k-point   175 :  -0.4583 0.2083 0.1875  plane waves:     624
 k-point   176 :  -0.3750 0.2083 0.1875  plane waves:     618
 k-point   177 :  -0.2917 0.2083 0.1875  plane waves:     620
 k-point   178 :  -0.2083 0.2083 0.1875  plane waves:     614
 k-point   179 :  -0.1250 0.2083 0.1875  plane waves:     610
 k-point   180 :  -0.0417 0.2083 0.1875  plane waves:     608
 k-point   181 :   0.0417 0.2917 0.1875  plane waves:     612
 k-point   182 :   0.1250 0.2917 0.1875  plane waves:     609
 k-point   183 :   0.2083 0.2917 0.1875  plane waves:     611
 k-point   184 :   0.2917 0.2917 0.1875  plane waves:     617
 k-point   185 :   0.3750 0.2917 0.1875  plane waves:     612
 k-point   186 :   0.4583 0.2917 0.1875  plane waves:     617
 k-point   187 :  -0.4583 0.2917 0.1875  plane waves:     621
 k-point   188 :  -0.3750 0.2917 0.1875  plane waves:     620
 k-point   189 :  -0.2917 0.2917 0.1875  plane waves:     619
 k-point   190 :  -0.2083 0.2917 0.1875  plane waves:     618
 k-point   191 :  -0.1250 0.2917 0.1875  plane waves:     610
 k-point   192 :  -0.0417 0.2917 0.1875  plane waves:     611
 k-point   193 :   0.0417 0.3750 0.1875  plane waves:     617
 k-point   194 :   0.1250 0.3750 0.1875  plane waves:     614
 k-point   195 :   0.2083 0.3750 0.1875  plane waves:     610
 k-point   196 :   0.2917 0.3750 0.1875  plane waves:     612
 k-point   197 :   0.3750 0.3750 0.1875  plane waves:     616
 k-point   198 :   0.4583 0.3750 0.1875  plane waves:     614
 k-point   199 :  -0.4583 0.3750 0.1875  plane waves:     620
 k-point   200 :  -0.3750 0.3750 0.1875  plane waves:     616
 k-point   201 :  -0.2917 0.3750 0.1875  plane waves:     618
 k-point   202 :  -0.2083 0.3750 0.1875  plane waves:     617
 k-point   203 :  -0.1250 0.3750 0.1875  plane waves:     616
 k-point   204 :  -0.0417 0.3750 0.1875  plane waves:     612
 k-point   205 :   0.0417 0.4583 0.1875  plane waves:     614
 k-point   206 :   0.1250 0.4583 0.1875  plane waves:     617
 k-point   207 :   0.2083 0.4583 0.1875  plane waves:     613
 k-point   208 :   0.2917 0.4583 0.1875  plane waves:     617
 k-point   209 :   0.3750 0.4583 0.1875  plane waves:     614
 k-point   210 :   0.4583 0.4583 0.1875  plane waves:     610
 k-point   211 :  -0.4583 0.4583 0.1875  plane waves:     616
 k-point   212 :  -0.3750 0.4583 0.1875  plane waves:     613
 k-point   213 :  -0.2917 0.4583 0.1875  plane waves:     615
 k-point   214 :  -0.2083 0.4583 0.1875  plane waves:     615
 k-point   215 :  -0.1250 0.4583 0.1875  plane waves:     618
 k-point   216 :  -0.0417 0.4583 0.1875  plane waves:     612
 k-point   217 :   0.0417-0.4583 0.1875  plane waves:     609
 k-point   218 :   0.1250-0.4583 0.1875  plane waves:     621
 k-point   219 :   0.2083-0.4583 0.1875  plane waves:     624
 k-point   220 :   0.2917-0.4583 0.1875  plane waves:     621
 k-point   221 :   0.3750-0.4583 0.1875  plane waves:     620
 k-point   222 :   0.4583-0.4583 0.1875  plane waves:     616
 k-point   223 :  -0.4583-0.4583 0.1875  plane waves:     612
 k-point   224 :  -0.3750-0.4583 0.1875  plane waves:     609
 k-point   225 :  -0.2917-0.4583 0.1875  plane waves:     609
 k-point   226 :  -0.2083-0.4583 0.1875  plane waves:     610
 k-point   227 :  -0.1250-0.4583 0.1875  plane waves:     614
 k-point   228 :  -0.0417-0.4583 0.1875  plane waves:     609
 k-point   229 :   0.0417-0.3750 0.1875  plane waves:     610
 k-point   230 :   0.1250-0.3750 0.1875  plane waves:     619
 k-point   231 :   0.2083-0.3750 0.1875  plane waves:     618
 k-point   232 :   0.2917-0.3750 0.1875  plane waves:     620
 k-point   233 :   0.3750-0.3750 0.1875  plane waves:     616
 k-point   234 :   0.4583-0.3750 0.1875  plane waves:     613
 k-point   235 :  -0.4583-0.3750 0.1875  plane waves:     609
 k-point   236 :  -0.3750-0.3750 0.1875  plane waves:     610
 k-point   237 :  -0.2917-0.3750 0.1875  plane waves:     607
 k-point   238 :  -0.2083-0.3750 0.1875  plane waves:     605
 k-point   239 :  -0.1250-0.3750 0.1875  plane waves:     605
 k-point   240 :  -0.0417-0.3750 0.1875  plane waves:     610
 k-point   241 :   0.0417-0.2917 0.1875  plane waves:     610
 k-point   242 :   0.1250-0.2917 0.1875  plane waves:     614
 k-point   243 :   0.2083-0.2917 0.1875  plane waves:     620
 k-point   244 :   0.2917-0.2917 0.1875  plane waves:     619
 k-point   245 :   0.3750-0.2917 0.1875  plane waves:     618
 k-point   246 :   0.4583-0.2917 0.1875  plane waves:     615
 k-point   247 :  -0.4583-0.2917 0.1875  plane waves:     609
 k-point   248 :  -0.3750-0.2917 0.1875  plane waves:     607
 k-point   249 :  -0.2917-0.2917 0.1875  plane waves:     612
 k-point   250 :  -0.2083-0.2917 0.1875  plane waves:     606
 k-point   251 :  -0.1250-0.2917 0.1875  plane waves:     607
 k-point   252 :  -0.0417-0.2917 0.1875  plane waves:     604
 k-point   253 :   0.0417-0.2083 0.1875  plane waves:     611
 k-point   254 :   0.1250-0.2083 0.1875  plane waves:     609
 k-point   255 :   0.2083-0.2083 0.1875  plane waves:     614
 k-point   256 :   0.2917-0.2083 0.1875  plane waves:     618
 k-point   257 :   0.3750-0.2083 0.1875  plane waves:     617
 k-point   258 :   0.4583-0.2083 0.1875  plane waves:     615
 k-point   259 :  -0.4583-0.2083 0.1875  plane waves:     610
 k-point   260 :  -0.3750-0.2083 0.1875  plane waves:     605
 k-point   261 :  -0.2917-0.2083 0.1875  plane waves:     606
 k-point   262 :  -0.2083-0.2083 0.1875  plane waves:     613
 k-point   263 :  -0.1250-0.2083 0.1875  plane waves:     603
 k-point   264 :  -0.0417-0.2083 0.1875  plane waves:     610
 k-point   265 :   0.0417-0.1250 0.1875  plane waves:     607
 k-point   266 :   0.1250-0.1250 0.1875  plane waves:     611
 k-point   267 :   0.2083-0.1250 0.1875  plane waves:     610
 k-point   268 :   0.2917-0.1250 0.1875  plane waves:     610
 k-point   269 :   0.3750-0.1250 0.1875  plane waves:     616
 k-point   270 :   0.4583-0.1250 0.1875  plane waves:     618
 k-point   271 :  -0.4583-0.1250 0.1875  plane waves:     614
 k-point   272 :  -0.3750-0.1250 0.1875  plane waves:     605
 k-point   273 :  -0.2917-0.1250 0.1875  plane waves:     607
 k-point   274 :  -0.2083-0.1250 0.1875  plane waves:     603
 k-point   275 :  -0.1250-0.1250 0.1875  plane waves:     600
 k-point   276 :  -0.0417-0.1250 0.1875  plane waves:     596
 k-point   277 :   0.0417-0.0417 0.1875  plane waves:     606
 k-point   278 :   0.1250-0.0417 0.1875  plane waves:     605
 k-point   279 :   0.2083-0.0417 0.1875  plane waves:     608
 k-point   280 :   0.2917-0.0417 0.1875  plane waves:     611
 k-point   281 :   0.3750-0.0417 0.1875  plane waves:     612
 k-point   282 :   0.4583-0.0417 0.1875  plane waves:     612
 k-point   283 :  -0.4583-0.0417 0.1875  plane waves:     609
 k-point   284 :  -0.3750-0.0417 0.1875  plane waves:     610
 k-point   285 :  -0.2917-0.0417 0.1875  plane waves:     604
 k-point   286 :  -0.2083-0.0417 0.1875  plane waves:     610
 k-point   287 :  -0.1250-0.0417 0.1875  plane waves:     596
 k-point   288 :  -0.0417-0.0417 0.1875  plane waves:     603
 k-point   289 :   0.0417 0.0417 0.3125  plane waves:     605
 k-point   290 :   0.1250 0.0417 0.3125  plane waves:     606
 k-point   291 :   0.2083 0.0417 0.3125  plane waves:     609
 k-point   292 :   0.2917 0.0417 0.3125  plane waves:     607
 k-point   293 :   0.3750 0.0417 0.3125  plane waves:     607
 k-point   294 :   0.4583 0.0417 0.3125  plane waves:     609
 k-point   295 :  -0.4583 0.0417 0.3125  plane waves:     614
 k-point   296 :  -0.3750 0.0417 0.3125  plane waves:     613
 k-point   297 :  -0.2917 0.0417 0.3125  plane waves:     609
 k-point   298 :  -0.2083 0.0417 0.3125  plane waves:     605
 k-point   299 :  -0.1250 0.0417 0.3125  plane waves:     604
 k-point   300 :  -0.0417 0.0417 0.3125  plane waves:     606
 k-point   301 :   0.0417 0.1250 0.3125  plane waves:     606
 k-point   302 :   0.1250 0.1250 0.3125  plane waves:     611
 k-point   303 :   0.2083 0.1250 0.3125  plane waves:     610
 k-point   304 :   0.2917 0.1250 0.3125  plane waves:     609
 k-point   305 :   0.3750 0.1250 0.3125  plane waves:     608
 k-point   306 :   0.4583 0.1250 0.3125  plane waves:     615
 k-point   307 :  -0.4583 0.1250 0.3125  plane waves:     620
 k-point   308 :  -0.3750 0.1250 0.3125  plane waves:     619
 k-point   309 :  -0.2917 0.1250 0.3125  plane waves:     608
 k-point   310 :  -0.2083 0.1250 0.3125  plane waves:     608
 k-point   311 :  -0.1250 0.1250 0.3125  plane waves:     610
 k-point   312 :  -0.0417 0.1250 0.3125  plane waves:     606
 k-point   313 :   0.0417 0.2083 0.3125  plane waves:     609
 k-point   314 :   0.1250 0.2083 0.3125  plane waves:     610
 k-point   315 :   0.2083 0.2083 0.3125  plane waves:     612
 k-point   316 :   0.2917 0.2083 0.3125  plane waves:     614
 k-point   317 :   0.3750 0.2083 0.3125  plane waves:     607
 k-point   318 :   0.4583 0.2083 0.3125  plane waves:     615
 k-point   319 :  -0.4583 0.2083 0.3125  plane waves:     621
 k-point   320 :  -0.3750 0.2083 0.3125  plane waves:     621
 k-point   321 :  -0.2917 0.2083 0.3125  plane waves:     615
 k-point   322 :  -0.2083 0.2083 0.3125  plane waves:     608
 k-point   323 :  -0.1250 0.2083 0.3125  plane waves:     606
 k-point   324 :  -0.0417 0.2083 0.3125  plane waves:     608
 k-point   325 :   0.0417 0.2917 0.3125  plane waves:     607
 k-point   326 :   0.1250 0.2917 0.3125  plane waves:     609
 k-point   327 :   0.2083 0.2917 0.3125  plane waves:     614
 k-point   328 :   0.2917 0.2917 0.3125  plane waves:     611
 k-point   329 :   0.3750 0.2917 0.3125  plane waves:     613
 k-point   330 :   0.4583 0.2917 0.3125  plane waves:     616
 k-point   331 :  -0.4583 0.2917 0.3125  plane waves:     619
 k-point   332 :  -0.3750 0.2917 0.3125  plane waves:     622
 k-point   333 :  -0.2917 0.2917 0.3125  plane waves:     619
 k-point   334 :  -0.2083 0.2917 0.3125  plane waves:     612
 k-point   335 :  -0.1250 0.2917 0.3125  plane waves:     609
 k-point   336 :  -0.0417 0.2917 0.3125  plane waves:     607
 k-point   337 :   0.0417 0.3750 0.3125  plane waves:     607
 k-point   338 :   0.1250 0.3750 0.3125  plane waves:     608
 k-point   339 :   0.2083 0.3750 0.3125  plane waves:     607
 k-point   340 :   0.2917 0.3750 0.3125  plane waves:     613
 k-point   341 :   0.3750 0.3750 0.3125  plane waves:     614
 k-point   342 :   0.4583 0.3750 0.3125  plane waves:     616
 k-point   343 :  -0.4583 0.3750 0.3125  plane waves:     619
 k-point   344 :  -0.3750 0.3750 0.3125  plane waves:     622
 k-point   345 :  -0.2917 0.3750 0.3125  plane waves:     615
 k-point   346 :  -0.2083 0.3750 0.3125  plane waves:     612
 k-point   347 :  -0.1250 0.3750 0.3125  plane waves:     608
 k-point   348 :  -0.0417 0.3750 0.3125  plane waves:     605
 k-point   349 :   0.0417 0.4583 0.3125  plane waves:     609
 k-point   350 :   0.1250 0.4583 0.3125  plane waves:     615
 k-point   351 :   0.2083 0.4583 0.3125  plane waves:     615
 k-point   352 :   0.2917 0.4583 0.3125  plane waves:     616
 k-point   353 :   0.3750 0.4583 0.3125  plane waves:     616
 k-point   354 :   0.4583 0.4583 0.3125  plane waves:     603
 k-point   355 :  -0.4583 0.4583 0.3125  plane waves:     615
 k-point   356 :  -0.3750 0.4583 0.3125  plane waves:     618
 k-point   357 :  -0.2917 0.4583 0.3125  plane waves:     614
 k-point   358 :  -0.2083 0.4583 0.3125  plane waves:     612
 k-point   359 :  -0.1250 0.4583 0.3125  plane waves:     613
 k-point   360 :  -0.0417 0.4583 0.3125  plane waves:     612
 k-point   361 :   0.0417-0.4583 0.3125  plane waves:     614
 k-point   362 :   0.1250-0.4583 0.3125  plane waves:     620
 k-point   363 :   0.2083-0.4583 0.3125  plane waves:     621
 k-point   364 :   0.2917-0.4583 0.3125  plane waves:     619
 k-point   365 :   0.3750-0.4583 0.3125  plane waves:     619
 k-point   366 :   0.4583-0.4583 0.3125  plane waves:     615
 k-point   367 :  -0.4583-0.4583 0.3125  plane waves:     608
 k-point   368 :  -0.3750-0.4583 0.3125  plane waves:     611
 k-point   369 :  -0.2917-0.4583 0.3125  plane waves:     611
 k-point   370 :  -0.2083-0.4583 0.3125  plane waves:     610
 k-point   371 :  -0.1250-0.4583 0.3125  plane waves:     608
 k-point   372 :  -0.0417-0.4583 0.3125  plane waves:     614
 k-point   373 :   0.0417-0.3750 0.3125  plane waves:     613
 k-point   374 :   0.1250-0.3750 0.3125  plane waves:     619
 k-point   375 :   0.2083-0.3750 0.3125  plane waves:     621
 k-point   376 :   0.2917-0.3750 0.3125  plane waves:     622
 k-point   377 :   0.3750-0.3750 0.3125  plane waves:     622
 k-point   378 :   0.4583-0.3750 0.3125  plane waves:     618
 k-point   379 :  -0.4583-0.3750 0.3125  plane waves:     611
 k-point   380 :  -0.3750-0.3750 0.3125  plane waves:     615
 k-point   381 :  -0.2917-0.3750 0.3125  plane waves:     604
 k-point   382 :  -0.2083-0.3750 0.3125  plane waves:     605
 k-point   383 :  -0.1250-0.3750 0.3125  plane waves:     604
 k-point   384 :  -0.0417-0.3750 0.3125  plane waves:     607
 k-point   385 :   0.0417-0.2917 0.3125  plane waves:     609
 k-point   386 :   0.1250-0.2917 0.3125  plane waves:     608
 k-point   387 :   0.2083-0.2917 0.3125  plane waves:     615
 k-point   388 :   0.2917-0.2917 0.3125  plane waves:     619
 k-point   389 :   0.3750-0.2917 0.3125  plane waves:     615
 k-point   390 :   0.4583-0.2917 0.3125  plane waves:     614
 k-point   391 :  -0.4583-0.2917 0.3125  plane waves:     611
 k-point   392 :  -0.3750-0.2917 0.3125  plane waves:     604
 k-point   393 :  -0.2917-0.2917 0.3125  plane waves:     607
 k-point   394 :  -0.2083-0.2917 0.3125  plane waves:     607
 k-point   395 :  -0.1250-0.2917 0.3125  plane waves:     604
 k-point   396 :  -0.0417-0.2917 0.3125  plane waves:     606
 k-point   397 :   0.0417-0.2083 0.3125  plane waves:     605
 k-point   398 :   0.1250-0.2083 0.3125  plane waves:     608
 k-point   399 :   0.2083-0.2083 0.3125  plane waves:     608
 k-point   400 :   0.2917-0.2083 0.3125  plane waves:     612
 k-point   401 :   0.3750-0.2083 0.3125  plane waves:     612
 k-point   402 :   0.4583-0.2083 0.3125  plane waves:     612
 k-point   403 :  -0.4583-0.2083 0.3125  plane waves:     610
 k-point   404 :  -0.3750-0.2083 0.3125  plane waves:     605
 k-point   405 :  -0.2917-0.2083 0.3125  plane waves:     607
 k-point   406 :  -0.2083-0.2083 0.3125  plane waves:     604
 k-point   407 :  -0.1250-0.2083 0.3125  plane waves:     603
 k-point   408 :  -0.0417-0.2083 0.3125  plane waves:     600
 k-point   409 :   0.0417-0.1250 0.3125  plane waves:     604
 k-point   410 :   0.1250-0.1250 0.3125  plane waves:     610
 k-point   411 :   0.2083-0.1250 0.3125  plane waves:     606
 k-point   412 :   0.2917-0.1250 0.3125  plane waves:     609
 k-point   413 :   0.3750-0.1250 0.3125  plane waves:     608
 k-point   414 :   0.4583-0.1250 0.3125  plane waves:     613
 k-point   415 :  -0.4583-0.1250 0.3125  plane waves:     608
 k-point   416 :  -0.3750-0.1250 0.3125  plane waves:     604
 k-point   417 :  -0.2917-0.1250 0.3125  plane waves:     604
 k-point   418 :  -0.2083-0.1250 0.3125  plane waves:     603
 k-point   419 :  -0.1250-0.1250 0.3125  plane waves:     603
 k-point   420 :  -0.0417-0.1250 0.3125  plane waves:     599
 k-point   421 :   0.0417-0.0417 0.3125  plane waves:     606
 k-point   422 :   0.1250-0.0417 0.3125  plane waves:     606
 k-point   423 :   0.2083-0.0417 0.3125  plane waves:     608
 k-point   424 :   0.2917-0.0417 0.3125  plane waves:     607
 k-point   425 :   0.3750-0.0417 0.3125  plane waves:     605
 k-point   426 :   0.4583-0.0417 0.3125  plane waves:     612
 k-point   427 :  -0.4583-0.0417 0.3125  plane waves:     614
 k-point   428 :  -0.3750-0.0417 0.3125  plane waves:     607
 k-point   429 :  -0.2917-0.0417 0.3125  plane waves:     606
 k-point   430 :  -0.2083-0.0417 0.3125  plane waves:     600
 k-point   431 :  -0.1250-0.0417 0.3125  plane waves:     599
 k-point   432 :  -0.0417-0.0417 0.3125  plane waves:     604
 k-point   433 :   0.0417 0.0417 0.4375  plane waves:     599
 k-point   434 :   0.1250 0.0417 0.4375  plane waves:     599
 k-point   435 :   0.2083 0.0417 0.4375  plane waves:     608
 k-point   436 :   0.2917 0.0417 0.4375  plane waves:     611
 k-point   437 :   0.3750 0.0417 0.4375  plane waves:     601
 k-point   438 :   0.4583 0.0417 0.4375  plane waves:     607
 k-point   439 :  -0.4583 0.0417 0.4375  plane waves:     612
 k-point   440 :  -0.3750 0.0417 0.4375  plane waves:     612
 k-point   441 :  -0.2917 0.0417 0.4375  plane waves:     606
 k-point   442 :  -0.2083 0.0417 0.4375  plane waves:     608
 k-point   443 :  -0.1250 0.0417 0.4375  plane waves:     602
 k-point   444 :  -0.0417 0.0417 0.4375  plane waves:     600
 k-point   445 :   0.0417 0.1250 0.4375  plane waves:     599
 k-point   446 :   0.1250 0.1250 0.4375  plane waves:     599
 k-point   447 :   0.2083 0.1250 0.4375  plane waves:     607
 k-point   448 :   0.2917 0.1250 0.4375  plane waves:     607
 k-point   449 :   0.3750 0.1250 0.4375  plane waves:     607
 k-point   450 :   0.4583 0.1250 0.4375  plane waves:     609
 k-point   451 :  -0.4583 0.1250 0.4375  plane waves:     609
 k-point   452 :  -0.3750 0.1250 0.4375  plane waves:     612
 k-point   453 :  -0.2917 0.1250 0.4375  plane waves:     607
 k-point   454 :  -0.2083 0.1250 0.4375  plane waves:     609
 k-point   455 :  -0.1250 0.1250 0.4375  plane waves:     606
 k-point   456 :  -0.0417 0.1250 0.4375  plane waves:     607
 k-point   457 :   0.0417 0.2083 0.4375  plane waves:     608
 k-point   458 :   0.1250 0.2083 0.4375  plane waves:     607
 k-point   459 :   0.2083 0.2083 0.4375  plane waves:     607
 k-point   460 :   0.2917 0.2083 0.4375  plane waves:     608
 k-point   461 :   0.3750 0.2083 0.4375  plane waves:     606
 k-point   462 :   0.4583 0.2083 0.4375  plane waves:     615
 k-point   463 :  -0.4583 0.2083 0.4375  plane waves:     612
 k-point   464 :  -0.3750 0.2083 0.4375  plane waves:     614
 k-point   465 :  -0.2917 0.2083 0.4375  plane waves:     614
 k-point   466 :  -0.2083 0.2083 0.4375  plane waves:     609
 k-point   467 :  -0.1250 0.2083 0.4375  plane waves:     607
 k-point   468 :  -0.0417 0.2083 0.4375  plane waves:     611
 k-point   469 :   0.0417 0.2917 0.4375  plane waves:     611
 k-point   470 :   0.1250 0.2917 0.4375  plane waves:     607
 k-point   471 :   0.2083 0.2917 0.4375  plane waves:     608
 k-point   472 :   0.2917 0.2917 0.4375  plane waves:     608
 k-point   473 :   0.3750 0.2917 0.4375  plane waves:     608
 k-point   474 :   0.4583 0.2917 0.4375  plane waves:     616
 k-point   475 :  -0.4583 0.2917 0.4375  plane waves:     620
 k-point   476 :  -0.3750 0.2917 0.4375  plane waves:     623
 k-point   477 :  -0.2917 0.2917 0.4375  plane waves:     621
 k-point   478 :  -0.2083 0.2917 0.4375  plane waves:     609
 k-point   479 :  -0.1250 0.2917 0.4375  plane waves:     605
 k-point   480 :  -0.0417 0.2917 0.4375  plane waves:     604
 k-point   481 :   0.0417 0.3750 0.4375  plane waves:     601
 k-point   482 :   0.1250 0.3750 0.4375  plane waves:     607
 k-point   483 :   0.2083 0.3750 0.4375  plane waves:     606
 k-point   484 :   0.2917 0.3750 0.4375  plane waves:     608
 k-point   485 :   0.3750 0.3750 0.4375  plane waves:     614
 k-point   486 :   0.4583 0.3750 0.4375  plane waves:     615
 k-point   487 :  -0.4583 0.3750 0.4375  plane waves:     622
 k-point   488 :  -0.3750 0.3750 0.4375  plane waves:     626
 k-point   489 :  -0.2917 0.3750 0.4375  plane waves:     618
 k-point   490 :  -0.2083 0.3750 0.4375  plane waves:     607
 k-point   491 :  -0.1250 0.3750 0.4375  plane waves:     608
 k-point   492 :  -0.0417 0.3750 0.4375  plane waves:     607
 k-point   493 :   0.0417 0.4583 0.4375  plane waves:     607
 k-point   494 :   0.1250 0.4583 0.4375  plane waves:     609
 k-point   495 :   0.2083 0.4583 0.4375  plane waves:     615
 k-point   496 :   0.2917 0.4583 0.4375  plane waves:     616
 k-point   497 :   0.3750 0.4583 0.4375  plane waves:     615
 k-point   498 :   0.4583 0.4583 0.4375  plane waves:     615
 k-point   499 :  -0.4583 0.4583 0.4375  plane waves:     616
 k-point   500 :  -0.3750 0.4583 0.4375  plane waves:     620
 k-point   501 :  -0.2917 0.4583 0.4375  plane waves:     615
 k-point   502 :  -0.2083 0.4583 0.4375  plane waves:     613
 k-point   503 :  -0.1250 0.4583 0.4375  plane waves:     605
 k-point   504 :  -0.0417 0.4583 0.4375  plane waves:     609
 k-point   505 :   0.0417-0.4583 0.4375  plane waves:     612
 k-point   506 :   0.1250-0.4583 0.4375  plane waves:     609
 k-point   507 :   0.2083-0.4583 0.4375  plane waves:     612
 k-point   508 :   0.2917-0.4583 0.4375  plane waves:     620
 k-point   509 :   0.3750-0.4583 0.4375  plane waves:     622
 k-point   510 :   0.4583-0.4583 0.4375  plane waves:     616
 k-point   511 :  -0.4583-0.4583 0.4375  plane waves:     614
 k-point   512 :  -0.3750-0.4583 0.4375  plane waves:     613
 k-point   513 :  -0.2917-0.4583 0.4375  plane waves:     611
 k-point   514 :  -0.2083-0.4583 0.4375  plane waves:     611
 k-point   515 :  -0.1250-0.4583 0.4375  plane waves:     607
 k-point   516 :  -0.0417-0.4583 0.4375  plane waves:     610
 k-point   517 :   0.0417-0.3750 0.4375  plane waves:     612
 k-point   518 :   0.1250-0.3750 0.4375  plane waves:     612
 k-point   519 :   0.2083-0.3750 0.4375  plane waves:     614
 k-point   520 :   0.2917-0.3750 0.4375  plane waves:     623
 k-point   521 :   0.3750-0.3750 0.4375  plane waves:     626
 k-point   522 :   0.4583-0.3750 0.4375  plane waves:     620
 k-point   523 :  -0.4583-0.3750 0.4375  plane waves:     613
 k-point   524 :  -0.3750-0.3750 0.4375  plane waves:     612
 k-point   525 :  -0.2917-0.3750 0.4375  plane waves:     605
 k-point   526 :  -0.2083-0.3750 0.4375  plane waves:     607
 k-point   527 :  -0.1250-0.3750 0.4375  plane waves:     606
 k-point   528 :  -0.0417-0.3750 0.4375  plane waves:     608
 k-point   529 :   0.0417-0.2917 0.4375  plane waves:     606
 k-point   530 :   0.1250-0.2917 0.4375  plane waves:     607
 k-point   531 :   0.2083-0.2917 0.4375  plane waves:     614
 k-point   532 :   0.2917-0.2917 0.4375  plane waves:     621
 k-point   533 :   0.3750-0.2917 0.4375  plane waves:     618
 k-point   534 :   0.4583-0.2917 0.4375  plane waves:     615
 k-point   535 :  -0.4583-0.2917 0.4375  plane waves:     611
 k-point   536 :  -0.3750-0.2917 0.4375  plane waves:     605
 k-point   537 :  -0.2917-0.2917 0.4375  plane waves:     604
 k-point   538 :  -0.2083-0.2917 0.4375  plane waves:     606
 k-point   539 :  -0.1250-0.2917 0.4375  plane waves:     605
 k-point   540 :  -0.0417-0.2917 0.4375  plane waves:     602
 k-point   541 :   0.0417-0.2083 0.4375  plane waves:     608
 k-point   542 :   0.1250-0.2083 0.4375  plane waves:     609
 k-point   543 :   0.2083-0.2083 0.4375  plane waves:     609
 k-point   544 :   0.2917-0.2083 0.4375  plane waves:     609
 k-point   545 :   0.3750-0.2083 0.4375  plane waves:     607
 k-point   546 :   0.4583-0.2083 0.4375  plane waves:     613
 k-point   547 :  -0.4583-0.2083 0.4375  plane waves:     611
 k-point   548 :  -0.3750-0.2083 0.4375  plane waves:     607
 k-point   549 :  -0.2917-0.2083 0.4375  plane waves:     606
 k-point   550 :  -0.2083-0.2083 0.4375  plane waves:     610
 k-point   551 :  -0.1250-0.2083 0.4375  plane waves:     606
 k-point   552 :  -0.0417-0.2083 0.4375  plane waves:     607
 k-point   553 :   0.0417-0.1250 0.4375  plane waves:     602
 k-point   554 :   0.1250-0.1250 0.4375  plane waves:     606
 k-point   555 :   0.2083-0.1250 0.4375  plane waves:     607
 k-point   556 :   0.2917-0.1250 0.4375  plane waves:     605
 k-point   557 :   0.3750-0.1250 0.4375  plane waves:     608
 k-point   558 :   0.4583-0.1250 0.4375  plane waves:     605
 k-point   559 :  -0.4583-0.1250 0.4375  plane waves:     607
 k-point   560 :  -0.3750-0.1250 0.4375  plane waves:     606
 k-point   561 :  -0.2917-0.1250 0.4375  plane waves:     605
 k-point   562 :  -0.2083-0.1250 0.4375  plane waves:     606
 k-point   563 :  -0.1250-0.1250 0.4375  plane waves:     599
 k-point   564 :  -0.0417-0.1250 0.4375  plane waves:     596
 k-point   565 :   0.0417-0.0417 0.4375  plane waves:     600
 k-point   566 :   0.1250-0.0417 0.4375  plane waves:     607
 k-point   567 :   0.2083-0.0417 0.4375  plane waves:     611
 k-point   568 :   0.2917-0.0417 0.4375  plane waves:     604
 k-point   569 :   0.3750-0.0417 0.4375  plane waves:     607
 k-point   570 :   0.4583-0.0417 0.4375  plane waves:     609
 k-point   571 :  -0.4583-0.0417 0.4375  plane waves:     610
 k-point   572 :  -0.3750-0.0417 0.4375  plane waves:     608
 k-point   573 :  -0.2917-0.0417 0.4375  plane waves:     602
 k-point   574 :  -0.2083-0.0417 0.4375  plane waves:     607
 k-point   575 :  -0.1250-0.0417 0.4375  plane waves:     596
 k-point   576 :  -0.0417-0.0417 0.4375  plane waves:     599
 k-point   577 :   0.0417 0.0417-0.4375  plane waves:     599
 k-point   578 :   0.1250 0.0417-0.4375  plane waves:     596
 k-point   579 :   0.2083 0.0417-0.4375  plane waves:     607
 k-point   580 :   0.2917 0.0417-0.4375  plane waves:     602
 k-point   581 :   0.3750 0.0417-0.4375  plane waves:     608
 k-point   582 :   0.4583 0.0417-0.4375  plane waves:     610
 k-point   583 :  -0.4583 0.0417-0.4375  plane waves:     609
 k-point   584 :  -0.3750 0.0417-0.4375  plane waves:     607
 k-point   585 :  -0.2917 0.0417-0.4375  plane waves:     604
 k-point   586 :  -0.2083 0.0417-0.4375  plane waves:     611
 k-point   587 :  -0.1250 0.0417-0.4375  plane waves:     607
 k-point   588 :  -0.0417 0.0417-0.4375  plane waves:     600
 k-point   589 :   0.0417 0.1250-0.4375  plane waves:     596
 k-point   590 :   0.1250 0.1250-0.4375  plane waves:     599
 k-point   591 :   0.2083 0.1250-0.4375  plane waves:     606
 k-point   592 :   0.2917 0.1250-0.4375  plane waves:     605
 k-point   593 :   0.3750 0.1250-0.4375  plane waves:     606
 k-point   594 :   0.4583 0.1250-0.4375  plane waves:     607
 k-point   595 :  -0.4583 0.1250-0.4375  plane waves:     605
 k-point   596 :  -0.3750 0.1250-0.4375  plane waves:     608
 k-point   597 :  -0.2917 0.1250-0.4375  plane waves:     605
 k-point   598 :  -0.2083 0.1250-0.4375  plane waves:     607
 k-point   599 :  -0.1250 0.1250-0.4375  plane waves:     606
 k-point   600 :  -0.0417 0.1250-0.4375  plane waves:     602
 k-point   601 :   0.0417 0.2083-0.4375  plane waves:     607
 k-point   602 :   0.1250 0.2083-0.4375  plane waves:     606
 k-point   603 :   0.2083 0.2083-0.4375  plane waves:     610
 k-point   604 :   0.2917 0.2083-0.4375  plane waves:     606
 k-point   605 :   0.3750 0.2083-0.4375  plane waves:     607
 k-point   606 :   0.4583 0.2083-0.4375  plane waves:     611
 k-point   607 :  -0.4583 0.2083-0.4375  plane waves:     613
 k-point   608 :  -0.3750 0.2083-0.4375  plane waves:     607
 k-point   609 :  -0.2917 0.2083-0.4375  plane waves:     609
 k-point   610 :  -0.2083 0.2083-0.4375  plane waves:     609
 k-point   611 :  -0.1250 0.2083-0.4375  plane waves:     609
 k-point   612 :  -0.0417 0.2083-0.4375  plane waves:     608
 k-point   613 :   0.0417 0.2917-0.4375  plane waves:     602
 k-point   614 :   0.1250 0.2917-0.4375  plane waves:     605
 k-point   615 :   0.2083 0.2917-0.4375  plane waves:     606
 k-point   616 :   0.2917 0.2917-0.4375  plane waves:     604
 k-point   617 :   0.3750 0.2917-0.4375  plane waves:     605
 k-point   618 :   0.4583 0.2917-0.4375  plane waves:     611
 k-point   619 :  -0.4583 0.2917-0.4375  plane waves:     615
 k-point   620 :  -0.3750 0.2917-0.4375  plane waves:     618
 k-point   621 :  -0.2917 0.2917-0.4375  plane waves:     621
 k-point   622 :  -0.2083 0.2917-0.4375  plane waves:     614
 k-point   623 :  -0.1250 0.2917-0.4375  plane waves:     607
 k-point   624 :  -0.0417 0.2917-0.4375  plane waves:     606
 k-point   625 :   0.0417 0.3750-0.4375  plane waves:     608
 k-point   626 :   0.1250 0.3750-0.4375  plane waves:     606
 k-point   627 :   0.2083 0.3750-0.4375  plane waves:     607
 k-point   628 :   0.2917 0.3750-0.4375  plane waves:     605
 k-point   629 :   0.3750 0.3750-0.4375  plane waves:     612
 k-point   630 :   0.4583 0.3750-0.4375  plane waves:     613
 k-point   631 :  -0.4583 0.3750-0.4375  plane waves:     620
 k-point   632 :  -0.3750 0.3750-0.4375  plane waves:     626
 k-point   633 :  -0.2917 0.3750-0.4375  plane waves:     623
 k-point   634 :  -0.2083 0.3750-0.4375  plane waves:     614
 k-point   635 :  -0.1250 0.3750-0.4375  plane waves:     612
 k-point   636 :  -0.0417 0.3750-0.4375  plane waves:     612
 k-point   637 :   0.0417 0.4583-0.4375  plane waves:     610
 k-point   638 :   0.1250 0.4583-0.4375  plane waves:     607
 k-point   639 :   0.2083 0.4583-0.4375  plane waves:     611
 k-point   640 :   0.2917 0.4583-0.4375  plane waves:     611
 k-point   641 :   0.3750 0.4583-0.4375  plane waves:     613
 k-point   642 :   0.4583 0.4583-0.4375  plane waves:     614
 k-point   643 :  -0.4583 0.4583-0.4375  plane waves:     616
 k-point   644 :  -0.3750 0.4583-0.4375  plane waves:     622
 k-point   645 :  -0.2917 0.4583-0.4375  plane waves:     620
 k-point   646 :  -0.2083 0.4583-0.4375  plane waves:     612
 k-point   647 :  -0.1250 0.4583-0.4375  plane waves:     609
 k-point   648 :  -0.0417 0.4583-0.4375  plane waves:     612
 k-point   649 :   0.0417-0.4583-0.4375  plane waves:     609
 k-point   650 :   0.1250-0.4583-0.4375  plane waves:     605
 k-point   651 :   0.2083-0.4583-0.4375  plane waves:     613
 k-point   652 :   0.2917-0.4583-0.4375  plane waves:     615
 k-point   653 :   0.3750-0.4583-0.4375  plane waves:     620
 k-point   654 :   0.4583-0.4583-0.4375  plane waves:     616
 k-point   655 :  -0.4583-0.4583-0.4375  plane waves:     615
 k-point   656 :  -0.3750-0.4583-0.4375  plane waves:     615
 k-point   657 :  -0.2917-0.4583-0.4375  plane waves:     616
 k-point   658 :  -0.2083-0.4583-0.4375  plane waves:     615
 k-point   659 :  -0.1250-0.4583-0.4375  plane waves:     609
 k-point   660 :  -0.0417-0.4583-0.4375  plane waves:     607
 k-point   661 :   0.0417-0.3750-0.4375  plane waves:     607
 k-point   662 :   0.1250-0.3750-0.4375  plane waves:     608
 k-point   663 :   0.2083-0.3750-0.4375  plane waves:     607
 k-point   664 :   0.2917-0.3750-0.4375  plane waves:     618
 k-point   665 :   0.3750-0.3750-0.4375  plane waves:     626
 k-point   666 :   0.4583-0.3750-0.4375  plane waves:     622
 k-point   667 :  -0.4583-0.3750-0.4375  plane waves:     615
 k-point   668 :  -0.3750-0.3750-0.4375  plane waves:     614
 k-point   669 :  -0.2917-0.3750-0.4375  plane waves:     608
 k-point   670 :  -0.2083-0.3750-0.4375  plane waves:     606
 k-point   671 :  -0.1250-0.3750-0.4375  plane waves:     607
 k-point   672 :  -0.0417-0.3750-0.4375  plane waves:     601
 k-point   673 :   0.0417-0.2917-0.4375  plane waves:     604
 k-point   674 :   0.1250-0.2917-0.4375  plane waves:     605
 k-point   675 :   0.2083-0.2917-0.4375  plane waves:     609
 k-point   676 :   0.2917-0.2917-0.4375  plane waves:     621
 k-point   677 :   0.3750-0.2917-0.4375  plane waves:     623
 k-point   678 :   0.4583-0.2917-0.4375  plane waves:     620
 k-point   679 :  -0.4583-0.2917-0.4375  plane waves:     616
 k-point   680 :  -0.3750-0.2917-0.4375  plane waves:     608
 k-point   681 :  -0.2917-0.2917-0.4375  plane waves:     608
 k-point   682 :  -0.2083-0.2917-0.4375  plane waves:     608
 k-point   683 :  -0.1250-0.2917-0.4375  plane waves:     607
 k-point   684 :  -0.0417-0.2917-0.4375  plane waves:     611
 k-point   685 :   0.0417-0.2083-0.4375  plane waves:     611
 k-point   686 :   0.1250-0.2083-0.4375  plane waves:     607
 k-point   687 :   0.2083-0.2083-0.4375  plane waves:     609
 k-point   688 :   0.2917-0.2083-0.4375  plane waves:     614
 k-point   689 :   0.3750-0.2083-0.4375  plane waves:     614
 k-point   690 :   0.4583-0.2083-0.4375  plane waves:     612
 k-point   691 :  -0.4583-0.2083-0.4375  plane waves:     615
 k-point   692 :  -0.3750-0.2083-0.4375  plane waves:     606
 k-point   693 :  -0.2917-0.2083-0.4375  plane waves:     608
 k-point   694 :  -0.2083-0.2083-0.4375  plane waves:     607
 k-point   695 :  -0.1250-0.2083-0.4375  plane waves:     607
 k-point   696 :  -0.0417-0.2083-0.4375  plane waves:     608
 k-point   697 :   0.0417-0.1250-0.4375  plane waves:     607
 k-point   698 :   0.1250-0.1250-0.4375  plane waves:     606
 k-point   699 :   0.2083-0.1250-0.4375  plane waves:     609
 k-point   700 :   0.2917-0.1250-0.4375  plane waves:     607
 k-point   701 :   0.3750-0.1250-0.4375  plane waves:     612
 k-point   702 :   0.4583-0.1250-0.4375  plane waves:     609
 k-point   703 :  -0.4583-0.1250-0.4375  plane waves:     609
 k-point   704 :  -0.3750-0.1250-0.4375  plane waves:     607
 k-point   705 :  -0.2917-0.1250-0.4375  plane waves:     607
 k-point   706 :  -0.2083-0.1250-0.4375  plane waves:     607
 k-point   707 :  -0.1250-0.1250-0.4375  plane waves:     599
 k-point   708 :  -0.0417-0.1250-0.4375  plane waves:     599
 k-point   709 :   0.0417-0.0417-0.4375  plane waves:     600
 k-point   710 :   0.1250-0.0417-0.4375  plane waves:     602
 k-point   711 :   0.2083-0.0417-0.4375  plane waves:     608
 k-point   712 :   0.2917-0.0417-0.4375  plane waves:     606
 k-point   713 :   0.3750-0.0417-0.4375  plane waves:     612
 k-point   714 :   0.4583-0.0417-0.4375  plane waves:     612
 k-point   715 :  -0.4583-0.0417-0.4375  plane waves:     607
 k-point   716 :  -0.3750-0.0417-0.4375  plane waves:     601
 k-point   717 :  -0.2917-0.0417-0.4375  plane waves:     611
 k-point   718 :  -0.2083-0.0417-0.4375  plane waves:     608
 k-point   719 :  -0.1250-0.0417-0.4375  plane waves:     599
 k-point   720 :  -0.0417-0.0417-0.4375  plane waves:     599
 k-point   721 :   0.0417 0.0417-0.3125  plane waves:     604
 k-point   722 :   0.1250 0.0417-0.3125  plane waves:     599
 k-point   723 :   0.2083 0.0417-0.3125  plane waves:     600
 k-point   724 :   0.2917 0.0417-0.3125  plane waves:     606
 k-point   725 :   0.3750 0.0417-0.3125  plane waves:     607
 k-point   726 :   0.4583 0.0417-0.3125  plane waves:     614
 k-point   727 :  -0.4583 0.0417-0.3125  plane waves:     612
 k-point   728 :  -0.3750 0.0417-0.3125  plane waves:     605
 k-point   729 :  -0.2917 0.0417-0.3125  plane waves:     607
 k-point   730 :  -0.2083 0.0417-0.3125  plane waves:     608
 k-point   731 :  -0.1250 0.0417-0.3125  plane waves:     606
 k-point   732 :  -0.0417 0.0417-0.3125  plane waves:     606
 k-point   733 :   0.0417 0.1250-0.3125  plane waves:     599
 k-point   734 :   0.1250 0.1250-0.3125  plane waves:     603
 k-point   735 :   0.2083 0.1250-0.3125  plane waves:     603
 k-point   736 :   0.2917 0.1250-0.3125  plane waves:     604
 k-point   737 :   0.3750 0.1250-0.3125  plane waves:     604
 k-point   738 :   0.4583 0.1250-0.3125  plane waves:     608
 k-point   739 :  -0.4583 0.1250-0.3125  plane waves:     613
 k-point   740 :  -0.3750 0.1250-0.3125  plane waves:     608
 k-point   741 :  -0.2917 0.1250-0.3125  plane waves:     609
 k-point   742 :  -0.2083 0.1250-0.3125  plane waves:     606
 k-point   743 :  -0.1250 0.1250-0.3125  plane waves:     610
 k-point   744 :  -0.0417 0.1250-0.3125  plane waves:     604
 k-point   745 :   0.0417 0.2083-0.3125  plane waves:     600
 k-point   746 :   0.1250 0.2083-0.3125  plane waves:     603
 k-point   747 :   0.2083 0.2083-0.3125  plane waves:     604
 k-point   748 :   0.2917 0.2083-0.3125  plane waves:     607
 k-point   749 :   0.3750 0.2083-0.3125  plane waves:     605
 k-point   750 :   0.4583 0.2083-0.3125  plane waves:     610
 k-point   751 :  -0.4583 0.2083-0.3125  plane waves:     612
 k-point   752 :  -0.3750 0.2083-0.3125  plane waves:     612
 k-point   753 :  -0.2917 0.2083-0.3125  plane waves:     612
 k-point   754 :  -0.2083 0.2083-0.3125  plane waves:     608
 k-point   755 :  -0.1250 0.2083-0.3125  plane waves:     608
 k-point   756 :  -0.0417 0.2083-0.3125  plane waves:     605
 k-point   757 :   0.0417 0.2917-0.3125  plane waves:     606
 k-point   758 :   0.1250 0.2917-0.3125  plane waves:     604
 k-point   759 :   0.2083 0.2917-0.3125  plane waves:     607
 k-point   760 :   0.2917 0.2917-0.3125  plane waves:     607
 k-point   761 :   0.3750 0.2917-0.3125  plane waves:     604
 k-point   762 :   0.4583 0.2917-0.3125  plane waves:     611
 k-point   763 :  -0.4583 0.2917-0.3125  plane waves:     614
 k-point   764 :  -0.3750 0.2917-0.3125  plane waves:     615
 k-point   765 :  -0.2917 0.2917-0.3125  plane waves:     619
 k-point   766 :  -0.2083 0.2917-0.3125  plane waves:     615
 k-point   767 :  -0.1250 0.2917-0.3125  plane waves:     608
 k-point   768 :  -0.0417 0.2917-0.3125  plane waves:     609
 k-point   769 :   0.0417 0.3750-0.3125  plane waves:     607
 k-point   770 :   0.1250 0.3750-0.3125  plane waves:     604
 k-point   771 :   0.2083 0.3750-0.3125  plane waves:     605
 k-point   772 :   0.2917 0.3750-0.3125  plane waves:     604
 k-point   773 :   0.3750 0.3750-0.3125  plane waves:     615
 k-point   774 :   0.4583 0.3750-0.3125  plane waves:     611
 k-point   775 :  -0.4583 0.3750-0.3125  plane waves:     618
 k-point   776 :  -0.3750 0.3750-0.3125  plane waves:     622
 k-point   777 :  -0.2917 0.3750-0.3125  plane waves:     622
 k-point   778 :  -0.2083 0.3750-0.3125  plane waves:     621
 k-point   779 :  -0.1250 0.3750-0.3125  plane waves:     619
 k-point   780 :  -0.0417 0.3750-0.3125  plane waves:     613
 k-point   781 :   0.0417 0.4583-0.3125  plane waves:     614
 k-point   782 :   0.1250 0.4583-0.3125  plane waves:     608
 k-point   783 :   0.2083 0.4583-0.3125  plane waves:     610
 k-point   784 :   0.2917 0.4583-0.3125  plane waves:     611
 k-point   785 :   0.3750 0.4583-0.3125  plane waves:     611
 k-point   786 :   0.4583 0.4583-0.3125  plane waves:     608
 k-point   787 :  -0.4583 0.4583-0.3125  plane waves:     615
 k-point   788 :  -0.3750 0.4583-0.3125  plane waves:     619
 k-point   789 :  -0.2917 0.4583-0.3125  plane waves:     619
 k-point   790 :  -0.2083 0.4583-0.3125  plane waves:     621
 k-point   791 :  -0.1250 0.4583-0.3125  plane waves:     620
 k-point   792 :  -0.0417 0.4583-0.3125  plane waves:     614
 k-point   793 :   0.0417-0.4583-0.3125  plane waves:     612
 k-point   794 :   0.1250-0.4583-0.3125  plane waves:     613
 k-point   795 :   0.2083-0.4583-0.3125  plane waves:     612
 k-point   796 :   0.2917-0.4583-0.3125  plane waves:     614
 k-point   797 :   0.3750-0.4583-0.3125  plane waves:     618
 k-point   798 :   0.4583-0.4583-0.3125  plane waves:     615
 k-point   799 :  -0.4583-0.4583-0.3125  plane waves:     603
 k-point   800 :  -0.3750-0.4583-0.3125  plane waves:     616
 k-point   801 :  -0.2917-0.4583-0.3125  plane waves:     616
 k-point   802 :  -0.2083-0.4583-0.3125  plane waves:     615
 k-point   803 :  -0.1250-0.4583-0.3125  plane waves:     615
 k-point   804 :  -0.0417-0.4583-0.3125  plane waves:     609
 k-point   805 :   0.0417-0.3750-0.3125  plane waves:     605
 k-point   806 :   0.1250-0.3750-0.3125  plane waves:     608
 k-point   807 :   0.2083-0.3750-0.3125  plane waves:     612
 k-point   808 :   0.2917-0.3750-0.3125  plane waves:     615
 k-point   809 :   0.3750-0.3750-0.3125  plane waves:     622
 k-point   810 :   0.4583-0.3750-0.3125  plane waves:     619
 k-point   811 :  -0.4583-0.3750-0.3125  plane waves:     616
 k-point   812 :  -0.3750-0.3750-0.3125  plane waves:     614
 k-point   813 :  -0.2917-0.3750-0.3125  plane waves:     613
 k-point   814 :  -0.2083-0.3750-0.3125  plane waves:     607
 k-point   815 :  -0.1250-0.3750-0.3125  plane waves:     608
 k-point   816 :  -0.0417-0.3750-0.3125  plane waves:     607
 k-point   817 :   0.0417-0.2917-0.3125  plane waves:     607
 k-point   818 :   0.1250-0.2917-0.3125  plane waves:     609
 k-point   819 :   0.2083-0.2917-0.3125  plane waves:     612
 k-point   820 :   0.2917-0.2917-0.3125  plane waves:     619
 k-point   821 :   0.3750-0.2917-0.3125  plane waves:     622
 k-point   822 :   0.4583-0.2917-0.3125  plane waves:     619
 k-point   823 :  -0.4583-0.2917-0.3125  plane waves:     616
 k-point   824 :  -0.3750-0.2917-0.3125  plane waves:     613
 k-point   825 :  -0.2917-0.2917-0.3125  plane waves:     611
 k-point   826 :  -0.2083-0.2917-0.3125  plane waves:     614
 k-point   827 :  -0.1250-0.2917-0.3125  plane waves:     609
 k-point   828 :  -0.0417-0.2917-0.3125  plane waves:     607
 k-point   829 :   0.0417-0.2083-0.3125  plane waves:     608
 k-point   830 :   0.1250-0.2083-0.3125  plane waves:     606
 k-point   831 :   0.2083-0.2083-0.3125  plane waves:     608
 k-point   832 :   0.2917-0.2083-0.3125  plane waves:     615
 k-point   833 :   0.3750-0.2083-0.3125  plane waves:     621
 k-point   834 :   0.4583-0.2083-0.3125  plane waves:     621
 k-point   835 :  -0.4583-0.2083-0.3125  plane waves:     615
 k-point   836 :  -0.3750-0.2083-0.3125  plane waves:     607
 k-point   837 :  -0.2917-0.2083-0.3125  plane waves:     614
 k-point   838 :  -0.2083-0.2083-0.3125  plane waves:     612
 k-point   839 :  -0.1250-0.2083-0.3125  plane waves:     610
 k-point   840 :  -0.0417-0.2083-0.3125  plane waves:     609
 k-point   841 :   0.0417-0.1250-0.3125  plane waves:     606
 k-point   842 :   0.1250-0.1250-0.3125  plane waves:     610
 k-point   843 :   0.2083-0.1250-0.3125  plane waves:     608
 k-point   844 :   0.2917-0.1250-0.3125  plane waves:     608
 k-point   845 :   0.3750-0.1250-0.3125  plane waves:     619
 k-point   846 :   0.4583-0.1250-0.3125  plane waves:     620
 k-point   847 :  -0.4583-0.1250-0.3125  plane waves:     615
 k-point   848 :  -0.3750-0.1250-0.3125  plane waves:     608
 k-point   849 :  -0.2917-0.1250-0.3125  plane waves:     609
 k-point   850 :  -0.2083-0.1250-0.3125  plane waves:     610
 k-point   851 :  -0.1250-0.1250-0.3125  plane waves:     611
 k-point   852 :  -0.0417-0.1250-0.3125  plane waves:     606
 k-point   853 :   0.0417-0.0417-0.3125  plane waves:     606
 k-point   854 :   0.1250-0.0417-0.3125  plane waves:     604
 k-point   855 :   0.2083-0.0417-0.3125  plane waves:     605
 k-point   856 :   0.2917-0.0417-0.3125  plane waves:     609
 k-point   857 :   0.3750-0.0417-0.3125  plane waves:     613
 k-point   858 :   0.4583-0.0417-0.3125  plane waves:     614
 k-point   859 :  -0.4583-0.0417-0.3125  plane waves:     609
 k-point   860 :  -0.3750-0.0417-0.3125  plane waves:     607
 k-point   861 :  -0.2917-0.0417-0.3125  plane waves:     607
 k-point   862 :  -0.2083-0.0417-0.3125  plane waves:     609
 k-point   863 :  -0.1250-0.0417-0.3125  plane waves:     606
 k-point   864 :  -0.0417-0.0417-0.3125  plane waves:     605
 k-point   865 :   0.0417 0.0417-0.1875  plane waves:     603
 k-point   866 :   0.1250 0.0417-0.1875  plane waves:     596
 k-point   867 :   0.2083 0.0417-0.1875  plane waves:     610
 k-point   868 :   0.2917 0.0417-0.1875  plane waves:     604
 k-point   869 :   0.3750 0.0417-0.1875  plane waves:     610
 k-point   870 :   0.4583 0.0417-0.1875  plane waves:     609
 k-point   871 :  -0.4583 0.0417-0.1875  plane waves:     612
 k-point   872 :  -0.3750 0.0417-0.1875  plane waves:     612
 k-point   873 :  -0.2917 0.0417-0.1875  plane waves:     611
 k-point   874 :  -0.2083 0.0417-0.1875  plane waves:     608
 k-point   875 :  -0.1250 0.0417-0.1875  plane waves:     605
 k-point   876 :  -0.0417 0.0417-0.1875  plane waves:     606
 k-point   877 :   0.0417 0.1250-0.1875  plane waves:     596
 k-point   878 :   0.1250 0.1250-0.1875  plane waves:     600
 k-point   879 :   0.2083 0.1250-0.1875  plane waves:     603
 k-point   880 :   0.2917 0.1250-0.1875  plane waves:     607
 k-point   881 :   0.3750 0.1250-0.1875  plane waves:     605
 k-point   882 :   0.4583 0.1250-0.1875  plane waves:     614
 k-point   883 :  -0.4583 0.1250-0.1875  plane waves:     618
 k-point   884 :  -0.3750 0.1250-0.1875  plane waves:     616
 k-point   885 :  -0.2917 0.1250-0.1875  plane waves:     610
 k-point   886 :  -0.2083 0.1250-0.1875  plane waves:     610
 k-point   887 :  -0.1250 0.1250-0.1875  plane waves:     611
 k-point   888 :  -0.0417 0.1250-0.1875  plane waves:     607
 k-point   889 :   0.0417 0.2083-0.1875  plane waves:     610
 k-point   890 :   0.1250 0.2083-0.1875  plane waves:     603
 k-point   891 :   0.2083 0.2083-0.1875  plane waves:     613
 k-point   892 :   0.2917 0.2083-0.1875  plane waves:     606
 k-point   893 :   0.3750 0.2083-0.1875  plane waves:     605
 k-point   894 :   0.4583 0.2083-0.1875  plane waves:     610
 k-point   895 :  -0.4583 0.2083-0.1875  plane waves:     615
 k-point   896 :  -0.3750 0.2083-0.1875  plane waves:     617
 k-point   897 :  -0.2917 0.2083-0.1875  plane waves:     618
 k-point   898 :  -0.2083 0.2083-0.1875  plane waves:     614
 k-point   899 :  -0.1250 0.2083-0.1875  plane waves:     609
 k-point   900 :  -0.0417 0.2083-0.1875  plane waves:     611
 k-point   901 :   0.0417 0.2917-0.1875  plane waves:     604
 k-point   902 :   0.1250 0.2917-0.1875  plane waves:     607
 k-point   903 :   0.2083 0.2917-0.1875  plane waves:     606
 k-point   904 :   0.2917 0.2917-0.1875  plane waves:     612
 k-point   905 :   0.3750 0.2917-0.1875  plane waves:     607
 k-point   906 :   0.4583 0.2917-0.1875  plane waves:     609
 k-point   907 :  -0.4583 0.2917-0.1875  plane waves:     615
 k-point   908 :  -0.3750 0.2917-0.1875  plane waves:     618
 k-point   909 :  -0.2917 0.2917-0.1875  plane waves:     619
 k-point   910 :  -0.2083 0.2917-0.1875  plane waves:     620
 k-point   911 :  -0.1250 0.2917-0.1875  plane waves:     614
 k-point   912 :  -0.0417 0.2917-0.1875  plane waves:     610
 k-point   913 :   0.0417 0.3750-0.1875  plane waves:     610
 k-point   914 :   0.1250 0.3750-0.1875  plane waves:     605
 k-point   915 :   0.2083 0.3750-0.1875  plane waves:     605
 k-point   916 :   0.2917 0.3750-0.1875  plane waves:     607
 k-point   917 :   0.3750 0.3750-0.1875  plane waves:     610
 k-point   918 :   0.4583 0.3750-0.1875  plane waves:     609
 k-point   919 :  -0.4583 0.3750-0.1875  plane waves:     613
 k-point   920 :  -0.3750 0.3750-0.1875  plane waves:     616
 k-point   921 :  -0.2917 0.3750-0.1875  plane waves:     620
 k-point   922 :  -0.2083 0.3750-0.1875  plane waves:     618
 k-point   923 :  -0.1250 0.3750-0.1875  plane waves:     619
 k-point   924 :  -0.0417 0.3750-0.1875  plane waves:     610
 k-point   925 :   0.0417 0.4583-0.1875  plane waves:     609
 k-point   926 :   0.1250 0.4583-0.1875  plane waves:     614
 k-point   927 :   0.2083 0.4583-0.1875  plane waves:     610
 k-point   928 :   0.2917 0.4583-0.1875  plane waves:     609
 k-point   929 :   0.3750 0.4583-0.1875  plane waves:     609
 k-point   930 :   0.4583 0.4583-0.1875  plane waves:     612
 k-point   931 :  -0.4583 0.4583-0.1875  plane waves:     616
 k-point   932 :  -0.3750 0.4583-0.1875  plane waves:     620
 k-point   933 :  -0.2917 0.4583-0.1875  plane waves:     621
 k-point   934 :  -0.2083 0.4583-0.1875  plane waves:     624
 k-point   935 :  -0.1250 0.4583-0.1875  plane waves:     621
 k-point   936 :  -0.0417 0.4583-0.1875  plane waves:     609
 k-point   937 :   0.0417-0.4583-0.1875  plane waves:     612
 k-point   938 :   0.1250-0.4583-0.1875  plane waves:     618
 k-point   939 :   0.2083-0.4583-0.1875  plane waves:     615
 k-point   940 :   0.2917-0.4583-0.1875  plane waves:     615
 k-point   941 :   0.3750-0.4583-0.1875  plane waves:     613
 k-point   942 :   0.4583-0.4583-0.1875  plane waves:     616
 k-point   943 :  -0.4583-0.4583-0.1875  plane waves:     610
 k-point   944 :  -0.3750-0.4583-0.1875  plane waves:     614
 k-point   945 :  -0.2917-0.4583-0.1875  plane waves:     617
 k-point   946 :  -0.2083-0.4583-0.1875  plane waves:     613
 k-point   947 :  -0.1250-0.4583-0.1875  plane waves:     617
 k-point   948 :  -0.0417-0.4583-0.1875  plane waves:     614
 k-point   949 :   0.0417-0.3750-0.1875  plane waves:     612
 k-point   950 :   0.1250-0.3750-0.1875  plane waves:     616
 k-point   951 :   0.2083-0.3750-0.1875  plane waves:     617
 k-point   952 :   0.2917-0.3750-0.1875  plane waves:     618
 k-point   953 :   0.3750-0.3750-0.1875  plane waves:     616
 k-point   954 :   0.4583-0.3750-0.1875  plane waves:     620
 k-point   955 :  -0.4583-0.3750-0.1875  plane waves:     614
 k-point   956 :  -0.3750-0.3750-0.1875  plane waves:     616
 k-point   957 :  -0.2917-0.3750-0.1875  plane waves:     612
 k-point   958 :  -0.2083-0.3750-0.1875  plane waves:     610
 k-point   959 :  -0.1250-0.3750-0.1875  plane waves:     614
 k-point   960 :  -0.0417-0.3750-0.1875  plane waves:     617
 k-point   961 :   0.0417-0.2917-0.1875  plane waves:     611
 k-point   962 :   0.1250-0.2917-0.1875  plane waves:     610
 k-point   963 :   0.2083-0.2917-0.1875  plane waves:     618
 k-point   964 :   0.2917-0.2917-0.1875  plane waves:     619
 k-point   965 :   0.3750-0.2917-0.1875  plane waves:     620
 k-point   966 :   0.4583-0.2917-0.1875  plane waves:     621
 k-point   967 :  -0.4583-0.2917-0.1875  plane waves:     617
 k-point   968 :  -0.3750-0.2917-0.1875  plane waves:     612
 k-point   969 :  -0.2917-0.2917-0.1875  plane waves:     617
 k-point   970 :  -0.2083-0.2917-0.1875  plane waves:     611
 k-point   971 :  -0.1250-0.2917-0.1875  plane waves:     609
 k-point   972 :  -0.0417-0.2917-0.1875  plane waves:     612
 k-point   973 :   0.0417-0.2083-0.1875  plane waves:     608
 k-point   974 :   0.1250-0.2083-0.1875  plane waves:     610
 k-point   975 :   0.2083-0.2083-0.1875  plane waves:     614
 k-point   976 :   0.2917-0.2083-0.1875  plane waves:     620
 k-point   977 :   0.3750-0.2083-0.1875  plane waves:     618
 k-point   978 :   0.4583-0.2083-0.1875  plane waves:     624
 k-point   979 :  -0.4583-0.2083-0.1875  plane waves:     613
 k-point   980 :  -0.3750-0.2083-0.1875  plane waves:     610
 k-point   981 :  -0.2917-0.2083-0.1875  plane waves:     611
 k-point   982 :  -0.2083-0.2083-0.1875  plane waves:     612
 k-point   983 :  -0.1250-0.2083-0.1875  plane waves:     607
 k-point   984 :  -0.0417-0.2083-0.1875  plane waves:     609
 k-point   985 :   0.0417-0.1250-0.1875  plane waves:     605
 k-point   986 :   0.1250-0.1250-0.1875  plane waves:     611
 k-point   987 :   0.2083-0.1250-0.1875  plane waves:     609
 k-point   988 :   0.2917-0.1250-0.1875  plane waves:     614
 k-point   989 :   0.3750-0.1250-0.1875  plane waves:     619
 k-point   990 :   0.4583-0.1250-0.1875  plane waves:     621
 k-point   991 :  -0.4583-0.1250-0.1875  plane waves:     617
 k-point   992 :  -0.3750-0.1250-0.1875  plane waves:     614
 k-point   993 :  -0.2917-0.1250-0.1875  plane waves:     609
 k-point   994 :  -0.2083-0.1250-0.1875  plane waves:     607
 k-point   995 :  -0.1250-0.1250-0.1875  plane waves:     604
 k-point   996 :  -0.0417-0.1250-0.1875  plane waves:     604
 k-point   997 :   0.0417-0.0417-0.1875  plane waves:     606
 k-point   998 :   0.1250-0.0417-0.1875  plane waves:     607
 k-point   999 :   0.2083-0.0417-0.1875  plane waves:     611
 k-point  1000 :   0.2917-0.0417-0.1875  plane waves:     610
 k-point  1001 :   0.3750-0.0417-0.1875  plane waves:     610
 k-point  1002 :   0.4583-0.0417-0.1875  plane waves:     609
 k-point  1003 :  -0.4583-0.0417-0.1875  plane waves:     614
 k-point  1004 :  -0.3750-0.0417-0.1875  plane waves:     617
 k-point  1005 :  -0.2917-0.0417-0.1875  plane waves:     612
 k-point  1006 :  -0.2083-0.0417-0.1875  plane waves:     609
 k-point  1007 :  -0.1250-0.0417-0.1875  plane waves:     604
 k-point  1008 :  -0.0417-0.0417-0.1875  plane waves:     601
 k-point  1009 :   0.0417 0.0417-0.0625  plane waves:     602
 k-point  1010 :   0.1250 0.0417-0.0625  plane waves:     605
 k-point  1011 :   0.2083 0.0417-0.0625  plane waves:     610
 k-point  1012 :   0.2917 0.0417-0.0625  plane waves:     609
 k-point  1013 :   0.3750 0.0417-0.0625  plane waves:     610
 k-point  1014 :   0.4583 0.0417-0.0625  plane waves:     618
 k-point  1015 :  -0.4583 0.0417-0.0625  plane waves:     612
 k-point  1016 :  -0.3750 0.0417-0.0625  plane waves:     621
 k-point  1017 :  -0.2917 0.0417-0.0625  plane waves:     614
 k-point  1018 :  -0.2083 0.0417-0.0625  plane waves:     612
 k-point  1019 :  -0.1250 0.0417-0.0625  plane waves:     606
 k-point  1020 :  -0.0417 0.0417-0.0625  plane waves:     602
 k-point  1021 :   0.0417 0.1250-0.0625  plane waves:     605
 k-point  1022 :   0.1250 0.1250-0.0625  plane waves:     598
 k-point  1023 :   0.2083 0.1250-0.0625  plane waves:     608
 k-point  1024 :   0.2917 0.1250-0.0625  plane waves:     612
 k-point  1025 :   0.3750 0.1250-0.0625  plane waves:     607
 k-point  1026 :   0.4583 0.1250-0.0625  plane waves:     616
 k-point  1027 :  -0.4583 0.1250-0.0625  plane waves:     618
 k-point  1028 :  -0.3750 0.1250-0.0625  plane waves:     618
 k-point  1029 :  -0.2917 0.1250-0.0625  plane waves:     614
 k-point  1030 :  -0.2083 0.1250-0.0625  plane waves:     608
 k-point  1031 :  -0.1250 0.1250-0.0625  plane waves:     603
 k-point  1032 :  -0.0417 0.1250-0.0625  plane waves:     609
 k-point  1033 :   0.0417 0.2083-0.0625  plane waves:     610
 k-point  1034 :   0.1250 0.2083-0.0625  plane waves:     608
 k-point  1035 :   0.2083 0.2083-0.0625  plane waves:     608
 k-point  1036 :   0.2917 0.2083-0.0625  plane waves:     607
 k-point  1037 :   0.3750 0.2083-0.0625  plane waves:     610
 k-point  1038 :   0.4583 0.2083-0.0625  plane waves:     613
 k-point  1039 :  -0.4583 0.2083-0.0625  plane waves:     617
 k-point  1040 :  -0.3750 0.2083-0.0625  plane waves:     621
 k-point  1041 :  -0.2917 0.2083-0.0625  plane waves:     616
 k-point  1042 :  -0.2083 0.2083-0.0625  plane waves:     613
 k-point  1043 :  -0.1250 0.2083-0.0625  plane waves:     611
 k-point  1044 :  -0.0417 0.2083-0.0625  plane waves:     608
 k-point  1045 :   0.0417 0.2917-0.0625  plane waves:     609
 k-point  1046 :   0.1250 0.2917-0.0625  plane waves:     612
 k-point  1047 :   0.2083 0.2917-0.0625  plane waves:     607
 k-point  1048 :   0.2917 0.2917-0.0625  plane waves:     603
 k-point  1049 :   0.3750 0.2917-0.0625  plane waves:     609
 k-point  1050 :   0.4583 0.2917-0.0625  plane waves:     609
 k-point  1051 :  -0.4583 0.2917-0.0625  plane waves:     618
 k-point  1052 :  -0.3750 0.2917-0.0625  plane waves:     621
 k-point  1053 :  -0.2917 0.2917-0.0625  plane waves:     624
 k-point  1054 :  -0.2083 0.2917-0.0625  plane waves:     617
 k-point  1055 :  -0.1250 0.2917-0.0625  plane waves:     614
 k-point  1056 :  -0.0417 0.2917-0.0625  plane waves:     613
 k-point  1057 :   0.0417 0.3750-0.0625  plane waves:     610
 k-point  1058 :   0.1250 0.3750-0.0625  plane waves:     607
 k-point  1059 :   0.2083 0.3750-0.0625  plane waves:     610
 k-point  1060 :   0.2917 0.3750-0.0625  plane waves:     609
 k-point  1061 :   0.3750 0.3750-0.0625  plane waves:     608
 k-point  1062 :   0.4583 0.3750-0.0625  plane waves:     604
 k-point  1063 :  -0.4583 0.3750-0.0625  plane waves:     611
 k-point  1064 :  -0.3750 0.3750-0.0625  plane waves:     619
 k-point  1065 :  -0.2917 0.3750-0.0625  plane waves:     626
 k-point  1066 :  -0.2083 0.3750-0.0625  plane waves:     624
 k-point  1067 :  -0.1250 0.3750-0.0625  plane waves:     619
 k-point  1068 :  -0.0417 0.3750-0.0625  plane waves:     615
 k-point  1069 :   0.0417 0.4583-0.0625  plane waves:     618
 k-point  1070 :   0.1250 0.4583-0.0625  plane waves:     616
 k-point  1071 :   0.2083 0.4583-0.0625  plane waves:     613
 k-point  1072 :   0.2917 0.4583-0.0625  plane waves:     609
 k-point  1073 :   0.3750 0.4583-0.0625  plane waves:     604
 k-point  1074 :   0.4583 0.4583-0.0625  plane waves:     608
 k-point  1075 :  -0.4583 0.4583-0.0625  plane waves:     611
 k-point  1076 :  -0.3750 0.4583-0.0625  plane waves:     612
 k-point  1077 :  -0.2917 0.4583-0.0625  plane waves:     618
 k-point  1078 :  -0.2083 0.4583-0.0625  plane waves:     622
 k-point  1079 :  -0.1250 0.4583-0.0625  plane waves:     623
 k-point  1080 :  -0.0417 0.4583-0.0625  plane waves:     616
 k-point  1081 :   0.0417-0.4583-0.0625  plane waves:     612
 k-point  1082 :   0.1250-0.4583-0.0625  plane waves:     618
 k-point  1083 :   0.2083-0.4583-0.0625  plane waves:     617
 k-point  1084 :   0.2917-0.4583-0.0625  plane waves:     618
 k-point  1085 :   0.3750-0.4583-0.0625  plane waves:     611
 k-point  1086 :   0.4583-0.4583-0.0625  plane waves:     611
 k-point  1087 :  -0.4583-0.4583-0.0625  plane waves:     609
 k-point  1088 :  -0.3750-0.4583-0.0625  plane waves:     606
 k-point  1089 :  -0.2917-0.4583-0.0625  plane waves:     616
 k-point  1090 :  -0.2083-0.4583-0.0625  plane waves:     617
 k-point  1091 :  -0.1250-0.4583-0.0625  plane waves:     616
 k-point  1092 :  -0.0417-0.4583-0.0625  plane waves:     613
 k-point  1093 :   0.0417-0.3750-0.0625  plane waves:     621
 k-point  1094 :   0.1250-0.3750-0.0625  plane waves:     618
 k-point  1095 :   0.2083-0.3750-0.0625  plane waves:     621
 k-point  1096 :   0.2917-0.3750-0.0625  plane waves:     621
 k-point  1097 :   0.3750-0.3750-0.0625  plane waves:     619
 k-point  1098 :   0.4583-0.3750-0.0625  plane waves:     612
 k-point  1099 :  -0.4583-0.3750-0.0625  plane waves:     606
 k-point  1100 :  -0.3750-0.3750-0.0625  plane waves:     610
 k-point  1101 :  -0.2917-0.3750-0.0625  plane waves:     608
 k-point  1102 :  -0.2083-0.3750-0.0625  plane waves:     608
 k-point  1103 :  -0.1250-0.3750-0.0625  plane waves:     609
 k-point  1104 :  -0.0417-0.3750-0.0625  plane waves:     616
 k-point  1105 :   0.0417-0.2917-0.0625  plane waves:     614
 k-point  1106 :   0.1250-0.2917-0.0625  plane waves:     614
 k-point  1107 :   0.2083-0.2917-0.0625  plane waves:     616
 k-point  1108 :   0.2917-0.2917-0.0625  plane waves:     624
 k-point  1109 :   0.3750-0.2917-0.0625  plane waves:     626
 k-point  1110 :   0.4583-0.2917-0.0625  plane waves:     618
 k-point  1111 :  -0.4583-0.2917-0.0625  plane waves:     616
 k-point  1112 :  -0.3750-0.2917-0.0625  plane waves:     608
 k-point  1113 :  -0.2917-0.2917-0.0625  plane waves:     610
 k-point  1114 :  -0.2083-0.2917-0.0625  plane waves:     607
 k-point  1115 :  -0.1250-0.2917-0.0625  plane waves:     610
 k-point  1116 :  -0.0417-0.2917-0.0625  plane waves:     613
 k-point  1117 :   0.0417-0.2083-0.0625  plane waves:     612
 k-point  1118 :   0.1250-0.2083-0.0625  plane waves:     608
 k-point  1119 :   0.2083-0.2083-0.0625  plane waves:     613
 k-point  1120 :   0.2917-0.2083-0.0625  plane waves:     617
 k-point  1121 :   0.3750-0.2083-0.0625  plane waves:     624
 k-point  1122 :   0.4583-0.2083-0.0625  plane waves:     622
 k-point  1123 :  -0.4583-0.2083-0.0625  plane waves:     617
 k-point  1124 :  -0.3750-0.2083-0.0625  plane waves:     608
 k-point  1125 :  -0.2917-0.2083-0.0625  plane waves:     607
 k-point  1126 :  -0.2083-0.2083-0.0625  plane waves:     608
 k-point  1127 :  -0.1250-0.2083-0.0625  plane waves:     607
 k-point  1128 :  -0.0417-0.2083-0.0625  plane waves:     609
 k-point  1129 :   0.0417-0.1250-0.0625  plane waves:     606
 k-point  1130 :   0.1250-0.1250-0.0625  plane waves:     603
 k-point  1131 :   0.2083-0.1250-0.0625  plane waves:     611
 k-point  1132 :   0.2917-0.1250-0.0625  plane waves:     614
 k-point  1133 :   0.3750-0.1250-0.0625  plane waves:     619
 k-point  1134 :   0.4583-0.1250-0.0625  plane waves:     623
 k-point  1135 :  -0.4583-0.1250-0.0625  plane waves:     616
 k-point  1136 :  -0.3750-0.1250-0.0625  plane waves:     609
 k-point  1137 :  -0.2917-0.1250-0.0625  plane waves:     610
 k-point  1138 :  -0.2083-0.1250-0.0625  plane waves:     607
 k-point  1139 :  -0.1250-0.1250-0.0625  plane waves:     608
 k-point  1140 :  -0.0417-0.1250-0.0625  plane waves:     607
 k-point  1141 :   0.0417-0.0417-0.0625  plane waves:     602
 k-point  1142 :   0.1250-0.0417-0.0625  plane waves:     609
 k-point  1143 :   0.2083-0.0417-0.0625  plane waves:     608
 k-point  1144 :   0.2917-0.0417-0.0625  plane waves:     613
 k-point  1145 :   0.3750-0.0417-0.0625  plane waves:     615
 k-point  1146 :   0.4583-0.0417-0.0625  plane waves:     616
 k-point  1147 :  -0.4583-0.0417-0.0625  plane waves:     613
 k-point  1148 :  -0.3750-0.0417-0.0625  plane waves:     616
 k-point  1149 :  -0.2917-0.0417-0.0625  plane waves:     613
 k-point  1150 :  -0.2083-0.0417-0.0625  plane waves:     609
 k-point  1151 :  -0.1250-0.0417-0.0625  plane waves:     607
 k-point  1152 :  -0.0417-0.0417-0.0625  plane waves:     609

 maximum and minimum number of plane-waves per node :       322      290

 maximum number of plane-waves:       626
 maximum index in each direction: 
   IXMAX=    5   IYMAX=    5   IZMAX=    7
   IXMIN=   -5   IYMIN=   -5   IZMIN=   -7


 parallel 3D FFT for wavefunctions:
    minimum data exchange during FFTs selected (reduces bandwidth)
 parallel 3D FFT for charge:
    minimum data exchange during FFTs selected (reduces bandwidth)


 total amount of memory used by VASP MPI-rank0   206172. kBytes
=======================================================================

   base                                    :      30000. kBytes
   nonl-proj                               :      23603. kBytes
   fftplans                                :        592. kBytes
   grid                                    :        832. kBytes
   one-center                              :          3. kBytes
   wavefun                                 :     151142. kBytes
 
     INWAV:  cpu time      0.0000: real time      0.0000
 Broyden mixing: mesh for mixing (old mesh)
   NGX =  9   NGY =  9   NGZ = 15
  (NGX  = 40   NGY  = 40   NGZ  = 60)
  gives a total of   1215 points

 initial charge density was supplied:
 charge density of overlapping atoms calculated
 number of electron       8.0000000 magnetization 
 keeping initial charge density in first step


--------------------------------------------------------------------------------------------------------


 Maximum index for augmentation-charges          940 (set IRDMAX)


--------------------------------------------------------------------------------------------------------


 First call to EWALD:  gamma=   0.673
 Maximum number of real-space cells   3x   3x   2
 Maximum number of reciprocal cells   3x   3x   4

    FEWALD:  cpu time      0.0007: real time      0.0007


--------------------------------------- Ionic step        1  -------------------------------------------




--------------------------------------- Iteration      1(   1)  ---------------------------------------


    POTLOK:  cpu time      0.0072: real time      0.0081
    SETDIJ:  cpu time      0.0297: real time      0.0298
     EDDAV:  cpu time     18.7191: real time     18.8360
       DOS:  cpu time      0.0088: real time      0.0089
    --------------------------------------------
      LOOP:  cpu time     18.7648: real time     18.8828

 eigenvalue-minimisations  :230484
 total energy-change (2. order) : 0.4429647E+02  (-0.2387996E+03)
 number of electron       8.0000000 magnetization 
 augmentation part        8.0000000 magnetization 

 Free energy of the ion-electron system (eV)
  ---------------------------------------------------
  alpha Z        PSCENC =        17.95022938
  Ewald energy   TEWEN  =      -216.39683904
  -Hartree energ DENC   =       -83.67570234
  -exchange      EXHF   =         0.00000000
  -V(xc)+E(xc)   XCENC  =        26.51716625
  PAW double counting   =       217.04409276     -218.18290438
  entropy T*S    EENTRO =        -0.00010811
  eigenvalues    EBANDS =         6.73995644
  atomic energy  EATOM  =       294.30057552
  Solvation  Ediel_sol  =         0.00000000
  ---------------------------------------------------
  free energy    TOTEN  =        44.29646648 eV

  energy without entropy =       44.29657459  energy(sigma->0) =       44.29652053


--------------------------------------------------------------------------------------------------------




--------------------------------------- Iteration      1(   2)  ---------------------------------------


     EDDAV:  cpu time     21.0170: real time     21.1398
       DOS:  cpu time      0.0061: real time      0.0061
    --------------------------------------------
      LOOP:  cpu time     21.0230: real time     21.1459

 eigenvalue-minimisations  :273480
 total energy-change (2. order) :-0.6246767E+02  (-0.5812616E+02)
 number of electron       8.0000000 magnetization 
 augmentation part        8.0000000 magnetization 

 Free energy of the ion-electron system (eV)
  ---------------------------------------------------
  alpha Z        PSCENC =        17.95022938
  Ewald energy   TEWEN  =      -216.39683904
  -Hartree energ DENC   =       -83.67570234
  -exchange      EXHF   =         0.00000000
  -V(xc)+E(xc)   XCENC  =        26.51716625
  PAW double counting   =       217.04409276     -218.18290438
  entropy T*S    EENTRO =        -0.00000000
  eigenvalues    EBANDS =       -55.72782387
  atomic energy  EATOM  =       294.30057552
  Solvation  Ediel_sol  =         0.00000000
  ---------------------------------------------------
  free energy    TOTEN  =       -18.17120572 eV

  energy without entropy =      -18.17120572  energy(sigma->0) =      -18.17120572


--------------------------------------------------------------------------------------------------------




--------------------------------------- Iteration      1(   3)  ---------------------------------------


     EDDAV:  cpu time     20.8101: real time     20.9428
       DOS:  cpu time      0.0061: real time      0.0061
    --------------------------------------------
      LOOP:  cpu time     20.8162: real time     20.9489

 eigenvalue-minimisations  :269320
 total energy-change (2. order) :-0.1504796E+01  (-0.1494283E+01)
 number of electron       8.0000000 magnetization 
 augmentation part        8.0000000 magnetization 

 Free energy of the ion-electron system (eV)
  ---------------------------------------------------
  alpha Z        PSCENC =        17.95022938
  Ewald energy   TEWEN  =      -216.39683904
  -Hartree energ DENC   =       -83.67570234
  -exchange      EXHF   =         0.00000000
  -V(xc)+E(xc)   XCENC  =        26.51716625
  PAW double counting   =       217.04409276     -218.18290438
  entropy T*S    EENTRO =        -0.00000000
  eigenvalues    EBANDS =       -57.23262002
  atomic energy  EATOM  =       294.30057552
  Solvation  Ediel_sol  =         0.00000000
  ---------------------------------------------------
  free energy    TOTEN  =       -19.67600188 eV

  energy without entropy =      -19.67600188  energy(sigma->0) =      -19.67600188


--------------------------------------------------------------------------------------------------------




--------------------------------------- Iteration      1(   4)  ---------------------------------------


     EDDAV:  cpu time     20.6424: real time     20.7726
       DOS:  cpu time      0.0061: real time      0.0061
    --------------------------------------------
      LOOP:  cpu time     20.6485: real time     20.7787

 eigenvalue-minimisations  :266552
 total energy-change (2. order) :-0.5741552E-03  (-0.5741043E-03)
 number of electron       8.0000000 magnetization 
 augmentation part        8.0000000 magnetization 

 Free energy of the ion-electron system (eV)
  ---------------------------------------------------
  alpha Z        PSCENC =        17.95022938
  Ewald energy   TEWEN  =      -216.39683904
  -Hartree energ DENC   =       -83.67570234
  -exchange      EXHF   =         0.00000000
  -V(xc)+E(xc)   XCENC  =        26.51716625
  PAW double counting   =       217.04409276     -218.18290438
  entropy T*S    EENTRO =        -0.00000000
  eigenvalues    EBANDS =       -57.23319418
  atomic energy  EATOM  =       294.30057552
  Solvation  Ediel_sol  =         0.00000000
  ---------------------------------------------------
  free energy    TOTEN  =       -19.67657604 eV

  energy without entropy =      -19.67657604  energy(sigma->0) =      -19.67657604


--------------------------------------------------------------------------------------------------------




--------------------------------------- Iteration      1(   5)  ---------------------------------------


     EDDAV:  cpu time     20.5790: real time     20.7094
       DOS:  cpu time      0.0060: real time      0.0060
    CHARGE:  cpu time      0.0578: real time      0.0580
    MIXING:  cpu time      0.0006: real time      0.0006
    --------------------------------------------
      LOOP:  cpu time     20.6433: real time     20.7739

 eigenvalue-minimisations  :266216
 total energy-change (2. order) :-0.4085859E-07  (-0.4085797E-07)
 number of electron       8.0000000 magnetization 
 augmentation part        0.2148471 magnetization 

 Broyden mixing:
  rms(total) = 0.63781E+00    rms(broyden)= 0.63776E+00
  rms(prec ) = 0.15016E+01
  weight for this iteration     100.00

 Free energy of the ion-electron system (eV)
  ---------------------------------------------------
  alpha Z        PSCENC =        17.95022938
  Ewald energy   TEWEN  =      -216.39683904
  -Hartree energ DENC   =       -83.67570234
  -exchange      EXHF   =         0.00000000
  -V(xc)+E(xc)   XCENC  =        26.51716625
  PAW double counting   =       217.04409276     -218.18290438
  entropy T*S    EENTRO =        -0.00000000
  eigenvalues    EBANDS =       -57.23319422
  atomic energy  EATOM  =       294.30057552
  Solvation  Ediel_sol  =         0.00000000
  ---------------------------------------------------
  free energy    TOTEN  =       -19.67657608 eV

  energy without entropy =      -19.67657608  energy(sigma->0) =      -19.67657608


--------------------------------------------------------------------------------------------------------




--------------------------------------- Iteration      1(   6)  ---------------------------------------


    POTLOK:  cpu time      0.0066: real time      0.0072
    SETDIJ:  cpu time      0.0294: real time      0.0295
     EDDAV:  cpu time     19.9453: real time     20.0691
       DOS:  cpu time      0.0062: real time      0.0062
    CHARGE:  cpu time      0.0574: real time      0.0576
    MIXING:  cpu time      0.0005: real time      0.0005
    --------------------------------------------
      LOOP:  cpu time     20.0454: real time     20.1703

 eigenvalue-minimisations  :254316
 total energy-change (2. order) : 0.9385430E+00  (-0.3485238E-01)
 number of electron       8.0000000 magnetization 
 augmentation part        0.2038990 magnetization 

 Broyden mixing:
  rms(total) = 0.37229E+00    rms(broyden)= 0.37229E+00
  rms(prec ) = 0.79002E+00
  weight for this iteration     100.00

 eigenvalues of (default mixing * dielectric matrix)
  average eigenvalue GAMMA=   2.1795
  2.1795

 Free energy of the ion-electron system (eV)
  ---------------------------------------------------
  alpha Z        PSCENC =        17.95022938
  Ewald energy   TEWEN  =      -216.39683904
  -Hartree energ DENC   =       -92.32733503
  -exchange      EXHF   =         0.00000000
  -V(xc)+E(xc)   XCENC  =        27.03111563
  PAW double counting   =       400.41378242     -401.70506709
  entropy T*S    EENTRO =        -0.00000000
  eigenvalues    EBANDS =       -48.00449489
  atomic energy  EATOM  =       294.30057552
  Solvation  Ediel_sol  =         0.00000000
  ---------------------------------------------------
  free energy    TOTEN  =       -18.73803310 eV

  energy without entropy =      -18.73803310  energy(sigma->0) =      -18.73803310


--------------------------------------------------------------------------------------------------------




--------------------------------------- Iteration      1(   7)  ---------------------------------------


    POTLOK:  cpu time      0.0064: real time      0.0066
    SETDIJ:  cpu time      0.0293: real time      0.0294
     EDDAV:  cpu time     19.9746: real time     20.0902
       DOS:  cpu time      0.0060: real time      0.0060
    CHARGE:  cpu time      0.0578: real time      0.0579
    MIXING:  cpu time      0.0005: real time      0.0005
    --------------------------------------------
      LOOP:  cpu time     20.0746: real time     20.1906

 eigenvalue-minimisations  :254932
 total energy-change (2. order) : 0.3019175E+00  (-0.3930125E-01)
 number of electron       8.0000000 magnetization 
 augmentation part        0.1929664 magnetization 

 Broyden mixing:
  rms(total) = 0.10024E+00    rms(broyden)= 0.10023E+00
  rms(prec ) = 0.12324E+00
  weight for this iteration     100.00

 eigenvalues of (default mixing * dielectric matrix)
  average eigenvalue GAMMA=   2.2007
  2.0656  2.3357

 Free energy of the ion-electron system (eV)
  ---------------------------------------------------
  alpha Z        PSCENC =        17.95022938
  Ewald energy   TEWEN  =      -216.39683904
  -Hartree energ DENC   =      -102.05916505
  -exchange      EXHF   =         0.00000000
  -V(xc)+E(xc)   XCENC  =        27.63169033
  PAW double counting   =       731.71676896     -733.13169906
  entropy T*S    EENTRO =        -0.00000000
  eigenvalues    EBANDS =       -38.44767662
  atomic energy  EATOM  =       294.30057552
  Solvation  Ediel_sol  =         0.00000000
  ---------------------------------------------------
  free energy    TOTEN  =       -18.43611559 eV

  energy without entropy =      -18.43611559  energy(sigma->0) =      -18.43611559


--------------------------------------------------------------------------------------------------------




--------------------------------------- Iteration      1(   8)  ---------------------------------------


    POTLOK:  cpu time      0.0064: real time      0.0074
    SETDIJ:  cpu time      0.0293: real time      0.0294
     EDDAV:  cpu time     20.1678: real time     20.2683
       DOS:  cpu time      0.0061: real time      0.0061
    CHARGE:  cpu time      0.0574: real time      0.0575
    MIXING:  cpu time      0.0005: real time      0.0005
    --------------------------------------------
      LOOP:  cpu time     20.2676: real time     20.3692

 eigenvalue-minimisations  :258000
 total energy-change (2. order) :-0.2757751E-02  (-0.4320206E-03)
 number of electron       8.0000000 magnetization 
 augmentation part        0.1935527 magnetization 

 Broyden mixing:
  rms(total) = 0.65990E-02    rms(broyden)= 0.65953E-02
  rms(prec ) = 0.17171E-01
  weight for this iteration     100.00

 eigenvalues of (default mixing * dielectric matrix)
  average eigenvalue GAMMA=   1.7853
  0.9419  2.4388  1.9752

 Free energy of the ion-electron system (eV)
  ---------------------------------------------------
  alpha Z        PSCENC =        17.95022938
  Ewald energy   TEWEN  =      -216.39683904
  -Hartree energ DENC   =      -101.92044718
  -exchange      EXHF   =         0.00000000
  -V(xc)+E(xc)   XCENC  =        27.62986597
  PAW double counting   =       837.89073369     -839.26050343
  entropy T*S    EENTRO =        -0.00000000
  eigenvalues    EBANDS =       -38.63248824
  atomic energy  EATOM  =       294.30057552
  Solvation  Ediel_sol  =         0.00000000
  ---------------------------------------------------
  free energy    TOTEN  =       -18.43887334 eV

  energy without entropy =      -18.43887334  energy(sigma->0) =      -18.43887334


--------------------------------------------------------------------------------------------------------




--------------------------------------- Iteration      1(   9)  ---------------------------------------


    POTLOK:  cpu time      0.0066: real time      0.0082
    SETDIJ:  cpu time      0.0293: real time      0.0294
