Y1 Ag3                                  
   1.00000000000000     
     0.0000000000000000    3.4381216100000001    3.4381216100000001
     3.4381216100000001    0.0000000000000000    3.4381216100000001
     3.4381216100000001    3.4381216100000001    0.0000000000000000
   Y    Ag
     1     3
Direct
     0.0000000000000000    0.0000000000000000    0.0000000000000000
     0.2500000000000000    0.2500000000000000    0.2500000000000000
     0.7500000000000000    0.7500000000000000    0.7500000000000000
     0.5000000000000000    0.5000000000000000    0.5000000000000000
 
  0.00000000E+00  0.00000000E+00  0.00000000E+00
  0.00000000E+00  0.00000000E+00  0.00000000E+00
  0.00000000E+00  0.00000000E+00  0.00000000E+00
  0.00000000E+00  0.00000000E+00  0.00000000E+00
