   4   4   0   0
  0.2032047E+02  0.4862238E-09  0.4862238E-09  0.4862238E-09  0.5000000E-15
  1.000000000000000E-004
  CAR 
 unknown system                          
     25.60142712    -39.17535704  301      6.91646484      1.00000000
    -39.175  0.0000E+00  0.0000E+00
    -38.959  0.0000E+00  0.0000E+00
    -38.744  0.0000E+00  0.0000E+00
    -38.528  0.0000E+00  0.0000E+00
    -38.312  0.0000E+00  0.0000E+00
    -38.096  0.0000E+00  0.0000E+00
    -37.880  0.0000E+00  0.0000E+00
    -37.664  0.0000E+00  0.0000E+00
    -37.448  0.0000E+00  0.0000E+00
    -37.232  0.0000E+00  0.0000E+00
    -37.016  0.0000E+00  0.0000E+00
    -36.800  0.0000E+00  0.0000E+00
    -36.584  0.0000E+00  0.0000E+00
    -36.368  0.4117E-03  0.8889E-04
    -36.152  0.9129E+01  0.1971E+01
    -35.937  0.1328E+00  0.2000E+01
    -35.721  0.0000E+00  0.2000E+01
    -35.505  0.0000E+00  0.2000E+01
    -35.289  0.0000E+00  0.2000E+01
    -35.073  0.0000E+00  0.2000E+01
    -34.857  0.0000E+00  0.2000E+01
    -34.641  0.0000E+00  0.2000E+01
    -34.425  0.0000E+00  0.2000E+01
    -34.209  0.0000E+00  0.2000E+01
    -33.993  0.0000E+00  0.2000E+01
    -33.777  0.0000E+00  0.2000E+01
    -33.561  0.0000E+00  0.2000E+01
    -33.345  0.0000E+00  0.2000E+01
    -33.130  0.0000E+00  0.2000E+01
    -32.914  0.0000E+00  0.2000E+01
    -32.698  0.0000E+00  0.2000E+01
    -32.482  0.0000E+00  0.2000E+01
    -32.266  0.0000E+00  0.2000E+01
    -32.050  0.0000E+00  0.2000E+01
    -31.834  0.0000E+00  0.2000E+01
    -31.618  0.0000E+00  0.2000E+01
    -31.402  0.0000E+00  0.2000E+01
    -31.186  0.0000E+00  0.2000E+01
    -30.970  0.0000E+00  0.2000E+01
    -30.754  0.0000E+00  0.2000E+01
    -30.538  0.0000E+00  0.2000E+01
    -30.323  0.0000E+00  0.2000E+01
    -30.107  0.0000E+00  0.2000E+01
    -29.891  0.0000E+00  0.2000E+01
    -29.675  0.0000E+00  0.2000E+01
    -29.459  0.0000E+00  0.2000E+01
    -29.243  0.0000E+00  0.2000E+01
    -29.027  0.0000E+00  0.2000E+01
    -28.811  0.0000E+00  0.2000E+01
    -28.595  0.0000E+00  0.2000E+01
    -28.379  0.0000E+00  0.2000E+01
    -28.163  0.0000E+00  0.2000E+01
    -27.947  0.0000E+00  0.2000E+01
    -27.731  0.0000E+00  0.2000E+01
    -27.516  0.0000E+00  0.2000E+01
    -27.300  0.0000E+00  0.2000E+01
    -27.084  0.0000E+00  0.2000E+01
    -26.868  0.0000E+00  0.2000E+01
    -26.652  0.0000E+00  0.2000E+01
    -26.436  0.0000E+00  0.2000E+01
    -26.220  0.0000E+00  0.2000E+01
    -26.004  0.0000E+00  0.2000E+01
    -25.788  0.0000E+00  0.2000E+01
    -25.572  0.0000E+00  0.2000E+01
    -25.356  0.0000E+00  0.2000E+01
    -25.140  0.0000E+00  0.2000E+01
    -24.924  0.0000E+00  0.2000E+01
    -24.709  0.0000E+00  0.2000E+01
    -24.493  0.0000E+00  0.2000E+01
    -24.277  0.0000E+00  0.2000E+01
    -24.061  0.0000E+00  0.2000E+01
    -23.845  0.0000E+00  0.2000E+01
    -23.629  0.0000E+00  0.2000E+01
    -23.413  0.0000E+00  0.2000E+01
    -23.197  0.0000E+00  0.2000E+01
    -22.981  0.0000E+00  0.2000E+01
    -22.765  0.0000E+00  0.2000E+01
    -22.549  0.0000E+00  0.2000E+01
    -22.333  0.0000E+00  0.2000E+01
    -22.117  0.0000E+00  0.2000E+01
    -21.902  0.0000E+00  0.2000E+01
    -21.686  0.0000E+00  0.2000E+01
    -21.470  0.0000E+00  0.2000E+01
    -21.254  0.0000E+00  0.2000E+01
    -21.038  0.0000E+00  0.2000E+01
    -20.822  0.0000E+00  0.2000E+01
    -20.606  0.0000E+00  0.2000E+01
    -20.390  0.0000E+00  0.2000E+01
    -20.174  0.0000E+00  0.2000E+01
    -19.958  0.0000E+00  0.2000E+01
    -19.742  0.0000E+00  0.2000E+01
    -19.526  0.0000E+00  0.2000E+01
    -19.310  0.0000E+00  0.2000E+01
    -19.095  0.0000E+00  0.2000E+01
    -18.879  0.0000E+00  0.2000E+01
    -18.663  0.0000E+00  0.2000E+01
    -18.447  0.0000E+00  0.2000E+01
    -18.231  0.0000E+00  0.2000E+01
    -18.015  0.0000E+00  0.2000E+01
    -17.799  0.0000E+00  0.2000E+01
    -17.583  0.0000E+00  0.2000E+01
    -17.367  0.0000E+00  0.2000E+01
    -17.151  0.0000E+00  0.2000E+01
    -16.935  0.0000E+00  0.2000E+01
    -16.719  0.0000E+00  0.2000E+01
    -16.503  0.2525E-10  0.2000E+01
    -16.288  0.4008E+01  0.2865E+01
    -16.072  0.2378E+02  0.8000E+01
    -15.856  0.9913E-05  0.8000E+01
    -15.640  0.0000E+00  0.8000E+01
    -15.424  0.0000E+00  0.8000E+01
    -15.208  0.0000E+00  0.8000E+01
    -14.992  0.0000E+00  0.8000E+01
    -14.776  0.0000E+00  0.8000E+01
    -14.560  0.0000E+00  0.8000E+01
    -14.344  0.0000E+00  0.8000E+01
    -14.128  0.0000E+00  0.8000E+01
    -13.912  0.0000E+00  0.8000E+01
    -13.696  0.0000E+00  0.8000E+01
    -13.481  0.0000E+00  0.8000E+01
    -13.265  0.0000E+00  0.8000E+01
    -13.049  0.0000E+00  0.8000E+01
    -12.833  0.0000E+00  0.8000E+01
    -12.617  0.0000E+00  0.8000E+01
    -12.401  0.0000E+00  0.8000E+01
    -12.185  0.0000E+00  0.8000E+01
    -11.969  0.0000E+00  0.8000E+01
    -11.753  0.0000E+00  0.8000E+01
    -11.537  0.0000E+00  0.8000E+01
    -11.321  0.0000E+00  0.8000E+01
    -11.105  0.0000E+00  0.8000E+01
    -10.889  0.0000E+00  0.8000E+01
    -10.674  0.0000E+00  0.8000E+01
    -10.458  0.0000E+00  0.8000E+01
    -10.242  0.0000E+00  0.8000E+01
    -10.026  0.0000E+00  0.8000E+01
     -9.810  0.0000E+00  0.8000E+01
     -9.594  0.0000E+00  0.8000E+01
     -9.378  0.0000E+00  0.8000E+01
     -9.162  0.0000E+00  0.8000E+01
     -8.946  0.0000E+00  0.8000E+01
     -8.730  0.0000E+00  0.8000E+01
     -8.514  0.0000E+00  0.8000E+01
     -8.298  0.0000E+00  0.8000E+01
     -8.083  0.0000E+00  0.8000E+01
     -7.867  0.0000E+00  0.8000E+01
     -7.651  0.0000E+00  0.8000E+01
     -7.435  0.0000E+00  0.8000E+01
     -7.219  0.0000E+00  0.8000E+01
     -7.003  0.0000E+00  0.8000E+01
     -6.787  0.0000E+00  0.8000E+01
     -6.571  0.0000E+00  0.8000E+01
     -6.355  0.0000E+00  0.8000E+01
     -6.139  0.0000E+00  0.8000E+01
     -5.923  0.0000E+00  0.8000E+01
     -5.707  0.0000E+00  0.8000E+01
     -5.491  0.0000E+00  0.8000E+01
     -5.276  0.0000E+00  0.8000E+01
     -5.060  0.0000E+00  0.8000E+01
     -4.844  0.0000E+00  0.8000E+01
     -4.628  0.0000E+00  0.8000E+01
     -4.412  0.0000E+00  0.8000E+01
     -4.196  0.0000E+00  0.8000E+01
     -3.980  0.0000E+00  0.8000E+01
     -3.764  0.0000E+00  0.8000E+01
     -3.548  0.0000E+00  0.8000E+01
     -3.332  0.0000E+00  0.8000E+01
     -3.116  0.0000E+00  0.8000E+01
     -2.900  0.0000E+00  0.8000E+01
     -2.684  0.0000E+00  0.8000E+01
     -2.469  0.0000E+00  0.8000E+01
     -2.253  0.0000E+00  0.8000E+01
     -2.037  0.0000E+00  0.8000E+01
     -1.821  0.0000E+00  0.8000E+01
     -1.605  0.0000E+00  0.8000E+01
     -1.389  0.0000E+00  0.8000E+01
     -1.173  0.0000E+00  0.8000E+01
     -0.957  0.0000E+00  0.8000E+01
     -0.741  0.0000E+00  0.8000E+01
     -0.525  0.0000E+00  0.8000E+01
     -0.309  0.6575E-05  0.8000E+01
     -0.093  0.4261E-01  0.8009E+01
      0.123  0.9843E-01  0.8030E+01
      0.338  0.5004E+00  0.8138E+01
      0.554  0.3945E-01  0.8147E+01
      0.770  0.4979E+00  0.8255E+01
      0.986  0.4178E+01  0.9157E+01
      1.202  0.1209E+02  0.1177E+02
      1.418  0.2121E+02  0.1635E+02
      1.634  0.1841E+02  0.2032E+02
      1.850  0.1240E+02  0.2300E+02
      2.066  0.1352E+02  0.2592E+02
      2.282  0.9592E+01  0.2799E+02
      2.498  0.9934E+01  0.3013E+02
      2.714  0.1187E+02  0.3270E+02
      2.930  0.1794E+02  0.3657E+02
      3.145  0.1216E+02  0.3919E+02
      3.361  0.5136E+00  0.3931E+02
      3.577  0.9460E+00  0.3951E+02
      3.793  0.1573E+00  0.3954E+02
      4.009  0.1250E+01  0.3981E+02
      4.225  0.2113E+01  0.4027E+02
      4.441  0.9911E+00  0.4048E+02
      4.657  0.1286E+01  0.4076E+02
      4.873  0.1152E+01  0.4101E+02
      5.089  0.6241E+00  0.4115E+02
      5.305  0.1002E+01  0.4136E+02
      5.521  0.1769E+01  0.4174E+02
      5.737  0.3885E+01  0.4258E+02
      5.952  0.9542E+00  0.4279E+02
      6.168  0.7207E+00  0.4294E+02
      6.384  0.1292E+01  0.4322E+02
      6.600  0.2638E+01  0.4379E+02
      6.816  0.1843E+00  0.4383E+02
      7.032  0.4284E+01  0.4476E+02
      7.248  0.3313E+01  0.4547E+02
      7.464  0.2353E+01  0.4598E+02
      7.680  0.9905E+00  0.4619E+02
      7.896  0.6471E-04  0.4619E+02
      8.112  0.1497E+01  0.4652E+02
      8.328  0.2503E+01  0.4706E+02
      8.544  0.1096E+01  0.4729E+02
      8.759  0.1385E+01  0.4759E+02
      8.975  0.1238E+01  0.4786E+02
      9.191  0.3124E+01  0.4854E+02
      9.407  0.4955E+01  0.4961E+02
      9.623  0.6862E+01  0.5109E+02
      9.839  0.2415E+01  0.5161E+02
     10.055  0.1099E+01  0.5185E+02
     10.271  0.2978E+01  0.5249E+02
     10.487  0.1699E+01  0.5286E+02
     10.703  0.2258E+01  0.5334E+02
     10.919  0.2973E+01  0.5399E+02
     11.135  0.2066E+01  0.5443E+02
     11.351  0.1881E+01  0.5484E+02
     11.566  0.3491E+01  0.5559E+02
     11.782  0.2794E+01  0.5619E+02
     11.998  0.9213E+00  0.5639E+02
     12.214  0.8804E+00  0.5658E+02
     12.430  0.1602E+01  0.5693E+02
     12.646  0.2032E+01  0.5737E+02
     12.862  0.3181E+01  0.5806E+02
     13.078  0.3870E+00  0.5814E+02
     13.294  0.1227E+01  0.5840E+02
     13.510  0.5294E+00  0.5852E+02
     13.726  0.2289E+01  0.5901E+02
     13.942  0.1784E+01  0.5940E+02
     14.158  0.2621E+00  0.5945E+02
     14.373  0.2230E+01  0.5994E+02
     14.589  0.3198E+01  0.6063E+02
     14.805  0.6578E+00  0.6077E+02
     15.021  0.3067E+01  0.6143E+02
     15.237  0.1806E+01  0.6182E+02
     15.453  0.6953E+00  0.6197E+02
     15.669  0.2056E+01  0.6241E+02
     15.885  0.2103E+01  0.6287E+02
     16.101  0.5122E+01  0.6397E+02
     16.317  0.2608E+01  0.6454E+02
     16.533  0.3102E+01  0.6521E+02
     16.749  0.1857E+01  0.6561E+02
     16.965  0.1042E+01  0.6583E+02
     17.180  0.2527E+00  0.6589E+02
     17.396  0.1961E+01  0.6631E+02
     17.612  0.2134E+01  0.6677E+02
     17.828  0.3184E+01  0.6746E+02
     18.044  0.1432E+01  0.6777E+02
     18.260  0.6622E+01  0.6920E+02
     18.476  0.1818E+01  0.6959E+02
     18.692  0.3043E+01  0.7025E+02
     18.908  0.1490E+01  0.7057E+02
     19.124  0.4421E+01  0.7152E+02
     19.340  0.2760E+01  0.7212E+02
     19.556  0.3073E+01  0.7278E+02
     19.772  0.3037E+01  0.7344E+02
     19.987  0.8471E+00  0.7362E+02
     20.203  0.3519E+01  0.7438E+02
     20.419  0.3792E+01  0.7520E+02
     20.635  0.1685E+01  0.7557E+02
     20.851  0.6889E+00  0.7571E+02
     21.067  0.1641E+01  0.7607E+02
     21.283  0.2456E+01  0.7660E+02
     21.499  0.4014E+01  0.7747E+02
     21.715  0.1800E+01  0.7785E+02
     21.931  0.1894E+01  0.7826E+02
     22.147  0.1319E+01  0.7855E+02
     22.363  0.4367E+01  0.7949E+02
     22.579  0.1584E+01  0.7983E+02
     22.794  0.7749E+00  0.8000E+02
     23.010  0.2617E-04  0.8000E+02
     23.226  0.0000E+00  0.8000E+02
     23.442  0.0000E+00  0.8000E+02
     23.658  0.0000E+00  0.8000E+02
     23.874  0.0000E+00  0.8000E+02
     24.090  0.0000E+00  0.8000E+02
     24.306  0.0000E+00  0.8000E+02
     24.522  0.0000E+00  0.8000E+02
     24.738  0.0000E+00  0.8000E+02
     24.954  0.0000E+00  0.8000E+02
     25.170  0.0000E+00  0.8000E+02
     25.386  0.0000E+00  0.8000E+02
     25.601  0.0000E+00  0.8000E+02
