Y1 Ag3
1.0
  -0.0000000000000000    3.4381216100000001    3.4381216100000001
   3.4381216100000001    0.0000000000000000    3.4381216100000001
   3.4381216100000001    3.4381216100000001   -0.0000000000000000
Y Ag
1 3
direct
   0.0000000000000000   -0.0000000000000000   -0.0000000000000000 Y
   0.2500000000000000    0.2500000000000000    0.2500000000000000 Ag
   0.7500000000000000    0.7500000000000000    0.7500000000000000 Ag
   0.5000000000000000    0.5000000000000000    0.5000000000000000 Ag
