S4 N4                                   
   1.00000000000000     
     4.2845300000000002    0.0000000000000000    0.0000000000000000
     0.0000000000000000    4.4044059999999998    0.0000000000000000
     0.0000000000000000    2.3331409999999999    8.6690860000000001
   S    N 
     4     4
Direct
     0.1054499999999976    0.7989409999999992    0.1000850000000000
     0.6054499999999976    0.2010590000000008    0.3999150000000000
     0.8945500000000024    0.2010590000000008    0.8999150000000000
     0.3945500000000024    0.7989409999999992    0.6000850000000000
     0.0556929999999980    0.1853260000000034    0.0684899999999971
     0.5556929999999980    0.8146739999999966    0.4315100000000029
     0.9443070000000020    0.8146739999999966    0.9315100000000029
     0.4443070000000020    0.1853260000000034    0.5684899999999971
 
  0.00000000E+00  0.00000000E+00  0.00000000E+00
  0.00000000E+00  0.00000000E+00  0.00000000E+00
  0.00000000E+00  0.00000000E+00  0.00000000E+00
  0.00000000E+00  0.00000000E+00  0.00000000E+00
  0.00000000E+00  0.00000000E+00  0.00000000E+00
  0.00000000E+00  0.00000000E+00  0.00000000E+00
  0.00000000E+00  0.00000000E+00  0.00000000E+00
  0.00000000E+00  0.00000000E+00  0.00000000E+00
