       N       E                     dE             d eps       ncg     rms          rms(c)
DAV:   1     0.284518317176E+03    0.28452E+03   -0.21545E+04  6912   0.133E+03
DAV:   2    -0.226630718565E+02   -0.30718E+03   -0.29512E+03  9032   0.262E+02
DAV:   3    -0.485492133540E+02   -0.25886E+02   -0.25535E+02  8664   0.829E+01
DAV:   4    -0.490575997931E+02   -0.50839E+00   -0.50648E+00  9112   0.128E+01
DAV:   5    -0.490666730528E+02   -0.90733E-02   -0.90707E-02  8704   0.165E+00    0.416E+01
DAV:   6    -0.442888901188E+02    0.47778E+01   -0.14684E+01  8656   0.244E+01    0.208E+01
DAV:   7    -0.444012486445E+02   -0.11236E+00   -0.24016E+00  8136   0.846E+00    0.878E+00
DAV:   8    -0.443924952063E+02    0.87534E-02   -0.16081E-01  9344   0.227E+00    0.973E-01
DAV:   9    -0.443841446569E+02    0.83505E-02   -0.34099E-02  9272   0.127E+00    0.444E-01
DAV:  10    -0.443848153668E+02   -0.67071E-03   -0.57183E-03  8184   0.433E-01    0.217E-01
DAV:  11    -0.443848074664E+02    0.79004E-05   -0.78316E-04  9264   0.162E-01    0.443E-02
DAV:  12    -0.443848354814E+02   -0.28015E-04   -0.58887E-05  8056   0.489E-02    0.150E-02
DAV:  13    -0.443848402669E+02   -0.47855E-05   -0.52337E-06  9112   0.141E-02    0.113E-02
DAV:  14    -0.443848404151E+02   -0.14826E-06   -0.11592E-06  5496   0.740E-03
   1 F= -.44384840E+02 E0= -.44384840E+02  d E =-.322832E-11
