   3   3   0   0
  0.1403241E+02  0.3320894E-09  0.3320894E-09  0.4407707E-09  0.5000000E-15
  1.000000000000000E-004
  CAR 
 unknown system                          
     17.83783924    -32.77329855  301      4.39139168      1.00000000
    -32.773  0.0000E+00  0.0000E+00
    -32.605  0.0000E+00  0.0000E+00
    -32.436  0.0000E+00  0.0000E+00
    -32.267  0.0000E+00  0.0000E+00
    -32.098  0.0000E+00  0.0000E+00
    -31.930  0.0000E+00  0.0000E+00
    -31.761  0.0000E+00  0.0000E+00
    -31.592  0.0000E+00  0.0000E+00
    -31.424  0.0000E+00  0.0000E+00
    -31.255  0.0000E+00  0.0000E+00
    -31.086  0.0000E+00  0.0000E+00
    -30.918  0.0000E+00  0.0000E+00
    -30.749  0.2464E-15  0.4158E-16
    -30.580  0.1915E-03  0.3230E-04
    -30.411  0.1354E+01  0.2284E+00
    -30.243  0.7601E+01  0.1511E+01
    -30.074  0.2900E+01  0.2000E+01
    -29.905  0.1882E-04  0.2000E+01
    -29.737  0.0000E+00  0.2000E+01
    -29.568  0.0000E+00  0.2000E+01
    -29.399  0.0000E+00  0.2000E+01
    -29.231  0.0000E+00  0.2000E+01
    -29.062  0.0000E+00  0.2000E+01
    -28.893  0.0000E+00  0.2000E+01
    -28.724  0.0000E+00  0.2000E+01
    -28.556  0.0000E+00  0.2000E+01
    -28.387  0.0000E+00  0.2000E+01
    -28.218  0.0000E+00  0.2000E+01
    -28.050  0.0000E+00  0.2000E+01
    -27.881  0.0000E+00  0.2000E+01
    -27.712  0.0000E+00  0.2000E+01
    -27.543  0.0000E+00  0.2000E+01
    -27.375  0.0000E+00  0.2000E+01
    -27.206  0.0000E+00  0.2000E+01
    -27.037  0.0000E+00  0.2000E+01
    -26.869  0.0000E+00  0.2000E+01
    -26.700  0.0000E+00  0.2000E+01
    -26.531  0.0000E+00  0.2000E+01
    -26.363  0.0000E+00  0.2000E+01
    -26.194  0.0000E+00  0.2000E+01
    -26.025  0.0000E+00  0.2000E+01
    -25.856  0.0000E+00  0.2000E+01
    -25.688  0.0000E+00  0.2000E+01
    -25.519  0.0000E+00  0.2000E+01
    -25.350  0.0000E+00  0.2000E+01
    -25.182  0.0000E+00  0.2000E+01
    -25.013  0.0000E+00  0.2000E+01
    -24.844  0.0000E+00  0.2000E+01
    -24.676  0.0000E+00  0.2000E+01
    -24.507  0.0000E+00  0.2000E+01
    -24.338  0.0000E+00  0.2000E+01
    -24.169  0.0000E+00  0.2000E+01
    -24.001  0.0000E+00  0.2000E+01
    -23.832  0.0000E+00  0.2000E+01
    -23.663  0.0000E+00  0.2000E+01
    -23.495  0.0000E+00  0.2000E+01
    -23.326  0.0000E+00  0.2000E+01
    -23.157  0.0000E+00  0.2000E+01
    -22.988  0.0000E+00  0.2000E+01
    -22.820  0.0000E+00  0.2000E+01
    -22.651  0.0000E+00  0.2000E+01
    -22.482  0.0000E+00  0.2000E+01
    -22.314  0.0000E+00  0.2000E+01
    -22.145  0.0000E+00  0.2000E+01
    -21.976  0.0000E+00  0.2000E+01
    -21.808  0.0000E+00  0.2000E+01
    -21.639  0.0000E+00  0.2000E+01
    -21.470  0.0000E+00  0.2000E+01
    -21.301  0.0000E+00  0.2000E+01
    -21.133  0.0000E+00  0.2000E+01
    -20.964  0.0000E+00  0.2000E+01
    -20.795  0.0000E+00  0.2000E+01
    -20.627  0.0000E+00  0.2000E+01
    -20.458  0.0000E+00  0.2000E+01
    -20.289  0.0000E+00  0.2000E+01
    -20.121  0.0000E+00  0.2000E+01
    -19.952  0.0000E+00  0.2000E+01
    -19.783  0.0000E+00  0.2000E+01
    -19.614  0.0000E+00  0.2000E+01
    -19.446  0.0000E+00  0.2000E+01
    -19.277  0.0000E+00  0.2000E+01
    -19.108  0.0000E+00  0.2000E+01
    -18.940  0.0000E+00  0.2000E+01
    -18.771  0.0000E+00  0.2000E+01
    -18.602  0.0000E+00  0.2000E+01
    -18.433  0.0000E+00  0.2000E+01
    -18.265  0.0000E+00  0.2000E+01
    -18.096  0.0000E+00  0.2000E+01
    -17.927  0.0000E+00  0.2000E+01
    -17.759  0.0000E+00  0.2000E+01
    -17.590  0.0000E+00  0.2000E+01
    -17.421  0.0000E+00  0.2000E+01
    -17.253  0.0000E+00  0.2000E+01
    -17.084  0.0000E+00  0.2000E+01
    -16.915  0.0000E+00  0.2000E+01
    -16.746  0.0000E+00  0.2000E+01
    -16.578  0.0000E+00  0.2000E+01
    -16.409  0.0000E+00  0.2000E+01
    -16.240  0.0000E+00  0.2000E+01
    -16.072  0.0000E+00  0.2000E+01
    -15.903  0.0000E+00  0.2000E+01
    -15.734  0.0000E+00  0.2000E+01
    -15.566  0.0000E+00  0.2000E+01
    -15.397  0.0000E+00  0.2000E+01
    -15.228  0.0000E+00  0.2000E+01
    -15.059  0.0000E+00  0.2000E+01
    -14.891  0.0000E+00  0.2000E+01
    -14.722  0.0000E+00  0.2000E+01
    -14.553  0.0000E+00  0.2000E+01
    -14.385  0.0000E+00  0.2000E+01
    -14.216  0.0000E+00  0.2000E+01
    -14.047  0.0000E+00  0.2000E+01
    -13.878  0.0000E+00  0.2000E+01
    -13.710  0.6560E-11  0.2000E+01
    -13.541  0.1697E-01  0.2003E+01
    -13.372  0.1755E+01  0.2299E+01
    -13.204  0.3593E+01  0.2905E+01
    -13.035  0.1994E+01  0.3241E+01
    -12.866  0.1922E+01  0.3566E+01
    -12.698  0.1087E+01  0.3749E+01
    -12.529  0.3165E+01  0.4283E+01
    -12.360  0.5700E+01  0.5245E+01
    -12.191  0.8974E+01  0.6759E+01
    -12.023  0.6103E+01  0.7788E+01
    -11.854  0.1251E+01  0.7999E+01
    -11.685  0.4560E-02  0.8000E+01
    -11.517  0.0000E+00  0.8000E+01
    -11.348  0.0000E+00  0.8000E+01
    -11.179  0.0000E+00  0.8000E+01
    -11.011  0.0000E+00  0.8000E+01
    -10.842  0.0000E+00  0.8000E+01
    -10.673  0.0000E+00  0.8000E+01
    -10.504  0.0000E+00  0.8000E+01
    -10.336  0.0000E+00  0.8000E+01
    -10.167  0.0000E+00  0.8000E+01
     -9.998  0.0000E+00  0.8000E+01
     -9.830  0.0000E+00  0.8000E+01
     -9.661  0.0000E+00  0.8000E+01
     -9.492  0.0000E+00  0.8000E+01
     -9.323  0.0000E+00  0.8000E+01
     -9.155  0.0000E+00  0.8000E+01
     -8.986  0.0000E+00  0.8000E+01
     -8.817  0.0000E+00  0.8000E+01
     -8.649  0.0000E+00  0.8000E+01
     -8.480  0.0000E+00  0.8000E+01
     -8.311  0.0000E+00  0.8000E+01
     -8.143  0.0000E+00  0.8000E+01
     -7.974  0.0000E+00  0.8000E+01
     -7.805  0.0000E+00  0.8000E+01
     -7.636  0.0000E+00  0.8000E+01
     -7.468  0.0000E+00  0.8000E+01
     -7.299  0.0000E+00  0.8000E+01
     -7.130  0.0000E+00  0.8000E+01
     -6.962  0.0000E+00  0.8000E+01
     -6.793  0.0000E+00  0.8000E+01
     -6.624  0.0000E+00  0.8000E+01
     -6.456  0.0000E+00  0.8000E+01
     -6.287  0.0000E+00  0.8000E+01
     -6.118  0.0000E+00  0.8000E+01
     -5.949  0.1002E-15  0.8000E+01
     -5.781  0.3373E-04  0.8000E+01
     -5.612  0.2344E-01  0.8004E+01
     -5.443  0.8966E-01  0.8019E+01
     -5.275  0.1092E+00  0.8038E+01
     -5.106  0.2903E+00  0.8086E+01
     -4.937  0.1458E+00  0.8111E+01
     -4.768  0.4267E+00  0.8183E+01
     -4.600  0.5234E+00  0.8271E+01
     -4.431  0.1338E+00  0.8294E+01
     -4.262  0.6566E+00  0.8405E+01
     -4.094  0.1021E+01  0.8577E+01
     -3.925  0.3946E+00  0.8643E+01
     -3.756  0.1077E+01  0.8825E+01
     -3.588  0.4994E+00  0.8909E+01
     -3.419  0.4507E-01  0.8917E+01
     -3.250  0.1409E+01  0.9155E+01
     -3.081  0.1365E+01  0.9385E+01
     -2.913  0.3735E+00  0.9448E+01
     -2.744  0.5947E+00  0.9548E+01
     -2.575  0.8524E+00  0.9692E+01
     -2.407  0.2767E+00  0.9739E+01
     -2.238  0.1001E+01  0.9908E+01
     -2.069  0.2399E+00  0.9948E+01
     -1.901  0.7546E-01  0.9961E+01
     -1.732  0.2133E+00  0.9997E+01
     -1.563  0.1686E+00  0.1003E+02
     -1.394  0.4808E+00  0.1011E+02
     -1.226  0.2448E+00  0.1015E+02
     -1.057  0.6302E+00  0.1025E+02
     -0.888  0.1504E+01  0.1051E+02
     -0.720  0.6502E+00  0.1062E+02
     -0.551  0.1439E+00  0.1064E+02
     -0.382  0.5192E+00  0.1073E+02
     -0.213  0.1087E+01  0.1091E+02
     -0.045  0.1516E+00  0.1094E+02
      0.124  0.2674E+00  0.1098E+02
      0.293  0.6316E+00  0.1109E+02
      0.461  0.9075E+00  0.1124E+02
      0.630  0.2706E+00  0.1129E+02
      0.799  0.4508E-01  0.1130E+02
      0.967  0.2608E+00  0.1134E+02
      1.136  0.5923E+00  0.1144E+02
      1.305  0.2406E+01  0.1185E+02
      1.474  0.9956E+00  0.1201E+02
      1.642  0.4694E+00  0.1209E+02
      1.811  0.6121E+00  0.1220E+02
      1.980  0.6548E+00  0.1231E+02
      2.148  0.1159E+01  0.1250E+02
      2.317  0.1339E+01  0.1273E+02
      2.486  0.2882E+01  0.1321E+02
      2.654  0.1942E+01  0.1354E+02
      2.823  0.1551E+01  0.1380E+02
      2.992  0.2027E+01  0.1415E+02
      3.161  0.2673E+01  0.1460E+02
      3.329  0.2138E+01  0.1496E+02
      3.498  0.8065E+00  0.1509E+02
      3.667  0.1104E+00  0.1511E+02
      3.835  0.1813E+01  0.1542E+02
      4.004  0.2297E+01  0.1581E+02
      4.173  0.5724E+00  0.1590E+02
      4.342  0.2367E+00  0.1594E+02
      4.510  0.2189E+01  0.1631E+02
      4.679  0.1652E+01  0.1659E+02
      4.848  0.1249E+01  0.1680E+02
      5.016  0.1356E+01  0.1703E+02
      5.185  0.5466E+00  0.1712E+02
      5.354  0.8377E+00  0.1726E+02
      5.522  0.1051E+01  0.1744E+02
      5.691  0.6100E+00  0.1754E+02
      5.860  0.1153E+01  0.1774E+02
      6.029  0.4556E+00  0.1781E+02
      6.197  0.1285E+00  0.1784E+02
      6.366  0.3761E+00  0.1790E+02
      6.535  0.3011E+00  0.1795E+02
      6.703  0.5486E+00  0.1804E+02
      6.872  0.5063E+00  0.1813E+02
      7.041  0.2368E+00  0.1817E+02
      7.210  0.8738E+00  0.1832E+02
      7.378  0.1080E+01  0.1850E+02
      7.547  0.1038E+01  0.1867E+02
      7.716  0.1569E+01  0.1894E+02
      7.884  0.1364E+01  0.1917E+02
      8.053  0.8254E+00  0.1931E+02
      8.222  0.5250E+00  0.1940E+02
      8.390  0.8405E+00  0.1954E+02
      8.559  0.1386E+01  0.1977E+02
      8.728  0.3133E+00  0.1982E+02
      8.897  0.9878E+00  0.1999E+02
      9.065  0.8275E+00  0.2013E+02
      9.234  0.1475E+01  0.2038E+02
      9.403  0.1442E+01  0.2062E+02
      9.571  0.2312E+01  0.2101E+02
      9.740  0.1263E+01  0.2123E+02
      9.909  0.1687E+01  0.2151E+02
     10.077  0.1551E+01  0.2177E+02
     10.246  0.1154E+01  0.2197E+02
     10.415  0.2358E+01  0.2236E+02
     10.584  0.3459E+01  0.2295E+02
     10.752  0.2060E+01  0.2330E+02
     10.921  0.3885E+01  0.2395E+02
     11.090  0.1977E+01  0.2428E+02
     11.258  0.2405E+01  0.2469E+02
     11.427  0.3223E+01  0.2523E+02
     11.596  0.1900E+01  0.2555E+02
     11.765  0.2484E+01  0.2597E+02
     11.933  0.3282E+01  0.2653E+02
     12.102  0.1209E+01  0.2673E+02
     12.271  0.1311E+01  0.2695E+02
     12.439  0.2199E+01  0.2732E+02
     12.608  0.1949E+01  0.2765E+02
     12.777  0.2925E+01  0.2815E+02
     12.945  0.1750E+01  0.2844E+02
     13.114  0.1874E+01  0.2876E+02
     13.283  0.2259E+01  0.2914E+02
     13.452  0.2272E+01  0.2952E+02
     13.620  0.2264E+01  0.2990E+02
     13.789  0.2432E+01  0.3031E+02
     13.958  0.1016E+01  0.3049E+02
     14.126  0.1421E+01  0.3072E+02
     14.295  0.6956E+00  0.3084E+02
     14.464  0.6422E+00  0.3095E+02
     14.632  0.1367E+01  0.3118E+02
     14.801  0.8403E+00  0.3132E+02
     14.970  0.1508E+01  0.3158E+02
     15.139  0.1011E+01  0.3175E+02
     15.307  0.6110E+00  0.3185E+02
     15.476  0.2710E+00  0.3190E+02
     15.645  0.6122E+00  0.3200E+02
     15.813  0.3948E-03  0.3200E+02
     15.982  0.0000E+00  0.3200E+02
     16.151  0.0000E+00  0.3200E+02
     16.320  0.0000E+00  0.3200E+02
     16.488  0.0000E+00  0.3200E+02
     16.657  0.0000E+00  0.3200E+02
     16.826  0.0000E+00  0.3200E+02
     16.994  0.0000E+00  0.3200E+02
     17.163  0.0000E+00  0.3200E+02
     17.332  0.0000E+00  0.3200E+02
     17.500  0.0000E+00  0.3200E+02
     17.669  0.0000E+00  0.3200E+02
     17.838  0.0000E+00  0.3200E+02
