       N       E                     dE             d eps       ncg     rms          rms(c)
DAV:   1     0.508702417545E+02    0.50870E+02   -0.83817E+03 15552   0.106E+03
DAV:   2    -0.132337790190E+02   -0.64104E+02   -0.59197E+02 21152   0.198E+02
DAV:   3    -0.155891108823E+02   -0.23553E+01   -0.23383E+01 23952   0.297E+01
DAV:   4    -0.156307221033E+02   -0.41611E-01   -0.41606E-01 18872   0.352E+00
DAV:   5    -0.156315125376E+02   -0.79043E-03   -0.79043E-03 23560   0.316E-01    0.204E+01
DAV:   6    -0.145789281293E+02    0.10526E+01   -0.79514E-01 19760   0.558E+00    0.158E+01
DAV:   7    -0.145418914145E+02    0.37037E-01   -0.49050E-01 21496   0.419E+00    0.694E+00
DAV:   8    -0.145348374042E+02    0.70540E-02   -0.23635E-01 19880   0.303E+00    0.282E+00
DAV:   9    -0.145065394854E+02    0.28298E-01   -0.56073E-02 20048   0.156E+00    0.130E+00
DAV:  10    -0.145043128954E+02    0.22266E-02   -0.33439E-03 18232   0.391E-01    0.772E-01
DAV:  11    -0.145039008758E+02    0.41202E-03   -0.39855E-04 21640   0.126E-01    0.127E-01
DAV:  12    -0.145037282839E+02    0.17259E-03   -0.16970E-04 20592   0.836E-02    0.172E-01
DAV:  13    -0.145037327236E+02   -0.44396E-05   -0.44657E-05 21232   0.397E-02    0.361E-01
DAV:  14    -0.145037243217E+02    0.84018E-05   -0.19311E-05 19152   0.282E-02    0.309E-02
DAV:  15    -0.145037235546E+02    0.76714E-06   -0.77810E-07 13432   0.631E-03
   1 F= -.14503724E+02 E0= -.14502458E+02  d E =-.253162E-02
