Ca2 N12                                 
   1.00000000000000     
     0.0000000000000000    5.5699969999999999    5.7668629999999999
     2.9929670000000002    0.0000000000000000    5.7668629999999999
     2.9929670000000002    5.5699969999999999    0.0000000000000000
   Ca   N 
     2    12
Direct
     0.3821510000000004    0.3647589999999994    0.3703319999999977
     0.6237819999999985    0.6180099999999982    0.6283469999999980
     0.7717710000000011    0.2221400000000031    0.3398120000000020
     0.1603300000000019    0.3433890000000019    0.2270019999999988
     0.2471719999999991    0.2531210000000002    0.0086629999999985
     0.9992850000000004    0.0046310000000034    0.2540630000000021
     0.7523190000000000    0.7418070000000014    0.0059669999999983
     0.0096410000000020    0.9923190000000019    0.7473790000000022
     0.7811549999999983    0.2120170000000030    0.8352980000000017
     0.6719340000000003    0.8348760000000013    0.2140339999999981
     0.8307270000000031    0.6619519999999994    0.7872270000000015
     0.2116680000000031    0.7873670000000033    0.6637160000000009
     0.2214389999999966    0.7713070000000002    0.1632329999999982
     0.3447590000000034    0.1589889999999983    0.7692369999999968
 
  0.00000000E+00  0.00000000E+00  0.00000000E+00
  0.00000000E+00  0.00000000E+00  0.00000000E+00
  0.00000000E+00  0.00000000E+00  0.00000000E+00
  0.00000000E+00  0.00000000E+00  0.00000000E+00
  0.00000000E+00  0.00000000E+00  0.00000000E+00
  0.00000000E+00  0.00000000E+00  0.00000000E+00
  0.00000000E+00  0.00000000E+00  0.00000000E+00
  0.00000000E+00  0.00000000E+00  0.00000000E+00
  0.00000000E+00  0.00000000E+00  0.00000000E+00
  0.00000000E+00  0.00000000E+00  0.00000000E+00
  0.00000000E+00  0.00000000E+00  0.00000000E+00
  0.00000000E+00  0.00000000E+00  0.00000000E+00
  0.00000000E+00  0.00000000E+00  0.00000000E+00
  0.00000000E+00  0.00000000E+00  0.00000000E+00
