       N       E                     dE             d eps       ncg     rms          rms(c)
DAV:   1     0.708476228054E+03    0.70848E+03   -0.43404E+04 12016   0.142E+03
DAV:   2    -0.477715901660E+02   -0.75625E+03   -0.71591E+03 14372   0.383E+02
DAV:   3    -0.110023278712E+03   -0.62252E+02   -0.61349E+02 16840   0.110E+02
DAV:   4    -0.112150178665E+03   -0.21269E+01   -0.21179E+01 18348   0.178E+01
DAV:   5    -0.112268705467E+03   -0.11853E+00   -0.11847E+00 18548   0.291E+00    0.204E+01
DAV:   6    -0.105679610697E+03    0.65891E+01   -0.17006E+01 14384   0.178E+01    0.104E+01
DAV:   7    -0.105098082682E+03    0.58153E+00   -0.26380E+00 15608   0.845E+00    0.624E+00
DAV:   8    -0.105011372836E+03    0.86710E-01   -0.66101E-01 13672   0.348E+00    0.226E+00
DAV:   9    -0.105010940203E+03    0.43263E-03   -0.69729E-02 15948   0.165E+00    0.804E-01
DAV:  10    -0.105012466759E+03   -0.15266E-02   -0.16621E-02 14332   0.757E-01    0.260E-01
DAV:  11    -0.105013743193E+03   -0.12764E-02   -0.38139E-03 14272   0.314E-01    0.116E-01
DAV:  12    -0.105014335390E+03   -0.59220E-03   -0.85429E-04 14632   0.141E-01    0.675E-02
DAV:  13    -0.105014587753E+03   -0.25236E-03   -0.27502E-04 14536   0.751E-02    0.208E-02
DAV:  14    -0.105014617072E+03   -0.29319E-04   -0.34739E-05 15224   0.294E-02    0.101E-02
DAV:  15    -0.105014624173E+03   -0.71006E-05   -0.10491E-05 14112   0.167E-02    0.481E-03
DAV:  16    -0.105014625593E+03   -0.14197E-05   -0.22763E-06 11800   0.705E-03    0.228E-03
DAV:  17    -0.105014625677E+03   -0.84289E-07   -0.33812E-07  7376   0.340E-03
   1 F= -.10501463E+03 E0= -.10501463E+03  d E =-.132041E-15
