Ca2 N12
1.0
   0.0000000000000000    5.5699969999999999    5.7668629999999999
   2.9929670000000002    0.0000000000000000    5.7668629999999999
   2.9929670000000002    5.5699969999999999    0.0000000000000000
Ca N
2 12
direct
   0.3821510000000000    0.3647590000000000    0.3703320000000000 Ca
   0.6237819999999999    0.6180099999999999    0.6283470000000000 Ca
   0.7717710000000000    0.2221400000000000    0.3398120000000000 N
   0.1603300000000000    0.3433890000000000    0.2270020000000000 N
   0.2471720000000000    0.2531210000000000    0.0086630000000000 N
   0.9992850000000000    0.0046310000000000    0.2540630000000000 N
   0.7523190000000000    0.7418070000000000    0.0059670000000000 N
   0.0096410000000000    0.9923190000000000    0.7473790000000000 N
   0.7811550000000000    0.2120170000000000    0.8352980000000000 N
   0.6719340000000000    0.8348760000000000    0.2140340000000000 N
   0.8307270000000000    0.6619520000000000    0.7872270000000000 N
   0.2116680000000000    0.7873670000000000    0.6637160000000000 N
   0.2214390000000000    0.7713070000000000    0.1632330000000000 N
   0.3447590000000000    0.1589890000000000    0.7692369999999999 N
