unknown system                          
           1
     0.000000    5.569997    5.766863
     2.992967    0.000000    5.766863
     2.992967    5.569997    0.000000
   Ca   N 
     2    12
Direct configuration=     1
   0.38215100  0.36475900  0.37033200
   0.62378200  0.61801000  0.62834700
   0.77177100  0.22214000  0.33981200
   0.16033000  0.34338900  0.22700200
   0.24717200  0.25312100  0.00866300
   0.99928500  0.00463100  0.25406300
   0.75231900  0.74180700  0.00596700
   0.00964100  0.99231900  0.74737900
   0.78115500  0.21201700  0.83529800
   0.67193400  0.83487600  0.21403400
   0.83072700  0.66195200  0.78722700
   0.21166800  0.78736700  0.66371600
   0.22143900  0.77130700  0.16323300
   0.34475900  0.15898900  0.76923700
