Cs1 H1                                  
   1.00000000000000     
     3.8184085400000001    0.0000000000000000    0.0000000000000000
     0.0000000000000000    3.8184085400000001    0.0000000000000000
     0.0000000000000000    0.0000000000000000    3.8184085400000001
   Cs   H 
     1     1
Direct
     0.0000000000000000    0.0000000000000000    0.0000000000000000
     0.5000000000000000    0.5000000000000000    0.5000000000000000
 
  0.00000000E+00  0.00000000E+00  0.00000000E+00
  0.00000000E+00  0.00000000E+00  0.00000000E+00
