Ti12 Ge4                                
   1.00000000000000     
    -5.0995985399999997    5.0996274899999996    2.5739132800000002
     5.0995985399999997   -5.0996274899999996    2.5739132800000002
     5.0996274899999996    5.0995985399999997   -2.5739132800000002
   Ti   Ge
    12     4
Direct
     0.3173323700000026    0.2944453200000012    0.1913928700000014
     0.1030524499999999    0.1259394900000004    0.8086071299999986
     0.8740605099999996    0.6826676299999974    0.9771129499999986
     0.7055546799999988    0.8969475500000001    0.0228870500000014
     0.0094568299999978    0.3369999399999983    0.3834126699999985
     0.9535872699999999    0.6260441599999993    0.6165873300000015
     0.3739558400000007    0.9905431700000022    0.3275421100000031
     0.6630000600000017    0.0464127300000001    0.6724578899999969
     0.9739100700000023    0.9413420599999966    0.4008595000000028
     0.5404835599999984    0.5730515799999978    0.5991404999999972
     0.4269484200000022    0.0260899299999977    0.9674319900000015
     0.0586579400000034    0.4595164400000016    0.0325680099999985
     0.5129369200000014    0.7679105699999980    0.3280427600000024
     0.4398678100000026    0.1848941699999997    0.6719572399999976
     0.8151058300000003    0.4870630799999986    0.2549736499999966
     0.2320894300000020    0.5601321899999974    0.7450263500000034
 
  0.00000000E+00  0.00000000E+00  0.00000000E+00
  0.00000000E+00  0.00000000E+00  0.00000000E+00
  0.00000000E+00  0.00000000E+00  0.00000000E+00
  0.00000000E+00  0.00000000E+00  0.00000000E+00
  0.00000000E+00  0.00000000E+00  0.00000000E+00
  0.00000000E+00  0.00000000E+00  0.00000000E+00
  0.00000000E+00  0.00000000E+00  0.00000000E+00
  0.00000000E+00  0.00000000E+00  0.00000000E+00
  0.00000000E+00  0.00000000E+00  0.00000000E+00
  0.00000000E+00  0.00000000E+00  0.00000000E+00
  0.00000000E+00  0.00000000E+00  0.00000000E+00
  0.00000000E+00  0.00000000E+00  0.00000000E+00
  0.00000000E+00  0.00000000E+00  0.00000000E+00
  0.00000000E+00  0.00000000E+00  0.00000000E+00
  0.00000000E+00  0.00000000E+00  0.00000000E+00
  0.00000000E+00  0.00000000E+00  0.00000000E+00
