Al3 Os2                                 
   1.00000000000000     
     3.0397162099999999   -0.0004670600000000   -0.6501861600000000
    -0.1395582700000000    3.0365111800000002   -0.6501861600000000
    -0.0054581300000000   -0.0057136200000000    7.4042382599999996
   Al   Os
     3     2
Direct
     0.0000000000000000    0.0000000000000000    0.0000000000000000
     0.1956998400000032    0.1956998400000032    0.3916541899999970
     0.8043001599999968    0.8043001599999968    0.6083468100000005
     0.3927591400000026    0.3927591400000026    0.7854020400000010
     0.6072408599999974    0.6072408599999974    0.2145969600000015
 
  0.00000000E+00  0.00000000E+00  0.00000000E+00
  0.00000000E+00  0.00000000E+00  0.00000000E+00
  0.00000000E+00  0.00000000E+00  0.00000000E+00
  0.00000000E+00  0.00000000E+00  0.00000000E+00
  0.00000000E+00  0.00000000E+00  0.00000000E+00
