Al3 Os2
1.0
   3.0397162099999999   -0.0004670600000000   -0.6501861600000000
  -0.1395582700000000    3.0365111800000002   -0.6501861600000000
  -0.0054581300000000   -0.0057136200000000    7.4042382599999996
Al Os
3 2
direct
   0.0000000000000000    0.0000000000000000    0.0000000000000000 Al
   0.1956998400000000    0.1956998400000000    0.3916541900000000 Al
   0.8043001600000000    0.8043001600000000    0.6083468100000000 Al
   0.3927591400000000    0.3927591400000000    0.7854020400000000 Os
   0.6072408600000000    0.6072408600000000    0.2145969600000000 Os
