Ta1 Re1                                 
   1.00000000000000     
    -1.5963327899999999   -1.6187907600000000    1.6187907600000000
    -1.5963327899999999    1.6187907600000000   -1.6187907600000000
     0.0000000000000000   -3.1424485700000000   -3.1424485700000000
   Ta   Re
     1     1
Direct
     0.5000000000000000    0.5000000000000000    0.5000000000000000
     0.0000000000000000    0.0000000000000000    0.0000000000000000
 
  0.00000000E+00  0.00000000E+00  0.00000000E+00
  0.00000000E+00  0.00000000E+00  0.00000000E+00
