   2   2   0   0
  0.2378089E+02  0.3623148E-09  0.3623148E-09  0.3623148E-09  0.5000000E-15
  1.000000000000000E-004
  CAR 
 unknown system                          
     19.21283202    -39.90065857  301      6.07102352      1.00000000
    -39.901  0.0000E+00  0.0000E+00
    -39.704  0.0000E+00  0.0000E+00
    -39.507  0.0000E+00  0.0000E+00
    -39.310  0.0000E+00  0.0000E+00
    -39.112  0.0000E+00  0.0000E+00
    -38.915  0.0000E+00  0.0000E+00
    -38.718  0.0000E+00  0.0000E+00
    -38.521  0.0000E+00  0.0000E+00
    -38.324  0.0000E+00  0.0000E+00
    -38.127  0.0000E+00  0.0000E+00
    -37.930  0.0000E+00  0.0000E+00
    -37.733  0.0000E+00  0.0000E+00
    -37.536  0.0000E+00  0.0000E+00
    -37.339  0.4829E-02  0.9516E-03
    -37.142  0.2970E+02  0.5853E+01
    -36.945  0.7460E+00  0.6000E+01
    -36.748  0.0000E+00  0.6000E+01
    -36.551  0.0000E+00  0.6000E+01
    -36.354  0.0000E+00  0.6000E+01
    -36.157  0.0000E+00  0.6000E+01
    -35.960  0.0000E+00  0.6000E+01
    -35.763  0.0000E+00  0.6000E+01
    -35.566  0.0000E+00  0.6000E+01
    -35.369  0.0000E+00  0.6000E+01
    -35.172  0.0000E+00  0.6000E+01
    -34.975  0.0000E+00  0.6000E+01
    -34.777  0.0000E+00  0.6000E+01
    -34.580  0.0000E+00  0.6000E+01
    -34.383  0.0000E+00  0.6000E+01
    -34.186  0.0000E+00  0.6000E+01
    -33.989  0.0000E+00  0.6000E+01
    -33.792  0.0000E+00  0.6000E+01
    -33.595  0.0000E+00  0.6000E+01
    -33.398  0.0000E+00  0.6000E+01
    -33.201  0.0000E+00  0.6000E+01
    -33.004  0.0000E+00  0.6000E+01
    -32.807  0.0000E+00  0.6000E+01
    -32.610  0.0000E+00  0.6000E+01
    -32.413  0.0000E+00  0.6000E+01
    -32.216  0.0000E+00  0.6000E+01
    -32.019  0.0000E+00  0.6000E+01
    -31.822  0.0000E+00  0.6000E+01
    -31.625  0.0000E+00  0.6000E+01
    -31.428  0.0000E+00  0.6000E+01
    -31.231  0.0000E+00  0.6000E+01
    -31.034  0.0000E+00  0.6000E+01
    -30.837  0.0000E+00  0.6000E+01
    -30.640  0.0000E+00  0.6000E+01
    -30.443  0.0000E+00  0.6000E+01
    -30.245  0.0000E+00  0.6000E+01
    -30.048  0.0000E+00  0.6000E+01
    -29.851  0.0000E+00  0.6000E+01
    -29.654  0.0000E+00  0.6000E+01
    -29.457  0.0000E+00  0.6000E+01
    -29.260  0.0000E+00  0.6000E+01
    -29.063  0.0000E+00  0.6000E+01
    -28.866  0.0000E+00  0.6000E+01
    -28.669  0.0000E+00  0.6000E+01
    -28.472  0.0000E+00  0.6000E+01
    -28.275  0.0000E+00  0.6000E+01
    -28.078  0.0000E+00  0.6000E+01
    -27.881  0.0000E+00  0.6000E+01
    -27.684  0.0000E+00  0.6000E+01
    -27.487  0.0000E+00  0.6000E+01
    -27.290  0.0000E+00  0.6000E+01
    -27.093  0.0000E+00  0.6000E+01
    -26.896  0.0000E+00  0.6000E+01
    -26.699  0.0000E+00  0.6000E+01
    -26.502  0.0000E+00  0.6000E+01
    -26.305  0.0000E+00  0.6000E+01
    -26.108  0.0000E+00  0.6000E+01
    -25.910  0.0000E+00  0.6000E+01
    -25.713  0.0000E+00  0.6000E+01
    -25.516  0.0000E+00  0.6000E+01
    -25.319  0.0000E+00  0.6000E+01
    -25.122  0.0000E+00  0.6000E+01
    -24.925  0.0000E+00  0.6000E+01
    -24.728  0.0000E+00  0.6000E+01
    -24.531  0.0000E+00  0.6000E+01
    -24.334  0.0000E+00  0.6000E+01
    -24.137  0.0000E+00  0.6000E+01
    -23.940  0.0000E+00  0.6000E+01
    -23.743  0.0000E+00  0.6000E+01
    -23.546  0.0000E+00  0.6000E+01
    -23.349  0.0000E+00  0.6000E+01
    -23.152  0.0000E+00  0.6000E+01
    -22.955  0.0000E+00  0.6000E+01
    -22.758  0.0000E+00  0.6000E+01
    -22.561  0.0000E+00  0.6000E+01
    -22.364  0.0000E+00  0.6000E+01
    -22.167  0.0000E+00  0.6000E+01
    -21.970  0.0000E+00  0.6000E+01
    -21.773  0.0000E+00  0.6000E+01
    -21.575  0.0000E+00  0.6000E+01
    -21.378  0.0000E+00  0.6000E+01
    -21.181  0.0000E+00  0.6000E+01
    -20.984  0.0000E+00  0.6000E+01
    -20.787  0.0000E+00  0.6000E+01
    -20.590  0.0000E+00  0.6000E+01
    -20.393  0.0000E+00  0.6000E+01
    -20.196  0.0000E+00  0.6000E+01
    -19.999  0.0000E+00  0.6000E+01
    -19.802  0.0000E+00  0.6000E+01
    -19.605  0.0000E+00  0.6000E+01
    -19.408  0.0000E+00  0.6000E+01
    -19.211  0.0000E+00  0.6000E+01
    -19.014  0.0000E+00  0.6000E+01
    -18.817  0.0000E+00  0.6000E+01
    -18.620  0.0000E+00  0.6000E+01
    -18.423  0.0000E+00  0.6000E+01
    -18.226  0.0000E+00  0.6000E+01
    -18.029  0.0000E+00  0.6000E+01
    -17.832  0.0000E+00  0.6000E+01
    -17.635  0.0000E+00  0.6000E+01
    -17.438  0.0000E+00  0.6000E+01
    -17.240  0.0000E+00  0.6000E+01
    -17.043  0.0000E+00  0.6000E+01
    -16.846  0.0000E+00  0.6000E+01
    -16.649  0.0000E+00  0.6000E+01
    -16.452  0.0000E+00  0.6000E+01
    -16.255  0.0000E+00  0.6000E+01
    -16.058  0.0000E+00  0.6000E+01
    -15.861  0.0000E+00  0.6000E+01
    -15.664  0.8038E-14  0.6000E+01
    -15.467  0.9065E-01  0.6018E+01
    -15.270  0.4851E+02  0.1558E+02
    -15.073  0.2152E+01  0.1600E+02
    -14.876  0.0000E+00  0.1600E+02
    -14.679  0.0000E+00  0.1600E+02
    -14.482  0.0000E+00  0.1600E+02
    -14.285  0.0000E+00  0.1600E+02
    -14.088  0.0000E+00  0.1600E+02
    -13.891  0.0000E+00  0.1600E+02
    -13.694  0.0000E+00  0.1600E+02
    -13.497  0.0000E+00  0.1600E+02
    -13.300  0.0000E+00  0.1600E+02
    -13.103  0.0000E+00  0.1600E+02
    -12.905  0.0000E+00  0.1600E+02
    -12.708  0.0000E+00  0.1600E+02
    -12.511  0.0000E+00  0.1600E+02
    -12.314  0.0000E+00  0.1600E+02
    -12.117  0.0000E+00  0.1600E+02
    -11.920  0.0000E+00  0.1600E+02
    -11.723  0.0000E+00  0.1600E+02
    -11.526  0.0000E+00  0.1600E+02
    -11.329  0.0000E+00  0.1600E+02
    -11.132  0.0000E+00  0.1600E+02
    -10.935  0.0000E+00  0.1600E+02
    -10.738  0.0000E+00  0.1600E+02
    -10.541  0.0000E+00  0.1600E+02
    -10.344  0.0000E+00  0.1600E+02
    -10.147  0.0000E+00  0.1600E+02
     -9.950  0.0000E+00  0.1600E+02
     -9.753  0.0000E+00  0.1600E+02
     -9.556  0.0000E+00  0.1600E+02
     -9.359  0.0000E+00  0.1600E+02
     -9.162  0.0000E+00  0.1600E+02
     -8.965  0.0000E+00  0.1600E+02
     -8.768  0.0000E+00  0.1600E+02
     -8.571  0.0000E+00  0.1600E+02
     -8.373  0.0000E+00  0.1600E+02
     -8.176  0.0000E+00  0.1600E+02
     -7.979  0.0000E+00  0.1600E+02
     -7.782  0.0000E+00  0.1600E+02
     -7.585  0.0000E+00  0.1600E+02
     -7.388  0.0000E+00  0.1600E+02
     -7.191  0.0000E+00  0.1600E+02
     -6.994  0.0000E+00  0.1600E+02
     -6.797  0.0000E+00  0.1600E+02
     -6.600  0.0000E+00  0.1600E+02
     -6.403  0.0000E+00  0.1600E+02
     -6.206  0.0000E+00  0.1600E+02
     -6.009  0.0000E+00  0.1600E+02
     -5.812  0.0000E+00  0.1600E+02
     -5.615  0.0000E+00  0.1600E+02
     -5.418  0.0000E+00  0.1600E+02
     -5.221  0.0000E+00  0.1600E+02
     -5.024  0.0000E+00  0.1600E+02
     -4.827  0.0000E+00  0.1600E+02
     -4.630  0.0000E+00  0.1600E+02
     -4.433  0.0000E+00  0.1600E+02
     -4.236  0.1761E-16  0.1600E+02
     -4.038  0.6476E-03  0.1600E+02
     -3.841  0.1577E+00  0.1603E+02
     -3.644  0.6566E-01  0.1604E+02
     -3.447  0.4104E+00  0.1612E+02
     -3.250  0.3308E+00  0.1619E+02
     -3.053  0.1476E+00  0.1622E+02
     -2.856  0.6287E+00  0.1634E+02
     -2.659  0.1971E+00  0.1638E+02
     -2.462  0.7575E+00  0.1653E+02
     -2.265  0.4343E+00  0.1662E+02
     -2.068  0.5309E+00  0.1672E+02
     -1.871  0.1161E+01  0.1695E+02
     -1.674  0.4748E+00  0.1704E+02
     -1.477  0.7274E+00  0.1719E+02
     -1.280  0.4876E+00  0.1728E+02
     -1.083  0.4934E+00  0.1738E+02
     -0.886  0.1060E+01  0.1759E+02
     -0.689  0.2419E-01  0.1759E+02
     -0.492  0.4732E+00  0.1769E+02
     -0.295  0.5221E+00  0.1779E+02
     -0.098  0.4312E+00  0.1787E+02
      0.099  0.7448E-06  0.1788E+02
      0.297  0.3173E-01  0.1788E+02
      0.494  0.4440E+00  0.1797E+02
      0.691  0.4222E-03  0.1797E+02
      0.888  0.4719E+00  0.1806E+02
      1.085  0.1647E+00  0.1809E+02
      1.282  0.9487E+00  0.1828E+02
      1.479  0.9083E-01  0.1830E+02
      1.676  0.3852E+00  0.1838E+02
      1.873  0.8627E+00  0.1854E+02
      2.070  0.9028E-01  0.1856E+02
      2.267  0.1122E+01  0.1878E+02
      2.464  0.3047E+00  0.1884E+02
      2.661  0.1610E+01  0.1916E+02
      2.858  0.6788E+00  0.1929E+02
      3.055  0.1501E+01  0.1959E+02
      3.252  0.4842E+00  0.1969E+02
      3.449  0.4715E+00  0.1978E+02
      3.646  0.1302E+01  0.2004E+02
      3.843  0.6124E+00  0.2016E+02
      4.040  0.4196E+00  0.2024E+02
      4.237  0.6972E+00  0.2038E+02
      4.434  0.2093E+01  0.2079E+02
      4.632  0.5817E+00  0.2090E+02
      4.829  0.3915E+00  0.2098E+02
      5.026  0.7213E+00  0.2112E+02
      5.223  0.7837E+00  0.2128E+02
      5.420  0.1307E+01  0.2153E+02
      5.617  0.5715E+00  0.2165E+02
      5.814  0.1130E+01  0.2187E+02
      6.011  0.3595E+00  0.2194E+02
      6.208  0.9370E+00  0.2213E+02
      6.405  0.1322E+01  0.2239E+02
      6.602  0.6294E+00  0.2251E+02
      6.799  0.5005E+00  0.2261E+02
      6.996  0.1395E+01  0.2288E+02
      7.193  0.2190E+01  0.2331E+02
      7.390  0.1082E+01  0.2353E+02
      7.587  0.4798E+00  0.2362E+02
      7.784  0.9835E+00  0.2382E+02
      7.981  0.1697E+01  0.2415E+02
      8.178  0.3054E+00  0.2421E+02
      8.375  0.1131E+01  0.2443E+02
      8.572  0.6273E+00  0.2456E+02
      8.769  0.2392E+01  0.2503E+02
      8.966  0.9684E+00  0.2522E+02
      9.164  0.6448E+00  0.2535E+02
      9.361  0.1748E+01  0.2569E+02
      9.558  0.1398E+00  0.2572E+02
      9.755  0.9927E-01  0.2574E+02
      9.952  0.1113E+01  0.2596E+02
     10.149  0.8530E+00  0.2613E+02
     10.346  0.9497E+00  0.2631E+02
     10.543  0.9543E+00  0.2650E+02
     10.740  0.2177E+01  0.2693E+02
     10.937  0.6090E+00  0.2705E+02
     11.134  0.1781E+01  0.2740E+02
     11.331  0.9472E+00  0.2759E+02
     11.528  0.1533E+01  0.2789E+02
     11.725  0.8778E+00  0.2806E+02
     11.922  0.3057E+00  0.2812E+02
     12.119  0.3007E+01  0.2872E+02
     12.316  0.6049E+00  0.2883E+02
     12.513  0.7952E+00  0.2899E+02
     12.710  0.1456E+01  0.2928E+02
     12.907  0.5155E+00  0.2938E+02
     13.104  0.2784E+01  0.2993E+02
     13.301  0.1447E+01  0.3021E+02
     13.499  0.1889E+00  0.3025E+02
     13.696  0.1421E+01  0.3053E+02
     13.893  0.2062E+01  0.3094E+02
     14.090  0.6253E+00  0.3106E+02
     14.287  0.1840E+01  0.3142E+02
     14.484  0.1144E+01  0.3165E+02
     14.681  0.7295E+00  0.3179E+02
     14.878  0.4218E+00  0.3188E+02
     15.075  0.4533E+00  0.3196E+02
     15.272  0.2243E-01  0.3197E+02
     15.469  0.0000E+00  0.3197E+02
     15.666  0.0000E+00  0.3197E+02
     15.863  0.0000E+00  0.3197E+02
     16.060  0.0000E+00  0.3197E+02
     16.257  0.2390E-14  0.3197E+02
     16.454  0.3404E-02  0.3197E+02
     16.651  0.1552E+00  0.3200E+02
     16.848  0.3068E-04  0.3200E+02
     17.045  0.0000E+00  0.3200E+02
     17.242  0.0000E+00  0.3200E+02
     17.439  0.0000E+00  0.3200E+02
     17.636  0.0000E+00  0.3200E+02
     17.834  0.0000E+00  0.3200E+02
     18.031  0.0000E+00  0.3200E+02
     18.228  0.0000E+00  0.3200E+02
     18.425  0.0000E+00  0.3200E+02
     18.622  0.0000E+00  0.3200E+02
     18.819  0.0000E+00  0.3200E+02
     19.016  0.0000E+00  0.3200E+02
     19.213  0.0000E+00  0.3200E+02
