       N       E                     dE             d eps       ncg     rms          rms(c)
DAV:   1     0.174173812607E+03    0.17417E+03   -0.14899E+04 16600   0.208E+03
DAV:   2     0.360683608305E+01   -0.17057E+03   -0.16881E+03 17200   0.452E+02
DAV:   3    -0.543113557739E+01   -0.90380E+01   -0.90177E+01 20496   0.107E+02
DAV:   4    -0.561676802109E+01   -0.18563E+00   -0.18560E+00 18592   0.165E+01
DAV:   5    -0.562250993033E+01   -0.57419E-02   -0.57418E-02 22192   0.280E+00    0.187E+00
DAV:   6    -0.557106153491E+01    0.51448E-01   -0.39055E-02 19840   0.185E+00    0.108E+00
DAV:   7    -0.554648087979E+01    0.24581E-01   -0.62639E-02 19944   0.210E+00    0.151E-01
DAV:   8    -0.554633931382E+01    0.14157E-03   -0.25171E-03 17880   0.655E-01    0.429E-02
DAV:   9    -0.554631167747E+01    0.27636E-04   -0.11783E-04 20968   0.163E-01    0.995E-03
DAV:  10    -0.554630945798E+01    0.22195E-05   -0.83631E-06 18080   0.287E-02    0.341E-03
DAV:  11    -0.554630991249E+01   -0.45451E-06   -0.50618E-07 10904   0.106E-02
   1 F= -.55463099E+01 E0= -.55451047E+01  d E =-.241035E-02
