C6 N8                                   
   1.00000000000000     
     2.3921820000000000   -4.1433809999999998    0.0000000000000000
     2.3921820000000000    4.1433809999999998    0.0000000000000000
     0.0000000000000000    0.0000000000000000    7.0774939999999997
   C    N 
     6     8
Direct
     0.4900459999999995    0.9800929999999966    0.5000000000000000
     0.4900459999999995    0.5099540000000005    0.5000000000000000
     0.8236539999999977    0.1763460000000023    0.0000000000000000
     0.8236539999999977    0.6473089999999999    0.0000000000000000
     0.0199070000000034    0.5099540000000005    0.5000000000000000
     0.3526910000000001    0.1763460000000023    0.0000000000000000
     0.5034250000000000    0.4965750000000000    0.0000000000000000
     0.1702099999999973    0.3404200000000017    0.5000000000000000
     0.1702099999999973    0.8297900000000027    0.5000000000000000
     0.0000000000000000    0.0000000000000000    0.0000000000000000
     0.6666669999999968    0.3333330000000032    0.5000000000000000
     0.9931500000000000    0.4965750000000000    0.0000000000000000
     0.6595799999999983    0.8297900000000027    0.5000000000000000
     0.5034250000000000    0.0068500000000000    0.0000000000000000
 
  0.00000000E+00  0.00000000E+00  0.00000000E+00
  0.00000000E+00  0.00000000E+00  0.00000000E+00
  0.00000000E+00  0.00000000E+00  0.00000000E+00
  0.00000000E+00  0.00000000E+00  0.00000000E+00
  0.00000000E+00  0.00000000E+00  0.00000000E+00
  0.00000000E+00  0.00000000E+00  0.00000000E+00
  0.00000000E+00  0.00000000E+00  0.00000000E+00
  0.00000000E+00  0.00000000E+00  0.00000000E+00
  0.00000000E+00  0.00000000E+00  0.00000000E+00
  0.00000000E+00  0.00000000E+00  0.00000000E+00
  0.00000000E+00  0.00000000E+00  0.00000000E+00
  0.00000000E+00  0.00000000E+00  0.00000000E+00
  0.00000000E+00  0.00000000E+00  0.00000000E+00
  0.00000000E+00  0.00000000E+00  0.00000000E+00
