C6N8
1.0
      2.3921820      -4.1433810       0.0000000
      2.3921820       4.1433810       0.0000000
      0.0000000       0.0000000       7.0774940
  C     N   
  6     8   
Direct
      0.4900460       0.9800930       0.5000000
      0.4900460       0.5099540       0.5000000
      0.8236540       0.1763460       0.0000000
      0.8236540       0.6473090       0.0000000
      0.0199070       0.5099540       0.5000000
      0.3526910       0.1763460       0.0000000
      0.5034250       0.4965750       0.0000000
      0.1702100       0.3404200       0.5000000
      0.1702100       0.8297900       0.5000000
      0.0000000       0.0000000       0.0000000
      0.6666670       0.3333330       0.5000000
      0.9931500       0.4965750       0.0000000
      0.6595800       0.8297900       0.5000000
      0.5034250       0.0068500       0.0000000
