   2   2   0   0
  0.2274023E+02  0.4006637E-09  0.4006637E-09  0.4006636E-09  0.5000000E-15
  1.000000000000000E-004
  CAR 
 unknown system                          
      9.61444429    -41.97609286  301      1.20948595      1.00000000
    -41.976  0.0000E+00  0.0000E+00
    -41.804  0.0000E+00  0.0000E+00
    -41.632  0.0000E+00  0.0000E+00
    -41.460  0.0000E+00  0.0000E+00
    -41.288  0.0000E+00  0.0000E+00
    -41.116  0.0000E+00  0.0000E+00
    -40.944  0.0000E+00  0.0000E+00
    -40.772  0.0000E+00  0.0000E+00
    -40.600  0.0000E+00  0.0000E+00
    -40.428  0.0000E+00  0.0000E+00
    -40.256  0.0000E+00  0.0000E+00
    -40.084  0.0000E+00  0.0000E+00
    -39.912  0.2136E-13  0.3673E-14
    -39.741  0.2951E-01  0.5075E-02
    -39.569  0.3338E+02  0.5745E+01
    -39.397  0.1480E+01  0.6000E+01
    -39.225  0.0000E+00  0.6000E+01
    -39.053  0.0000E+00  0.6000E+01
    -38.881  0.0000E+00  0.6000E+01
    -38.709  0.0000E+00  0.6000E+01
    -38.537  0.0000E+00  0.6000E+01
    -38.365  0.0000E+00  0.6000E+01
    -38.193  0.0000E+00  0.6000E+01
    -38.021  0.0000E+00  0.6000E+01
    -37.849  0.0000E+00  0.6000E+01
    -37.677  0.0000E+00  0.6000E+01
    -37.505  0.0000E+00  0.6000E+01
    -37.333  0.0000E+00  0.6000E+01
    -37.161  0.0000E+00  0.6000E+01
    -36.989  0.0000E+00  0.6000E+01
    -36.817  0.0000E+00  0.6000E+01
    -36.645  0.0000E+00  0.6000E+01
    -36.473  0.0000E+00  0.6000E+01
    -36.301  0.0000E+00  0.6000E+01
    -36.129  0.0000E+00  0.6000E+01
    -35.957  0.0000E+00  0.6000E+01
    -35.785  0.0000E+00  0.6000E+01
    -35.613  0.0000E+00  0.6000E+01
    -35.441  0.0000E+00  0.6000E+01
    -35.269  0.0000E+00  0.6000E+01
    -35.097  0.0000E+00  0.6000E+01
    -34.925  0.0000E+00  0.6000E+01
    -34.753  0.0000E+00  0.6000E+01
    -34.581  0.0000E+00  0.6000E+01
    -34.409  0.0000E+00  0.6000E+01
    -34.238  0.0000E+00  0.6000E+01
    -34.066  0.0000E+00  0.6000E+01
    -33.894  0.0000E+00  0.6000E+01
    -33.722  0.0000E+00  0.6000E+01
    -33.550  0.0000E+00  0.6000E+01
    -33.378  0.0000E+00  0.6000E+01
    -33.206  0.0000E+00  0.6000E+01
    -33.034  0.0000E+00  0.6000E+01
    -32.862  0.0000E+00  0.6000E+01
    -32.690  0.0000E+00  0.6000E+01
    -32.518  0.0000E+00  0.6000E+01
    -32.346  0.0000E+00  0.6000E+01
    -32.174  0.0000E+00  0.6000E+01
    -32.002  0.0000E+00  0.6000E+01
    -31.830  0.0000E+00  0.6000E+01
    -31.658  0.0000E+00  0.6000E+01
    -31.486  0.0000E+00  0.6000E+01
    -31.314  0.0000E+00  0.6000E+01
    -31.142  0.0000E+00  0.6000E+01
    -30.970  0.0000E+00  0.6000E+01
    -30.798  0.0000E+00  0.6000E+01
    -30.626  0.0000E+00  0.6000E+01
    -30.454  0.0000E+00  0.6000E+01
    -30.282  0.0000E+00  0.6000E+01
    -30.110  0.0000E+00  0.6000E+01
    -29.938  0.0000E+00  0.6000E+01
    -29.766  0.0000E+00  0.6000E+01
    -29.594  0.0000E+00  0.6000E+01
    -29.422  0.0000E+00  0.6000E+01
    -29.250  0.0000E+00  0.6000E+01
    -29.078  0.0000E+00  0.6000E+01
    -28.906  0.0000E+00  0.6000E+01
    -28.735  0.0000E+00  0.6000E+01
    -28.563  0.0000E+00  0.6000E+01
    -28.391  0.0000E+00  0.6000E+01
    -28.219  0.0000E+00  0.6000E+01
    -28.047  0.0000E+00  0.6000E+01
    -27.875  0.0000E+00  0.6000E+01
    -27.703  0.0000E+00  0.6000E+01
    -27.531  0.0000E+00  0.6000E+01
    -27.359  0.0000E+00  0.6000E+01
    -27.187  0.0000E+00  0.6000E+01
    -27.015  0.0000E+00  0.6000E+01
    -26.843  0.0000E+00  0.6000E+01
    -26.671  0.0000E+00  0.6000E+01
    -26.499  0.0000E+00  0.6000E+01
    -26.327  0.0000E+00  0.6000E+01
    -26.155  0.0000E+00  0.6000E+01
    -25.983  0.0000E+00  0.6000E+01
    -25.811  0.0000E+00  0.6000E+01
    -25.639  0.0000E+00  0.6000E+01
    -25.467  0.0000E+00  0.6000E+01
    -25.295  0.0000E+00  0.6000E+01
    -25.123  0.0000E+00  0.6000E+01
    -24.951  0.0000E+00  0.6000E+01
    -24.779  0.0000E+00  0.6000E+01
    -24.607  0.0000E+00  0.6000E+01
    -24.435  0.0000E+00  0.6000E+01
    -24.263  0.0000E+00  0.6000E+01
    -24.091  0.0000E+00  0.6000E+01
    -23.919  0.0000E+00  0.6000E+01
    -23.747  0.0000E+00  0.6000E+01
    -23.575  0.0000E+00  0.6000E+01
    -23.403  0.0000E+00  0.6000E+01
    -23.232  0.0000E+00  0.6000E+01
    -23.060  0.0000E+00  0.6000E+01
    -22.888  0.0000E+00  0.6000E+01
    -22.716  0.0000E+00  0.6000E+01
    -22.544  0.0000E+00  0.6000E+01
    -22.372  0.0000E+00  0.6000E+01
    -22.200  0.0000E+00  0.6000E+01
    -22.028  0.0000E+00  0.6000E+01
    -21.856  0.0000E+00  0.6000E+01
    -21.684  0.0000E+00  0.6000E+01
    -21.512  0.0000E+00  0.6000E+01
    -21.340  0.0000E+00  0.6000E+01
    -21.168  0.0000E+00  0.6000E+01
    -20.996  0.0000E+00  0.6000E+01
    -20.824  0.0000E+00  0.6000E+01
    -20.652  0.0000E+00  0.6000E+01
    -20.480  0.0000E+00  0.6000E+01
    -20.308  0.0000E+00  0.6000E+01
    -20.136  0.0000E+00  0.6000E+01
    -19.964  0.0000E+00  0.6000E+01
    -19.792  0.0000E+00  0.6000E+01
    -19.620  0.0000E+00  0.6000E+01
    -19.448  0.0000E+00  0.6000E+01
    -19.276  0.0000E+00  0.6000E+01
    -19.104  0.0000E+00  0.6000E+01
    -18.932  0.0000E+00  0.6000E+01
    -18.760  0.0000E+00  0.6000E+01
    -18.588  0.0000E+00  0.6000E+01
    -18.416  0.0000E+00  0.6000E+01
    -18.244  0.0000E+00  0.6000E+01
    -18.072  0.0000E+00  0.6000E+01
    -17.901  0.0000E+00  0.6000E+01
    -17.729  0.0000E+00  0.6000E+01
    -17.557  0.0000E+00  0.6000E+01
    -17.385  0.0000E+00  0.6000E+01
    -17.213  0.0000E+00  0.6000E+01
    -17.041  0.0000E+00  0.6000E+01
    -16.869  0.0000E+00  0.6000E+01
    -16.697  0.0000E+00  0.6000E+01
    -16.525  0.0000E+00  0.6000E+01
    -16.353  0.0000E+00  0.6000E+01
    -16.181  0.0000E+00  0.6000E+01
    -16.009  0.0000E+00  0.6000E+01
    -15.837  0.0000E+00  0.6000E+01
    -15.665  0.0000E+00  0.6000E+01
    -15.493  0.0000E+00  0.6000E+01
    -15.321  0.0000E+00  0.6000E+01
    -15.149  0.0000E+00  0.6000E+01
    -14.977  0.0000E+00  0.6000E+01
    -14.805  0.0000E+00  0.6000E+01
    -14.633  0.0000E+00  0.6000E+01
    -14.461  0.0000E+00  0.6000E+01
    -14.289  0.0000E+00  0.6000E+01
    -14.117  0.0000E+00  0.6000E+01
    -13.945  0.0000E+00  0.6000E+01
    -13.773  0.0000E+00  0.6000E+01
    -13.601  0.0000E+00  0.6000E+01
    -13.429  0.0000E+00  0.6000E+01
    -13.257  0.0000E+00  0.6000E+01
    -13.085  0.0000E+00  0.6000E+01
    -12.913  0.0000E+00  0.6000E+01
    -12.741  0.0000E+00  0.6000E+01
    -12.569  0.0000E+00  0.6000E+01
    -12.398  0.0000E+00  0.6000E+01
    -12.226  0.0000E+00  0.6000E+01
    -12.054  0.0000E+00  0.6000E+01
    -11.882  0.0000E+00  0.6000E+01
    -11.710  0.0000E+00  0.6000E+01
    -11.538  0.0000E+00  0.6000E+01
    -11.366  0.0000E+00  0.6000E+01
    -11.194  0.0000E+00  0.6000E+01
    -11.022  0.0000E+00  0.6000E+01
    -10.850  0.0000E+00  0.6000E+01
    -10.678  0.0000E+00  0.6000E+01
    -10.506  0.1095E-05  0.6000E+01
    -10.334  0.3200E-01  0.6006E+01
    -10.162  0.3992E+00  0.6074E+01
     -9.990  0.9194E+00  0.6232E+01
     -9.818  0.1561E+01  0.6501E+01
     -9.646  0.2982E+01  0.7013E+01
     -9.474  0.4814E+01  0.7841E+01
     -9.302  0.9224E+00  0.8000E+01
     -9.130  0.2188E-05  0.8000E+01
     -8.958  0.0000E+00  0.8000E+01
     -8.786  0.0000E+00  0.8000E+01
     -8.614  0.0000E+00  0.8000E+01
     -8.442  0.0000E+00  0.8000E+01
     -8.270  0.0000E+00  0.8000E+01
     -8.098  0.0000E+00  0.8000E+01
     -7.926  0.0000E+00  0.8000E+01
     -7.754  0.0000E+00  0.8000E+01
     -7.582  0.0000E+00  0.8000E+01
     -7.410  0.0000E+00  0.8000E+01
     -7.238  0.0000E+00  0.8000E+01
     -7.066  0.0000E+00  0.8000E+01
     -6.895  0.0000E+00  0.8000E+01
     -6.723  0.0000E+00  0.8000E+01
     -6.551  0.0000E+00  0.8000E+01
     -6.379  0.0000E+00  0.8000E+01
     -6.207  0.0000E+00  0.8000E+01
     -6.035  0.0000E+00  0.8000E+01
     -5.863  0.0000E+00  0.8000E+01
     -5.691  0.0000E+00  0.8000E+01
     -5.519  0.0000E+00  0.8000E+01
     -5.347  0.0000E+00  0.8000E+01
     -5.175  0.0000E+00  0.8000E+01
     -5.003  0.0000E+00  0.8000E+01
     -4.831  0.0000E+00  0.8000E+01
     -4.659  0.0000E+00  0.8000E+01
     -4.487  0.0000E+00  0.8000E+01
     -4.315  0.0000E+00  0.8000E+01
     -4.143  0.0000E+00  0.8000E+01
     -3.971  0.0000E+00  0.8000E+01
     -3.799  0.0000E+00  0.8000E+01
     -3.627  0.0000E+00  0.8000E+01
     -3.455  0.0000E+00  0.8000E+01
     -3.283  0.0000E+00  0.8000E+01
     -3.111  0.0000E+00  0.8000E+01
     -2.939  0.0000E+00  0.8000E+01
     -2.767  0.0000E+00  0.8000E+01
     -2.595  0.0000E+00  0.8000E+01
     -2.423  0.4900E-09  0.8000E+01
     -2.251  0.1786E-01  0.8003E+01
     -2.079  0.2608E+00  0.8048E+01
     -1.907  0.9922E+00  0.8219E+01
     -1.735  0.1818E+01  0.8531E+01
     -1.564  0.3821E+01  0.9188E+01
     -1.392  0.1791E+01  0.9496E+01
     -1.220  0.9135E+00  0.9653E+01
     -1.048  0.5417E+00  0.9747E+01
     -0.876  0.1077E+01  0.9932E+01
     -0.704  0.1635E+01  0.1021E+02
     -0.532  0.7783E+00  0.1035E+02
     -0.360  0.2291E+01  0.1074E+02
     -0.188  0.2176E+01  0.1111E+02
     -0.016  0.2021E+01  0.1146E+02
      0.156  0.3293E+01  0.1203E+02
      0.328  0.3511E+01  0.1263E+02
      0.500  0.3109E+01  0.1317E+02
      0.672  0.3046E+01  0.1369E+02
      0.844  0.1439E+01  0.1394E+02
      1.016  0.3572E+00  0.1400E+02
      1.188  0.1709E-04  0.1400E+02
      1.360  0.0000E+00  0.1400E+02
      1.532  0.0000E+00  0.1400E+02
      1.704  0.0000E+00  0.1400E+02
      1.876  0.0000E+00  0.1400E+02
      2.048  0.0000E+00  0.1400E+02
      2.220  0.0000E+00  0.1400E+02
      2.392  0.0000E+00  0.1400E+02
      2.564  0.0000E+00  0.1400E+02
      2.736  0.0000E+00  0.1400E+02
      2.908  0.0000E+00  0.1400E+02
      3.080  0.0000E+00  0.1400E+02
      3.252  0.0000E+00  0.1400E+02
      3.424  0.0000E+00  0.1400E+02
      3.596  0.0000E+00  0.1400E+02
      3.768  0.0000E+00  0.1400E+02
      3.939  0.0000E+00  0.1400E+02
      4.111  0.1270E-11  0.1400E+02
      4.283  0.1280E-02  0.1400E+02
      4.455  0.2142E-01  0.1400E+02
      4.627  0.1243E-04  0.1400E+02
      4.799  0.4840E-01  0.1401E+02
      4.971  0.6009E-01  0.1402E+02
      5.143  0.1573E+00  0.1405E+02
      5.315  0.7990E+00  0.1419E+02
      5.487  0.2298E+00  0.1423E+02
      5.659  0.5320E-01  0.1424E+02
      5.831  0.6296E+00  0.1434E+02
      6.003  0.1321E+01  0.1457E+02
      6.175  0.1740E+01  0.1487E+02
      6.347  0.7272E+00  0.1500E+02
      6.519  0.1671E+01  0.1528E+02
      6.691  0.2145E+01  0.1565E+02
      6.863  0.5353E+00  0.1574E+02
      7.035  0.1214E+01  0.1595E+02
      7.207  0.1524E-01  0.1595E+02
      7.379  0.2618E+00  0.1600E+02
      7.551  0.2678E-03  0.1600E+02
      7.723  0.0000E+00  0.1600E+02
      7.895  0.0000E+00  0.1600E+02
      8.067  0.0000E+00  0.1600E+02
      8.239  0.0000E+00  0.1600E+02
      8.411  0.0000E+00  0.1600E+02
      8.583  0.0000E+00  0.1600E+02
      8.755  0.0000E+00  0.1600E+02
      8.927  0.0000E+00  0.1600E+02
      9.099  0.0000E+00  0.1600E+02
      9.271  0.0000E+00  0.1600E+02
      9.442  0.0000E+00  0.1600E+02
      9.614  0.0000E+00  0.1600E+02
