       N       E                     dE             d eps       ncg     rms          rms(c)
DAV:   1     0.595096255512E+03    0.59510E+03   -0.35123E+04  5760   0.127E+03
DAV:   2     0.225049509090E+02   -0.57259E+03   -0.54438E+03  7744   0.230E+02
DAV:   3    -0.429657735272E+02   -0.65471E+02   -0.64357E+02  6864   0.845E+01
DAV:   4    -0.442008853022E+02   -0.12351E+01   -0.12298E+01  6888   0.132E+01
DAV:   5    -0.442231180638E+02   -0.22233E-01   -0.22204E-01  7024   0.162E+00    0.304E+01
DAV:   6    -0.425800792218E+02    0.16430E+01   -0.20339E+01  7336   0.178E+01    0.215E+01
DAV:   7    -0.391309674310E+02    0.34491E+01   -0.28476E+01  7940   0.248E+01    0.142E+01
DAV:   8    -0.364578492645E+02    0.26731E+01   -0.25638E+00  6892   0.669E+00    0.390E+00
DAV:   9    -0.362463605128E+02    0.21149E+00   -0.63877E-01  7300   0.287E+00    0.182E+00
DAV:  10    -0.362380972009E+02    0.82633E-02   -0.68840E-02  6604   0.899E-01    0.104E+00
DAV:  11    -0.362487509241E+02   -0.10654E-01   -0.11074E-01  7508   0.643E-01    0.117E+00
DAV:  12    -0.362362049509E+02    0.12546E-01   -0.15142E-01  8252   0.679E-01    0.531E-01
DAV:  13    -0.362338101182E+02    0.23948E-02   -0.16547E-02  7312   0.276E-01    0.183E-01
DAV:  14    -0.362336924226E+02    0.11770E-03   -0.87301E-04  6336   0.116E-01    0.126E-01
DAV:  15    -0.362336983614E+02   -0.59387E-05   -0.29655E-04  7332   0.590E-02    0.660E-02
DAV:  16    -0.362337379949E+02   -0.39633E-04   -0.85681E-05  6216   0.357E-02    0.201E-02
DAV:  17    -0.362337481979E+02   -0.10203E-04   -0.18913E-05  6696   0.175E-02    0.120E-02
DAV:  18    -0.362337495035E+02   -0.13056E-05   -0.30381E-06  4232   0.737E-03    0.682E-03
DAV:  19    -0.362337507926E+02   -0.12892E-05   -0.13227E-06  4160   0.534E-03    0.336E-03
DAV:  20    -0.362337509859E+02   -0.19325E-06   -0.46489E-07  4048   0.329E-03
   1 F= -.36233751E+02 E0= -.36221193E+02  d E =-.251161E-01
