W2Br10
1.0
      6.8941310       0.0000000       0.0000000
     -3.2844750       6.6753900       0.0000000
     -0.1475800      -3.8459630       9.2126400
  W     Br  
  2     10  
Direct
      0.8982700       0.5029700       0.7856660
      0.1017300       0.4970300       0.2143340
      0.2312760       0.7193020       0.9584300
      0.7687240       0.2806980       0.0415700
      0.5730980       0.2709030       0.6662250
      0.4269020       0.7290970       0.3337750
      0.0632990       0.7386090       0.5744410
      0.9367010       0.2613910       0.4255590
      0.1134330       0.2811230       0.8506680
      0.8865670       0.7188770       0.1493320
      0.7055200       0.7292510       0.7577510
      0.2944800       0.2707490       0.2422490
