V1 Ni2                                  
   1.00000000000000     
     2.3979553199999999    0.0000693800000000   -0.7283790900000000
    -0.4315289000000000    3.1983594300000000   -1.4210734800000000
     0.0112581100000000   -0.0095055300000000    4.3487798299999998
   V    Ni
     1     2
Direct
     0.0000000000000000    0.0000000000000000    0.0000000000000000
     0.6680886799999968    0.6680434499999990    0.3361756299999996
     0.3319113200000032    0.3319565500000010    0.6638243700000004
 
  0.00000000E+00  0.00000000E+00  0.00000000E+00
  0.00000000E+00  0.00000000E+00  0.00000000E+00
  0.00000000E+00  0.00000000E+00  0.00000000E+00
