   3   3   0   0
  0.1111468E+02  0.2506138E-09  0.3526354E-09  0.4348805E-09  0.5000000E-15
  1.000000000000000E-004
  CAR 
 unknown system                          
     24.42045573    -59.80291065  301      7.85328733      1.00000000
    -59.803  0.0000E+00  0.0000E+00
    -59.522  0.0000E+00  0.0000E+00
    -59.241  0.0000E+00  0.0000E+00
    -58.961  0.0000E+00  0.0000E+00
    -58.680  0.0000E+00  0.0000E+00
    -58.399  0.0000E+00  0.0000E+00
    -58.118  0.0000E+00  0.0000E+00
    -57.838  0.0000E+00  0.0000E+00
    -57.557  0.0000E+00  0.0000E+00
    -57.276  0.0000E+00  0.0000E+00
    -56.995  0.0000E+00  0.0000E+00
    -56.715  0.0000E+00  0.0000E+00
    -56.434  0.0000E+00  0.0000E+00
    -56.153  0.1388E-06  0.3898E-07
    -55.872  0.1948E+02  0.5469E+01
    -55.592  0.2326E+02  0.1200E+02
    -55.311  0.0000E+00  0.1200E+02
    -55.030  0.0000E+00  0.1200E+02
    -54.750  0.0000E+00  0.1200E+02
    -54.469  0.0000E+00  0.1200E+02
    -54.188  0.0000E+00  0.1200E+02
    -53.907  0.0000E+00  0.1200E+02
    -53.627  0.0000E+00  0.1200E+02
    -53.346  0.0000E+00  0.1200E+02
    -53.065  0.0000E+00  0.1200E+02
    -52.784  0.0000E+00  0.1200E+02
    -52.504  0.0000E+00  0.1200E+02
    -52.223  0.0000E+00  0.1200E+02
    -51.942  0.0000E+00  0.1200E+02
    -51.661  0.0000E+00  0.1200E+02
    -51.381  0.0000E+00  0.1200E+02
    -51.100  0.0000E+00  0.1200E+02
    -50.819  0.0000E+00  0.1200E+02
    -50.538  0.0000E+00  0.1200E+02
    -50.258  0.0000E+00  0.1200E+02
    -49.977  0.0000E+00  0.1200E+02
    -49.696  0.0000E+00  0.1200E+02
    -49.415  0.0000E+00  0.1200E+02
    -49.135  0.0000E+00  0.1200E+02
    -48.854  0.0000E+00  0.1200E+02
    -48.573  0.0000E+00  0.1200E+02
    -48.292  0.0000E+00  0.1200E+02
    -48.012  0.0000E+00  0.1200E+02
    -47.731  0.0000E+00  0.1200E+02
    -47.450  0.0000E+00  0.1200E+02
    -47.169  0.0000E+00  0.1200E+02
    -46.889  0.0000E+00  0.1200E+02
    -46.608  0.0000E+00  0.1200E+02
    -46.327  0.0000E+00  0.1200E+02
    -46.046  0.0000E+00  0.1200E+02
    -45.766  0.0000E+00  0.1200E+02
    -45.485  0.0000E+00  0.1200E+02
    -45.204  0.0000E+00  0.1200E+02
    -44.923  0.0000E+00  0.1200E+02
    -44.643  0.0000E+00  0.1200E+02
    -44.362  0.0000E+00  0.1200E+02
    -44.081  0.0000E+00  0.1200E+02
    -43.800  0.0000E+00  0.1200E+02
    -43.520  0.0000E+00  0.1200E+02
    -43.239  0.0000E+00  0.1200E+02
    -42.958  0.0000E+00  0.1200E+02
    -42.677  0.0000E+00  0.1200E+02
    -42.397  0.0000E+00  0.1200E+02
    -42.116  0.0000E+00  0.1200E+02
    -41.835  0.0000E+00  0.1200E+02
    -41.555  0.0000E+00  0.1200E+02
    -41.274  0.0000E+00  0.1200E+02
    -40.993  0.0000E+00  0.1200E+02
    -40.712  0.0000E+00  0.1200E+02
    -40.432  0.0000E+00  0.1200E+02
    -40.151  0.0000E+00  0.1200E+02
    -39.870  0.0000E+00  0.1200E+02
    -39.589  0.0000E+00  0.1200E+02
    -39.309  0.0000E+00  0.1200E+02
    -39.028  0.0000E+00  0.1200E+02
    -38.747  0.0000E+00  0.1200E+02
    -38.466  0.0000E+00  0.1200E+02
    -38.186  0.0000E+00  0.1200E+02
    -37.905  0.0000E+00  0.1200E+02
    -37.624  0.0000E+00  0.1200E+02
    -37.343  0.0000E+00  0.1200E+02
    -37.063  0.0000E+00  0.1200E+02
    -36.782  0.0000E+00  0.1200E+02
    -36.501  0.0000E+00  0.1200E+02
    -36.220  0.0000E+00  0.1200E+02
    -35.940  0.0000E+00  0.1200E+02
    -35.659  0.0000E+00  0.1200E+02
    -35.378  0.0000E+00  0.1200E+02
    -35.097  0.0000E+00  0.1200E+02
    -34.817  0.0000E+00  0.1200E+02
    -34.536  0.0000E+00  0.1200E+02
    -34.255  0.0000E+00  0.1200E+02
    -33.974  0.0000E+00  0.1200E+02
    -33.694  0.0000E+00  0.1200E+02
    -33.413  0.0000E+00  0.1200E+02
    -33.132  0.0000E+00  0.1200E+02
    -32.851  0.0000E+00  0.1200E+02
    -32.571  0.0000E+00  0.1200E+02
    -32.290  0.0000E+00  0.1200E+02
    -32.009  0.0000E+00  0.1200E+02
    -31.728  0.0000E+00  0.1200E+02
    -31.448  0.0000E+00  0.1200E+02
    -31.167  0.0000E+00  0.1200E+02
    -30.886  0.2219E-15  0.1200E+02
    -30.605  0.3299E+00  0.1209E+02
    -30.325  0.4335E+01  0.1331E+02
    -30.044  0.1384E+02  0.1720E+02
    -29.763  0.2691E+01  0.1795E+02
    -29.482  0.1751E+00  0.1800E+02
    -29.202  0.0000E+00  0.1800E+02
    -28.921  0.0000E+00  0.1800E+02
    -28.640  0.0000E+00  0.1800E+02
    -28.360  0.0000E+00  0.1800E+02
    -28.079  0.0000E+00  0.1800E+02
    -27.798  0.0000E+00  0.1800E+02
    -27.517  0.0000E+00  0.1800E+02
    -27.237  0.0000E+00  0.1800E+02
    -26.956  0.0000E+00  0.1800E+02
    -26.675  0.0000E+00  0.1800E+02
    -26.394  0.0000E+00  0.1800E+02
    -26.114  0.0000E+00  0.1800E+02
    -25.833  0.0000E+00  0.1800E+02
    -25.552  0.0000E+00  0.1800E+02
    -25.271  0.0000E+00  0.1800E+02
    -24.991  0.0000E+00  0.1800E+02
    -24.710  0.0000E+00  0.1800E+02
    -24.429  0.0000E+00  0.1800E+02
    -24.148  0.0000E+00  0.1800E+02
    -23.868  0.0000E+00  0.1800E+02
    -23.587  0.0000E+00  0.1800E+02
    -23.306  0.0000E+00  0.1800E+02
    -23.025  0.0000E+00  0.1800E+02
    -22.745  0.0000E+00  0.1800E+02
    -22.464  0.0000E+00  0.1800E+02
    -22.183  0.0000E+00  0.1800E+02
    -21.902  0.0000E+00  0.1800E+02
    -21.622  0.0000E+00  0.1800E+02
    -21.341  0.0000E+00  0.1800E+02
    -21.060  0.0000E+00  0.1800E+02
    -20.779  0.0000E+00  0.1800E+02
    -20.499  0.0000E+00  0.1800E+02
    -20.218  0.0000E+00  0.1800E+02
    -19.937  0.0000E+00  0.1800E+02
    -19.656  0.0000E+00  0.1800E+02
    -19.376  0.0000E+00  0.1800E+02
    -19.095  0.0000E+00  0.1800E+02
    -18.814  0.0000E+00  0.1800E+02
    -18.533  0.0000E+00  0.1800E+02
    -18.253  0.0000E+00  0.1800E+02
    -17.972  0.0000E+00  0.1800E+02
    -17.691  0.0000E+00  0.1800E+02
    -17.410  0.0000E+00  0.1800E+02
    -17.130  0.0000E+00  0.1800E+02
    -16.849  0.0000E+00  0.1800E+02
    -16.568  0.0000E+00  0.1800E+02
    -16.288  0.0000E+00  0.1800E+02
    -16.007  0.0000E+00  0.1800E+02
    -15.726  0.0000E+00  0.1800E+02
    -15.445  0.0000E+00  0.1800E+02
    -15.165  0.0000E+00  0.1800E+02
    -14.884  0.0000E+00  0.1800E+02
    -14.603  0.0000E+00  0.1800E+02
    -14.322  0.0000E+00  0.1800E+02
    -14.042  0.0000E+00  0.1800E+02
    -13.761  0.0000E+00  0.1800E+02
    -13.480  0.0000E+00  0.1800E+02
    -13.199  0.0000E+00  0.1800E+02
    -12.919  0.0000E+00  0.1800E+02
    -12.638  0.0000E+00  0.1800E+02
    -12.357  0.0000E+00  0.1800E+02
    -12.076  0.0000E+00  0.1800E+02
    -11.796  0.0000E+00  0.1800E+02
    -11.515  0.0000E+00  0.1800E+02
    -11.234  0.0000E+00  0.1800E+02
    -10.953  0.0000E+00  0.1800E+02
    -10.673  0.0000E+00  0.1800E+02
    -10.392  0.0000E+00  0.1800E+02
    -10.111  0.0000E+00  0.1800E+02
     -9.830  0.0000E+00  0.1800E+02
     -9.550  0.0000E+00  0.1800E+02
     -9.269  0.0000E+00  0.1800E+02
     -8.988  0.0000E+00  0.1800E+02
     -8.707  0.0000E+00  0.1800E+02
     -8.427  0.0000E+00  0.1800E+02
     -8.146  0.0000E+00  0.1800E+02
     -7.865  0.0000E+00  0.1800E+02
     -7.584  0.0000E+00  0.1800E+02
     -7.304  0.0000E+00  0.1800E+02
     -7.023  0.0000E+00  0.1800E+02
     -6.742  0.0000E+00  0.1800E+02
     -6.461  0.0000E+00  0.1800E+02
     -6.181  0.0000E+00  0.1800E+02
     -5.900  0.0000E+00  0.1800E+02
     -5.619  0.0000E+00  0.1800E+02
     -5.338  0.0000E+00  0.1800E+02
     -5.058  0.0000E+00  0.1800E+02
     -4.777  0.0000E+00  0.1800E+02
     -4.496  0.0000E+00  0.1800E+02
     -4.215  0.0000E+00  0.1800E+02
     -3.935  0.0000E+00  0.1800E+02
     -3.654  0.0000E+00  0.1800E+02
     -3.373  0.0000E+00  0.1800E+02
     -3.093  0.0000E+00  0.1800E+02
     -2.812  0.0000E+00  0.1800E+02
     -2.531  0.0000E+00  0.1800E+02
     -2.250  0.0000E+00  0.1800E+02
     -1.970  0.0000E+00  0.1800E+02
     -1.689  0.0000E+00  0.1800E+02
     -1.408  0.0000E+00  0.1800E+02
     -1.127  0.0000E+00  0.1800E+02
     -0.847  0.8004E-03  0.1800E+02
     -0.566  0.3917E-01  0.1801E+02
     -0.285  0.1289E+00  0.1805E+02
     -0.004  0.1494E+00  0.1809E+02
      0.276  0.2259E+00  0.1815E+02
      0.557  0.2339E+00  0.1822E+02
      0.838  0.2527E+00  0.1829E+02
      1.119  0.3711E+00  0.1839E+02
      1.399  0.3666E+00  0.1850E+02
      1.680  0.4337E+00  0.1862E+02
      1.961  0.4093E+00  0.1873E+02
      2.242  0.6177E+00  0.1891E+02
      2.522  0.6702E+00  0.1909E+02
      2.803  0.7181E+00  0.1930E+02
      3.084  0.1137E+01  0.1962E+02
      3.365  0.1808E+01  0.2012E+02
      3.645  0.2642E+01  0.2086E+02
      3.926  0.2997E+01  0.2171E+02
      4.207  0.4358E+01  0.2293E+02
      4.488  0.5549E+01  0.2449E+02
      4.768  0.5149E+01  0.2593E+02
      5.049  0.4705E+01  0.2725E+02
      5.330  0.4540E+01  0.2853E+02
      5.611  0.5965E+01  0.3020E+02
      5.891  0.7587E+01  0.3233E+02
      6.172  0.6742E+01  0.3423E+02
      6.453  0.6373E+01  0.3601E+02
      6.734  0.5813E+01  0.3765E+02
      7.014  0.7676E+01  0.3980E+02
      7.295  0.5535E+01  0.4136E+02
      7.576  0.3080E+01  0.4222E+02
      7.857  0.2814E+01  0.4301E+02
      8.137  0.2333E+01  0.4367E+02
      8.418  0.2090E+01  0.4425E+02
      8.699  0.2236E+01  0.4488E+02
      8.980  0.2854E+01  0.4568E+02
      9.260  0.5453E+01  0.4721E+02
      9.541  0.4358E+01  0.4844E+02
      9.822  0.2763E+01  0.4921E+02
     10.102  0.2722E+01  0.4998E+02
     10.383  0.2093E+01  0.5056E+02
     10.664  0.1089E+01  0.5087E+02
     10.945  0.1049E+01  0.5116E+02
     11.225  0.9034E+00  0.5142E+02
     11.506  0.8398E+00  0.5165E+02
     11.787  0.6782E+00  0.5184E+02
     12.068  0.7535E+00  0.5205E+02
     12.348  0.1019E+01  0.5234E+02
     12.629  0.8362E+00  0.5258E+02
     12.910  0.8854E+00  0.5282E+02
     13.191  0.5994E+00  0.5299E+02
     13.471  0.5611E+00  0.5315E+02
     13.752  0.5889E+00  0.5332E+02
     14.033  0.6228E+00  0.5349E+02
     14.314  0.4094E+00  0.5361E+02
     14.594  0.4383E+00  0.5373E+02
     14.875  0.4763E+00  0.5386E+02
     15.156  0.2653E+00  0.5394E+02
     15.437  0.2775E+00  0.5401E+02
     15.717  0.1063E+01  0.5431E+02
     15.998  0.1199E+01  0.5465E+02
     16.279  0.6429E+00  0.5483E+02
     16.560  0.6629E+00  0.5502E+02
     16.840  0.5299E+00  0.5516E+02
     17.121  0.5323E+00  0.5531E+02
     17.402  0.3664E+00  0.5542E+02
     17.683  0.4001E+00  0.5553E+02
     17.963  0.1501E+00  0.5557E+02
     18.244  0.1352E+00  0.5561E+02
     18.525  0.3404E+00  0.5571E+02
     18.806  0.3906E+00  0.5581E+02
     19.086  0.2648E+00  0.5589E+02
     19.367  0.1196E+00  0.5592E+02
     19.648  0.4220E-01  0.5593E+02
     19.929  0.1839E+00  0.5599E+02
     20.209  0.2829E-01  0.5599E+02
     20.490  0.4116E-04  0.5599E+02
     20.771  0.2116E-01  0.5600E+02
     21.052  0.0000E+00  0.5600E+02
     21.332  0.0000E+00  0.5600E+02
     21.613  0.0000E+00  0.5600E+02
     21.894  0.0000E+00  0.5600E+02
     22.174  0.0000E+00  0.5600E+02
     22.455  0.0000E+00  0.5600E+02
     22.736  0.0000E+00  0.5600E+02
     23.017  0.0000E+00  0.5600E+02
     23.297  0.0000E+00  0.5600E+02
     23.578  0.0000E+00  0.5600E+02
     23.859  0.0000E+00  0.5600E+02
     24.140  0.0000E+00  0.5600E+02
     24.420  0.0000E+00  0.5600E+02
