Zr1 Hg3                                 
   1.00000000000000     
     4.4177408900000001    0.0000000000000000    0.0000000000000000
     0.0000000000000000    4.4177408900000001    0.0000000000000000
     0.0000000000000000    0.0000000000000000    4.4177408900000001
   Zr   Hg
     1     3
Direct
     0.0000000000000000    0.0000000000000000    0.0000000000000000
     0.5000000000000000    0.5000000000000000    0.0000000000000000
     0.5000000000000000    0.0000000000000000    0.5000000000000000
     0.0000000000000000    0.5000000000000000    0.5000000000000000
 
  0.00000000E+00  0.00000000E+00  0.00000000E+00
  0.00000000E+00  0.00000000E+00  0.00000000E+00
  0.00000000E+00  0.00000000E+00  0.00000000E+00
  0.00000000E+00  0.00000000E+00  0.00000000E+00
