H8O4
1.0
      2.1606057      -3.5649009       0.0000000
      2.1606057       3.5649009       0.0000000
      0.0000000       0.0000000       6.5792499
  H     O   
  8     4   
Direct
      0.8419357       0.1580643       0.2500000
      0.1580643       0.8419357       0.7500000
      0.0079687       0.0079687       0.5000000
      0.9920313       0.9920313       0.0000000
      0.4156299       0.9636685       0.5181580
      0.0363315       0.5843701       0.9818420
      0.5843701       0.0363315       0.0181580
      0.9636685       0.4156299       0.4818420
      0.8458803       0.1609632       0.4333182
      0.8390368       0.1541197       0.0666818
      0.1541197       0.8390368       0.9333182
      0.1609632       0.8458803       0.5666818
