unknown system                          
           1
     2.160606   -3.564901    0.000000
     2.160606    3.564901    0.000000
     0.000000    0.000000    6.579250
   H    O 
     8     4
Direct configuration=     1
   0.84193569  0.15806431  0.25000000
   0.15806431  0.84193569  0.75000000
   0.00796867  0.00796867  0.50000000
   0.99203133  0.99203133  0.00000000
   0.41562985  0.96366848  0.51815803
   0.03633152  0.58437015  0.98184197
   0.58437015  0.03633152  0.01815803
   0.96366848  0.41562985  0.48184197
   0.84588030  0.16096324  0.43331818
   0.83903676  0.15411970  0.06668182
   0.15411970  0.83903676  0.93331818
   0.16096324  0.84588030  0.56668182
