       N       E                     dE             d eps       ncg     rms          rms(c)
DAV:   1     0.429021197293E+04    0.42902E+04   -0.73735E+04 16592   0.279E+03
DAV:   2     0.826537129296E+03   -0.34637E+04   -0.31282E+04 14856   0.898E+02
DAV:   3     0.230871488382E+02   -0.80345E+03   -0.75249E+03 14216   0.365E+02
DAV:   4    -0.108713503831E+03   -0.13180E+03   -0.12363E+03 19552   0.140E+02
DAV:   5    -0.116593785838E+03   -0.78803E+01   -0.77156E+01 22424   0.370E+01    0.232E+01
DAV:   6    -0.103420322824E+03    0.13173E+02   -0.17388E+01 21168   0.399E+01    0.626E+00
DAV:   7    -0.103212558799E+03    0.20776E+00   -0.76816E+00 19640   0.119E+01    0.310E+00
DAV:   8    -0.103120611097E+03    0.91948E-01   -0.62491E-01 18696   0.460E+00    0.189E+00
DAV:   9    -0.103085622967E+03    0.34988E-01   -0.16117E-01 19752   0.230E+00    0.490E-01
DAV:  10    -0.103082749143E+03    0.28738E-02   -0.19347E-02 19824   0.949E-01    0.227E-01
DAV:  11    -0.103082380534E+03    0.36861E-03   -0.31126E-03 18760   0.367E-01    0.126E-01
DAV:  12    -0.103082545003E+03   -0.16447E-03   -0.59822E-04 20136   0.152E-01    0.663E-02
DAV:  13    -0.103082509740E+03    0.35263E-04   -0.17589E-04 19736   0.970E-02    0.308E-02
DAV:  14    -0.103082485819E+03    0.23921E-04   -0.95431E-05 18560   0.577E-02    0.160E-02
DAV:  15    -0.103082484231E+03    0.15879E-05   -0.12259E-05 18248   0.211E-02    0.973E-03
DAV:  16    -0.103082482524E+03    0.17071E-05   -0.37269E-06 16160   0.169E-02    0.272E-03
DAV:  17    -0.103082483572E+03   -0.10476E-05   -0.60551E-07  8416   0.555E-03    0.152E-03
DAV:  18    -0.103082483909E+03   -0.33733E-06   -0.22249E-07  8128   0.371E-03
   1 F= -.10308248E+03 E0= -.10307712E+03  d E =-.107292E-01
