Nb2 Rh4                                 
   1.00000000000000     
     2.8533400000000002    0.0000000000000000    0.0000000000000000
     0.0000000000000000    4.8289350000000004    0.0000000000000000
     0.0000000000000000    1.7891410000000001    6.7547910000000000
   Nb   Rh
     2     4
Direct
     0.5000000000000000    0.2690890000000010    0.6536339999999967
     0.5000000000000000    0.5182929999999999    0.0145189999999999
     0.0000000000000000    0.7602800000000016    0.6697389999999999
     0.0000000000000000    0.2124290000000002    0.3325600000000009
     0.0000000000000000    0.0145729999999986    0.9937299999999993
     0.5000000000000000    0.7253359999999986    0.3358180000000033
 
  0.00000000E+00  0.00000000E+00  0.00000000E+00
  0.00000000E+00  0.00000000E+00  0.00000000E+00
  0.00000000E+00  0.00000000E+00  0.00000000E+00
  0.00000000E+00  0.00000000E+00  0.00000000E+00
  0.00000000E+00  0.00000000E+00  0.00000000E+00
  0.00000000E+00  0.00000000E+00  0.00000000E+00
