       N       E                     dE             d eps       ncg     rms          rms(c)
DAV:   1     0.122550864538E+04    0.12255E+04   -0.47135E+04 26888   0.185E+03
DAV:   2     0.212324961194E+02   -0.12043E+04   -0.11618E+04 26880   0.650E+02
DAV:   3    -0.514607193966E+02   -0.72693E+02   -0.64524E+02 35952   0.167E+02
DAV:   4    -0.545197406939E+02   -0.30590E+01   -0.30312E+01 38576   0.373E+01
DAV:   5    -0.545854969630E+02   -0.65756E-01   -0.65748E-01 36280   0.524E+00    0.305E+01
DAV:   6    -0.523659336171E+02    0.22196E+01   -0.87327E+00 31912   0.196E+01    0.137E+01
DAV:   7    -0.558150133587E+02   -0.34491E+01   -0.15016E+01 39504   0.288E+01    0.180E+01
DAV:   8    -0.515319269759E+02    0.42831E+01   -0.12969E+01 37672   0.175E+01    0.305E+00
DAV:   9    -0.514679225542E+02    0.64004E-01   -0.56497E-01 33136   0.589E+00    0.206E+00
DAV:  10    -0.514370871618E+02    0.30835E-01   -0.90953E-02 34272   0.269E+00    0.973E-01
DAV:  11    -0.514354646656E+02    0.16225E-02   -0.24453E-02 38832   0.148E+00    0.721E-01
DAV:  12    -0.514306650982E+02    0.47996E-02   -0.10876E-02 39456   0.105E+00    0.205E-01
DAV:  13    -0.514306940350E+02   -0.28937E-04   -0.14684E-03 37816   0.331E-01    0.118E-01
DAV:  14    -0.514306432842E+02    0.50751E-04   -0.48243E-04 39264   0.240E-01    0.782E-02
DAV:  15    -0.514306222543E+02    0.21030E-04   -0.22367E-04 33368   0.165E-01    0.408E-02
DAV:  16    -0.514306043435E+02    0.17911E-04   -0.82773E-05 39704   0.106E-01    0.150E-02
DAV:  17    -0.514306043778E+02   -0.34246E-07   -0.95698E-06 33056   0.273E-02
   1 F= -.51430604E+02 E0= -.51427208E+02  d E =-.679291E-02
