Ba1 F3                                  
   1.00000000000000     
    -2.1223920999999999    2.1223920999999999    3.4192529299999999
     2.1223920999999999   -2.1223920999999999    3.4192529299999999
     2.1223920999999999    2.1223920999999999   -3.4192529299999999
   Ba   F 
     1     3
Direct
     0.0000000000000000    0.0000000000000000    0.0000000000000000
     0.7500000000000000    0.2500000000000000    0.5000000000000000
     0.2500000000000000    0.7500000000000000    0.5000000000000000
     0.5000000000000000    0.5000000000000000    0.0000000000000000
 
  0.00000000E+00  0.00000000E+00  0.00000000E+00
  0.00000000E+00  0.00000000E+00  0.00000000E+00
  0.00000000E+00  0.00000000E+00  0.00000000E+00
  0.00000000E+00  0.00000000E+00  0.00000000E+00
