   4   4   0   0
  0.1540219E+02  0.4549768E-09  0.4549768E-09  0.4549768E-09  0.5000000E-15
  1.000000000000000E-004
  CAR 
 unknown system                          
     11.86669605    -26.54157112  301     -1.78978961      1.00000000
    -26.542  0.0000E+00  0.0000E+00
    -26.414  0.0000E+00  0.0000E+00
    -26.286  0.0000E+00  0.0000E+00
    -26.157  0.0000E+00  0.0000E+00
    -26.029  0.0000E+00  0.0000E+00
    -25.901  0.0000E+00  0.0000E+00
    -25.773  0.0000E+00  0.0000E+00
    -25.645  0.0000E+00  0.0000E+00
    -25.517  0.0000E+00  0.0000E+00
    -25.389  0.0000E+00  0.0000E+00
    -25.261  0.0000E+00  0.0000E+00
    -25.133  0.0000E+00  0.0000E+00
    -25.005  0.7115E-10  0.9109E-11
    -24.877  0.5991E-03  0.7671E-04
    -24.749  0.4054E+00  0.5198E-01
    -24.621  0.2985E+01  0.4342E+00
    -24.493  0.1010E+02  0.1727E+01
    -24.365  0.2131E+01  0.2000E+01
    -24.237  0.4361E-03  0.2000E+01
    -24.109  0.1148E-11  0.2000E+01
    -23.981  0.0000E+00  0.2000E+01
    -23.853  0.0000E+00  0.2000E+01
    -23.725  0.0000E+00  0.2000E+01
    -23.597  0.0000E+00  0.2000E+01
    -23.469  0.0000E+00  0.2000E+01
    -23.341  0.0000E+00  0.2000E+01
    -23.213  0.0000E+00  0.2000E+01
    -23.085  0.0000E+00  0.2000E+01
    -22.957  0.0000E+00  0.2000E+01
    -22.829  0.0000E+00  0.2000E+01
    -22.701  0.0000E+00  0.2000E+01
    -22.573  0.0000E+00  0.2000E+01
    -22.445  0.0000E+00  0.2000E+01
    -22.317  0.0000E+00  0.2000E+01
    -22.189  0.0000E+00  0.2000E+01
    -22.061  0.0000E+00  0.2000E+01
    -21.933  0.0000E+00  0.2000E+01
    -21.805  0.0000E+00  0.2000E+01
    -21.677  0.5425E-06  0.2000E+01
    -21.548  0.1896E+00  0.2024E+01
    -21.420  0.1100E+02  0.3433E+01
    -21.292  0.1040E+02  0.4764E+01
    -21.164  0.1024E+02  0.6076E+01
    -21.036  0.8771E+01  0.7199E+01
    -20.908  0.5408E+01  0.7891E+01
    -20.780  0.8473E+00  0.8000E+01
    -20.652  0.1962E-02  0.8000E+01
    -20.524  0.3659E-09  0.8000E+01
    -20.396  0.0000E+00  0.8000E+01
    -20.268  0.0000E+00  0.8000E+01
    -20.140  0.0000E+00  0.8000E+01
    -20.012  0.0000E+00  0.8000E+01
    -19.884  0.0000E+00  0.8000E+01
    -19.756  0.0000E+00  0.8000E+01
    -19.628  0.0000E+00  0.8000E+01
    -19.500  0.0000E+00  0.8000E+01
    -19.372  0.0000E+00  0.8000E+01
    -19.244  0.0000E+00  0.8000E+01
    -19.116  0.0000E+00  0.8000E+01
    -18.988  0.0000E+00  0.8000E+01
    -18.860  0.0000E+00  0.8000E+01
    -18.732  0.0000E+00  0.8000E+01
    -18.604  0.0000E+00  0.8000E+01
    -18.476  0.0000E+00  0.8000E+01
    -18.348  0.0000E+00  0.8000E+01
    -18.220  0.0000E+00  0.8000E+01
    -18.092  0.0000E+00  0.8000E+01
    -17.964  0.0000E+00  0.8000E+01
    -17.836  0.0000E+00  0.8000E+01
    -17.708  0.0000E+00  0.8000E+01
    -17.580  0.0000E+00  0.8000E+01
    -17.452  0.0000E+00  0.8000E+01
    -17.324  0.0000E+00  0.8000E+01
    -17.196  0.0000E+00  0.8000E+01
    -17.068  0.0000E+00  0.8000E+01
    -16.940  0.0000E+00  0.8000E+01
    -16.811  0.0000E+00  0.8000E+01
    -16.683  0.0000E+00  0.8000E+01
    -16.555  0.0000E+00  0.8000E+01
    -16.427  0.0000E+00  0.8000E+01
    -16.299  0.0000E+00  0.8000E+01
    -16.171  0.0000E+00  0.8000E+01
    -16.043  0.0000E+00  0.8000E+01
    -15.915  0.0000E+00  0.8000E+01
    -15.787  0.0000E+00  0.8000E+01
    -15.659  0.0000E+00  0.8000E+01
    -15.531  0.0000E+00  0.8000E+01
    -15.403  0.0000E+00  0.8000E+01
    -15.275  0.0000E+00  0.8000E+01
    -15.147  0.0000E+00  0.8000E+01
    -15.019  0.0000E+00  0.8000E+01
    -14.891  0.0000E+00  0.8000E+01
    -14.763  0.0000E+00  0.8000E+01
    -14.635  0.0000E+00  0.8000E+01
    -14.507  0.0000E+00  0.8000E+01
    -14.379  0.0000E+00  0.8000E+01
    -14.251  0.0000E+00  0.8000E+01
    -14.123  0.0000E+00  0.8000E+01
    -13.995  0.0000E+00  0.8000E+01
    -13.867  0.0000E+00  0.8000E+01
    -13.739  0.0000E+00  0.8000E+01
    -13.611  0.0000E+00  0.8000E+01
    -13.483  0.0000E+00  0.8000E+01
    -13.355  0.0000E+00  0.8000E+01
    -13.227  0.0000E+00  0.8000E+01
    -13.099  0.0000E+00  0.8000E+01
    -12.971  0.0000E+00  0.8000E+01
    -12.843  0.0000E+00  0.8000E+01
    -12.715  0.0000E+00  0.8000E+01
    -12.587  0.0000E+00  0.8000E+01
    -12.459  0.0000E+00  0.8000E+01
    -12.331  0.0000E+00  0.8000E+01
    -12.202  0.0000E+00  0.8000E+01
    -12.074  0.0000E+00  0.8000E+01
    -11.946  0.0000E+00  0.8000E+01
    -11.818  0.0000E+00  0.8000E+01
    -11.690  0.0000E+00  0.8000E+01
    -11.562  0.0000E+00  0.8000E+01
    -11.434  0.0000E+00  0.8000E+01
    -11.306  0.0000E+00  0.8000E+01
    -11.178  0.0000E+00  0.8000E+01
    -11.050  0.0000E+00  0.8000E+01
    -10.922  0.0000E+00  0.8000E+01
    -10.794  0.0000E+00  0.8000E+01
    -10.666  0.0000E+00  0.8000E+01
    -10.538  0.0000E+00  0.8000E+01
    -10.410  0.4450E-15  0.8000E+01
    -10.282  0.2390E-05  0.8000E+01
    -10.154  0.7644E-01  0.8010E+01
    -10.026  0.1193E+01  0.8163E+01
     -9.898  0.5313E+01  0.8843E+01
     -9.770  0.1623E+02  0.1092E+02
     -9.642  0.1618E+02  0.1299E+02
     -9.514  0.7244E+01  0.1392E+02
     -9.386  0.6208E+00  0.1400E+02
     -9.258  0.5067E-02  0.1400E+02
     -9.130  0.5902E-08  0.1400E+02
     -9.002  0.0000E+00  0.1400E+02
     -8.874  0.0000E+00  0.1400E+02
     -8.746  0.0000E+00  0.1400E+02
     -8.618  0.0000E+00  0.1400E+02
     -8.490  0.0000E+00  0.1400E+02
     -8.362  0.0000E+00  0.1400E+02
     -8.234  0.0000E+00  0.1400E+02
     -8.106  0.0000E+00  0.1400E+02
     -7.978  0.0000E+00  0.1400E+02
     -7.850  0.0000E+00  0.1400E+02
     -7.722  0.0000E+00  0.1400E+02
     -7.593  0.0000E+00  0.1400E+02
     -7.465  0.0000E+00  0.1400E+02
     -7.337  0.0000E+00  0.1400E+02
     -7.209  0.0000E+00  0.1400E+02
     -7.081  0.0000E+00  0.1400E+02
     -6.953  0.0000E+00  0.1400E+02
     -6.825  0.0000E+00  0.1400E+02
     -6.697  0.0000E+00  0.1400E+02
     -6.569  0.0000E+00  0.1400E+02
     -6.441  0.0000E+00  0.1400E+02
     -6.313  0.0000E+00  0.1400E+02
     -6.185  0.0000E+00  0.1400E+02
     -6.057  0.0000E+00  0.1400E+02
     -5.929  0.0000E+00  0.1400E+02
     -5.801  0.0000E+00  0.1400E+02
     -5.673  0.0000E+00  0.1400E+02
     -5.545  0.0000E+00  0.1400E+02
     -5.417  0.0000E+00  0.1400E+02
     -5.289  0.0000E+00  0.1400E+02
     -5.161  0.0000E+00  0.1400E+02
     -5.033  0.0000E+00  0.1400E+02
     -4.905  0.0000E+00  0.1400E+02
     -4.777  0.0000E+00  0.1400E+02
     -4.649  0.0000E+00  0.1400E+02
     -4.521  0.0000E+00  0.1400E+02
     -4.393  0.0000E+00  0.1400E+02
     -4.265  0.0000E+00  0.1400E+02
     -4.137  0.1961E-06  0.1400E+02
     -4.009  0.3811E-01  0.1400E+02
     -3.881  0.5230E+00  0.1407E+02
     -3.753  0.3607E+01  0.1453E+02
     -3.625  0.8111E+01  0.1557E+02
     -3.497  0.4256E+01  0.1612E+02
     -3.369  0.7851E+01  0.1712E+02
     -3.241  0.9040E+01  0.1828E+02
     -3.113  0.6320E+01  0.1909E+02
     -2.985  0.5673E+01  0.1981E+02
     -2.856  0.5978E+01  0.2058E+02
     -2.728  0.9524E+01  0.2180E+02
     -2.600  0.9290E+01  0.2299E+02
     -2.472  0.8629E+01  0.2409E+02
     -2.344  0.6175E+01  0.2488E+02
     -2.216  0.8909E+01  0.2602E+02
     -2.088  0.6558E+01  0.2686E+02
     -1.960  0.1384E+02  0.2864E+02
     -1.832  0.1366E+02  0.3039E+02
     -1.704  0.1098E+02  0.3179E+02
     -1.576  0.1630E+01  0.3200E+02
     -1.448  0.1827E-02  0.3200E+02
     -1.320  0.2967E-09  0.3200E+02
     -1.192  0.0000E+00  0.3200E+02
     -1.064  0.0000E+00  0.3200E+02
     -0.936  0.0000E+00  0.3200E+02
     -0.808  0.0000E+00  0.3200E+02
     -0.680  0.0000E+00  0.3200E+02
     -0.552  0.0000E+00  0.3200E+02
     -0.424  0.0000E+00  0.3200E+02
     -0.296  0.0000E+00  0.3200E+02
     -0.168  0.0000E+00  0.3200E+02
     -0.040  0.0000E+00  0.3200E+02
      0.088  0.0000E+00  0.3200E+02
      0.216  0.0000E+00  0.3200E+02
      0.344  0.0000E+00  0.3200E+02
      0.472  0.0000E+00  0.3200E+02
      0.600  0.0000E+00  0.3200E+02
      0.728  0.0000E+00  0.3200E+02
      0.856  0.0000E+00  0.3200E+02
      0.984  0.0000E+00  0.3200E+02
      1.112  0.0000E+00  0.3200E+02
      1.240  0.0000E+00  0.3200E+02
      1.368  0.0000E+00  0.3200E+02
      1.496  0.0000E+00  0.3200E+02
      1.624  0.0000E+00  0.3200E+02
      1.753  0.0000E+00  0.3200E+02
      1.881  0.0000E+00  0.3200E+02
      2.009  0.0000E+00  0.3200E+02
      2.137  0.0000E+00  0.3200E+02
      2.265  0.0000E+00  0.3200E+02
      2.393  0.0000E+00  0.3200E+02
      2.521  0.0000E+00  0.3200E+02
      2.649  0.0000E+00  0.3200E+02
      2.777  0.0000E+00  0.3200E+02
      2.905  0.0000E+00  0.3200E+02
      3.033  0.0000E+00  0.3200E+02
      3.161  0.0000E+00  0.3200E+02
      3.289  0.0000E+00  0.3200E+02
      3.417  0.0000E+00  0.3200E+02
      3.545  0.0000E+00  0.3200E+02
      3.673  0.0000E+00  0.3200E+02
      3.801  0.0000E+00  0.3200E+02
      3.929  0.0000E+00  0.3200E+02
      4.057  0.0000E+00  0.3200E+02
      4.185  0.0000E+00  0.3200E+02
      4.313  0.0000E+00  0.3200E+02
      4.441  0.0000E+00  0.3200E+02
      4.569  0.0000E+00  0.3200E+02
      4.697  0.0000E+00  0.3200E+02
      4.825  0.0000E+00  0.3200E+02
      4.953  0.0000E+00  0.3200E+02
      5.081  0.0000E+00  0.3200E+02
      5.209  0.0000E+00  0.3200E+02
      5.337  0.0000E+00  0.3200E+02
      5.465  0.0000E+00  0.3200E+02
      5.593  0.0000E+00  0.3200E+02
      5.721  0.0000E+00  0.3200E+02
      5.849  0.0000E+00  0.3200E+02
      5.977  0.0000E+00  0.3200E+02
      6.105  0.0000E+00  0.3200E+02
      6.233  0.0000E+00  0.3200E+02
      6.362  0.2882E-15  0.3200E+02
      6.490  0.1345E-05  0.3200E+02
      6.618  0.2634E-01  0.3200E+02
      6.746  0.8085E-01  0.3201E+02
      6.874  0.1671E+00  0.3204E+02
      7.002  0.1410E+00  0.3205E+02
      7.130  0.8483E+00  0.3216E+02
      7.258  0.1210E+01  0.3232E+02
      7.386  0.1071E+01  0.3245E+02
      7.514  0.1912E+01  0.3270E+02
      7.642  0.2816E+01  0.3306E+02
      7.770  0.3323E+01  0.3348E+02
      7.898  0.4981E+01  0.3412E+02
      8.026  0.4077E+01  0.3464E+02
      8.154  0.3705E+01  0.3512E+02
      8.282  0.5043E+01  0.3576E+02
      8.410  0.3273E+01  0.3618E+02
      8.538  0.4795E+01  0.3680E+02
      8.666  0.4579E+01  0.3738E+02
      8.794  0.3238E+01  0.3780E+02
      8.922  0.4488E+01  0.3837E+02
      9.050  0.4729E+01  0.3898E+02
      9.178  0.2322E+01  0.3928E+02
      9.306  0.2943E+01  0.3965E+02
      9.434  0.8002E+00  0.3975E+02
      9.562  0.9033E+00  0.3987E+02
      9.690  0.3280E+00  0.3991E+02
      9.818  0.4307E+00  0.3997E+02
      9.946  0.7397E-01  0.3998E+02
     10.074  0.1839E-01  0.3998E+02
     10.202  0.1621E+00  0.4000E+02
     10.330  0.1739E-02  0.4000E+02
     10.458  0.2246E-09  0.4000E+02
     10.586  0.0000E+00  0.4000E+02
     10.714  0.0000E+00  0.4000E+02
     10.842  0.0000E+00  0.4000E+02
     10.971  0.0000E+00  0.4000E+02
     11.099  0.0000E+00  0.4000E+02
     11.227  0.0000E+00  0.4000E+02
     11.355  0.0000E+00  0.4000E+02
     11.483  0.0000E+00  0.4000E+02
     11.611  0.0000E+00  0.4000E+02
     11.739  0.0000E+00  0.4000E+02
     11.867  0.0000E+00  0.4000E+02
