Pb2 Au4                                 
   1.00000000000000     
     4.9358950200000002   -0.0000000200000000    2.8497393700000000
     1.6452976500000001    4.6536052200000002    2.8497393700000000
    -0.0000000200000000   -0.0000000100000000    5.6994807999999999
   Pb   Au
     2     4
Direct
     0.1250000000000000    0.1250000000000000    0.1250000000000000
     0.8750000000000000    0.8750000000000000    0.8750000000000000
     0.5000000000000000    0.0000000000000000    0.5000000000000000
     0.0000000000000000    0.5000000000000000    0.5000000000000000
     0.5000000000000000    0.5000000000000000    0.5000000000000000
     0.5000000000000000    0.5000000000000000    0.0000000000000000
 
  0.00000000E+00  0.00000000E+00  0.00000000E+00
  0.00000000E+00  0.00000000E+00  0.00000000E+00
  0.00000000E+00  0.00000000E+00  0.00000000E+00
  0.00000000E+00  0.00000000E+00  0.00000000E+00
  0.00000000E+00  0.00000000E+00  0.00000000E+00
  0.00000000E+00  0.00000000E+00  0.00000000E+00
