I4                                      
   1.00000000000000     
    -0.0000000300000000   -4.6290928100000004    0.0000000000000000
    -3.8395978999999998    2.3145453100000002    0.0000000000000000
     0.0000000000000000    0.0000000000000000   -9.7961858799999995
   I 
     4
Direct
     0.8409153200000006    0.0000000000000000    0.3799729400000018
     0.1590846799999994    0.0000000000000000    0.6200270599999982
     0.6590846799999994    0.0000000000000000    0.8799729400000018
     0.3409153200000006    0.0000000000000000    0.1200270599999982
 
  0.00000000E+00  0.00000000E+00  0.00000000E+00
  0.00000000E+00  0.00000000E+00  0.00000000E+00
  0.00000000E+00  0.00000000E+00  0.00000000E+00
  0.00000000E+00  0.00000000E+00  0.00000000E+00
