unknown system                          
           1
     5.977827   -0.000000   -2.878649
    -1.386226    5.814880   -2.878646
    -0.011096   -0.014040    7.623086
   Ta   Ge
    10     6
Direct configuration=     1
   0.18541608  0.00705449  0.69247296
   0.00705688  0.50705449  0.69247296
   0.68546222  0.18545972  0.69244352
   0.99294312  0.49294551  0.30752704
   0.50698030  0.68545972  0.69244352
   0.81458392  0.99294551  0.30752704
   0.49301970  0.31454028  0.30755648
   0.31453778  0.81454028  0.30755648
   0.50000000  0.50000000  0.00000000
   0.00000000  0.00000000  0.00000000
   0.63589881  0.13589887  0.99995670
   0.86405789  0.63589887  0.99995670
   0.13594211  0.36410113  0.00004330
   0.36410119  0.86410113  0.00004330
   0.74998829  0.75000000  0.50000000
   0.25001171  0.25000000  0.50000000
