  38  38   0   0
  0.9707249E+01  0.4963407E-09  0.8684801E-09  0.9494436E-09  0.5000000E-15
  1.000000000000000E-004
  CAR 
 unknown system                          
     13.49930160    -25.03447915  301     -0.74214153      1.00000000
    -25.034  0.0000E+00  0.0000E+00
    -24.906  0.0000E+00  0.0000E+00
    -24.778  0.0000E+00  0.0000E+00
    -24.649  0.0000E+00  0.0000E+00
    -24.521  0.0000E+00  0.0000E+00
    -24.392  0.0000E+00  0.0000E+00
    -24.264  0.0000E+00  0.0000E+00
    -24.135  0.0000E+00  0.0000E+00
    -24.007  0.0000E+00  0.0000E+00
    -23.878  0.0000E+00  0.0000E+00
    -23.750  0.0000E+00  0.0000E+00
    -23.622  0.0000E+00  0.0000E+00
    -23.493  0.6011E-08  0.7721E-09
    -23.365  0.7674E-01  0.9857E-02
    -23.236  0.1589E+02  0.2051E+01
    -23.108  0.1513E+02  0.3994E+01
    -22.979  0.4469E-01  0.4000E+01
    -22.851  0.1256E-08  0.4000E+01
    -22.722  0.0000E+00  0.4000E+01
    -22.594  0.0000E+00  0.4000E+01
    -22.466  0.0000E+00  0.4000E+01
    -22.337  0.0000E+00  0.4000E+01
    -22.209  0.0000E+00  0.4000E+01
    -22.080  0.0000E+00  0.4000E+01
    -21.952  0.0000E+00  0.4000E+01
    -21.823  0.1428E-12  0.4000E+01
    -21.695  0.3934E-03  0.4000E+01
    -21.566  0.5089E+01  0.4654E+01
    -21.438  0.1047E+02  0.5998E+01
    -21.310  0.1247E-01  0.6000E+01
    -21.181  0.1051E-09  0.6000E+01
    -21.053  0.0000E+00  0.6000E+01
    -20.924  0.0000E+00  0.6000E+01
    -20.796  0.0000E+00  0.6000E+01
    -20.667  0.0000E+00  0.6000E+01
    -20.539  0.0000E+00  0.6000E+01
    -20.410  0.4506E-06  0.6000E+01
    -20.282  0.4137E+00  0.6053E+01
    -20.154  0.2537E+02  0.9312E+01
    -20.025  0.5360E+01  0.1000E+02
    -19.897  0.2141E-03  0.1000E+02
    -19.768  0.2910E-13  0.1000E+02
    -19.640  0.0000E+00  0.1000E+02
    -19.511  0.2664E-06  0.1000E+02
    -19.383  0.4583E+00  0.1006E+02
    -19.254  0.2681E+02  0.1350E+02
    -19.126  0.3872E+01  0.1400E+02
    -18.998  0.7165E-04  0.1400E+02
    -18.869  0.0000E+00  0.1400E+02
    -18.741  0.0000E+00  0.1400E+02
    -18.612  0.0000E+00  0.1400E+02
    -18.484  0.2538E-12  0.1400E+02
    -18.355  0.7346E-03  0.1400E+02
    -18.227  0.9964E+01  0.1528E+02
    -18.098  0.2115E+02  0.1800E+02
    -17.970  0.2709E-01  0.1800E+02
    -17.842  0.2573E-09  0.1800E+02
    -17.713  0.0000E+00  0.1800E+02
    -17.585  0.0000E+00  0.1800E+02
    -17.456  0.2587E-10  0.1800E+02
    -17.328  0.4413E-02  0.1800E+02
    -17.199  0.7454E+01  0.1896E+02
    -17.071  0.8106E+01  0.2000E+02
    -16.942  0.6639E-02  0.2000E+02
    -16.814  0.5938E-10  0.2000E+02
    -16.685  0.0000E+00  0.2000E+02
    -16.557  0.0000E+00  0.2000E+02
    -16.429  0.0000E+00  0.2000E+02
    -16.300  0.7843E-14  0.2000E+02
    -16.172  0.7862E-04  0.2000E+02
    -16.043  0.3278E+01  0.2042E+02
    -15.915  0.1225E+02  0.2200E+02
    -15.786  0.3887E-01  0.2200E+02
    -15.658  0.1046E-08  0.2200E+02
    -15.529  0.0000E+00  0.2200E+02
    -15.401  0.0000E+00  0.2200E+02
    -15.273  0.0000E+00  0.2200E+02
    -15.144  0.1221E-07  0.2200E+02
    -15.016  0.7242E-01  0.2201E+02
    -14.887  0.1455E+02  0.2388E+02
    -14.759  0.1602E+02  0.2594E+02
    -14.630  0.4956E+00  0.2600E+02
    -14.502  0.2514E-05  0.2600E+02
    -14.373  0.4897E-09  0.2600E+02
    -14.245  0.1941E-01  0.2600E+02
    -14.117  0.1144E+02  0.2747E+02
    -13.988  0.1756E+02  0.2973E+02
    -13.860  0.1660E+02  0.3186E+02
    -13.731  0.1084E+01  0.3200E+02
    -13.603  0.2880E-05  0.3200E+02
    -13.474  0.0000E+00  0.3200E+02
    -13.346  0.0000E+00  0.3200E+02
    -13.217  0.0000E+00  0.3200E+02
    -13.089  0.0000E+00  0.3200E+02
    -12.961  0.0000E+00  0.3200E+02
    -12.832  0.0000E+00  0.3200E+02
    -12.704  0.0000E+00  0.3200E+02
    -12.575  0.0000E+00  0.3200E+02
    -12.447  0.0000E+00  0.3200E+02
    -12.318  0.0000E+00  0.3200E+02
    -12.190  0.0000E+00  0.3200E+02
    -12.061  0.0000E+00  0.3200E+02
    -11.933  0.0000E+00  0.3200E+02
    -11.805  0.0000E+00  0.3200E+02
    -11.676  0.0000E+00  0.3200E+02
    -11.548  0.1160E-08  0.3200E+02
    -11.419  0.3246E-01  0.3200E+02
    -11.291  0.1150E+02  0.3348E+02
    -11.162  0.4042E+01  0.3400E+02
    -11.034  0.3822E+01  0.3449E+02
    -10.905  0.1172E+02  0.3600E+02
    -10.777  0.2727E-01  0.3600E+02
    -10.649  0.5122E-02  0.3600E+02
    -10.520  0.9030E+01  0.3716E+02
    -10.392  0.6535E+01  0.3800E+02
    -10.263  0.1081E-02  0.3800E+02
    -10.135  0.9169E-12  0.3800E+02
    -10.006  0.0000E+00  0.3800E+02
     -9.878  0.4041E-10  0.3800E+02
     -9.749  0.5703E-02  0.3800E+02
     -9.621  0.8448E+01  0.3909E+02
     -9.493  0.7115E+01  0.4000E+02
     -9.364  0.2412E-02  0.4000E+02
     -9.236  0.1440E+00  0.4002E+02
     -9.107  0.9048E+01  0.4118E+02
     -8.979  0.1913E+02  0.4364E+02
     -8.850  0.2903E+01  0.4401E+02
     -8.722  0.9425E+01  0.4522E+02
     -8.593  0.1544E+02  0.4720E+02
     -8.465  0.6185E+01  0.4800E+02
     -8.337  0.7512E-02  0.4800E+02
     -8.208  0.2110E+01  0.4827E+02
     -8.080  0.1047E+02  0.4962E+02
     -7.951  0.1487E+02  0.5153E+02
     -7.823  0.2940E+02  0.5530E+02
     -7.694  0.1992E+02  0.5786E+02
     -7.566  0.4555E+01  0.5845E+02
     -7.437  0.1286E+02  0.6010E+02
     -7.309  0.1649E+02  0.6222E+02
     -7.180  0.1066E+02  0.6359E+02
     -7.052  0.2730E+01  0.6394E+02
     -6.924  0.7094E+01  0.6485E+02
     -6.795  0.8921E+01  0.6599E+02
     -6.667  0.3329E+00  0.6604E+02
     -6.538  0.1298E+02  0.6770E+02
     -6.410  0.9880E+01  0.6897E+02
     -6.281  0.8407E+01  0.7005E+02
     -6.153  0.1133E+02  0.7151E+02
     -6.024  0.1137E+02  0.7297E+02
     -5.896  0.1146E+02  0.7444E+02
     -5.768  0.9350E+01  0.7564E+02
     -5.639  0.6367E+01  0.7646E+02
     -5.511  0.4578E+01  0.7705E+02
     -5.382  0.5866E+01  0.7780E+02
     -5.254  0.7497E+01  0.7876E+02
     -5.125  0.1467E+02  0.8065E+02
     -4.997  0.1017E+02  0.8195E+02
     -4.868  0.3676E+00  0.8200E+02
     -4.740  0.2196E-05  0.8200E+02
     -4.612  0.0000E+00  0.8200E+02
     -4.483  0.0000E+00  0.8200E+02
     -4.355  0.0000E+00  0.8200E+02
     -4.226  0.0000E+00  0.8200E+02
     -4.098  0.0000E+00  0.8200E+02
     -3.969  0.0000E+00  0.8200E+02
     -3.841  0.0000E+00  0.8200E+02
     -3.712  0.0000E+00  0.8200E+02
     -3.584  0.0000E+00  0.8200E+02
     -3.456  0.0000E+00  0.8200E+02
     -3.327  0.3611E-06  0.8200E+02
     -3.199  0.1213E+00  0.8202E+02
     -3.070  0.9968E+01  0.8330E+02
     -2.942  0.1915E+02  0.8576E+02
     -2.813  0.2428E+02  0.8887E+02
     -2.685  0.2266E+02  0.9178E+02
     -2.556  0.1341E+02  0.9351E+02
     -2.428  0.1224E+02  0.9508E+02
     -2.300  0.1668E+02  0.9722E+02
     -2.171  0.1821E+02  0.9956E+02
     -2.043  0.2368E+02  0.1026E+03
     -1.914  0.1265E+02  0.1042E+03
     -1.786  0.9684E+01  0.1055E+03
     -1.657  0.6466E+01  0.1063E+03
     -1.529  0.1772E+02  0.1086E+03
     -1.400  0.1214E+02  0.1101E+03
     -1.272  0.1391E+02  0.1119E+03
     -1.144  0.1588E+02  0.1140E+03
     -1.015  0.9896E+01  0.1152E+03
     -0.887  0.5957E+01  0.1160E+03
     -0.758  0.8436E-03  0.1160E+03
     -0.630  0.7187E-12  0.1160E+03
     -0.501  0.0000E+00  0.1160E+03
     -0.373  0.0000E+00  0.1160E+03
     -0.244  0.0000E+00  0.1160E+03
     -0.116  0.0000E+00  0.1160E+03
      0.012  0.0000E+00  0.1160E+03
      0.141  0.0000E+00  0.1160E+03
      0.269  0.0000E+00  0.1160E+03
      0.398  0.0000E+00  0.1160E+03
      0.526  0.0000E+00  0.1160E+03
      0.655  0.0000E+00  0.1160E+03
      0.783  0.1232E-11  0.1160E+03
      0.912  0.1008E-02  0.1160E+03
      1.040  0.5981E+01  0.1168E+03
      1.168  0.9580E+01  0.1180E+03
      1.297  0.9079E-02  0.1180E+03
      1.425  0.7370E-10  0.1180E+03
      1.554  0.0000E+00  0.1180E+03
      1.682  0.0000E+00  0.1180E+03
      1.811  0.0000E+00  0.1180E+03
      1.939  0.0000E+00  0.1180E+03
      2.068  0.0000E+00  0.1180E+03
      2.196  0.0000E+00  0.1180E+03
      2.325  0.0000E+00  0.1180E+03
      2.453  0.0000E+00  0.1180E+03
      2.581  0.0000E+00  0.1180E+03
      2.710  0.0000E+00  0.1180E+03
      2.838  0.0000E+00  0.1180E+03
      2.967  0.0000E+00  0.1180E+03
      3.095  0.0000E+00  0.1180E+03
      3.224  0.3031E-06  0.1180E+03
      3.352  0.1748E+00  0.1180E+03
      3.481  0.7613E+01  0.1190E+03
      3.609  0.1557E+02  0.1210E+03
      3.737  0.7545E+01  0.1220E+03
      3.866  0.2419E+00  0.1220E+03
      3.994  0.7450E-06  0.1220E+03
      4.123  0.1137E-10  0.1220E+03
      4.251  0.8678E-03  0.1220E+03
      4.380  0.6521E+00  0.1221E+03
      4.508  0.4007E+01  0.1226E+03
      4.637  0.5424E+01  0.1233E+03
      4.765  0.5894E+01  0.1241E+03
      4.893  0.6318E+01  0.1249E+03
      5.022  0.9502E+01  0.1261E+03
      5.150  0.5707E+01  0.1268E+03
      5.279  0.9465E+01  0.1280E+03
      5.407  0.8065E+01  0.1291E+03
      5.536  0.9363E+01  0.1303E+03
      5.664  0.1283E+02  0.1319E+03
      5.793  0.6725E+01  0.1328E+03
      5.921  0.3447E+01  0.1332E+03
      6.049  0.5666E+01  0.1340E+03
      6.178  0.6044E+01  0.1347E+03
      6.306  0.7755E+01  0.1357E+03
      6.435  0.8157E+01  0.1368E+03
      6.563  0.8589E+01  0.1379E+03
      6.692  0.9077E+01  0.1390E+03
      6.820  0.5918E+01  0.1398E+03
      6.949  0.7006E+01  0.1407E+03
      7.077  0.6748E+01  0.1416E+03
      7.205  0.9402E+01  0.1428E+03
      7.334  0.9197E+01  0.1440E+03
      7.462  0.1076E+02  0.1453E+03
      7.591  0.1264E+02  0.1470E+03
      7.719  0.1029E+02  0.1483E+03
      7.848  0.1202E+02  0.1498E+03
      7.976  0.1122E+02  0.1513E+03
      8.105  0.1260E+02  0.1529E+03
      8.233  0.1246E+02  0.1545E+03
      8.361  0.1134E+02  0.1559E+03
      8.490  0.1286E+02  0.1576E+03
      8.618  0.1378E+02  0.1594E+03
      8.747  0.1554E+02  0.1614E+03
      8.875  0.1285E+02  0.1630E+03
      9.004  0.1514E+02  0.1650E+03
      9.132  0.1507E+02  0.1669E+03
      9.261  0.1419E+02  0.1687E+03
      9.389  0.1091E+02  0.1701E+03
      9.517  0.1606E+02  0.1722E+03
      9.646  0.1413E+02  0.1740E+03
      9.774  0.1464E+02  0.1759E+03
      9.903  0.1739E+02  0.1781E+03
     10.031  0.1900E+02  0.1806E+03
     10.160  0.1496E+02  0.1825E+03
     10.288  0.1640E+02  0.1846E+03
     10.417  0.1855E+02  0.1870E+03
     10.545  0.1483E+02  0.1889E+03
     10.673  0.1404E+02  0.1907E+03
     10.802  0.1294E+02  0.1923E+03
     10.930  0.1113E+02  0.1938E+03
     11.059  0.9636E+01  0.1950E+03
     11.187  0.1293E+02  0.1967E+03
     11.316  0.1109E+02  0.1981E+03
     11.444  0.8097E+01  0.1991E+03
     11.573  0.5477E+01  0.1998E+03
     11.701  0.9624E+00  0.2000E+03
     11.830  0.3569E+00  0.2000E+03
     11.958  0.3004E-02  0.2000E+03
     12.086  0.3988E-09  0.2000E+03
     12.215  0.0000E+00  0.2000E+03
     12.343  0.0000E+00  0.2000E+03
     12.472  0.0000E+00  0.2000E+03
     12.600  0.0000E+00  0.2000E+03
     12.729  0.0000E+00  0.2000E+03
     12.857  0.0000E+00  0.2000E+03
     12.986  0.0000E+00  0.2000E+03
     13.114  0.0000E+00  0.2000E+03
     13.242  0.0000E+00  0.2000E+03
     13.371  0.0000E+00  0.2000E+03
     13.499  0.0000E+00  0.2000E+03
