H18 C2 N18
1.0
   4.9280039999999996    0.1040710000000000   -0.5825380000000000
  -2.0732159999999999    7.9319110000000004   -2.8657149999999998
  -0.3072140000000000   -0.1766670000000000    9.4878199999999993
H C N
18 2 18
direct
   0.1661440000000000    0.6249300000000000    0.9402370000000000 H
   0.8338560000000000    0.3750700000000000    0.0597630000000000 H
   0.2730200000000000    0.8183200000000000    0.0736970000000000 H
   0.7269800000000000    0.1816800000000000    0.9263030000000000 H
   0.4559470000000000    0.8188660000000000    0.8684260000000000 H
   0.5440530000000000    0.1811340000000000    0.1315740000000000 H
   0.7194680000000000    0.8226370000000000    0.0023390000000000 H
   0.2805320000000000    0.1773630000000000    0.9976610000000000 H
   0.8983090000000000    0.5222510000000000    0.6630530000000000 H
   0.1016910000000000    0.4777490000000000    0.3369470000000000 H
   0.8794630000000000    0.3259990000000000    0.6547460000000001 H
   0.1205370000000000    0.6740010000000000    0.3452540000000000 H
   0.5714080000000000    0.5557470000000000    0.8103200000000000 H
   0.4285920000000000    0.4442530000000000    0.1896800000000000 H
   0.4446880000000000    0.3594010000000000    0.6519500000000000 H
   0.5553120000000000    0.6405990000000000    0.3480500000000000 H
   0.5881400000000000    0.3698120000000000    0.8347150000000000 H
   0.4118600000000000    0.6301880000000000    0.1652850000000000 H
   0.7559540000000000    0.9462210000000000    0.6094290000000000 C
   0.2440460000000000    0.0537790000000000    0.3905710000000000 C
   0.5952290000000000    0.0419920000000000    0.5616320000000000 N
   0.4047710000000000    0.9580080000000000    0.4383680000000000 N
   0.7559740000000000    0.7830420000000000    0.5354480000000000 N
   0.2440260000000000    0.2169580000000000    0.4645520000000000 N
   0.9476970000000000    0.7515039999999999    0.6284840000000000 N
   0.0523030000000000    0.2484960000000000    0.3715160000000000 N
   0.0605110000000000    0.8907969999999999    0.7558810000000000 N
   0.9394890000000000    0.1092030000000000    0.2441190000000000 N
   0.9446059999999999    0.0151990000000000    0.7464260000000000 N
   0.0553940000000000    0.9848010000000000    0.2535740000000000 N
   0.3394450000000000    0.7132230000000001    0.0180830000000000 N
   0.6605550000000000    0.2867770000000000    0.9819170000000000 N
   0.5328880000000000    0.7502790000000000    0.9273840000000000 N
   0.4671120000000000    0.2497210000000000    0.0726160000000000 N
   0.8782180000000001    0.4453460000000000    0.7251330000000000 N
   0.1217820000000000    0.5546540000000000    0.2748670000000000 N
   0.5983750000000000    0.4308880000000000    0.7548520000000000 N
   0.4016250000000000    0.5691120000000000    0.2451480000000000 N
