unknown system                          
           1
     4.928004    0.104071   -0.582538
    -2.073216    7.931911   -2.865715
    -0.307214   -0.176667    9.487820
   H    C    N 
    18     2    18
Direct configuration=     1
   0.16614400  0.62493000  0.94023700
   0.83385600  0.37507000  0.05976300
   0.27302000  0.81832000  0.07369700
   0.72698000  0.18168000  0.92630300
   0.45594700  0.81886600  0.86842600
   0.54405300  0.18113400  0.13157400
   0.71946800  0.82263700  0.00233900
   0.28053200  0.17736300  0.99766100
   0.89830900  0.52225100  0.66305300
   0.10169100  0.47774900  0.33694700
   0.87946300  0.32599900  0.65474600
   0.12053700  0.67400100  0.34525400
   0.57140800  0.55574700  0.81032000
   0.42859200  0.44425300  0.18968000
   0.44468800  0.35940100  0.65195000
   0.55531200  0.64059900  0.34805000
   0.58814000  0.36981200  0.83471500
   0.41186000  0.63018800  0.16528500
   0.75595400  0.94622100  0.60942900
   0.24404600  0.05377900  0.39057100
   0.59522900  0.04199200  0.56163200
   0.40477100  0.95800800  0.43836800
   0.75597400  0.78304200  0.53544800
   0.24402600  0.21695800  0.46455200
   0.94769700  0.75150400  0.62848400
   0.05230300  0.24849600  0.37151600
   0.06051100  0.89079700  0.75588100
   0.93948900  0.10920300  0.24411900
   0.94460600  0.01519900  0.74642600
   0.05539400  0.98480100  0.25357400
   0.33944500  0.71322300  0.01808300
   0.66055500  0.28677700  0.98191700
   0.53288800  0.75027900  0.92738400
   0.46711200  0.24972100  0.07261600
   0.87821800  0.44534600  0.72513300
   0.12178200  0.55465400  0.27486700
   0.59837500  0.43088800  0.75485200
   0.40162500  0.56911200  0.24514800
