   8   8   0   0
  0.1233719E+02  0.4541159E-09  0.4170767E-09  0.5211028E-09  0.5000000E-15
  1.000000000000000E-004
  CAR 
 unknown system                          
     20.09342213    -66.23547925  301      8.19719806      1.00000000
    -66.235  0.0000E+00  0.0000E+00
    -65.948  0.0000E+00  0.0000E+00
    -65.660  0.0000E+00  0.0000E+00
    -65.372  0.0000E+00  0.0000E+00
    -65.084  0.0000E+00  0.0000E+00
    -64.797  0.0000E+00  0.0000E+00
    -64.509  0.0000E+00  0.0000E+00
    -64.221  0.0000E+00  0.0000E+00
    -63.933  0.0000E+00  0.0000E+00
    -63.646  0.0000E+00  0.0000E+00
    -63.358  0.0000E+00  0.0000E+00
    -63.070  0.0000E+00  0.0000E+00
    -62.782  0.0000E+00  0.0000E+00
    -62.495  0.4844E-06  0.1394E-06
    -62.207  0.1025E+03  0.2950E+02
    -61.919  0.2260E+02  0.3600E+02
    -61.631  0.0000E+00  0.3600E+02
    -61.344  0.0000E+00  0.3600E+02
    -61.056  0.0000E+00  0.3600E+02
    -60.768  0.0000E+00  0.3600E+02
    -60.480  0.0000E+00  0.3600E+02
    -60.192  0.0000E+00  0.3600E+02
    -59.905  0.0000E+00  0.3600E+02
    -59.617  0.0000E+00  0.3600E+02
    -59.329  0.0000E+00  0.3600E+02
    -59.041  0.0000E+00  0.3600E+02
    -58.754  0.0000E+00  0.3600E+02
    -58.466  0.0000E+00  0.3600E+02
    -58.178  0.0000E+00  0.3600E+02
    -57.890  0.0000E+00  0.3600E+02
    -57.603  0.0000E+00  0.3600E+02
    -57.315  0.0000E+00  0.3600E+02
    -57.027  0.0000E+00  0.3600E+02
    -56.739  0.0000E+00  0.3600E+02
    -56.452  0.0000E+00  0.3600E+02
    -56.164  0.0000E+00  0.3600E+02
    -55.876  0.0000E+00  0.3600E+02
    -55.588  0.0000E+00  0.3600E+02
    -55.300  0.0000E+00  0.3600E+02
    -55.013  0.0000E+00  0.3600E+02
    -54.725  0.0000E+00  0.3600E+02
    -54.437  0.0000E+00  0.3600E+02
    -54.149  0.0000E+00  0.3600E+02
    -53.862  0.0000E+00  0.3600E+02
    -53.574  0.0000E+00  0.3600E+02
    -53.286  0.0000E+00  0.3600E+02
    -52.998  0.0000E+00  0.3600E+02
    -52.711  0.0000E+00  0.3600E+02
    -52.423  0.0000E+00  0.3600E+02
    -52.135  0.0000E+00  0.3600E+02
    -51.847  0.0000E+00  0.3600E+02
    -51.560  0.0000E+00  0.3600E+02
    -51.272  0.0000E+00  0.3600E+02
    -50.984  0.0000E+00  0.3600E+02
    -50.696  0.0000E+00  0.3600E+02
    -50.409  0.0000E+00  0.3600E+02
    -50.121  0.0000E+00  0.3600E+02
    -49.833  0.0000E+00  0.3600E+02
    -49.545  0.0000E+00  0.3600E+02
    -49.257  0.0000E+00  0.3600E+02
    -48.970  0.0000E+00  0.3600E+02
    -48.682  0.0000E+00  0.3600E+02
    -48.394  0.0000E+00  0.3600E+02
    -48.106  0.0000E+00  0.3600E+02
    -47.819  0.0000E+00  0.3600E+02
    -47.531  0.0000E+00  0.3600E+02
    -47.243  0.0000E+00  0.3600E+02
    -46.955  0.0000E+00  0.3600E+02
    -46.668  0.0000E+00  0.3600E+02
    -46.380  0.0000E+00  0.3600E+02
    -46.092  0.0000E+00  0.3600E+02
    -45.804  0.0000E+00  0.3600E+02
    -45.517  0.0000E+00  0.3600E+02
    -45.229  0.0000E+00  0.3600E+02
    -44.941  0.0000E+00  0.3600E+02
    -44.653  0.0000E+00  0.3600E+02
    -44.365  0.0000E+00  0.3600E+02
    -44.078  0.0000E+00  0.3600E+02
    -43.790  0.0000E+00  0.3600E+02
    -43.502  0.0000E+00  0.3600E+02
    -43.214  0.0000E+00  0.3600E+02
    -42.927  0.0000E+00  0.3600E+02
    -42.639  0.0000E+00  0.3600E+02
    -42.351  0.0000E+00  0.3600E+02
    -42.063  0.0000E+00  0.3600E+02
    -41.776  0.0000E+00  0.3600E+02
    -41.488  0.0000E+00  0.3600E+02
    -41.200  0.0000E+00  0.3600E+02
    -40.912  0.0000E+00  0.3600E+02
    -40.625  0.0000E+00  0.3600E+02
    -40.337  0.0000E+00  0.3600E+02
    -40.049  0.0000E+00  0.3600E+02
    -39.761  0.0000E+00  0.3600E+02
    -39.474  0.0000E+00  0.3600E+02
    -39.186  0.0000E+00  0.3600E+02
    -38.898  0.0000E+00  0.3600E+02
    -38.610  0.0000E+00  0.3600E+02
    -38.322  0.0000E+00  0.3600E+02
    -38.035  0.0000E+00  0.3600E+02
    -37.747  0.0000E+00  0.3600E+02
    -37.459  0.0000E+00  0.3600E+02
    -37.171  0.0000E+00  0.3600E+02
    -36.884  0.0000E+00  0.3600E+02
    -36.596  0.0000E+00  0.3600E+02
    -36.308  0.0000E+00  0.3600E+02
    -36.020  0.0000E+00  0.3600E+02
    -35.733  0.0000E+00  0.3600E+02
    -35.445  0.0000E+00  0.3600E+02
    -35.157  0.0000E+00  0.3600E+02
    -34.869  0.0000E+00  0.3600E+02
    -34.582  0.0000E+00  0.3600E+02
    -34.294  0.0000E+00  0.3600E+02
    -34.006  0.0000E+00  0.3600E+02
    -33.718  0.0000E+00  0.3600E+02
    -33.430  0.0000E+00  0.3600E+02
    -33.143  0.0000E+00  0.3600E+02
    -32.855  0.0000E+00  0.3600E+02
    -32.567  0.0000E+00  0.3600E+02
    -32.279  0.0000E+00  0.3600E+02
    -31.992  0.0000E+00  0.3600E+02
    -31.704  0.0000E+00  0.3600E+02
    -31.416  0.0000E+00  0.3600E+02
    -31.128  0.0000E+00  0.3600E+02
    -30.841  0.0000E+00  0.3600E+02
    -30.553  0.0000E+00  0.3600E+02
    -30.265  0.0000E+00  0.3600E+02
    -29.977  0.0000E+00  0.3600E+02
    -29.690  0.0000E+00  0.3600E+02
    -29.402  0.0000E+00  0.3600E+02
    -29.114  0.0000E+00  0.3600E+02
    -28.826  0.0000E+00  0.3600E+02
    -28.539  0.0000E+00  0.3600E+02
    -28.251  0.0000E+00  0.3600E+02
    -27.963  0.0000E+00  0.3600E+02
    -27.675  0.0000E+00  0.3600E+02
    -27.387  0.0000E+00  0.3600E+02
    -27.100  0.0000E+00  0.3600E+02
    -26.812  0.0000E+00  0.3600E+02
    -26.524  0.0000E+00  0.3600E+02
    -26.236  0.0000E+00  0.3600E+02
    -25.949  0.0000E+00  0.3600E+02
    -25.661  0.0000E+00  0.3600E+02
    -25.373  0.0000E+00  0.3600E+02
    -25.085  0.0000E+00  0.3600E+02
    -24.798  0.0000E+00  0.3600E+02
    -24.510  0.0000E+00  0.3600E+02
    -24.222  0.0000E+00  0.3600E+02
    -23.934  0.0000E+00  0.3600E+02
    -23.647  0.0000E+00  0.3600E+02
    -23.359  0.0000E+00  0.3600E+02
    -23.071  0.0000E+00  0.3600E+02
    -22.783  0.0000E+00  0.3600E+02
    -22.496  0.0000E+00  0.3600E+02
    -22.208  0.0000E+00  0.3600E+02
    -21.920  0.0000E+00  0.3600E+02
    -21.632  0.0000E+00  0.3600E+02
    -21.344  0.0000E+00  0.3600E+02
    -21.057  0.0000E+00  0.3600E+02
    -20.769  0.0000E+00  0.3600E+02
    -20.481  0.0000E+00  0.3600E+02
    -20.193  0.0000E+00  0.3600E+02
    -19.906  0.0000E+00  0.3600E+02
    -19.618  0.0000E+00  0.3600E+02
    -19.330  0.0000E+00  0.3600E+02
    -19.042  0.0000E+00  0.3600E+02
    -18.755  0.0000E+00  0.3600E+02
    -18.467  0.0000E+00  0.3600E+02
    -18.179  0.0000E+00  0.3600E+02
    -17.891  0.0000E+00  0.3600E+02
    -17.604  0.0000E+00  0.3600E+02
    -17.316  0.0000E+00  0.3600E+02
    -17.028  0.0000E+00  0.3600E+02
    -16.740  0.6872E-02  0.3600E+02
    -16.452  0.6949E+02  0.5600E+02
    -16.165  0.0000E+00  0.5600E+02
    -15.877  0.0000E+00  0.5600E+02
    -15.589  0.0000E+00  0.5600E+02
    -15.301  0.0000E+00  0.5600E+02
    -15.014  0.0000E+00  0.5600E+02
    -14.726  0.0000E+00  0.5600E+02
    -14.438  0.0000E+00  0.5600E+02
    -14.150  0.0000E+00  0.5600E+02
    -13.863  0.0000E+00  0.5600E+02
    -13.575  0.0000E+00  0.5600E+02
    -13.287  0.0000E+00  0.5600E+02
    -12.999  0.0000E+00  0.5600E+02
    -12.712  0.0000E+00  0.5600E+02
    -12.424  0.0000E+00  0.5600E+02
    -12.136  0.0000E+00  0.5600E+02
    -11.848  0.0000E+00  0.5600E+02
    -11.561  0.0000E+00  0.5600E+02
    -11.273  0.0000E+00  0.5600E+02
    -10.985  0.0000E+00  0.5600E+02
    -10.697  0.0000E+00  0.5600E+02
    -10.409  0.0000E+00  0.5600E+02
    -10.122  0.0000E+00  0.5600E+02
     -9.834  0.0000E+00  0.5600E+02
     -9.546  0.0000E+00  0.5600E+02
     -9.258  0.0000E+00  0.5600E+02
     -8.971  0.0000E+00  0.5600E+02
     -8.683  0.0000E+00  0.5600E+02
     -8.395  0.0000E+00  0.5600E+02
     -8.107  0.0000E+00  0.5600E+02
     -7.820  0.0000E+00  0.5600E+02
     -7.532  0.0000E+00  0.5600E+02
     -7.244  0.0000E+00  0.5600E+02
     -6.956  0.0000E+00  0.5600E+02
     -6.669  0.0000E+00  0.5600E+02
     -6.381  0.0000E+00  0.5600E+02
     -6.093  0.0000E+00  0.5600E+02
     -5.805  0.0000E+00  0.5600E+02
     -5.517  0.0000E+00  0.5600E+02
     -5.230  0.0000E+00  0.5600E+02
     -4.942  0.0000E+00  0.5600E+02
     -4.654  0.0000E+00  0.5600E+02
     -4.366  0.1350E-10  0.5600E+02
     -4.079  0.3775E-01  0.5601E+02
     -3.791  0.2880E+00  0.5609E+02
     -3.503  0.6967E+00  0.5629E+02
     -3.215  0.5570E+00  0.5645E+02
     -2.928  0.1417E+01  0.5686E+02
     -2.640  0.6831E+00  0.5706E+02
     -2.352  0.1361E+01  0.5745E+02
     -2.064  0.1858E+01  0.5798E+02
     -1.777  0.2424E+01  0.5868E+02
     -1.489  0.2411E+01  0.5938E+02
     -1.201  0.1832E+01  0.5990E+02
     -0.913  0.3356E+00  0.6000E+02
     -0.626  0.0000E+00  0.6000E+02
     -0.338  0.0000E+00  0.6000E+02
     -0.050  0.0000E+00  0.6000E+02
      0.238  0.3381E-05  0.6000E+02
      0.526  0.7849E-01  0.6002E+02
      0.813  0.5686E+00  0.6019E+02
      1.101  0.1789E+01  0.6070E+02
      1.389  0.2734E+01  0.6149E+02
      1.677  0.3892E+01  0.6261E+02
      1.964  0.1861E+01  0.6314E+02
      2.252  0.2551E+01  0.6388E+02
      2.540  0.2464E+01  0.6459E+02
      2.828  0.3167E+01  0.6550E+02
      3.115  0.5691E+01  0.6714E+02
      3.403  0.7443E+01  0.6928E+02
      3.691  0.1104E+02  0.7246E+02
      3.979  0.1450E+02  0.7663E+02
      4.266  0.2391E+02  0.8351E+02
      4.554  0.1424E+02  0.8761E+02
      4.842  0.2425E+02  0.9459E+02
      5.130  0.2072E+02  0.1005E+03
      5.418  0.2384E+02  0.1074E+03
      5.705  0.2616E+02  0.1149E+03
      5.993  0.2282E+02  0.1215E+03
      6.281  0.7023E+01  0.1235E+03
      6.569  0.4511E+01  0.1248E+03
      6.856  0.4344E+01  0.1261E+03
      7.144  0.3280E+01  0.1270E+03
      7.432  0.3242E+01  0.1280E+03
      7.720  0.3125E+01  0.1289E+03
      8.007  0.2714E+01  0.1296E+03
      8.295  0.1854E+01  0.1302E+03
      8.583  0.1207E+01  0.1305E+03
      8.871  0.2497E+01  0.1312E+03
      9.158  0.1556E+01  0.1317E+03
      9.446  0.1749E+01  0.1322E+03
      9.734  0.1275E+01  0.1325E+03
     10.022  0.2904E+01  0.1334E+03
     10.309  0.2803E+01  0.1342E+03
     10.597  0.1564E+01  0.1346E+03
     10.885  0.2861E+01  0.1355E+03
     11.173  0.1767E+01  0.1360E+03
     11.461  0.3245E+01  0.1369E+03
     11.748  0.1673E+01  0.1374E+03
     12.036  0.3387E+01  0.1384E+03
     12.324  0.3126E+01  0.1393E+03
     12.612  0.3483E+01  0.1403E+03
     12.899  0.2694E+01  0.1410E+03
     13.187  0.1931E+01  0.1416E+03
     13.475  0.2624E+01  0.1424E+03
     13.763  0.1851E+01  0.1429E+03
     14.050  0.1351E+01  0.1433E+03
     14.338  0.7503E+00  0.1435E+03
     14.626  0.3760E+00  0.1436E+03
     14.914  0.6250E+00  0.1438E+03
     15.201  0.3966E+00  0.1439E+03
     15.489  0.1457E+00  0.1439E+03
     15.777  0.9873E-12  0.1439E+03
     16.065  0.7199E-01  0.1440E+03
     16.353  0.1597E+00  0.1440E+03
     16.640  0.0000E+00  0.1440E+03
     16.928  0.0000E+00  0.1440E+03
     17.216  0.0000E+00  0.1440E+03
     17.504  0.0000E+00  0.1440E+03
     17.791  0.0000E+00  0.1440E+03
     18.079  0.0000E+00  0.1440E+03
     18.367  0.0000E+00  0.1440E+03
     18.655  0.0000E+00  0.1440E+03
     18.942  0.0000E+00  0.1440E+03
     19.230  0.0000E+00  0.1440E+03
     19.518  0.0000E+00  0.1440E+03
     19.806  0.0000E+00  0.1440E+03
     20.093  0.0000E+00  0.1440E+03
