       N       E                     dE             d eps       ncg     rms          rms(c)
DAV:   1     0.217595699487E+04    0.21760E+04   -0.84385E+04 37016   0.472E+03
DAV:   2     0.300581307824E+03   -0.18754E+04   -0.18370E+04 26768   0.129E+03
DAV:   3    -0.133535654853E+02   -0.31393E+03   -0.30281E+03 27064   0.368E+02
DAV:   4    -0.371077240936E+02   -0.23754E+02   -0.23017E+02 29960   0.102E+02
DAV:   5    -0.379125032706E+02   -0.80478E+00   -0.79908E+00 30360   0.203E+01    0.243E+01
DAV:   6    -0.359766609417E+02    0.19358E+01   -0.10150E+02 27616   0.856E+01    0.317E+01
DAV:   7    -0.316805310099E+02    0.42961E+01   -0.17539E+01 27720   0.401E+01    0.809E+00
DAV:   8    -0.315351377266E+02    0.14539E+00   -0.22731E+00 31520   0.124E+01    0.264E+00
DAV:   9    -0.315018111180E+02    0.33327E-01   -0.21505E-01 28776   0.672E+00    0.128E+00
DAV:  10    -0.314913521791E+02    0.10459E-01   -0.59335E-02 28600   0.369E+00    0.378E-01
DAV:  11    -0.314912673088E+02    0.84870E-04   -0.21349E-02 35392   0.106E+00    0.225E-01
DAV:  12    -0.314912271953E+02    0.40114E-04   -0.26232E-03 27904   0.784E-01    0.106E-01
DAV:  13    -0.314912072779E+02    0.19917E-04   -0.44904E-04 28216   0.412E-01    0.359E-02
DAV:  14    -0.314912055440E+02    0.17339E-05   -0.37391E-05 30096   0.115E-01    0.244E-02
DAV:  15    -0.314912032129E+02    0.23311E-05   -0.12647E-05 29744   0.690E-02    0.553E-03
DAV:  16    -0.314912035684E+02   -0.35555E-06   -0.29986E-06 20072   0.162E-02
   1 F= -.31491204E+02 E0= -.31489577E+02  d E =-.325365E-02
