Cu6Ge2
1.0
      4.5411593       0.0000000       0.0000000
      0.0000000       4.1707672       0.0000000
      0.0000000       0.0000000       5.2110283
  Cu    Ge  
  6     2   
Direct
      0.1633117       0.7500000       0.2500000
      0.8366883       0.2500000       0.7500000
      0.3370990       0.2500000       0.5016890
      0.3370990       0.2500000       0.9983110
      0.6629010       0.7500000       0.4983110
      0.6629010       0.7500000       0.0016890
      0.8248574       0.2500000       0.2500000
      0.1751426       0.7500000       0.7500000
