unknown system                          
           1
     4.541159    0.000000    0.000000
     0.000000    4.170767    0.000000
     0.000000    0.000000    5.211028
   Cu   Ge
     6     2
Direct configuration=     1
   0.16331172  0.75000000  0.25000000
   0.83668828  0.25000000  0.75000000
   0.33709903  0.25000000  0.50168898
   0.33709903  0.25000000  0.99831102
   0.66290097  0.75000000  0.49831102
   0.66290097  0.75000000  0.00168898
   0.82485740  0.25000000  0.25000000
   0.17514260  0.75000000  0.75000000
