H4 N1                                   
   1.00000000000000     
     3.9336989999999998    0.0000000000000000    0.0000000000000000
     0.0000000000000000    3.9336989999999998    0.0000000000000000
     0.0000000000000000    0.0000000000000000    3.9336989999999998
   H    N 
     4     1
Direct
     0.1543599999999969    0.1543599999999969    0.8456400000000031
     0.1543599999999969    0.8456400000000031    0.1543599999999969
     0.8456400000000031    0.1543599999999969    0.1543599999999969
     0.8456400000000031    0.8456400000000031    0.8456400000000031
     0.0000000000000000    0.0000000000000000    0.0000000000000000
 
  0.00000000E+00  0.00000000E+00  0.00000000E+00
  0.00000000E+00  0.00000000E+00  0.00000000E+00
  0.00000000E+00  0.00000000E+00  0.00000000E+00
  0.00000000E+00  0.00000000E+00  0.00000000E+00
  0.00000000E+00  0.00000000E+00  0.00000000E+00
