       N       E                     dE             d eps       ncg     rms          rms(c)
DAV:   1     0.283615562812E+02    0.28362E+02   -0.37947E+03  5488   0.933E+02
DAV:   2    -0.199340101426E+02   -0.48296E+02   -0.47596E+02  6608   0.161E+02
DAV:   3    -0.230566222040E+02   -0.31226E+01   -0.31201E+01  8496   0.500E+01
DAV:   4    -0.230716798721E+02   -0.15058E-01   -0.15055E-01  7720   0.330E+00
DAV:   5    -0.230716982582E+02   -0.18386E-04   -0.18386E-04  8608   0.101E-01    0.827E+00
DAV:   6    -0.216281130038E+02    0.14436E+01   -0.77458E+00  8384   0.211E+01    0.400E+00
DAV:   7    -0.216108626601E+02    0.17250E-01   -0.16921E-01  8480   0.333E+00    0.229E+00
DAV:   8    -0.216154418526E+02   -0.45792E-02   -0.88543E-02  8032   0.191E+00    0.233E-01
DAV:   9    -0.216166453892E+02   -0.12035E-02   -0.14989E-03  7848   0.356E-01    0.994E-02
DAV:  10    -0.216172722492E+02   -0.62686E-03   -0.10163E-03  5936   0.215E-01    0.376E-02
DAV:  11    -0.216172770230E+02   -0.47738E-05   -0.23411E-05  9256   0.513E-02    0.651E-03
DAV:  12    -0.216172790275E+02   -0.20045E-05   -0.53489E-06  6160   0.157E-02    0.223E-03
DAV:  13    -0.216172790415E+02   -0.13959E-07   -0.34662E-07  4360   0.429E-03
   1 F= -.21617279E+02 E0= -.21616624E+02  d E =-.131003E-02
