Sn7 Pd5                                 
   1.00000000000000     
     2.1819154500000000    6.5738769899999996   -0.0017821400000000
    -2.1819154500000000    6.5738769899999996   -0.0017821400000000
     0.0000000000000000    3.5187326799999998    8.9609420400000008
   Sn   Pd
     7     5
Direct
     0.2565734699999993    0.2351727900000000    0.3804700999999966
     0.7648272100000000    0.7434265300000007    0.6195299000000034
     0.2255666399999967    0.2323874200000020    0.8814808699999972
     0.7676125799999980    0.7744333600000033    0.1185191300000028
     0.4854517500000028    0.5007786199999984    0.8240130100000016
     0.4992213800000016    0.5145482499999972    0.1759869899999984
     0.8356861199999983    0.1643138800000017    0.5000000000000000
     0.1239598599999994    0.1349749099999968    0.1944295400000016
     0.8650250900000032    0.8760401400000006    0.8055704599999984
     0.1234399599999989    0.1098380099999972    0.6804934199999977
     0.8901619900000028    0.8765600400000011    0.3195065800000023
     0.9826729400000005    0.0173270599999995    0.0000000000000000
 
  0.00000000E+00  0.00000000E+00  0.00000000E+00
  0.00000000E+00  0.00000000E+00  0.00000000E+00
  0.00000000E+00  0.00000000E+00  0.00000000E+00
  0.00000000E+00  0.00000000E+00  0.00000000E+00
  0.00000000E+00  0.00000000E+00  0.00000000E+00
  0.00000000E+00  0.00000000E+00  0.00000000E+00
  0.00000000E+00  0.00000000E+00  0.00000000E+00
  0.00000000E+00  0.00000000E+00  0.00000000E+00
  0.00000000E+00  0.00000000E+00  0.00000000E+00
  0.00000000E+00  0.00000000E+00  0.00000000E+00
  0.00000000E+00  0.00000000E+00  0.00000000E+00
  0.00000000E+00  0.00000000E+00  0.00000000E+00
