       N       E                     dE             d eps       ncg     rms          rms(c)
DAV:   1     0.201653799100E+04    0.20165E+04   -0.66371E+04 18288   0.228E+03
DAV:   2     0.361913273749E+03   -0.16546E+04   -0.15409E+04 16200   0.691E+02
DAV:   3    -0.265316348583E+02   -0.38844E+03   -0.36307E+03 16516   0.233E+02
DAV:   4    -0.580156988338E+02   -0.31484E+02   -0.30837E+02 18652   0.724E+01
DAV:   5    -0.589838799887E+02   -0.96818E+00   -0.96656E+00 18992   0.130E+01    0.134E+01
DAV:   6    -0.581555369741E+02    0.82834E+00   -0.23538E+00 20392   0.749E+00    0.664E+00
DAV:   7    -0.579363028518E+02    0.21923E+00   -0.66148E-01 20264   0.522E+00    0.372E+00
DAV:   8    -0.578380686804E+02    0.98234E-01   -0.34840E-01 18696   0.430E+00    0.582E-01
DAV:   9    -0.578385662490E+02   -0.49757E-03   -0.36051E-02 21208   0.111E+00    0.353E-01
DAV:  10    -0.578380005441E+02    0.56570E-03   -0.51856E-03 19152   0.554E-01    0.165E-01
DAV:  11    -0.578379551881E+02    0.45356E-04   -0.11347E-03 17696   0.240E-01    0.479E-02
DAV:  12    -0.578379711239E+02   -0.15936E-04   -0.18584E-04 19940   0.854E-02    0.204E-02
DAV:  13    -0.578379776554E+02   -0.65315E-05   -0.33054E-05 19024   0.368E-02    0.631E-03
DAV:  14    -0.578379786078E+02   -0.95244E-06   -0.49538E-06 17880   0.196E-02
   1 F= -.57837979E+02 E0= -.57833354E+02  d E =-.924944E-02
