   4   4   0   0
  0.1180392E+02  0.3307787E-09  0.3307787E-09  0.4982882E-09  0.5000000E-15
  1.000000000000000E-004
  CAR 
 unknown system                          
     12.58694175    -40.20059843  301      1.17163619      1.00000000
    -40.201  0.0000E+00  0.0000E+00
    -40.025  0.0000E+00  0.0000E+00
    -39.849  0.0000E+00  0.0000E+00
    -39.673  0.0000E+00  0.0000E+00
    -39.497  0.0000E+00  0.0000E+00
    -39.321  0.0000E+00  0.0000E+00
    -39.145  0.0000E+00  0.0000E+00
    -38.969  0.0000E+00  0.0000E+00
    -38.793  0.0000E+00  0.0000E+00
    -38.617  0.0000E+00  0.0000E+00
    -38.441  0.0000E+00  0.0000E+00
    -38.265  0.0000E+00  0.0000E+00
    -38.089  0.8698E-16  0.1531E-16
    -37.913  0.3120E-02  0.5491E-03
    -37.737  0.4902E+02  0.8626E+01
    -37.561  0.1918E+02  0.1200E+02
    -37.385  0.3503E-05  0.1200E+02
    -37.209  0.0000E+00  0.1200E+02
    -37.033  0.0000E+00  0.1200E+02
    -36.857  0.0000E+00  0.1200E+02
    -36.681  0.0000E+00  0.1200E+02
    -36.505  0.0000E+00  0.1200E+02
    -36.330  0.0000E+00  0.1200E+02
    -36.154  0.0000E+00  0.1200E+02
    -35.978  0.0000E+00  0.1200E+02
    -35.802  0.0000E+00  0.1200E+02
    -35.626  0.0000E+00  0.1200E+02
    -35.450  0.0000E+00  0.1200E+02
    -35.274  0.0000E+00  0.1200E+02
    -35.098  0.0000E+00  0.1200E+02
    -34.922  0.0000E+00  0.1200E+02
    -34.746  0.0000E+00  0.1200E+02
    -34.570  0.0000E+00  0.1200E+02
    -34.394  0.0000E+00  0.1200E+02
    -34.218  0.0000E+00  0.1200E+02
    -34.042  0.0000E+00  0.1200E+02
    -33.866  0.0000E+00  0.1200E+02
    -33.690  0.0000E+00  0.1200E+02
    -33.514  0.0000E+00  0.1200E+02
    -33.338  0.0000E+00  0.1200E+02
    -33.162  0.0000E+00  0.1200E+02
    -32.986  0.0000E+00  0.1200E+02
    -32.810  0.0000E+00  0.1200E+02
    -32.634  0.0000E+00  0.1200E+02
    -32.458  0.0000E+00  0.1200E+02
    -32.282  0.0000E+00  0.1200E+02
    -32.107  0.0000E+00  0.1200E+02
    -31.931  0.0000E+00  0.1200E+02
    -31.755  0.0000E+00  0.1200E+02
    -31.579  0.0000E+00  0.1200E+02
    -31.403  0.0000E+00  0.1200E+02
    -31.227  0.0000E+00  0.1200E+02
    -31.051  0.0000E+00  0.1200E+02
    -30.875  0.0000E+00  0.1200E+02
    -30.699  0.0000E+00  0.1200E+02
    -30.523  0.0000E+00  0.1200E+02
    -30.347  0.0000E+00  0.1200E+02
    -30.171  0.0000E+00  0.1200E+02
    -29.995  0.0000E+00  0.1200E+02
    -29.819  0.0000E+00  0.1200E+02
    -29.643  0.0000E+00  0.1200E+02
    -29.467  0.0000E+00  0.1200E+02
    -29.291  0.0000E+00  0.1200E+02
    -29.115  0.0000E+00  0.1200E+02
    -28.939  0.0000E+00  0.1200E+02
    -28.763  0.0000E+00  0.1200E+02
    -28.587  0.0000E+00  0.1200E+02
    -28.411  0.0000E+00  0.1200E+02
    -28.235  0.0000E+00  0.1200E+02
    -28.059  0.0000E+00  0.1200E+02
    -27.884  0.0000E+00  0.1200E+02
    -27.708  0.0000E+00  0.1200E+02
    -27.532  0.0000E+00  0.1200E+02
    -27.356  0.0000E+00  0.1200E+02
    -27.180  0.0000E+00  0.1200E+02
    -27.004  0.0000E+00  0.1200E+02
    -26.828  0.0000E+00  0.1200E+02
    -26.652  0.0000E+00  0.1200E+02
    -26.476  0.0000E+00  0.1200E+02
    -26.300  0.0000E+00  0.1200E+02
    -26.124  0.0000E+00  0.1200E+02
    -25.948  0.0000E+00  0.1200E+02
    -25.772  0.0000E+00  0.1200E+02
    -25.596  0.0000E+00  0.1200E+02
    -25.420  0.0000E+00  0.1200E+02
    -25.244  0.0000E+00  0.1200E+02
    -25.068  0.0000E+00  0.1200E+02
    -24.892  0.0000E+00  0.1200E+02
    -24.716  0.0000E+00  0.1200E+02
    -24.540  0.0000E+00  0.1200E+02
    -24.364  0.0000E+00  0.1200E+02
    -24.188  0.0000E+00  0.1200E+02
    -24.012  0.0000E+00  0.1200E+02
    -23.836  0.0000E+00  0.1200E+02
    -23.661  0.0000E+00  0.1200E+02
    -23.485  0.0000E+00  0.1200E+02
    -23.309  0.0000E+00  0.1200E+02
    -23.133  0.0000E+00  0.1200E+02
    -22.957  0.0000E+00  0.1200E+02
    -22.781  0.0000E+00  0.1200E+02
    -22.605  0.0000E+00  0.1200E+02
    -22.429  0.0000E+00  0.1200E+02
    -22.253  0.0000E+00  0.1200E+02
    -22.077  0.0000E+00  0.1200E+02
    -21.901  0.0000E+00  0.1200E+02
    -21.725  0.0000E+00  0.1200E+02
    -21.549  0.0000E+00  0.1200E+02
    -21.373  0.0000E+00  0.1200E+02
    -21.197  0.0000E+00  0.1200E+02
    -21.021  0.0000E+00  0.1200E+02
    -20.845  0.0000E+00  0.1200E+02
    -20.669  0.0000E+00  0.1200E+02
    -20.493  0.0000E+00  0.1200E+02
    -20.317  0.0000E+00  0.1200E+02
    -20.141  0.0000E+00  0.1200E+02
    -19.965  0.0000E+00  0.1200E+02
    -19.789  0.0000E+00  0.1200E+02
    -19.613  0.0000E+00  0.1200E+02
    -19.437  0.0000E+00  0.1200E+02
    -19.262  0.0000E+00  0.1200E+02
    -19.086  0.0000E+00  0.1200E+02
    -18.910  0.0000E+00  0.1200E+02
    -18.734  0.0000E+00  0.1200E+02
    -18.558  0.0000E+00  0.1200E+02
    -18.382  0.0000E+00  0.1200E+02
    -18.206  0.0000E+00  0.1200E+02
    -18.030  0.0000E+00  0.1200E+02
    -17.854  0.0000E+00  0.1200E+02
    -17.678  0.0000E+00  0.1200E+02
    -17.502  0.0000E+00  0.1200E+02
    -17.326  0.0000E+00  0.1200E+02
    -17.150  0.0000E+00  0.1200E+02
    -16.974  0.0000E+00  0.1200E+02
    -16.798  0.0000E+00  0.1200E+02
    -16.622  0.0000E+00  0.1200E+02
    -16.446  0.0000E+00  0.1200E+02
    -16.270  0.0000E+00  0.1200E+02
    -16.094  0.0000E+00  0.1200E+02
    -15.918  0.0000E+00  0.1200E+02
    -15.742  0.0000E+00  0.1200E+02
    -15.566  0.7362E-06  0.1200E+02
    -15.390  0.6513E-01  0.1201E+02
    -15.214  0.7199E+00  0.1214E+02
    -15.039  0.1489E+01  0.1240E+02
    -14.863  0.2688E+01  0.1287E+02
    -14.687  0.5522E+01  0.1384E+02
    -14.511  0.9739E+01  0.1556E+02
    -14.335  0.2511E+01  0.1600E+02
    -14.159  0.8830E-05  0.1600E+02
    -13.983  0.0000E+00  0.1600E+02
    -13.807  0.0000E+00  0.1600E+02
    -13.631  0.0000E+00  0.1600E+02
    -13.455  0.0000E+00  0.1600E+02
    -13.279  0.0000E+00  0.1600E+02
    -13.103  0.0000E+00  0.1600E+02
    -12.927  0.0000E+00  0.1600E+02
    -12.751  0.0000E+00  0.1600E+02
    -12.575  0.0000E+00  0.1600E+02
    -12.399  0.0000E+00  0.1600E+02
    -12.223  0.0000E+00  0.1600E+02
    -12.047  0.0000E+00  0.1600E+02
    -11.871  0.0000E+00  0.1600E+02
    -11.695  0.0000E+00  0.1600E+02
    -11.519  0.0000E+00  0.1600E+02
    -11.343  0.0000E+00  0.1600E+02
    -11.167  0.0000E+00  0.1600E+02
    -10.991  0.0000E+00  0.1600E+02
    -10.816  0.0000E+00  0.1600E+02
    -10.640  0.0000E+00  0.1600E+02
    -10.464  0.0000E+00  0.1600E+02
    -10.288  0.0000E+00  0.1600E+02
    -10.112  0.0000E+00  0.1600E+02
     -9.936  0.0000E+00  0.1600E+02
     -9.760  0.0000E+00  0.1600E+02
     -9.584  0.0000E+00  0.1600E+02
     -9.408  0.0000E+00  0.1600E+02
     -9.232  0.0000E+00  0.1600E+02
     -9.056  0.0000E+00  0.1600E+02
     -8.880  0.0000E+00  0.1600E+02
     -8.704  0.0000E+00  0.1600E+02
     -8.528  0.0000E+00  0.1600E+02
     -8.352  0.0000E+00  0.1600E+02
     -8.176  0.0000E+00  0.1600E+02
     -8.000  0.0000E+00  0.1600E+02
     -7.824  0.0000E+00  0.1600E+02
     -7.648  0.0000E+00  0.1600E+02
     -7.472  0.0000E+00  0.1600E+02
     -7.296  0.0000E+00  0.1600E+02
     -7.120  0.0000E+00  0.1600E+02
     -6.944  0.0000E+00  0.1600E+02
     -6.768  0.0000E+00  0.1600E+02
     -6.593  0.0000E+00  0.1600E+02
     -6.417  0.0000E+00  0.1600E+02
     -6.241  0.0000E+00  0.1600E+02
     -6.065  0.0000E+00  0.1600E+02
     -5.889  0.0000E+00  0.1600E+02
     -5.713  0.0000E+00  0.1600E+02
     -5.537  0.0000E+00  0.1600E+02
     -5.361  0.0000E+00  0.1600E+02
     -5.185  0.0000E+00  0.1600E+02
     -5.009  0.0000E+00  0.1600E+02
     -4.833  0.0000E+00  0.1600E+02
     -4.657  0.0000E+00  0.1600E+02
     -4.481  0.0000E+00  0.1600E+02
     -4.305  0.0000E+00  0.1600E+02
     -4.129  0.0000E+00  0.1600E+02
     -3.953  0.0000E+00  0.1600E+02
     -3.777  0.0000E+00  0.1600E+02
     -3.601  0.0000E+00  0.1600E+02
     -3.425  0.0000E+00  0.1600E+02
     -3.249  0.0000E+00  0.1600E+02
     -3.073  0.0000E+00  0.1600E+02
     -2.897  0.0000E+00  0.1600E+02
     -2.721  0.0000E+00  0.1600E+02
     -2.545  0.3204E-05  0.1600E+02
     -2.370  0.1217E+00  0.1602E+02
     -2.194  0.1946E+01  0.1636E+02
     -2.018  0.3224E+01  0.1693E+02
     -1.842  0.5465E+01  0.1789E+02
     -1.666  0.3828E+01  0.1857E+02
     -1.490  0.2671E+01  0.1904E+02
     -1.314  0.2262E+01  0.1943E+02
     -1.138  0.1618E+01  0.1972E+02
     -0.962  0.2473E+01  0.2015E+02
     -0.786  0.2500E+01  0.2059E+02
     -0.610  0.3153E+01  0.2115E+02
     -0.434  0.3502E+01  0.2177E+02
     -0.258  0.5371E+01  0.2271E+02
     -0.082  0.4785E+01  0.2355E+02
      0.094  0.6542E+01  0.2470E+02
      0.270  0.7300E+01  0.2599E+02
      0.446  0.7828E+01  0.2737E+02
      0.622  0.2742E+01  0.2785E+02
      0.798  0.7552E+00  0.2798E+02
      0.974  0.1094E+00  0.2800E+02
      1.150  0.6888E-05  0.2800E+02
      1.326  0.0000E+00  0.2800E+02
      1.502  0.0000E+00  0.2800E+02
      1.678  0.0000E+00  0.2800E+02
      1.853  0.0000E+00  0.2800E+02
      2.029  0.0000E+00  0.2800E+02
      2.205  0.0000E+00  0.2800E+02
      2.381  0.0000E+00  0.2800E+02
      2.557  0.0000E+00  0.2800E+02
      2.733  0.0000E+00  0.2800E+02
      2.909  0.0000E+00  0.2800E+02
      3.085  0.0000E+00  0.2800E+02
      3.261  0.0000E+00  0.2800E+02
      3.437  0.0000E+00  0.2800E+02
      3.613  0.0000E+00  0.2800E+02
      3.789  0.0000E+00  0.2800E+02
      3.965  0.0000E+00  0.2800E+02
      4.141  0.9494E-08  0.2800E+02
      4.317  0.1211E-01  0.2800E+02
      4.493  0.1128E-01  0.2800E+02
      4.669  0.2519E-03  0.2800E+02
      4.845  0.6334E-01  0.2802E+02
      5.021  0.1235E+00  0.2804E+02
      5.197  0.3921E-01  0.2804E+02
      5.373  0.2414E+00  0.2809E+02
      5.549  0.1379E-04  0.2809E+02
      5.725  0.5783E-01  0.2810E+02
      5.901  0.1309E+00  0.2812E+02
      6.076  0.5083E+00  0.2821E+02
      6.252  0.2385E+00  0.2825E+02
      6.428  0.2339E+00  0.2829E+02
      6.604  0.8073E-01  0.2831E+02
      6.780  0.2177E+00  0.2834E+02
      6.956  0.4414E+00  0.2842E+02
      7.132  0.9339E+00  0.2859E+02
      7.308  0.7248E-01  0.2860E+02
      7.484  0.1052E+01  0.2878E+02
      7.660  0.6790E+00  0.2890E+02
      7.836  0.7807E-01  0.2892E+02
      8.012  0.4525E+00  0.2900E+02
      8.188  0.2947E+01  0.2952E+02
      8.364  0.1173E+01  0.2972E+02
      8.540  0.1670E+01  0.3002E+02
      8.716  0.1251E+01  0.3024E+02
      8.892  0.3147E+01  0.3079E+02
      9.068  0.1313E+01  0.3102E+02
      9.244  0.1975E+01  0.3137E+02
      9.420  0.1194E+01  0.3158E+02
      9.596  0.1434E+01  0.3183E+02
      9.772  0.3518E+00  0.3189E+02
      9.948  0.7330E-01  0.3191E+02
     10.124  0.3025E+00  0.3196E+02
     10.299  0.2331E+00  0.3200E+02
     10.475  0.1086E-03  0.3200E+02
     10.651  0.0000E+00  0.3200E+02
     10.827  0.0000E+00  0.3200E+02
     11.003  0.0000E+00  0.3200E+02
     11.179  0.0000E+00  0.3200E+02
     11.355  0.0000E+00  0.3200E+02
     11.531  0.0000E+00  0.3200E+02
     11.707  0.0000E+00  0.3200E+02
     11.883  0.0000E+00  0.3200E+02
     12.059  0.0000E+00  0.3200E+02
     12.235  0.0000E+00  0.3200E+02
     12.411  0.0000E+00  0.3200E+02
     12.587  0.0000E+00  0.3200E+02
