  12  12   0   0
  0.2998425E+02  0.4771398E-09  0.7917746E-09  0.9524173E-09  0.5000000E-15
  1.000000000000000E-004
  CAR 
 unknown system                          
      8.22594371    -26.67653511  301      0.32925788      1.00000000
    -26.677  0.0000E+00  0.0000E+00
    -26.560  0.0000E+00  0.0000E+00
    -26.444  0.0000E+00  0.0000E+00
    -26.328  0.0000E+00  0.0000E+00
    -26.211  0.0000E+00  0.0000E+00
    -26.095  0.0000E+00  0.0000E+00
    -25.978  0.0000E+00  0.0000E+00
    -25.862  0.0000E+00  0.0000E+00
    -25.746  0.0000E+00  0.0000E+00
    -25.629  0.0000E+00  0.0000E+00
    -25.513  0.0000E+00  0.0000E+00
    -25.397  0.0000E+00  0.0000E+00
    -25.280  0.2728E-06  0.3174E-07
    -25.164  0.4021E+00  0.4678E-01
    -25.048  0.5244E+02  0.6147E+01
    -24.931  0.1592E+02  0.8000E+01
    -24.815  0.2222E-02  0.8000E+01
    -24.699  0.1309E-10  0.8000E+01
    -24.582  0.0000E+00  0.8000E+01
    -24.466  0.0000E+00  0.8000E+01
    -24.350  0.0000E+00  0.8000E+01
    -24.233  0.0000E+00  0.8000E+01
    -24.117  0.0000E+00  0.8000E+01
    -24.001  0.0000E+00  0.8000E+01
    -23.884  0.0000E+00  0.8000E+01
    -23.768  0.0000E+00  0.8000E+01
    -23.652  0.0000E+00  0.8000E+01
    -23.535  0.0000E+00  0.8000E+01
    -23.419  0.0000E+00  0.8000E+01
    -23.303  0.0000E+00  0.8000E+01
    -23.186  0.0000E+00  0.8000E+01
    -23.070  0.0000E+00  0.8000E+01
    -22.954  0.0000E+00  0.8000E+01
    -22.837  0.0000E+00  0.8000E+01
    -22.721  0.0000E+00  0.8000E+01
    -22.605  0.0000E+00  0.8000E+01
    -22.488  0.0000E+00  0.8000E+01
    -22.372  0.0000E+00  0.8000E+01
    -22.256  0.0000E+00  0.8000E+01
    -22.139  0.0000E+00  0.8000E+01
    -22.023  0.0000E+00  0.8000E+01
    -21.907  0.0000E+00  0.8000E+01
    -21.790  0.0000E+00  0.8000E+01
    -21.674  0.0000E+00  0.8000E+01
    -21.558  0.0000E+00  0.8000E+01
    -21.441  0.0000E+00  0.8000E+01
    -21.325  0.0000E+00  0.8000E+01
    -21.208  0.0000E+00  0.8000E+01
    -21.092  0.0000E+00  0.8000E+01
    -20.976  0.0000E+00  0.8000E+01
    -20.859  0.0000E+00  0.8000E+01
    -20.743  0.0000E+00  0.8000E+01
    -20.627  0.0000E+00  0.8000E+01
    -20.510  0.0000E+00  0.8000E+01
    -20.394  0.0000E+00  0.8000E+01
    -20.278  0.0000E+00  0.8000E+01
    -20.161  0.0000E+00  0.8000E+01
    -20.045  0.0000E+00  0.8000E+01
    -19.929  0.0000E+00  0.8000E+01
    -19.812  0.0000E+00  0.8000E+01
    -19.696  0.0000E+00  0.8000E+01
    -19.580  0.0000E+00  0.8000E+01
    -19.463  0.0000E+00  0.8000E+01
    -19.347  0.0000E+00  0.8000E+01
    -19.231  0.0000E+00  0.8000E+01
    -19.114  0.0000E+00  0.8000E+01
    -18.998  0.0000E+00  0.8000E+01
    -18.882  0.0000E+00  0.8000E+01
    -18.765  0.0000E+00  0.8000E+01
    -18.649  0.0000E+00  0.8000E+01
    -18.533  0.0000E+00  0.8000E+01
    -18.416  0.0000E+00  0.8000E+01
    -18.300  0.0000E+00  0.8000E+01
    -18.184  0.0000E+00  0.8000E+01
    -18.067  0.0000E+00  0.8000E+01
    -17.951  0.0000E+00  0.8000E+01
    -17.835  0.0000E+00  0.8000E+01
    -17.718  0.0000E+00  0.8000E+01
    -17.602  0.0000E+00  0.8000E+01
    -17.486  0.0000E+00  0.8000E+01
    -17.369  0.0000E+00  0.8000E+01
    -17.253  0.0000E+00  0.8000E+01
    -17.137  0.0000E+00  0.8000E+01
    -17.020  0.0000E+00  0.8000E+01
    -16.904  0.0000E+00  0.8000E+01
    -16.787  0.0000E+00  0.8000E+01
    -16.671  0.0000E+00  0.8000E+01
    -16.555  0.0000E+00  0.8000E+01
    -16.438  0.0000E+00  0.8000E+01
    -16.322  0.0000E+00  0.8000E+01
    -16.206  0.0000E+00  0.8000E+01
    -16.089  0.0000E+00  0.8000E+01
    -15.973  0.0000E+00  0.8000E+01
    -15.857  0.0000E+00  0.8000E+01
    -15.740  0.0000E+00  0.8000E+01
    -15.624  0.0000E+00  0.8000E+01
    -15.508  0.0000E+00  0.8000E+01
    -15.391  0.0000E+00  0.8000E+01
    -15.275  0.0000E+00  0.8000E+01
    -15.159  0.0000E+00  0.8000E+01
    -15.042  0.0000E+00  0.8000E+01
    -14.926  0.0000E+00  0.8000E+01
    -14.810  0.0000E+00  0.8000E+01
    -14.693  0.0000E+00  0.8000E+01
    -14.577  0.0000E+00  0.8000E+01
    -14.461  0.0000E+00  0.8000E+01
    -14.344  0.0000E+00  0.8000E+01
    -14.228  0.0000E+00  0.8000E+01
    -14.112  0.0000E+00  0.8000E+01
    -13.995  0.0000E+00  0.8000E+01
    -13.879  0.0000E+00  0.8000E+01
    -13.763  0.0000E+00  0.8000E+01
    -13.646  0.0000E+00  0.8000E+01
    -13.530  0.0000E+00  0.8000E+01
    -13.414  0.0000E+00  0.8000E+01
    -13.297  0.2257E-08  0.8000E+01
    -13.181  0.4323E-02  0.8001E+01
    -13.065  0.2407E+01  0.8281E+01
    -12.948  0.1744E+02  0.1031E+02
    -12.832  0.2251E+02  0.1293E+02
    -12.716  0.2162E+02  0.1544E+02
    -12.599  0.4104E+01  0.1592E+02
    -12.483  0.5826E+01  0.1660E+02
    -12.367  0.3488E+02  0.2066E+02
    -12.250  0.2786E+02  0.2390E+02
    -12.134  0.8769E+00  0.2400E+02
    -12.017  0.4804E-04  0.2400E+02
    -11.901  0.1407E-12  0.2400E+02
    -11.785  0.0000E+00  0.2400E+02
    -11.668  0.0000E+00  0.2400E+02
    -11.552  0.0000E+00  0.2400E+02
    -11.436  0.0000E+00  0.2400E+02
    -11.319  0.0000E+00  0.2400E+02
    -11.203  0.0000E+00  0.2400E+02
    -11.087  0.0000E+00  0.2400E+02
    -10.970  0.0000E+00  0.2400E+02
    -10.854  0.0000E+00  0.2400E+02
    -10.738  0.0000E+00  0.2400E+02
    -10.621  0.1903E-10  0.2400E+02
    -10.505  0.8043E-03  0.2400E+02
    -10.389  0.3420E+01  0.2440E+02
    -10.272  0.5933E+02  0.3130E+02
    -10.156  0.7006E+02  0.3945E+02
    -10.040  0.2135E+02  0.4194E+02
     -9.923  0.2586E+02  0.4494E+02
     -9.807  0.2113E+02  0.4740E+02
     -9.691  0.5028E+01  0.4799E+02
     -9.574  0.1113E+00  0.4800E+02
     -9.458  0.1595E-05  0.4800E+02
     -9.342  0.9543E-15  0.4800E+02
     -9.225  0.0000E+00  0.4800E+02
     -9.109  0.0000E+00  0.4800E+02
     -8.993  0.0000E+00  0.4800E+02
     -8.876  0.0000E+00  0.4800E+02
     -8.760  0.0000E+00  0.4800E+02
     -8.644  0.0000E+00  0.4800E+02
     -8.527  0.0000E+00  0.4800E+02
     -8.411  0.0000E+00  0.4800E+02
     -8.295  0.0000E+00  0.4800E+02
     -8.178  0.0000E+00  0.4800E+02
     -8.062  0.0000E+00  0.4800E+02
     -7.946  0.0000E+00  0.4800E+02
     -7.829  0.0000E+00  0.4800E+02
     -7.713  0.0000E+00  0.4800E+02
     -7.597  0.0000E+00  0.4800E+02
     -7.480  0.0000E+00  0.4800E+02
     -7.364  0.0000E+00  0.4800E+02
     -7.247  0.0000E+00  0.4800E+02
     -7.131  0.0000E+00  0.4800E+02
     -7.015  0.0000E+00  0.4800E+02
     -6.898  0.0000E+00  0.4800E+02
     -6.782  0.0000E+00  0.4800E+02
     -6.666  0.0000E+00  0.4800E+02
     -6.549  0.0000E+00  0.4800E+02
     -6.433  0.0000E+00  0.4800E+02
     -6.317  0.0000E+00  0.4800E+02
     -6.200  0.0000E+00  0.4800E+02
     -6.084  0.0000E+00  0.4800E+02
     -5.968  0.0000E+00  0.4800E+02
     -5.851  0.0000E+00  0.4800E+02
     -5.735  0.0000E+00  0.4800E+02
     -5.619  0.0000E+00  0.4800E+02
     -5.502  0.0000E+00  0.4800E+02
     -5.386  0.0000E+00  0.4800E+02
     -5.270  0.0000E+00  0.4800E+02
     -5.153  0.0000E+00  0.4800E+02
     -5.037  0.0000E+00  0.4800E+02
     -4.921  0.0000E+00  0.4800E+02
     -4.804  0.0000E+00  0.4800E+02
     -4.688  0.0000E+00  0.4800E+02
     -4.572  0.0000E+00  0.4800E+02
     -4.455  0.0000E+00  0.4800E+02
     -4.339  0.0000E+00  0.4800E+02
     -4.223  0.0000E+00  0.4800E+02
     -4.106  0.0000E+00  0.4800E+02
     -3.990  0.0000E+00  0.4800E+02
     -3.874  0.0000E+00  0.4800E+02
     -3.757  0.0000E+00  0.4800E+02
     -3.641  0.0000E+00  0.4800E+02
     -3.525  0.0000E+00  0.4800E+02
     -3.408  0.0000E+00  0.4800E+02
     -3.292  0.0000E+00  0.4800E+02
     -3.176  0.0000E+00  0.4800E+02
     -3.059  0.0000E+00  0.4800E+02
     -2.943  0.0000E+00  0.4800E+02
     -2.827  0.0000E+00  0.4800E+02
     -2.710  0.0000E+00  0.4800E+02
     -2.594  0.0000E+00  0.4800E+02
     -2.477  0.0000E+00  0.4800E+02
     -2.361  0.0000E+00  0.4800E+02
     -2.245  0.1002E-09  0.4800E+02
     -2.128  0.8840E-03  0.4800E+02
     -2.012  0.6724E+00  0.4808E+02
     -1.896  0.5887E+01  0.4876E+02
     -1.779  0.1689E+02  0.5073E+02
     -1.663  0.1974E+02  0.5302E+02
     -1.547  0.1809E+02  0.5513E+02
     -1.430  0.1992E+02  0.5745E+02
     -1.314  0.2541E+02  0.6040E+02
     -1.198  0.2214E+02  0.6298E+02
     -1.081  0.2064E+02  0.6538E+02
     -0.965  0.2389E+02  0.6816E+02
     -0.849  0.2287E+02  0.7082E+02
     -0.732  0.2252E+02  0.7344E+02
     -0.616  0.1902E+02  0.7565E+02
     -0.500  0.3143E+02  0.7931E+02
     -0.383  0.3322E+02  0.8317E+02
     -0.267  0.3323E+02  0.8704E+02
     -0.151  0.2867E+02  0.9038E+02
     -0.034  0.2781E+02  0.9361E+02
      0.082  0.1875E+02  0.9579E+02
      0.198  0.1777E+01  0.9600E+02
      0.315  0.1628E-02  0.9600E+02
      0.431  0.2367E-09  0.9600E+02
      0.547  0.0000E+00  0.9600E+02
      0.664  0.0000E+00  0.9600E+02
      0.780  0.0000E+00  0.9600E+02
      0.896  0.0000E+00  0.9600E+02
      1.013  0.0000E+00  0.9600E+02
      1.129  0.0000E+00  0.9600E+02
      1.245  0.0000E+00  0.9600E+02
      1.362  0.0000E+00  0.9600E+02
      1.478  0.0000E+00  0.9600E+02
      1.594  0.0000E+00  0.9600E+02
      1.711  0.0000E+00  0.9600E+02
      1.827  0.0000E+00  0.9600E+02
      1.943  0.0000E+00  0.9600E+02
      2.060  0.0000E+00  0.9600E+02
      2.176  0.0000E+00  0.9600E+02
      2.293  0.0000E+00  0.9600E+02
      2.409  0.0000E+00  0.9600E+02
      2.525  0.0000E+00  0.9600E+02
      2.642  0.0000E+00  0.9600E+02
      2.758  0.0000E+00  0.9600E+02
      2.874  0.0000E+00  0.9600E+02
      2.991  0.0000E+00  0.9600E+02
      3.107  0.0000E+00  0.9600E+02
      3.223  0.0000E+00  0.9600E+02
      3.340  0.0000E+00  0.9600E+02
      3.456  0.0000E+00  0.9600E+02
      3.572  0.0000E+00  0.9600E+02
      3.689  0.0000E+00  0.9600E+02
      3.805  0.0000E+00  0.9600E+02
      3.921  0.0000E+00  0.9600E+02
      4.038  0.0000E+00  0.9600E+02
      4.154  0.0000E+00  0.9600E+02
      4.270  0.0000E+00  0.9600E+02
      4.387  0.0000E+00  0.9600E+02
      4.503  0.0000E+00  0.9600E+02
      4.619  0.0000E+00  0.9600E+02
      4.736  0.0000E+00  0.9600E+02
      4.852  0.0000E+00  0.9600E+02
      4.968  0.5097E-07  0.9600E+02
      5.085  0.1093E-01  0.9600E+02
      5.201  0.2849E+00  0.9603E+02
      5.317  0.7430E-01  0.9604E+02
      5.434  0.1349E+01  0.9620E+02
      5.550  0.6808E+00  0.9628E+02
      5.666  0.3307E+01  0.9666E+02
      5.783  0.3109E+01  0.9703E+02
      5.899  0.6941E+01  0.9783E+02
      6.015  0.8692E+01  0.9884E+02
      6.132  0.1328E+02  0.1004E+03
      6.248  0.1181E+02  0.1018E+03
      6.364  0.7365E+01  0.1026E+03
      6.481  0.4154E+01  0.1031E+03
      6.597  0.5058E+01  0.1037E+03
      6.714  0.2628E+01  0.1040E+03
      6.830  0.1436E-01  0.1040E+03
      6.946  0.1428E-07  0.1040E+03
      7.063  0.0000E+00  0.1040E+03
      7.179  0.0000E+00  0.1040E+03
      7.295  0.0000E+00  0.1040E+03
      7.412  0.0000E+00  0.1040E+03
      7.528  0.0000E+00  0.1040E+03
      7.644  0.0000E+00  0.1040E+03
      7.761  0.0000E+00  0.1040E+03
      7.877  0.0000E+00  0.1040E+03
      7.993  0.0000E+00  0.1040E+03
      8.110  0.0000E+00  0.1040E+03
      8.226  0.0000E+00  0.1040E+03
