       N       E                     dE             d eps       ncg     rms          rms(c)
DAV:   1     0.849274785522E+03    0.84927E+03   -0.46671E+04  5616   0.181E+03
DAV:   2     0.235667753876E+02   -0.82571E+03   -0.81297E+03  8476   0.320E+02
DAV:   3    -0.515988288026E+02   -0.75166E+02   -0.75045E+02  6156   0.105E+02
DAV:   4    -0.536209642224E+02   -0.20221E+01   -0.20196E+01  7176   0.182E+01
DAV:   5    -0.536934540592E+02   -0.72490E-01   -0.72475E-01  7868   0.306E+00    0.855E+00
DAV:   6    -0.526724407823E+02    0.10210E+01   -0.31862E+00  6044   0.526E+00    0.638E+00
DAV:   7    -0.527108249837E+02   -0.38384E-01   -0.10350E+00  7336   0.335E+00    0.295E+00
DAV:   8    -0.527711881362E+02   -0.60363E-01   -0.12238E-01  6048   0.159E+00    0.446E-01
DAV:   9    -0.527819120407E+02   -0.10724E-01   -0.26819E-02  6048   0.747E-01    0.177E-01
DAV:  10    -0.527839092313E+02   -0.19972E-02   -0.35530E-03  6128   0.277E-01    0.670E-02
DAV:  11    -0.527840778170E+02   -0.16859E-03   -0.25868E-04  7680   0.623E-02    0.394E-02
DAV:  12    -0.527841179344E+02   -0.40117E-04   -0.13509E-04  7344   0.482E-02    0.134E-02
DAV:  13    -0.527841314720E+02   -0.13538E-04   -0.32128E-05  6048   0.287E-02    0.706E-03
DAV:  14    -0.527841324870E+02   -0.10150E-05   -0.88642E-06  6008   0.105E-02    0.316E-03
DAV:  15    -0.527841328028E+02   -0.31589E-06   -0.10288E-06  3456   0.546E-03
   1 F= -.52784133E+02 E0= -.52784133E+02  d E =-.448376E-12
