Na4S4
1.0
      4.4515464       0.0000000       0.0000000
     -2.2257732       3.8551542       0.0000000
      0.0000000       0.0000000      10.1758028
  Na    S   
  4     4   
Direct
      0.0000000       0.0000000       0.0000000
      0.0000000       0.0000000       0.5000000
      0.3333330       0.6666670       0.2500000
      0.6666670       0.3333330       0.7500000
      0.3333330       0.6666670       0.6441891
      0.6666670       0.3333330       0.1441891
      0.6666670       0.3333330       0.3558109
      0.3333330       0.6666670       0.8558109
