Sr1 Tl3                                 
   1.00000000000000     
     0.0000000000000000    0.0000000000000000    4.9451897699999998
     4.9436861199999997    0.0000000000000000    0.0000000000000000
     0.0000000000000000    4.9436861199999997    0.0000000000000000
   Sr   Tl
     1     3
Direct
     0.0000000000000000    0.0000000000000000    0.0000000000000000
     0.5000000000000000    0.0000000000000000    0.5000000000000000
     0.5000000000000000    0.5000000000000000    0.0000000000000000
     0.0000000000000000    0.5000000000000000    0.5000000000000000
 
  0.00000000E+00  0.00000000E+00  0.00000000E+00
  0.00000000E+00  0.00000000E+00  0.00000000E+00
  0.00000000E+00  0.00000000E+00  0.00000000E+00
  0.00000000E+00  0.00000000E+00  0.00000000E+00
