       N       E                     dE             d eps       ncg     rms          rms(c)
DAV:   1     0.298736976597E+03    0.29874E+03   -0.27438E+04  8000   0.160E+03
DAV:   2     0.120177771386E+00   -0.29862E+03   -0.29086E+03  9152   0.341E+02
DAV:   3    -0.921778293366E+01   -0.93380E+01   -0.92528E+01 11000   0.487E+01
DAV:   4    -0.951665170533E+01   -0.29887E+00   -0.29853E+00 10880   0.626E+00
DAV:   5    -0.951974024152E+01   -0.30885E-02   -0.30884E-02  9880   0.718E-01    0.179E+01
DAV:   6    -0.934624041208E+01    0.17350E+00   -0.37580E-01  9544   0.364E+00    0.958E+00
DAV:   7    -0.932832196071E+01    0.17918E-01   -0.16816E-01  9680   0.248E+00    0.123E+00
DAV:   8    -0.932517411969E+01    0.31478E-02   -0.25283E-02 10056   0.875E-01    0.186E-01
DAV:   9    -0.932524069672E+01   -0.66577E-04   -0.10780E-03  9464   0.171E-01    0.766E-02
DAV:  10    -0.932527125579E+01   -0.30559E-04   -0.62604E-05 11944   0.295E-02    0.245E-02
DAV:  11    -0.932528444091E+01   -0.13185E-04   -0.11639E-05  9192   0.214E-02    0.911E-03
DAV:  12    -0.932528424300E+01    0.19791E-06   -0.55273E-07  6008   0.346E-03
   1 F= -.93252842E+01 E0= -.93224354E+01  d E =-.569767E-02
