Sr1 Tl3
1.0
   0.0000000000000000   -0.0000000000000000    4.9451897699999998
   4.9436861199999997    0.0000000000000000   -0.0000000000000000
   0.0000000000000000    4.9436861199999997   -0.0000000000000000
Sr Tl
1 3
direct
  -0.0000000000000000    0.0000000000000000   -0.0000000000000000 Sr
   0.5000000000000000    0.0000000000000000    0.5000000000000000 Tl
   0.5000000000000000    0.5000000000000000   -0.0000000000000000 Tl
  -0.0000000000000000    0.5000000000000000    0.5000000000000000 Tl
