   4   4   0   0
  0.3117154E+02  0.4411436E-09  0.4544146E-09  0.6599456E-09  0.5000000E-15
  1.000000000000000E-004
  CAR 
 unknown system                          
     13.22508324    -13.17415895  301      2.84688116      1.00000000
    -13.174  0.0000E+00  0.0000E+00
    -13.086  0.0000E+00  0.0000E+00
    -12.998  0.0000E+00  0.0000E+00
    -12.910  0.0000E+00  0.0000E+00
    -12.822  0.0000E+00  0.0000E+00
    -12.734  0.0000E+00  0.0000E+00
    -12.646  0.0000E+00  0.0000E+00
    -12.558  0.0000E+00  0.0000E+00
    -12.470  0.0000E+00  0.0000E+00
    -12.382  0.0000E+00  0.0000E+00
    -12.294  0.0000E+00  0.0000E+00
    -12.206  0.2084E-10  0.1834E-11
    -12.118  0.2089E-04  0.1838E-05
    -12.030  0.6939E-01  0.6108E-02
    -11.942  0.3042E+01  0.2738E+00
    -11.854  0.2097E+02  0.2119E+01
    -11.766  0.2048E+02  0.3922E+01
    -11.678  0.8875E+00  0.4000E+01
    -11.590  0.3656E-03  0.4000E+01
    -11.502  0.6075E-09  0.4000E+01
    -11.414  0.0000E+00  0.4000E+01
    -11.326  0.0000E+00  0.4000E+01
    -11.238  0.0000E+00  0.4000E+01
    -11.150  0.5851E-09  0.4000E+01
    -11.062  0.6201E-03  0.4000E+01
    -10.974  0.2342E+01  0.4206E+01
    -10.886  0.7910E+02  0.1117E+02
    -10.798  0.1070E+03  0.2058E+02
    -10.710  0.2732E+02  0.2298E+02
    -10.622  0.1121E+02  0.2397E+02
    -10.534  0.3246E+00  0.2400E+02
    -10.446  0.1318E-03  0.2400E+02
    -10.358  0.2773E-09  0.2400E+02
    -10.270  0.0000E+00  0.2400E+02
    -10.182  0.0000E+00  0.2400E+02
    -10.094  0.0000E+00  0.2400E+02
    -10.006  0.0000E+00  0.2400E+02
     -9.918  0.0000E+00  0.2400E+02
     -9.830  0.0000E+00  0.2400E+02
     -9.742  0.0000E+00  0.2400E+02
     -9.654  0.0000E+00  0.2400E+02
     -9.566  0.0000E+00  0.2400E+02
     -9.478  0.0000E+00  0.2400E+02
     -9.390  0.0000E+00  0.2400E+02
     -9.302  0.0000E+00  0.2400E+02
     -9.214  0.0000E+00  0.2400E+02
     -9.126  0.0000E+00  0.2400E+02
     -9.038  0.0000E+00  0.2400E+02
     -8.950  0.0000E+00  0.2400E+02
     -8.862  0.0000E+00  0.2400E+02
     -8.774  0.0000E+00  0.2400E+02
     -8.686  0.0000E+00  0.2400E+02
     -8.598  0.0000E+00  0.2400E+02
     -8.510  0.0000E+00  0.2400E+02
     -8.422  0.0000E+00  0.2400E+02
     -8.334  0.0000E+00  0.2400E+02
     -8.246  0.0000E+00  0.2400E+02
     -8.158  0.0000E+00  0.2400E+02
     -8.070  0.0000E+00  0.2400E+02
     -7.982  0.0000E+00  0.2400E+02
     -7.894  0.0000E+00  0.2400E+02
     -7.806  0.0000E+00  0.2400E+02
     -7.718  0.0000E+00  0.2400E+02
     -7.630  0.0000E+00  0.2400E+02
     -7.542  0.0000E+00  0.2400E+02
     -7.454  0.0000E+00  0.2400E+02
     -7.366  0.0000E+00  0.2400E+02
     -7.278  0.0000E+00  0.2400E+02
     -7.190  0.0000E+00  0.2400E+02
     -7.102  0.0000E+00  0.2400E+02
     -7.014  0.0000E+00  0.2400E+02
     -6.926  0.0000E+00  0.2400E+02
     -6.838  0.0000E+00  0.2400E+02
     -6.750  0.0000E+00  0.2400E+02
     -6.662  0.0000E+00  0.2400E+02
     -6.574  0.0000E+00  0.2400E+02
     -6.486  0.0000E+00  0.2400E+02
     -6.398  0.0000E+00  0.2400E+02
     -6.310  0.0000E+00  0.2400E+02
     -6.222  0.0000E+00  0.2400E+02
     -6.134  0.0000E+00  0.2400E+02
     -6.046  0.0000E+00  0.2400E+02
     -5.958  0.0000E+00  0.2400E+02
     -5.870  0.0000E+00  0.2400E+02
     -5.782  0.0000E+00  0.2400E+02
     -5.694  0.0000E+00  0.2400E+02
     -5.606  0.0000E+00  0.2400E+02
     -5.518  0.0000E+00  0.2400E+02
     -5.430  0.0000E+00  0.2400E+02
     -5.342  0.0000E+00  0.2400E+02
     -5.254  0.0000E+00  0.2400E+02
     -5.166  0.0000E+00  0.2400E+02
     -5.078  0.0000E+00  0.2400E+02
     -4.990  0.0000E+00  0.2400E+02
     -4.902  0.0000E+00  0.2400E+02
     -4.814  0.0000E+00  0.2400E+02
     -4.726  0.0000E+00  0.2400E+02
     -4.638  0.0000E+00  0.2400E+02
     -4.550  0.0000E+00  0.2400E+02
     -4.462  0.0000E+00  0.2400E+02
     -4.374  0.0000E+00  0.2400E+02
     -4.286  0.0000E+00  0.2400E+02
     -4.198  0.0000E+00  0.2400E+02
     -4.110  0.0000E+00  0.2400E+02
     -4.022  0.0000E+00  0.2400E+02
     -3.934  0.0000E+00  0.2400E+02
     -3.846  0.0000E+00  0.2400E+02
     -3.758  0.0000E+00  0.2400E+02
     -3.670  0.0000E+00  0.2400E+02
     -3.582  0.0000E+00  0.2400E+02
     -3.494  0.0000E+00  0.2400E+02
     -3.406  0.0000E+00  0.2400E+02
     -3.318  0.0000E+00  0.2400E+02
     -3.230  0.0000E+00  0.2400E+02
     -3.142  0.0000E+00  0.2400E+02
     -3.054  0.0000E+00  0.2400E+02
     -2.966  0.0000E+00  0.2400E+02
     -2.878  0.1121E-14  0.2400E+02
     -2.790  0.2350E-07  0.2400E+02
     -2.702  0.1238E-02  0.2400E+02
     -2.614  0.2678E+00  0.2402E+02
     -2.526  0.1254E+01  0.2413E+02
     -2.438  0.1861E+01  0.2430E+02
     -2.350  0.2616E+01  0.2453E+02
     -2.262  0.2886E+01  0.2478E+02
     -2.174  0.3455E+01  0.2509E+02
     -2.086  0.3359E+01  0.2538E+02
     -1.998  0.2653E+01  0.2561E+02
     -1.910  0.2179E+01  0.2581E+02
     -1.822  0.4073E+01  0.2617E+02
     -1.734  0.2543E+01  0.2639E+02
     -1.646  0.4971E+01  0.2683E+02
     -1.558  0.5097E+01  0.2727E+02
     -1.470  0.2882E+01  0.2753E+02
     -1.382  0.1224E+01  0.2764E+02
     -1.294  0.5544E+00  0.2768E+02
     -1.207  0.1485E+01  0.2782E+02
     -1.119  0.2442E+01  0.2803E+02
     -1.031  0.1537E+01  0.2817E+02
     -0.943  0.6427E+00  0.2822E+02
     -0.855  0.7207E+00  0.2829E+02
     -0.767  0.3305E+01  0.2858E+02
     -0.679  0.5129E+01  0.2903E+02
     -0.591  0.3821E+01  0.2936E+02
     -0.503  0.1497E+01  0.2950E+02
     -0.415  0.5156E+01  0.2995E+02
     -0.327  0.6131E+01  0.3049E+02
     -0.239  0.6145E+01  0.3103E+02
     -0.151  0.6089E+01  0.3157E+02
     -0.063  0.7265E+01  0.3221E+02
      0.025  0.6340E+01  0.3276E+02
      0.113  0.7260E+01  0.3340E+02
      0.201  0.1247E+02  0.3450E+02
      0.289  0.1331E+02  0.3567E+02
      0.377  0.3644E+01  0.3599E+02
      0.465  0.1297E+00  0.3600E+02
      0.553  0.6644E+00  0.3606E+02
      0.641  0.5556E+00  0.3611E+02
      0.729  0.1438E-01  0.3611E+02
      0.817  0.1197E-01  0.3611E+02
      0.905  0.7076E+00  0.3617E+02
      0.993  0.1068E+01  0.3627E+02
      1.081  0.1439E+01  0.3640E+02
      1.169  0.3147E+01  0.3667E+02
      1.257  0.4892E+01  0.3710E+02
      1.345  0.3343E+01  0.3740E+02
      1.433  0.1956E+01  0.3757E+02
      1.521  0.3158E+01  0.3785E+02
      1.609  0.2272E+01  0.3805E+02
      1.697  0.2056E+01  0.3823E+02
      1.785  0.3356E+01  0.3852E+02
      1.873  0.2985E+01  0.3879E+02
      1.961  0.1217E+01  0.3889E+02
      2.049  0.1981E+01  0.3907E+02
      2.137  0.4922E+01  0.3950E+02
      2.225  0.2372E+01  0.3971E+02
      2.313  0.7351E+00  0.3977E+02
      2.401  0.5139E-01  0.3978E+02
      2.489  0.3594E+00  0.3981E+02
      2.577  0.1829E+01  0.3997E+02
      2.665  0.3356E+00  0.4000E+02
      2.753  0.8518E-03  0.4000E+02
      2.841  0.8465E-08  0.4000E+02
      2.929  0.2103E-15  0.4000E+02
      3.017  0.0000E+00  0.4000E+02
      3.105  0.0000E+00  0.4000E+02
      3.193  0.0000E+00  0.4000E+02
      3.281  0.0000E+00  0.4000E+02
      3.369  0.0000E+00  0.4000E+02
      3.457  0.0000E+00  0.4000E+02
      3.545  0.0000E+00  0.4000E+02
      3.633  0.0000E+00  0.4000E+02
      3.721  0.0000E+00  0.4000E+02
      3.809  0.0000E+00  0.4000E+02
      3.897  0.0000E+00  0.4000E+02
      3.985  0.0000E+00  0.4000E+02
      4.073  0.0000E+00  0.4000E+02
      4.161  0.0000E+00  0.4000E+02
      4.249  0.3576E-10  0.4000E+02
      4.337  0.2375E-04  0.4000E+02
      4.425  0.4467E-01  0.4000E+02
      4.513  0.5290E+00  0.4005E+02
      4.601  0.6733E+00  0.4011E+02
      4.689  0.6536E+00  0.4017E+02
      4.777  0.5743E+00  0.4022E+02
      4.865  0.8838E+00  0.4030E+02
      4.953  0.1354E+01  0.4041E+02
      5.041  0.1946E+01  0.4059E+02
      5.129  0.1879E+01  0.4075E+02
      5.217  0.1719E+01  0.4090E+02
      5.305  0.1910E+01  0.4107E+02
      5.393  0.1644E+01  0.4122E+02
      5.481  0.3234E+01  0.4150E+02
      5.569  0.4930E+01  0.4193E+02
      5.657  0.3633E+01  0.4225E+02
      5.745  0.1830E+01  0.4241E+02
      5.833  0.3850E+01  0.4275E+02
      5.921  0.2692E+01  0.4299E+02
      6.009  0.1776E+01  0.4315E+02
      6.097  0.2440E+01  0.4336E+02
      6.185  0.3854E+01  0.4370E+02
      6.273  0.5926E+01  0.4422E+02
      6.361  0.3694E+01  0.4455E+02
      6.449  0.1995E+01  0.4472E+02
      6.537  0.2571E+01  0.4495E+02
      6.625  0.1943E+01  0.4512E+02
      6.713  0.2623E+01  0.4535E+02
      6.801  0.3695E+01  0.4568E+02
      6.889  0.4733E+01  0.4609E+02
      6.977  0.3742E+01  0.4642E+02
      7.065  0.4612E+01  0.4683E+02
      7.153  0.3820E+01  0.4716E+02
      7.241  0.2648E+01  0.4740E+02
      7.329  0.2450E+01  0.4761E+02
      7.417  0.2033E+01  0.4779E+02
      7.505  0.1167E+01  0.4789E+02
      7.593  0.1225E+01  0.4800E+02
      7.681  0.2619E+01  0.4823E+02
      7.769  0.2763E+01  0.4848E+02
      7.857  0.2671E+01  0.4871E+02
      7.945  0.1017E+01  0.4880E+02
      8.033  0.2435E+01  0.4901E+02
      8.121  0.3235E+01  0.4930E+02
      8.209  0.2327E+01  0.4950E+02
      8.297  0.2938E+01  0.4976E+02
      8.385  0.1296E+01  0.4988E+02
      8.473  0.3346E+01  0.5017E+02
      8.561  0.2968E+01  0.5043E+02
      8.649  0.8332E+00  0.5051E+02
      8.737  0.1321E+01  0.5062E+02
      8.825  0.2560E+01  0.5085E+02
      8.913  0.3184E+01  0.5113E+02
      9.001  0.5412E+01  0.5160E+02
      9.089  0.2498E+01  0.5182E+02
      9.177  0.5381E+00  0.5187E+02
      9.265  0.1164E+01  0.5197E+02
      9.353  0.3091E+00  0.5200E+02
      9.441  0.2555E+00  0.5202E+02
      9.529  0.1369E+01  0.5214E+02
      9.617  0.8810E+00  0.5222E+02
      9.705  0.3131E-01  0.5222E+02
      9.793  0.6637E+00  0.5228E+02
      9.881  0.9723E+00  0.5237E+02
      9.969  0.1222E+01  0.5247E+02
     10.057  0.3462E+01  0.5278E+02
     10.145  0.4209E+01  0.5315E+02
     10.233  0.2146E+01  0.5334E+02
     10.321  0.3531E+01  0.5365E+02
     10.409  0.1388E+01  0.5377E+02
     10.497  0.1149E+01  0.5387E+02
     10.585  0.1460E+01  0.5400E+02
     10.673  0.1602E+01  0.5414E+02
     10.761  0.1267E+01  0.5425E+02
     10.849  0.1182E+01  0.5436E+02
     10.937  0.3369E+01  0.5465E+02
     11.025  0.3144E+01  0.5493E+02
     11.113  0.1325E+01  0.5505E+02
     11.201  0.2549E+01  0.5527E+02
     11.289  0.1826E+01  0.5543E+02
     11.377  0.8276E+00  0.5550E+02
     11.465  0.7005E+00  0.5557E+02
     11.553  0.1678E+01  0.5571E+02
     11.641  0.1540E+01  0.5585E+02
     11.729  0.4436E+00  0.5589E+02
     11.817  0.3200E-02  0.5589E+02
     11.905  0.6619E-03  0.5589E+02
     11.993  0.2667E+00  0.5591E+02
     12.081  0.9362E+00  0.5599E+02
     12.169  0.5916E-01  0.5600E+02
     12.257  0.2071E-04  0.5600E+02
     12.345  0.2103E-10  0.5600E+02
     12.433  0.0000E+00  0.5600E+02
     12.521  0.0000E+00  0.5600E+02
     12.609  0.0000E+00  0.5600E+02
     12.697  0.0000E+00  0.5600E+02
     12.785  0.0000E+00  0.5600E+02
     12.873  0.0000E+00  0.5600E+02
     12.961  0.0000E+00  0.5600E+02
     13.049  0.0000E+00  0.5600E+02
     13.137  0.0000E+00  0.5600E+02
     13.225  0.0000E+00  0.5600E+02
