Zr2 Mo4
1.0
   4.6565814000000003    0.0000085100000000    2.6885035600000000
   1.5522017500000000    4.3902190699999997    2.6885035199999998
  -0.0000002300000000   -0.0000002000000000    5.3770085099999996
Zr Mo
2 4
direct
   0.1249931400000000    0.1249966700000000    0.1250054900000000 Zr
   0.8750068600000001    0.8750033300000000    0.8749945099999999 Zr
   0.0000000000000000    0.5000000000000000    0.5000000000000000 Mo
   0.5000000000000000   -0.0000000000000000    0.5000000000000000 Mo
   0.5000000000000000    0.5000000000000000   -0.0000000000000000 Mo
   0.5000000000000000    0.5000000000000000    0.5000000000000000 Mo
