   1   1   0   0
  0.1647172E+02  0.2855954E-09  0.2855954E-09  0.2855955E-09  0.5000000E-15
  1.000000000000000E-004
  CAR 
 unknown system                          
     22.44715551     -4.34644599  301      8.03441394      1.00000000
     -4.346  0.0000E+00  0.0000E+00
     -4.257  0.0000E+00  0.0000E+00
     -4.168  0.0000E+00  0.0000E+00
     -4.079  0.0000E+00  0.0000E+00
     -3.989  0.0000E+00  0.0000E+00
     -3.900  0.0000E+00  0.0000E+00
     -3.811  0.0000E+00  0.0000E+00
     -3.721  0.0000E+00  0.0000E+00
     -3.632  0.0000E+00  0.0000E+00
     -3.543  0.0000E+00  0.0000E+00
     -3.453  0.0000E+00  0.0000E+00
     -3.364  0.2307E-12  0.2060E-13
     -3.275  0.3003E-06  0.2682E-07
     -3.185  0.9077E-03  0.8109E-04
     -3.096  0.1290E-01  0.1233E-02
     -3.007  0.3249E-02  0.1524E-02
     -2.917  0.4734E-01  0.5752E-02
     -2.828  0.1361E+00  0.1791E-01
     -2.739  0.5130E-01  0.2249E-01
     -2.650  0.6210E-03  0.2255E-01
     -2.560  0.3925E-01  0.2605E-01
     -2.471  0.1529E+00  0.3971E-01
     -2.382  0.1619E-01  0.4115E-01
     -2.292  0.2617E+00  0.6453E-01
     -2.203  0.2411E+00  0.8606E-01
     -2.114  0.2904E-01  0.8865E-01
     -2.024  0.5742E-03  0.8870E-01
     -1.935  0.4826E-01  0.9301E-01
     -1.846  0.5154E-01  0.9761E-01
     -1.756  0.4020E-01  0.1012E+00
     -1.667  0.3979E+00  0.1367E+00
     -1.578  0.3504E+00  0.1680E+00
     -1.488  0.1971E-01  0.1698E+00
     -1.399  0.1885E-01  0.1715E+00
     -1.310  0.3049E+00  0.1987E+00
     -1.221  0.8085E-01  0.2059E+00
     -1.131  0.1890E+00  0.2228E+00
     -1.042  0.3400E+00  0.2532E+00
     -0.953  0.8539E-02  0.2539E+00
     -0.863  0.1193E-03  0.2540E+00
     -0.774  0.4754E-01  0.2582E+00
     -0.685  0.1471E+00  0.2713E+00
     -0.595  0.2939E-01  0.2740E+00
     -0.506  0.6013E+00  0.3277E+00
     -0.417  0.6141E+00  0.3825E+00
     -0.327  0.7456E-01  0.3892E+00
     -0.238  0.5624E-02  0.3897E+00
     -0.149  0.2471E+00  0.4117E+00
     -0.059  0.1504E+00  0.4252E+00
      0.030  0.7949E-01  0.4323E+00
      0.119  0.4443E+00  0.4720E+00
      0.208  0.2778E+00  0.4968E+00
      0.298  0.6825E-02  0.4974E+00
      0.387  0.1753E-01  0.4989E+00
      0.476  0.1062E+00  0.5084E+00
      0.566  0.2082E-01  0.5103E+00
      0.655  0.4974E+00  0.5547E+00
      0.744  0.6078E+00  0.6090E+00
      0.834  0.9590E-01  0.6176E+00
      0.923  0.5667E-02  0.6181E+00
      1.012  0.4160E+00  0.6552E+00
      1.102  0.3823E+00  0.6894E+00
      1.191  0.1821E+00  0.7056E+00
      1.280  0.9484E+00  0.7903E+00
      1.370  0.8454E-01  0.7979E+00
      1.459  0.5254E-04  0.7979E+00
      1.548  0.1370E-01  0.7991E+00
      1.637  0.7948E-01  0.8062E+00
      1.727  0.1208E-01  0.8073E+00
      1.816  0.2638E+00  0.8309E+00
      1.905  0.7555E+00  0.8983E+00
      1.995  0.1873E+00  0.9151E+00
      2.084  0.6077E-02  0.9156E+00
      2.173  0.3374E+00  0.9457E+00
      2.263  0.2607E+00  0.9690E+00
      2.352  0.1583E+00  0.9832E+00
      2.441  0.8529E+00  0.1059E+01
      2.531  0.3280E+00  0.1089E+01
      2.620  0.8892E-02  0.1089E+01
      2.709  0.7045E-01  0.1096E+01
      2.799  0.3107E+00  0.1123E+01
      2.888  0.5818E-01  0.1129E+01
      2.977  0.8947E+00  0.1209E+01
      3.066  0.9687E+00  0.1295E+01
      3.156  0.1197E+00  0.1306E+01
      3.245  0.1162E-01  0.1307E+01
      3.334  0.2845E+00  0.1332E+01
      3.424  0.1105E+00  0.1342E+01
      3.513  0.3520E+00  0.1374E+01
      3.602  0.4458E+00  0.1413E+01
      3.692  0.7122E-02  0.1414E+01
      3.781  0.1477E-02  0.1414E+01
      3.870  0.1754E+00  0.1430E+01
      3.960  0.2234E+00  0.1450E+01
      4.049  0.9583E-01  0.1458E+01
      4.138  0.1000E+01  0.1548E+01
      4.228  0.5991E+00  0.1601E+01
      4.317  0.3053E-01  0.1604E+01
      4.406  0.3738E+00  0.1637E+01
      4.495  0.7778E+00  0.1707E+01
      4.585  0.7650E-01  0.1714E+01
      4.674  0.8325E+00  0.1788E+01
      4.763  0.8032E+00  0.1860E+01
      4.853  0.9048E-01  0.1868E+01
      4.942  0.8810E-03  0.1868E+01
      5.031  0.4104E-07  0.1868E+01
      5.121  0.5068E-03  0.1868E+01
      5.210  0.2307E+00  0.1888E+01
      5.299  0.1248E+01  0.2000E+01
      5.389  0.7088E+00  0.2063E+01
      5.478  0.2047E+00  0.2081E+01
      5.567  0.6022E+00  0.2135E+01
      5.656  0.3406E-01  0.2138E+01
      5.746  0.8317E-01  0.2146E+01
      5.835  0.5467E+00  0.2195E+01
      5.924  0.1766E+00  0.2210E+01
      6.014  0.1219E-02  0.2210E+01
      6.103  0.5581E-01  0.2215E+01
      6.192  0.1406E+00  0.2228E+01
      6.282  0.3636E-01  0.2231E+01
      6.371  0.9733E+00  0.2318E+01
      6.460  0.1066E+01  0.2413E+01
      6.550  0.2330E+00  0.2434E+01
      6.639  0.3941E+00  0.2469E+01
      6.728  0.2841E+00  0.2495E+01
      6.818  0.2639E+00  0.2518E+01
      6.907  0.7166E+00  0.2582E+01
      6.996  0.1235E+01  0.2693E+01
      7.085  0.1241E+00  0.2704E+01
      7.175  0.3100E+00  0.2731E+01
      7.264  0.1084E+00  0.2741E+01
      7.353  0.3076E+00  0.2768E+01
      7.443  0.2815E+00  0.2794E+01
      7.532  0.2830E+00  0.2819E+01
      7.621  0.8384E-01  0.2826E+01
      7.711  0.3704E-01  0.2830E+01
      7.800  0.8943E+00  0.2910E+01
      7.889  0.4783E+00  0.2952E+01
      7.979  0.7199E-01  0.2959E+01
      8.068  0.8566E+00  0.3035E+01
      8.157  0.2859E+00  0.3061E+01
      8.247  0.3132E-01  0.3064E+01
      8.336  0.3175E+00  0.3092E+01
      8.425  0.5676E-01  0.3097E+01
      8.514  0.2000E+00  0.3115E+01
      8.604  0.7286E+00  0.3180E+01
      8.693  0.9181E+00  0.3262E+01
      8.782  0.3898E+00  0.3297E+01
      8.872  0.6080E+00  0.3351E+01
      8.961  0.8402E+00  0.3426E+01
      9.050  0.6173E+00  0.3481E+01
      9.140  0.6548E+00  0.3540E+01
      9.229  0.4784E+00  0.3582E+01
      9.318  0.7614E-01  0.3589E+01
      9.408  0.3155E+00  0.3617E+01
      9.497  0.2727E-01  0.3620E+01
      9.586  0.2166E-03  0.3620E+01
      9.676  0.1697E+00  0.3635E+01
      9.765  0.9725E+00  0.3722E+01
      9.854  0.4107E+00  0.3759E+01
      9.943  0.4121E+00  0.3795E+01
     10.033  0.5204E+00  0.3842E+01
     10.122  0.1942E+00  0.3859E+01
     10.211  0.9728E+00  0.3946E+01
     10.301  0.1216E+01  0.4055E+01
     10.390  0.1782E+00  0.4071E+01
     10.479  0.9674E-01  0.4079E+01
     10.569  0.6155E+00  0.4134E+01
     10.658  0.2056E+00  0.4153E+01
     10.747  0.2527E+00  0.4175E+01
     10.837  0.1740E+00  0.4191E+01
     10.926  0.1580E-02  0.4191E+01
     11.015  0.6156E-01  0.4196E+01
     11.105  0.6840E+00  0.4257E+01
     11.194  0.1027E+01  0.4349E+01
     11.283  0.1202E+01  0.4457E+01
     11.372  0.8992E+00  0.4537E+01
     11.462  0.6249E-01  0.4542E+01
     11.551  0.7076E-01  0.4549E+01
     11.640  0.7669E+00  0.4617E+01
     11.730  0.7107E+00  0.4681E+01
     11.819  0.1159E+00  0.4691E+01
     11.908  0.3594E+00  0.4723E+01
     11.998  0.2698E+00  0.4747E+01
     12.087  0.3983E+00  0.4783E+01
     12.176  0.5230E+00  0.4830E+01
     12.266  0.3636E+00  0.4862E+01
     12.355  0.1008E+01  0.4952E+01
     12.444  0.9803E+00  0.5040E+01
     12.534  0.3441E+00  0.5070E+01
     12.623  0.3236E+00  0.5099E+01
     12.712  0.6169E+00  0.5154E+01
     12.801  0.9839E+00  0.5242E+01
     12.891  0.3957E-01  0.5246E+01
     12.980  0.2469E+00  0.5268E+01
     13.069  0.9087E+00  0.5349E+01
     13.159  0.6116E-01  0.5354E+01
     13.248  0.3111E+00  0.5382E+01
     13.337  0.1225E+01  0.5492E+01
     13.427  0.3814E+00  0.5526E+01
     13.516  0.2770E+00  0.5550E+01
     13.605  0.3999E+00  0.5586E+01
     13.695  0.3358E+00  0.5616E+01
     13.784  0.4706E+00  0.5658E+01
     13.873  0.9251E+00  0.5741E+01
     13.963  0.8358E+00  0.5815E+01
     14.052  0.5993E+00  0.5869E+01
     14.141  0.3485E+00  0.5900E+01
     14.230  0.4352E+00  0.5939E+01
     14.320  0.9280E+00  0.6022E+01
     14.409  0.7556E+00  0.6089E+01
     14.498  0.3804E+00  0.6123E+01
     14.588  0.3992E+00  0.6159E+01
     14.677  0.4830E+00  0.6202E+01
     14.766  0.5854E+00  0.6254E+01
     14.856  0.6705E+00  0.6314E+01
     14.945  0.4796E+00  0.6357E+01
     15.034  0.2207E+00  0.6377E+01
     15.124  0.2509E+00  0.6399E+01
     15.213  0.1696E+00  0.6414E+01
     15.302  0.3091E+00  0.6442E+01
     15.392  0.5515E+00  0.6491E+01
     15.481  0.8788E+00  0.6570E+01
     15.570  0.3335E+00  0.6599E+01
     15.659  0.4809E-01  0.6604E+01
     15.749  0.8397E+00  0.6679E+01
     15.838  0.7989E+00  0.6750E+01
     15.927  0.5528E+00  0.6799E+01
     16.017  0.2923E+00  0.6826E+01
     16.106  0.2982E+00  0.6852E+01
     16.195  0.2089E+00  0.6871E+01
     16.285  0.1001E+01  0.6960E+01
     16.374  0.3456E+00  0.6991E+01
     16.463  0.3016E+00  0.7018E+01
     16.553  0.6094E+00  0.7072E+01
     16.642  0.1730E+00  0.7088E+01
     16.731  0.8358E-01  0.7095E+01
     16.820  0.2066E+00  0.7114E+01
     16.910  0.2066E+00  0.7132E+01
     16.999  0.1317E-01  0.7133E+01
     17.088  0.4091E+00  0.7170E+01
     17.178  0.4029E+00  0.7206E+01
     17.267  0.7778E+00  0.7275E+01
     17.356  0.9642E+00  0.7362E+01
     17.446  0.6497E-01  0.7367E+01
     17.535  0.5904E-04  0.7367E+01
     17.624  0.2916E-03  0.7367E+01
     17.714  0.5037E-01  0.7372E+01
     17.803  0.2289E+00  0.7392E+01
     17.892  0.5609E+00  0.7442E+01
     17.982  0.1350E+00  0.7455E+01
     18.071  0.6015E+00  0.7508E+01
     18.160  0.1725E+00  0.7524E+01
     18.249  0.1551E-01  0.7525E+01
     18.339  0.2967E+00  0.7552E+01
     18.428  0.1437E+00  0.7564E+01
     18.517  0.3190E+00  0.7593E+01
     18.607  0.3300E-01  0.7596E+01
     18.696  0.1565E-01  0.7597E+01
     18.785  0.3045E+00  0.7624E+01
     18.875  0.1020E+01  0.7716E+01
     18.964  0.2098E+00  0.7734E+01
     19.053  0.7501E-01  0.7741E+01
     19.143  0.2513E+00  0.7763E+01
     19.232  0.4594E+00  0.7804E+01
     19.321  0.2252E+00  0.7825E+01
     19.411  0.2992E-01  0.7827E+01
     19.500  0.2418E-04  0.7827E+01
     19.589  0.4792E-10  0.7827E+01
     19.678  0.3824E-10  0.7827E+01
     19.768  0.2028E-04  0.7827E+01
     19.857  0.3298E-01  0.7830E+01
     19.946  0.4465E+00  0.7870E+01
     20.036  0.3343E+00  0.7900E+01
     20.125  0.1649E+00  0.7915E+01
     20.214  0.2876E+00  0.7940E+01
     20.304  0.1226E-01  0.7941E+01
     20.393  0.2170E-05  0.7941E+01
     20.482  0.8726E-07  0.7941E+01
     20.572  0.8678E-03  0.7941E+01
     20.661  0.3241E-01  0.7944E+01
     20.750  0.1711E-01  0.7946E+01
     20.840  0.8369E-04  0.7946E+01
     20.929  0.2597E-04  0.7946E+01
     21.018  0.3886E-01  0.7949E+01
     21.107  0.3203E+00  0.7978E+01
     21.197  0.8075E-01  0.7985E+01
     21.286  0.1549E+00  0.7999E+01
     21.375  0.1089E-01  0.8000E+01
     21.465  0.3603E-05  0.8000E+01
     21.554  0.2767E-11  0.8000E+01
     21.643  0.0000E+00  0.8000E+01
     21.733  0.0000E+00  0.8000E+01
     21.822  0.0000E+00  0.8000E+01
     21.911  0.0000E+00  0.8000E+01
     22.001  0.0000E+00  0.8000E+01
     22.090  0.0000E+00  0.8000E+01
     22.179  0.0000E+00  0.8000E+01
     22.269  0.0000E+00  0.8000E+01
     22.358  0.0000E+00  0.8000E+01
     22.447  0.0000E+00  0.8000E+01
