Mg4Al8
1.0
      4.1157820       0.0000000       0.0000000
      0.0000000       4.1157820       0.0000000
     -2.0578910      -2.0578910      13.0683170
  Mg    Al  
  4     8   
Direct
      0.3315140       0.8315140       0.6630280
      0.9184860       0.9184860       0.8369720
      0.1684860       0.6684860       0.3369720
      0.0815140       0.0815140       0.1630280
      0.5002890       0.0002890       0.0005780
      0.7497110       0.7497110       0.4994220
      0.9997110       0.4997110       0.9994220
      0.2502890       0.2502890       0.5005780
      0.6695410       0.1695410       0.3390820
      0.5804590       0.5804590       0.1609180
      0.8304590       0.3304590       0.6609180
      0.4195410       0.4195410       0.8390820
