C8                                      
   1.00000000000000     
     0.0000000000000000    2.5101611899999998    0.0000000000000000
    -0.0025889200000000    0.0000000000000000    4.1246038000000000
     4.5356878500000004   -1.2550805899999999   -0.5562284400000000
   C 
     8
Direct
     0.0572772900000018    0.8796348799999976    0.1145545799999965
     0.9427227099999982    0.1203651200000024    0.8854454200000035
     0.5581959200000028    0.6537619799999987    0.1163928499999969
     0.4418040799999972    0.3462380200000013    0.8836071500000031
     0.2143133699999993    0.0593675399999967    0.4286267299999977
     0.7856866300000007    0.9406324600000033    0.5713732700000023
     0.7287376100000031    0.5853953499999989    0.4574752300000000
     0.2712623899999969    0.4146046500000011    0.5425247700000000
 
  0.00000000E+00  0.00000000E+00  0.00000000E+00
  0.00000000E+00  0.00000000E+00  0.00000000E+00
  0.00000000E+00  0.00000000E+00  0.00000000E+00
  0.00000000E+00  0.00000000E+00  0.00000000E+00
  0.00000000E+00  0.00000000E+00  0.00000000E+00
  0.00000000E+00  0.00000000E+00  0.00000000E+00
  0.00000000E+00  0.00000000E+00  0.00000000E+00
  0.00000000E+00  0.00000000E+00  0.00000000E+00
