C8
1.0
      0.0000000       2.5101612       0.0000000
     -0.0025889       0.0000000       4.1246038
      4.5356879      -1.2550806      -0.5562284
  C   
  8   
Direct
      0.0572773       0.8796349       0.1145546
      0.9427227       0.1203651       0.8854454
      0.5581959       0.6537620       0.1163928
      0.4418041       0.3462380       0.8836072
      0.2143134       0.0593675       0.4286267
      0.7856866       0.9406325       0.5713733
      0.7287376       0.5853953       0.4574752
      0.2712624       0.4146047       0.5425248
