Sn2                                     
   1.00000000000000     
     3.9612423992523533   -0.0000960713474973    2.2870700567033606
     1.3202100070866267    3.7316563301897774    2.2872669365986633
     0.0000039831861373    0.0002428455404211    4.5741330772488817
   Sn
     2
Direct
     0.8748872024908680    0.8752974109466178    0.8749215022800796
     0.1251127975091319    0.1247025890533820    0.1250784977199204
 
  0.00000000E+00  0.00000000E+00  0.00000000E+00
  0.00000000E+00  0.00000000E+00  0.00000000E+00
