   2   2   0   0
  0.3380695E+02  0.4574072E-09  0.4571630E-09  0.4574133E-09  0.5000000E-15
  1.000000000000000E-004
  CAR 
 unknown system                          
     17.48929102    -18.09527048  301      5.62839378      1.00000000
    -18.095  0.0000E+00  0.0000E+00
    -17.977  0.0000E+00  0.0000E+00
    -17.858  0.0000E+00  0.0000E+00
    -17.739  0.0000E+00  0.0000E+00
    -17.621  0.0000E+00  0.0000E+00
    -17.502  0.0000E+00  0.0000E+00
    -17.384  0.0000E+00  0.0000E+00
    -17.265  0.0000E+00  0.0000E+00
    -17.146  0.0000E+00  0.0000E+00
    -17.028  0.0000E+00  0.0000E+00
    -16.909  0.0000E+00  0.0000E+00
    -16.791  0.0000E+00  0.0000E+00
    -16.672  0.0000E+00  0.0000E+00
    -16.553  0.0000E+00  0.0000E+00
    -16.435  0.0000E+00  0.0000E+00
    -16.316  0.0000E+00  0.0000E+00
    -16.197  0.0000E+00  0.0000E+00
    -16.079  0.8383E+02  0.9459E+00
    -15.960  0.4959E+02  0.5043E+01
    -15.842  0.5731E+02  0.9007E+01
    -15.723  0.5625E+02  0.1250E+02
    -15.604  0.3239E+02  0.1611E+02
    -15.486  0.3104E+02  0.2000E+02
    -15.367  0.0000E+00  0.2000E+02
    -15.249  0.0000E+00  0.2000E+02
    -15.130  0.0000E+00  0.2000E+02
    -15.011  0.0000E+00  0.2000E+02
    -14.893  0.0000E+00  0.2000E+02
    -14.774  0.0000E+00  0.2000E+02
    -14.655  0.0000E+00  0.2000E+02
    -14.537  0.0000E+00  0.2000E+02
    -14.418  0.0000E+00  0.2000E+02
    -14.300  0.0000E+00  0.2000E+02
    -14.181  0.0000E+00  0.2000E+02
    -14.062  0.0000E+00  0.2000E+02
    -13.944  0.0000E+00  0.2000E+02
    -13.825  0.0000E+00  0.2000E+02
    -13.707  0.0000E+00  0.2000E+02
    -13.588  0.0000E+00  0.2000E+02
    -13.469  0.0000E+00  0.2000E+02
    -13.351  0.0000E+00  0.2000E+02
    -13.232  0.0000E+00  0.2000E+02
    -13.113  0.0000E+00  0.2000E+02
    -12.995  0.0000E+00  0.2000E+02
    -12.876  0.0000E+00  0.2000E+02
    -12.758  0.0000E+00  0.2000E+02
    -12.639  0.0000E+00  0.2000E+02
    -12.520  0.0000E+00  0.2000E+02
    -12.402  0.0000E+00  0.2000E+02
    -12.283  0.0000E+00  0.2000E+02
    -12.165  0.0000E+00  0.2000E+02
    -12.046  0.0000E+00  0.2000E+02
    -11.927  0.0000E+00  0.2000E+02
    -11.809  0.0000E+00  0.2000E+02
    -11.690  0.0000E+00  0.2000E+02
    -11.571  0.0000E+00  0.2000E+02
    -11.453  0.0000E+00  0.2000E+02
    -11.334  0.0000E+00  0.2000E+02
    -11.216  0.0000E+00  0.2000E+02
    -11.097  0.0000E+00  0.2000E+02
    -10.978  0.0000E+00  0.2000E+02
    -10.860  0.0000E+00  0.2000E+02
    -10.741  0.0000E+00  0.2000E+02
    -10.623  0.0000E+00  0.2000E+02
    -10.504  0.0000E+00  0.2000E+02
    -10.385  0.0000E+00  0.2000E+02
    -10.267  0.0000E+00  0.2000E+02
    -10.148  0.0000E+00  0.2000E+02
    -10.029  0.0000E+00  0.2000E+02
     -9.911  0.0000E+00  0.2000E+02
     -9.792  0.0000E+00  0.2000E+02
     -9.674  0.0000E+00  0.2000E+02
     -9.555  0.0000E+00  0.2000E+02
     -9.436  0.0000E+00  0.2000E+02
     -9.318  0.0000E+00  0.2000E+02
     -9.199  0.0000E+00  0.2000E+02
     -9.081  0.0000E+00  0.2000E+02
     -8.962  0.0000E+00  0.2000E+02
     -8.843  0.0000E+00  0.2000E+02
     -8.725  0.0000E+00  0.2000E+02
     -8.606  0.0000E+00  0.2000E+02
     -8.487  0.0000E+00  0.2000E+02
     -8.369  0.0000E+00  0.2000E+02
     -8.250  0.0000E+00  0.2000E+02
     -8.132  0.0000E+00  0.2000E+02
     -8.013  0.0000E+00  0.2000E+02
     -7.894  0.0000E+00  0.2000E+02
     -7.776  0.0000E+00  0.2000E+02
     -7.657  0.0000E+00  0.2000E+02
     -7.539  0.0000E+00  0.2000E+02
     -7.420  0.0000E+00  0.2000E+02
     -7.301  0.0000E+00  0.2000E+02
     -7.183  0.0000E+00  0.2000E+02
     -7.064  0.0000E+00  0.2000E+02
     -6.945  0.0000E+00  0.2000E+02
     -6.827  0.0000E+00  0.2000E+02
     -6.708  0.0000E+00  0.2000E+02
     -6.590  0.0000E+00  0.2000E+02
     -6.471  0.0000E+00  0.2000E+02
     -6.352  0.0000E+00  0.2000E+02
     -6.234  0.0000E+00  0.2000E+02
     -6.115  0.0000E+00  0.2000E+02
     -5.997  0.0000E+00  0.2000E+02
     -5.878  0.0000E+00  0.2000E+02
     -5.759  0.0000E+00  0.2000E+02
     -5.641  0.0000E+00  0.2000E+02
     -5.522  0.0000E+00  0.2000E+02
     -5.403  0.0000E+00  0.2000E+02
     -5.285  0.0000E+00  0.2000E+02
     -5.166  0.0000E+00  0.2000E+02
     -5.048  0.3842E-01  0.2000E+02
     -4.929  0.1845E+00  0.2002E+02
     -4.810  0.2702E+00  0.2004E+02
     -4.692  0.3416E+00  0.2008E+02
     -4.573  0.3832E+00  0.2012E+02
     -4.455  0.4420E+00  0.2017E+02
     -4.336  0.4978E+00  0.2023E+02
     -4.217  0.5429E+00  0.2029E+02
     -4.099  0.5931E+00  0.2036E+02
     -3.980  0.6528E+00  0.2043E+02
     -3.861  0.7185E+00  0.2051E+02
     -3.743  0.7886E+00  0.2060E+02
     -3.624  0.8944E+00  0.2070E+02
     -3.506  0.1129E+01  0.2082E+02
     -3.387  0.1190E+01  0.2096E+02
     -3.268  0.1219E+01  0.2110E+02
     -3.150  0.1076E+01  0.2124E+02
     -3.031  0.9939E+00  0.2136E+02
     -2.913  0.9438E+00  0.2147E+02
     -2.794  0.8768E+00  0.2158E+02
     -2.675  0.7945E+00  0.2168E+02
     -2.557  0.7460E+00  0.2177E+02
     -2.438  0.6839E+00  0.2186E+02
     -2.319  0.6633E+00  0.2194E+02
     -2.201  0.1929E+00  0.2199E+02
     -2.082  0.2777E-01  0.2200E+02
     -1.964  0.0000E+00  0.2200E+02
     -1.845  0.1088E-01  0.2200E+02
     -1.726  0.8821E-01  0.2201E+02
     -1.608  0.2914E+00  0.2202E+02
     -1.489  0.6322E+00  0.2208E+02
     -1.371  0.6744E+00  0.2216E+02
     -1.252  0.7027E+00  0.2224E+02
     -1.133  0.7768E+00  0.2233E+02
     -1.015  0.8663E+00  0.2243E+02
     -0.896  0.9730E+00  0.2253E+02
     -0.777  0.1187E+01  0.2266E+02
     -0.659  0.1368E+01  0.2283E+02
     -0.540  0.9309E+00  0.2296E+02
     -0.422  0.7609E+00  0.2306E+02
     -0.303  0.6755E+00  0.2314E+02
     -0.184  0.6117E+00  0.2322E+02
     -0.066  0.5554E+00  0.2329E+02
      0.053  0.5041E+00  0.2335E+02
      0.171  0.4517E+00  0.2341E+02
      0.290  0.4004E+00  0.2346E+02
      0.409  0.3654E+00  0.2351E+02
      0.527  0.3440E+00  0.2355E+02
      0.646  0.3237E+00  0.2359E+02
      0.765  0.3037E+00  0.2362E+02
      0.883  0.2820E+00  0.2366E+02
      1.002  0.2588E+00  0.2369E+02
      1.120  0.2371E+00  0.2372E+02
      1.239  0.2168E+00  0.2375E+02
      1.358  0.1852E+00  0.2377E+02
      1.476  0.1755E+00  0.2379E+02
      1.595  0.1660E+00  0.2381E+02
      1.713  0.1568E+00  0.2383E+02
      1.832  0.1477E+00  0.2385E+02
      1.951  0.1386E+00  0.2387E+02
      2.069  0.1283E+00  0.2388E+02
      2.188  0.5424E+00  0.2392E+02
      2.307  0.2264E+01  0.2407E+02
      2.425  0.1725E+01  0.2430E+02
      2.544  0.1385E+01  0.2447E+02
      2.662  0.1286E+01  0.2463E+02
      2.781  0.1263E+01  0.2479E+02
      2.900  0.1505E+01  0.2495E+02
      3.018  0.1629E+01  0.2514E+02
      3.137  0.1877E+01  0.2535E+02
      3.255  0.1884E+01  0.2557E+02
      3.374  0.1856E+01  0.2579E+02
      3.493  0.1814E+01  0.2601E+02
      3.611  0.1732E+01  0.2622E+02
      3.730  0.1634E+01  0.2642E+02
      3.849  0.1579E+01  0.2661E+02
      3.967  0.1573E+01  0.2679E+02
      4.086  0.1521E+01  0.2698E+02
      4.204  0.1447E+01  0.2715E+02
      4.323  0.1441E+01  0.2732E+02
      4.442  0.1221E+01  0.2748E+02
      4.560  0.9529E+00  0.2761E+02
      4.679  0.7108E+00  0.2771E+02
      4.797  0.5816E+00  0.2779E+02
      4.916  0.4585E+00  0.2785E+02
      5.035  0.3429E+00  0.2789E+02
      5.153  0.2620E+00  0.2793E+02
      5.272  0.2101E+00  0.2796E+02
      5.391  0.1877E+00  0.2798E+02
      5.509  0.5989E-01  0.2800E+02
      5.628  0.1140E-01  0.2800E+02
      5.746  0.2793E-01  0.2800E+02
      5.865  0.6376E-01  0.2801E+02
      5.984  0.1104E+00  0.2802E+02
      6.102  0.1704E+00  0.2803E+02
      6.221  0.2485E+00  0.2806E+02
      6.339  0.4931E+00  0.2810E+02
      6.458  0.6643E+00  0.2817E+02
      6.577  0.9331E+00  0.2827E+02
      6.695  0.1267E+01  0.2839E+02
      6.814  0.1757E+01  0.2857E+02
      6.933  0.2230E+01  0.2882E+02
      7.051  0.2331E+01  0.2909E+02
      7.170  0.2039E+01  0.2935E+02
      7.288  0.1786E+01  0.2957E+02
      7.407  0.1787E+01  0.2979E+02
      7.526  0.1026E+01  0.2995E+02
      7.644  0.1091E+01  0.3008E+02
      7.763  0.1234E+01  0.3021E+02
      7.881  0.8968E+00  0.3034E+02
      8.000  0.9218E+00  0.3044E+02
      8.119  0.9305E+00  0.3055E+02
      8.237  0.9670E+00  0.3067E+02
      8.356  0.1142E+01  0.3079E+02
      8.475  0.1523E+01  0.3095E+02
      8.593  0.2177E+01  0.3117E+02
      8.712  0.2439E+01  0.3144E+02
      8.830  0.1773E+01  0.3170E+02
      8.949  0.1676E+01  0.3190E+02
      9.068  0.1543E+01  0.3209E+02
      9.186  0.1301E+01  0.3226E+02
      9.305  0.1107E+01  0.3240E+02
      9.423  0.1162E+01  0.3253E+02
      9.542  0.1767E+01  0.3270E+02
      9.661  0.1858E+01  0.3292E+02
      9.779  0.1800E+01  0.3314E+02
      9.898  0.1811E+01  0.3335E+02
     10.017  0.1524E+01  0.3355E+02
     10.135  0.1341E+01  0.3372E+02
     10.254  0.1187E+01  0.3387E+02
     10.372  0.1038E+01  0.3400E+02
     10.491  0.9627E+00  0.3412E+02
     10.610  0.9570E+00  0.3423E+02
     10.728  0.2034E+01  0.3442E+02
     10.847  0.2139E+01  0.3467E+02
     10.965  0.1984E+01  0.3491E+02
     11.084  0.1690E+01  0.3512E+02
     11.203  0.1307E+01  0.3532E+02
     11.321  0.1178E+01  0.3546E+02
     11.440  0.1038E+01  0.3559E+02
     11.559  0.8255E+00  0.3570E+02
     11.677  0.7667E+00  0.3580E+02
     11.796  0.1029E+01  0.3590E+02
     11.914  0.1057E+01  0.3605E+02
     12.033  0.9557E+00  0.3616E+02
     12.152  0.1090E+01  0.3628E+02
     12.270  0.1312E+01  0.3642E+02
     12.389  0.1560E+01  0.3659E+02
     12.507  0.1923E+01  0.3680E+02
     12.626  0.2176E+01  0.3705E+02
     12.745  0.2014E+01  0.3730E+02
     12.863  0.1876E+01  0.3753E+02
     12.982  0.1703E+01  0.3774E+02
     13.101  0.1532E+01  0.3793E+02
     13.219  0.1430E+01  0.3811E+02
     13.338  0.1427E+01  0.3829E+02
     13.456  0.1139E+01  0.3843E+02
     13.575  0.1243E+01  0.3857E+02
     13.694  0.1487E+01  0.3873E+02
     13.812  0.1326E+01  0.3890E+02
     13.931  0.1361E+01  0.3906E+02
     14.049  0.1316E+01  0.3922E+02
     14.168  0.1180E+01  0.3937E+02
     14.287  0.8036E+00  0.3947E+02
     14.405  0.8031E+00  0.3956E+02
     14.524  0.9023E+00  0.3966E+02
     14.643  0.1140E+01  0.3979E+02
     14.761  0.4269E+00  0.3989E+02
     14.880  0.2776E+00  0.3993E+02
     14.998  0.2106E+00  0.3996E+02
     15.117  0.1322E+00  0.3998E+02
     15.236  0.7129E-01  0.3999E+02
     15.354  0.2794E-01  0.4000E+02
     15.473  0.2136E-02  0.4000E+02
     15.591  0.0000E+00  0.4000E+02
     15.710  0.0000E+00  0.4000E+02
     15.829  0.0000E+00  0.4000E+02
     15.947  0.0000E+00  0.4000E+02
     16.066  0.0000E+00  0.4000E+02
     16.185  0.0000E+00  0.4000E+02
     16.303  0.0000E+00  0.4000E+02
     16.422  0.0000E+00  0.4000E+02
     16.540  0.0000E+00  0.4000E+02
     16.659  0.0000E+00  0.4000E+02
     16.778  0.0000E+00  0.4000E+02
     16.896  0.0000E+00  0.4000E+02
     17.015  0.0000E+00  0.4000E+02
     17.133  0.0000E+00  0.4000E+02
     17.252  0.0000E+00  0.4000E+02
     17.371  0.0000E+00  0.4000E+02
     17.489  0.0000E+00  0.4000E+02
