C4                                      
   1.00000000000000     
     2.5033028800000001    0.0000000000000000    0.0000000000000000
    -1.2516519399999999    2.1679234599999999    0.0000000000000000
     0.0000000000000000    0.0000000000000000    4.1689688100000000
   C 
     4
Direct
     0.3333330000000032    0.6666669999999968    0.0628053499999979
     0.6666669999999968    0.3333330000000032    0.5628053499999979
     0.6666669999999968    0.3333330000000032    0.9371946500000021
     0.3333330000000032    0.6666669999999968    0.4371946500000021
 
  0.00000000E+00  0.00000000E+00  0.00000000E+00
  0.00000000E+00  0.00000000E+00  0.00000000E+00
  0.00000000E+00  0.00000000E+00  0.00000000E+00
  0.00000000E+00  0.00000000E+00  0.00000000E+00
