   4   4   0   0
  0.5656216E+01  0.2503303E-09  0.2503303E-09  0.4168969E-09  0.5000000E-15
  1.000000000000000E-004
  CAR 
 unknown system                          
     30.67127727    -13.78884257  301     10.37245381      1.00000000
    -13.789  0.0000E+00  0.0000E+00
    -13.641  0.0000E+00  0.0000E+00
    -13.492  0.0000E+00  0.0000E+00
    -13.344  0.0000E+00  0.0000E+00
    -13.196  0.0000E+00  0.0000E+00
    -13.048  0.0000E+00  0.0000E+00
    -12.900  0.0000E+00  0.0000E+00
    -12.751  0.0000E+00  0.0000E+00
    -12.603  0.0000E+00  0.0000E+00
    -12.455  0.0000E+00  0.0000E+00
    -12.307  0.0000E+00  0.0000E+00
    -12.159  0.0000E+00  0.0000E+00
    -12.010  0.4635E-13  0.6869E-14
    -11.862  0.5116E-04  0.7582E-05
    -11.714  0.1274E-01  0.1896E-02
    -11.566  0.9036E-01  0.1529E-01
    -11.418  0.1566E+00  0.3849E-01
    -11.269  0.4637E-01  0.4537E-01
    -11.121  0.1575E+00  0.6871E-01
    -10.973  0.3513E+00  0.1208E+00
    -10.825  0.1356E+00  0.1409E+00
    -10.677  0.1217E+00  0.1589E+00
    -10.528  0.2733E+00  0.1994E+00
    -10.380  0.4545E+00  0.2668E+00
    -10.232  0.1739E+00  0.2925E+00
    -10.084  0.1512E+00  0.3149E+00
     -9.936  0.5363E+00  0.3944E+00
     -9.787  0.1598E+00  0.4181E+00
     -9.639  0.2348E+00  0.4529E+00
     -9.491  0.3568E+00  0.5058E+00
     -9.343  0.6363E+00  0.6001E+00
     -9.195  0.2167E+00  0.6322E+00
     -9.046  0.3603E+00  0.6856E+00
     -8.898  0.6925E+00  0.7882E+00
     -8.750  0.1037E+00  0.8036E+00
     -8.602  0.1583E-01  0.8059E+00
     -8.454  0.5450E+00  0.8867E+00
     -8.305  0.8717E+00  0.1016E+01
     -8.157  0.3787E+00  0.1072E+01
     -8.009  0.6647E+00  0.1171E+01
     -7.861  0.3307E+00  0.1220E+01
     -7.713  0.3737E+00  0.1275E+01
     -7.564  0.4144E+00  0.1336E+01
     -7.416  0.4109E+00  0.1397E+01
     -7.268  0.5817E+00  0.1483E+01
     -7.120  0.5351E+00  0.1563E+01
     -6.972  0.8691E+00  0.1692E+01
     -6.823  0.5038E+00  0.1766E+01
     -6.675  0.3861E+00  0.1823E+01
     -6.527  0.7347E+00  0.1932E+01
     -6.379  0.8385E+00  0.2057E+01
     -6.231  0.6387E+00  0.2151E+01
     -6.082  0.5390E+00  0.2231E+01
     -5.934  0.7905E+00  0.2348E+01
     -5.786  0.5699E+00  0.2433E+01
     -5.638  0.6595E+00  0.2530E+01
     -5.490  0.6316E+00  0.2624E+01
     -5.341  0.4246E+00  0.2687E+01
     -5.193  0.5042E+00  0.2762E+01
     -5.045  0.8091E+00  0.2882E+01
     -4.897  0.5792E+00  0.2967E+01
     -4.749  0.5192E+00  0.3044E+01
     -4.600  0.3670E+00  0.3099E+01
     -4.452  0.5246E+00  0.3177E+01
     -4.304  0.1970E+00  0.3206E+01
     -4.156  0.6552E+00  0.3303E+01
     -4.008  0.1290E+01  0.3494E+01
     -3.859  0.8551E+00  0.3621E+01
     -3.711  0.5083E+00  0.3696E+01
     -3.563  0.4612E+00  0.3764E+01
     -3.415  0.5346E+00  0.3844E+01
     -3.267  0.3104E+00  0.3890E+01
     -3.118  0.8263E+00  0.4012E+01
     -2.970  0.5667E+00  0.4096E+01
     -2.822  0.5219E+00  0.4173E+01
     -2.674  0.3498E+00  0.4225E+01
     -2.526  0.3237E+00  0.4273E+01
     -2.377  0.1177E+01  0.4448E+01
     -2.229  0.1161E+01  0.4620E+01
     -2.081  0.4400E+00  0.4685E+01
     -1.933  0.1255E+01  0.4871E+01
     -1.785  0.4613E+00  0.4939E+01
     -1.636  0.6644E+00  0.5038E+01
     -1.488  0.1274E+01  0.5227E+01
     -1.340  0.4219E+00  0.5289E+01
     -1.192  0.5151E+00  0.5366E+01
     -1.044  0.6234E+00  0.5458E+01
     -0.895  0.1462E+01  0.5675E+01
     -0.747  0.3067E+00  0.5720E+01
     -0.599  0.3522E+00  0.5772E+01
     -0.451  0.6132E+00  0.5863E+01
     -0.303  0.4042E+00  0.5923E+01
     -0.154  0.9155E+00  0.6059E+01
     -0.006  0.8224E+00  0.6181E+01
      0.142  0.1114E+01  0.6346E+01
      0.290  0.7114E+00  0.6451E+01
      0.438  0.9633E+00  0.6594E+01
      0.587  0.8878E+00  0.6725E+01
      0.735  0.1218E+01  0.6906E+01
      0.883  0.1368E+01  0.7109E+01
      1.031  0.9951E+00  0.7256E+01
      1.179  0.5161E+00  0.7332E+01
      1.328  0.4558E+00  0.7400E+01
      1.476  0.4328E+00  0.7464E+01
      1.624  0.7919E+00  0.7582E+01
      1.772  0.1440E+01  0.7795E+01
      1.920  0.1634E+01  0.8037E+01
      2.069  0.1094E+01  0.8199E+01
      2.217  0.8166E+00  0.8320E+01
      2.365  0.1127E+01  0.8487E+01
      2.513  0.1262E+01  0.8674E+01
      2.661  0.8146E+00  0.8795E+01
      2.810  0.6600E+00  0.8893E+01
      2.958  0.9291E+00  0.9031E+01
      3.106  0.1478E+01  0.9250E+01
      3.254  0.1183E+01  0.9425E+01
      3.402  0.1245E+01  0.9610E+01
      3.551  0.6878E+00  0.9711E+01
      3.699  0.1403E+01  0.9919E+01
      3.847  0.1628E+01  0.1016E+02
      3.995  0.1525E+01  0.1039E+02
      4.143  0.9750E+00  0.1053E+02
      4.292  0.1764E+01  0.1079E+02
      4.440  0.1802E+01  0.1106E+02
      4.588  0.1038E+01  0.1121E+02
      4.736  0.9511E+00  0.1135E+02
      4.884  0.2480E+01  0.1172E+02
      5.033  0.1400E+01  0.1193E+02
      5.181  0.8857E+00  0.1206E+02
      5.329  0.2206E+01  0.1239E+02
      5.477  0.1940E+01  0.1268E+02
      5.625  0.1049E+01  0.1283E+02
      5.774  0.2220E+01  0.1316E+02
      5.922  0.2572E+01  0.1354E+02
      6.070  0.1211E+01  0.1372E+02
      6.218  0.1299E+01  0.1391E+02
      6.366  0.1232E+01  0.1410E+02
      6.515  0.1282E+01  0.1429E+02
      6.663  0.1455E+01  0.1450E+02
      6.811  0.1306E+01  0.1469E+02
      6.959  0.1158E+01  0.1487E+02
      7.107  0.7295E+00  0.1497E+02
      7.256  0.7312E+00  0.1508E+02
      7.404  0.7766E+00  0.1520E+02
      7.552  0.7748E+00  0.1531E+02
      7.700  0.2753E+00  0.1535E+02
      7.848  0.5972E+00  0.1544E+02
      7.997  0.5911E+00  0.1553E+02
      8.145  0.2391E+00  0.1556E+02
      8.293  0.8270E+00  0.1569E+02
      8.441  0.2186E+00  0.1572E+02
      8.589  0.3741E+00  0.1578E+02
      8.738  0.1182E+00  0.1579E+02
      8.886  0.3394E+00  0.1584E+02
      9.034  0.2564E+00  0.1588E+02
      9.182  0.2534E+00  0.1592E+02
      9.330  0.1496E+00  0.1594E+02
      9.479  0.1037E+00  0.1596E+02
      9.627  0.1345E+00  0.1598E+02
      9.775  0.7118E-01  0.1599E+02
      9.923  0.6326E-01  0.1600E+02
     10.071  0.1654E-01  0.1600E+02
     10.220  0.1031E-01  0.1600E+02
     10.368  0.9812E-07  0.1600E+02
     10.516  0.0000E+00  0.1600E+02
     10.664  0.0000E+00  0.1600E+02
     10.812  0.0000E+00  0.1600E+02
     10.961  0.0000E+00  0.1600E+02
     11.109  0.0000E+00  0.1600E+02
     11.257  0.0000E+00  0.1600E+02
     11.405  0.0000E+00  0.1600E+02
     11.553  0.0000E+00  0.1600E+02
     11.702  0.0000E+00  0.1600E+02
     11.850  0.0000E+00  0.1600E+02
     11.998  0.0000E+00  0.1600E+02
     12.146  0.0000E+00  0.1600E+02
     12.294  0.0000E+00  0.1600E+02
     12.443  0.0000E+00  0.1600E+02
     12.591  0.0000E+00  0.1600E+02
     12.739  0.0000E+00  0.1600E+02
     12.887  0.0000E+00  0.1600E+02
     13.035  0.0000E+00  0.1600E+02
     13.184  0.8240E-08  0.1600E+02
     13.332  0.5715E-02  0.1600E+02
     13.480  0.2105E-01  0.1600E+02
     13.628  0.9122E-05  0.1600E+02
     13.776  0.1955E-01  0.1601E+02
     13.925  0.1446E+00  0.1603E+02
     14.073  0.4990E-01  0.1604E+02
     14.221  0.1827E-03  0.1604E+02
     14.369  0.6244E-01  0.1604E+02
     14.517  0.3061E+00  0.1609E+02
     14.666  0.1736E+00  0.1612E+02
     14.814  0.3829E+00  0.1617E+02
     14.962  0.4550E+00  0.1624E+02
     15.110  0.7620E+00  0.1635E+02
     15.258  0.5388E+00  0.1643E+02
     15.407  0.4993E+00  0.1651E+02
     15.555  0.1854E+01  0.1678E+02
     15.703  0.1912E+01  0.1707E+02
     15.851  0.7889E+00  0.1718E+02
     15.999  0.1231E+01  0.1736E+02
     16.148  0.1090E+01  0.1753E+02
     16.296  0.1308E+01  0.1772E+02
     16.444  0.6553E+00  0.1782E+02
     16.592  0.1552E+01  0.1805E+02
     16.740  0.2237E+01  0.1838E+02
     16.889  0.1679E+01  0.1863E+02
     17.037  0.1821E+01  0.1890E+02
     17.185  0.1490E+01  0.1912E+02
     17.333  0.1702E+01  0.1937E+02
     17.481  0.1738E+01  0.1963E+02
     17.630  0.1827E+01  0.1990E+02
     17.778  0.2423E+01  0.2026E+02
     17.926  0.2265E+01  0.2059E+02
     18.074  0.1464E+01  0.2081E+02
     18.222  0.5797E+00  0.2090E+02
     18.371  0.1037E+01  0.2105E+02
     18.519  0.1724E+01  0.2131E+02
     18.667  0.1522E+01  0.2153E+02
     18.815  0.2556E+01  0.2191E+02
     18.963  0.1635E+01  0.2215E+02
     19.112  0.6841E+00  0.2225E+02
     19.260  0.1092E+01  0.2242E+02
     19.408  0.1137E+01  0.2258E+02
     19.556  0.2759E+01  0.2299E+02
     19.704  0.1520E+01  0.2322E+02
     19.853  0.1069E+01  0.2338E+02
     20.001  0.1370E+01  0.2358E+02
     20.149  0.1435E+01  0.2379E+02
     20.297  0.1211E+01  0.2397E+02
     20.445  0.2115E+01  0.2429E+02
     20.594  0.1579E+01  0.2452E+02
     20.742  0.1357E+01  0.2472E+02
     20.890  0.1665E+01  0.2497E+02
     21.038  0.1803E+01  0.2523E+02
     21.186  0.8056E+00  0.2535E+02
     21.335  0.8158E+00  0.2547E+02
     21.483  0.1356E+01  0.2568E+02
     21.631  0.1013E+01  0.2583E+02
     21.779  0.2007E+01  0.2612E+02
     21.927  0.3366E+00  0.2617E+02
     22.076  0.7230E+00  0.2628E+02
     22.224  0.1661E+01  0.2653E+02
     22.372  0.1356E+01  0.2673E+02
     22.520  0.5849E+00  0.2681E+02
     22.668  0.7722E+00  0.2693E+02
     22.817  0.1009E+01  0.2708E+02
     22.965  0.4930E+00  0.2715E+02
     23.113  0.9060E+00  0.2729E+02
     23.261  0.4009E+00  0.2734E+02
     23.409  0.1265E+01  0.2753E+02
     23.558  0.1497E+01  0.2775E+02
     23.706  0.4869E+00  0.2783E+02
     23.854  0.1120E+01  0.2799E+02
     24.002  0.1031E+01  0.2814E+02
     24.150  0.1108E+01  0.2831E+02
     24.299  0.1695E+01  0.2856E+02
     24.447  0.1128E+01  0.2873E+02
     24.595  0.1091E+01  0.2889E+02
     24.743  0.1529E+01  0.2912E+02
     24.891  0.1958E+01  0.2941E+02
     25.040  0.1431E+01  0.2962E+02
     25.188  0.1767E+01  0.2988E+02
     25.336  0.1127E+01  0.3005E+02
     25.484  0.1789E+01  0.3031E+02
     25.632  0.1440E+01  0.3053E+02
     25.781  0.8874E+00  0.3066E+02
     25.929  0.1325E+01  0.3085E+02
     26.077  0.1149E+01  0.3102E+02
     26.225  0.5131E+00  0.3110E+02
     26.373  0.8970E+00  0.3123E+02
     26.522  0.9819E+00  0.3138E+02
     26.670  0.5664E+00  0.3146E+02
     26.818  0.2990E+00  0.3151E+02
     26.966  0.4372E+00  0.3157E+02
     27.114  0.3579E+00  0.3162E+02
     27.263  0.4458E+00  0.3169E+02
     27.411  0.2736E-01  0.3169E+02
     27.559  0.5880E+00  0.3178E+02
     27.707  0.4564E+00  0.3185E+02
     27.855  0.1786E-01  0.3185E+02
     28.004  0.7620E-01  0.3186E+02
     28.152  0.1272E+00  0.3188E+02
     28.300  0.4724E+00  0.3195E+02
     28.448  0.7225E-01  0.3196E+02
     28.596  0.8526E-01  0.3198E+02
     28.745  0.1668E+00  0.3200E+02
     28.893  0.2910E-03  0.3200E+02
     29.041  0.1955E-12  0.3200E+02
     29.189  0.0000E+00  0.3200E+02
     29.337  0.0000E+00  0.3200E+02
     29.486  0.0000E+00  0.3200E+02
     29.634  0.0000E+00  0.3200E+02
     29.782  0.0000E+00  0.3200E+02
     29.930  0.0000E+00  0.3200E+02
     30.078  0.0000E+00  0.3200E+02
     30.227  0.0000E+00  0.3200E+02
     30.375  0.0000E+00  0.3200E+02
     30.523  0.0000E+00  0.3200E+02
     30.671  0.0000E+00  0.3200E+02
