       N       E                     dE             d eps       ncg     rms          rms(c)
DAV:   1     0.257442930877E+02    0.25744E+02   -0.90888E+03 32280   0.109E+03
DAV:   2    -0.355780430666E+02   -0.61322E+02   -0.56382E+02 45064   0.199E+02
DAV:   3    -0.375694068866E+02   -0.19914E+01   -0.19840E+01 40768   0.304E+01
DAV:   4    -0.375769392413E+02   -0.75324E-02   -0.75310E-02 39264   0.231E+00
DAV:   5    -0.375769764712E+02   -0.37230E-04   -0.37228E-04 40216   0.145E-01    0.784E+00
DAV:   6    -0.366047881608E+02    0.97219E+00   -0.59429E-01 37688   0.488E+00    0.467E+00
DAV:   7    -0.362758700788E+02    0.32892E+00   -0.68549E-01 41608   0.544E+00    0.104E+00
DAV:   8    -0.362786445859E+02   -0.27745E-02   -0.14129E-02 35360   0.786E-01    0.606E-02
DAV:   9    -0.362787349027E+02   -0.90317E-04   -0.17389E-04 43360   0.999E-02    0.300E-02
DAV:  10    -0.362787751653E+02   -0.40263E-04   -0.33310E-05 35296   0.472E-02    0.845E-03
DAV:  11    -0.362787750434E+02    0.12187E-06   -0.50261E-07 36312   0.594E-03
   1 F= -.36278775E+02 E0= -.36278775E+02  d E =-.806674E-21
