Be4 Cu2                                 
   1.00000000000000     
     3.6518894500000001    0.0000000000000000    2.1084186300000001
     1.2172958100000000    3.4430348799999999    2.1084186300000001
     0.0000000000000000    0.0000000000000000    4.2168382700000002
   Be   Cu
     4     2
Direct
     0.5000000000000000    0.5000000000000000    0.5000000000000000
     0.5000000000000000    0.5000000000000000    0.0000000000000000
     0.0000000000000000    0.5000000000000000    0.5000000000000000
     0.5000000000000000    0.0000000000000000    0.5000000000000000
     0.8750000000000000    0.8750000000000000    0.8750000000000000
     0.1250000000000000    0.1250000000000000    0.1250000000000000
 
  0.00000000E+00  0.00000000E+00  0.00000000E+00
  0.00000000E+00  0.00000000E+00  0.00000000E+00
  0.00000000E+00  0.00000000E+00  0.00000000E+00
  0.00000000E+00  0.00000000E+00  0.00000000E+00
  0.00000000E+00  0.00000000E+00  0.00000000E+00
  0.00000000E+00  0.00000000E+00  0.00000000E+00
