Zn12 N8                                 
   1.00000000000000     
     3.3698085600000001    0.0000000000000000    0.0000000000000000
     0.0000000000000000    5.8394267700000002    0.0000000000000000
     0.0000000000000000    0.0000000000000000   11.8893202599999999
   Zn   N 
    12     8
Direct
     0.7500000000000000    0.0833945299999996    0.0790049399999972
     0.7500000000000000    0.4166054700000004    0.5790049399999972
     0.7500000000000000    0.7512057499999969    0.2496940500000022
     0.7500000000000000    0.0829028899999997    0.4209533000000008
     0.7500000000000000    0.7487942500000031    0.7496940500000022
     0.7500000000000000    0.4170971100000003    0.9209533000000008
     0.2500000000000000    0.5829028899999997    0.0790466999999992
     0.2500000000000000    0.9166054700000004    0.9209950600000028
     0.2500000000000000    0.2512057499999969    0.2503059499999978
     0.2500000000000000    0.2487942500000031    0.7503059499999978
     0.2500000000000000    0.9170971100000003    0.5790466999999992
     0.2500000000000000    0.5833945299999996    0.4209950600000028
     0.7500000000000000    0.0843740899999972    0.2499169399999985
     0.7500000000000000    0.7498250399999975    0.0001038199999996
     0.7500000000000000    0.4156259100000028    0.7499169399999985
     0.7500000000000000    0.7501749600000025    0.5001038199999996
     0.2500000000000000    0.5843740899999972    0.2500830600000015
     0.2500000000000000    0.9156259100000028    0.7500830600000015
     0.2500000000000000    0.2498250399999975    0.4998961800000004
     0.2500000000000000    0.2501749600000025    0.9998961800000004
 
  0.00000000E+00  0.00000000E+00  0.00000000E+00
  0.00000000E+00  0.00000000E+00  0.00000000E+00
  0.00000000E+00  0.00000000E+00  0.00000000E+00
  0.00000000E+00  0.00000000E+00  0.00000000E+00
  0.00000000E+00  0.00000000E+00  0.00000000E+00
  0.00000000E+00  0.00000000E+00  0.00000000E+00
  0.00000000E+00  0.00000000E+00  0.00000000E+00
  0.00000000E+00  0.00000000E+00  0.00000000E+00
  0.00000000E+00  0.00000000E+00  0.00000000E+00
  0.00000000E+00  0.00000000E+00  0.00000000E+00
  0.00000000E+00  0.00000000E+00  0.00000000E+00
  0.00000000E+00  0.00000000E+00  0.00000000E+00
  0.00000000E+00  0.00000000E+00  0.00000000E+00
  0.00000000E+00  0.00000000E+00  0.00000000E+00
  0.00000000E+00  0.00000000E+00  0.00000000E+00
  0.00000000E+00  0.00000000E+00  0.00000000E+00
  0.00000000E+00  0.00000000E+00  0.00000000E+00
  0.00000000E+00  0.00000000E+00  0.00000000E+00
  0.00000000E+00  0.00000000E+00  0.00000000E+00
  0.00000000E+00  0.00000000E+00  0.00000000E+00
