unknown system                          
           1
     3.369809    0.000000    0.000000
     0.000000    5.839427    0.000000
     0.000000    0.000000   11.889320
   Zn   N 
    12     8
Direct configuration=     1
   0.75000000  0.08339453  0.07900494
   0.75000000  0.41660547  0.57900494
   0.75000000  0.75120575  0.24969405
   0.75000000  0.08290289  0.42095330
   0.75000000  0.74879425  0.74969405
   0.75000000  0.41709711  0.92095330
   0.25000000  0.58290289  0.07904670
   0.25000000  0.91660547  0.92099506
   0.25000000  0.25120575  0.25030595
   0.25000000  0.24879425  0.75030595
   0.25000000  0.91709711  0.57904670
   0.25000000  0.58339453  0.42099506
   0.75000000  0.08437409  0.24991694
   0.75000000  0.74982504  0.00010382
   0.75000000  0.41562591  0.74991694
   0.75000000  0.75017496  0.50010382
   0.25000000  0.58437409  0.25008306
   0.25000000  0.91562591  0.75008306
   0.25000000  0.24982504  0.49989618
   0.25000000  0.25017496  0.99989618
