Hg3                                     
   1.00000000000000     
     5.4666959999999998   -0.0000000500000000    0.0000000000000000
    -2.7333490800000000    4.7342979900000000    0.0000000000000000
     0.0000000000000000    0.0000000000000000    3.1852178100000001
   Hg
     3
Direct
     0.3333330000000032    0.6666669999999968    0.5000000000000000
     0.6666669999999968    0.3333330000000032    0.5000000000000000
     0.0000000000000000    0.0000000000000000    0.0000000000000000
 
  0.00000000E+00  0.00000000E+00  0.00000000E+00
  0.00000000E+00  0.00000000E+00  0.00000000E+00
  0.00000000E+00  0.00000000E+00  0.00000000E+00
