       N       E                     dE             d eps       ncg     rms          rms(c)
DAV:   1     0.312448512799E+03    0.31245E+03   -0.19498E+04 12616   0.137E+03
DAV:   2     0.839125462084E+01   -0.30406E+03   -0.28241E+03 13204   0.344E+02
DAV:   3    -0.568027037001E+00   -0.89593E+01   -0.89188E+01 14352   0.646E+01
DAV:   4    -0.590123371547E+00   -0.22096E-01   -0.22087E-01 13492   0.319E+00
DAV:   5    -0.590159207434E+00   -0.35836E-04   -0.35836E-04 13580   0.118E-01    0.398E+00
DAV:   6    -0.536207972148E+00    0.53951E-01   -0.13101E-01 13712   0.327E+00    0.311E+00
DAV:   7    -0.533775072430E+00    0.24329E-02   -0.25717E-02 13360   0.114E+00    0.134E+00
DAV:   8    -0.534128014379E+00   -0.35294E-03   -0.33387E-03 13336   0.519E-01    0.784E-02
DAV:   9    -0.534166231987E+00   -0.38218E-04   -0.51013E-05 13892   0.604E-02    0.310E-02
DAV:  10    -0.534209095968E+00   -0.42864E-04   -0.50114E-05 13232   0.477E-02    0.539E-03
DAV:  11    -0.534208971243E+00    0.12472E-06   -0.12490E-06  9120   0.962E-03
   1 F= -.53420897E+00 E0= -.53370671E+00  d E =-.100453E-02
