As16S12
1.0
      6.7957966       0.0000000       0.0000000
      0.0000000      10.1665424       0.0000000
      0.0000000       0.0000000      11.5703164
  As    S   
  16    12  
Direct
      0.2169556       0.6268144       0.9269445
      0.7830444       0.1268144       0.0730555
      0.7169556       0.1268144       0.5730555
      0.2169556       0.8731856       0.9269445
      0.8992165       0.2500000       0.4214593
      0.7830444       0.3731866       0.0730555
      0.3992165       0.7500000       0.0785407
      0.1673533       0.2500000       0.6862371
      0.1007835       0.7500000       0.5785407
      0.7169556       0.3731866       0.5730555
      0.8326467       0.7500000       0.3137629
      0.3326467       0.2500000       0.1862371
      0.2830444       0.6268144       0.4269445
      0.6673533       0.7500000       0.8137629
      0.2830444       0.8731856       0.4269445
      0.6007835       0.2500000       0.9214593
      0.7978483       0.7500000       0.5067404
      0.4518381       0.5834876       0.7995208
      0.5481619       0.4165124       0.2004792
      0.7021517       0.7500000       0.0067404
      0.4518381       0.9165124       0.7995208
      0.2021517       0.2500000       0.4932596
      0.9518381       0.4165124       0.7004792
      0.2978483       0.2500000       0.9932596
      0.5481619       0.0834876       0.2004792
      0.9518381       0.0834876       0.7004792
      0.0481619       0.9165124       0.2995208
      0.0481619       0.5834876       0.2995208
