As16 S12
1.0
   6.7957965600000003   -0.0000000000000000    0.0000000000000000
  -0.0000000000000000   10.1665423799999992    0.0000000000000000
   0.0000000000000000    0.0000000000000000   11.5703164100000002
As S
16 12
direct
   0.2169555900000000    0.6268143900000001    0.9269444900000000 As
   0.7830444100000000    0.1268143900000000    0.0730555100000000 As
   0.7169555900000000    0.1268143900000000    0.5730555100000000 As
   0.2169555900000000    0.8731856099999999    0.9269444900000000 As
   0.8992164600000000    0.2500000000000000    0.4214592900000000 As
   0.7830444100000000    0.3731866100000000    0.0730555100000000 As
   0.3992164600000000    0.7500000000000000    0.0785407100000000 As
   0.1673533500000000    0.2500000000000000    0.6862371100000000 As
   0.1007835400000000    0.7500000000000000    0.5785407100000000 As
   0.7169555900000000    0.3731866100000000    0.5730555100000000 As
   0.8326466500000000    0.7500000000000000    0.3137628900000000 As
   0.3326466500000000    0.2500000000000000    0.1862371100000000 As
   0.2830444100000000    0.6268143900000001    0.4269444900000000 As
   0.6673533500000000    0.7500000000000000    0.8137628900000000 As
   0.2830444100000000    0.8731856099999999    0.4269444900000000 As
   0.6007835400000000    0.2500000000000000    0.9214592900000000 As
   0.7978483100000000    0.7500000000000000    0.5067404300000000 S
   0.4518381200000000    0.5834876200000000    0.7995208100000000 S
   0.5481618800000000    0.4165123800000000    0.2004791900000000 S
   0.7021516900000000    0.7500000000000000    0.0067404300000000 S
   0.4518381200000000    0.9165123800000000    0.7995208100000000 S
   0.2021516900000000    0.2500000000000000    0.4932595700000000 S
   0.9518381200000000    0.4165123800000000    0.7004791900000000 S
   0.2978483100000000    0.2500000000000000    0.9932595700000000 S
   0.5481618800000000    0.0834876200000000    0.2004791900000000 S
   0.9518381200000000    0.0834876200000000    0.7004791900000000 S
   0.0481618800000000    0.9165123800000000    0.2995208100000000 S
   0.0481618800000000    0.5834876200000000    0.2995208100000000 S
