Mg2 Cd2                                 
   1.00000000000000     
     3.2328342200000000    0.0000000000000000    0.0000000000000000
     0.0000000000000000    4.9603294900000003    0.0000000000000000
     0.0000000000000000    0.0000000000000000    5.2139574599999996
   Mg   Cd
     2     2
Direct
     0.5000000000000000    0.2500000000000000    0.6868340300000000
     0.5000000000000000    0.7500000000000000    0.3131659700000000
     0.0000000000000000    0.2500000000000000    0.1825449000000035
     0.0000000000000000    0.7500000000000000    0.8174550999999965
 
  0.00000000E+00  0.00000000E+00  0.00000000E+00
  0.00000000E+00  0.00000000E+00  0.00000000E+00
  0.00000000E+00  0.00000000E+00  0.00000000E+00
  0.00000000E+00  0.00000000E+00  0.00000000E+00
