unknown system                          
           1
     0.000000    0.000000    4.954043
    -4.732450    4.732450    2.477021
    -4.732450   -4.732450    2.477021
   Re   Si
    10     6
Direct configuration=     1
   0.72346500  0.84973700  0.70333300
   0.27653500  0.15026300  0.29666700
   0.77653500  0.29666700  0.15026300
   0.22346500  0.70333300  0.84973700
   0.57320200  0.70333300  0.15026300
   0.42679800  0.29666700  0.84973700
   0.07320200  0.15026300  0.70333300
   0.92679800  0.84973700  0.29666700
   0.75000000  0.50000000  0.50000000
   0.25000000  0.50000000  0.50000000
   0.17058700  0.50000000  0.15882600
   0.82941300  0.50000000  0.84117400
   0.32941300  0.84117400  0.50000000
   0.67058700  0.15882600  0.50000000
   0.25000000  0.00000000  0.00000000
   0.75000000  0.00000000  0.00000000
