unknown system                          
           1
     7.260905   -0.000330    0.000600
    -0.000280    7.370968   -0.012381
     0.000661   -0.013914    9.452177
   K    F 
     8    24
Direct configuration=     1
   0.41671860  0.79791407  0.62928137
   0.91638063  0.70193010  0.37079363
   0.58389563  0.29790052  0.87145925
   0.08384819  0.20204275  0.12817276
   0.45160835  0.82621893  0.10765614
   0.95156922  0.67362728  0.89254676
   0.54794162  0.32580945  0.39346341
   0.04795791  0.17422338  0.60648517
   0.78176726  0.70991201  0.63620717
   0.28168028  0.79025131  0.36410296
   0.21832719  0.20972600  0.86224906
   0.71834554  0.29029014  0.13749677
   0.03449789  0.79480971  0.63111809
   0.53436372  0.70515538  0.36897548
   0.96540953  0.29368666  0.86912034
   0.46537904  0.20652821  0.13073627
   0.23361721  0.94699424  0.87017401
   0.73372074  0.55299569  0.12979046
   0.76678095  0.44699939  0.63135916
   0.26684252  0.05319545  0.36849991
   0.80848695  0.94198237  0.15191248
   0.30854924  0.55795208  0.84820746
   0.19167201  0.44144694  0.34848498
   0.69169772  0.05871872  0.65152463
   0.25717900  0.46528475  0.54789327
   0.75699615  0.03474793  0.45209607
   0.74267448  0.96475096  0.95262691
   0.24240343  0.53525348  0.04746858
   0.55151611  0.66306718  0.86778669
   0.05139123  0.83674043  0.13241632
   0.44835143  0.16287016  0.63245127
   0.94842722  0.33697232  0.36744316
