Al12 W1                                 
   1.00000000000000     
     6.1489805799999999    0.0000000000000000   -2.1739926399999998
    -3.0744902900000000    5.3251739599999999   -2.1739936399999999
     0.0000000000000000    0.0000000000000000    6.5219789300000004
   Al   W 
    12     1
Direct
     0.4945062500000006    0.3076066799999992    0.1868995700000013
     0.3076066799999992    0.8131004299999987    0.1207081200000033
     0.1868995700000013    0.8792918799999967    0.6923933200000008
     0.6923933200000008    0.8131004299999987    0.5054937499999994
     0.8131004299999987    0.1207081200000033    0.3076066799999992
     0.6923933200000008    0.1868995700000013    0.8792918799999967
     0.8131004299999987    0.5054937499999994    0.6923933200000008
     0.1868995700000013    0.4945062500000006    0.3076066799999992
     0.3076066799999992    0.1868995700000013    0.4945062500000006
     0.1207081200000033    0.3076066799999992    0.8131004299999987
     0.8792918799999967    0.6923933200000008    0.1868995700000013
     0.5054937499999994    0.6923933200000008    0.8131004299999987
     0.0000000000000000    0.0000000000000000    0.0000000000000000
 
  0.00000000E+00  0.00000000E+00  0.00000000E+00
  0.00000000E+00  0.00000000E+00  0.00000000E+00
  0.00000000E+00  0.00000000E+00  0.00000000E+00
  0.00000000E+00  0.00000000E+00  0.00000000E+00
  0.00000000E+00  0.00000000E+00  0.00000000E+00
  0.00000000E+00  0.00000000E+00  0.00000000E+00
  0.00000000E+00  0.00000000E+00  0.00000000E+00
  0.00000000E+00  0.00000000E+00  0.00000000E+00
  0.00000000E+00  0.00000000E+00  0.00000000E+00
  0.00000000E+00  0.00000000E+00  0.00000000E+00
  0.00000000E+00  0.00000000E+00  0.00000000E+00
  0.00000000E+00  0.00000000E+00  0.00000000E+00
  0.00000000E+00  0.00000000E+00  0.00000000E+00
