  13  13   0   0
  0.1642756E+02  0.6521979E-09  0.6521980E-09  0.6521979E-09  0.5000000E-15
  1.000000000000000E-004
  CAR 
 unknown system                          
     21.36407036     -4.10431316  301      7.64387966      1.00000000
     -4.104  0.0000E+00  0.0000E+00
     -4.019  0.0000E+00  0.0000E+00
     -3.935  0.0000E+00  0.0000E+00
     -3.850  0.0000E+00  0.0000E+00
     -3.765  0.0000E+00  0.0000E+00
     -3.680  0.0000E+00  0.0000E+00
     -3.595  0.0000E+00  0.0000E+00
     -3.510  0.0000E+00  0.0000E+00
     -3.425  0.0000E+00  0.0000E+00
     -3.340  0.0000E+00  0.0000E+00
     -3.255  0.0000E+00  0.0000E+00
     -3.170  0.2701E-09  0.2293E-10
     -3.086  0.9412E-04  0.7990E-05
     -3.001  0.1396E+00  0.1186E-01
     -2.916  0.1646E+01  0.1516E+00
     -2.831  0.4213E+00  0.1874E+00
     -2.746  0.1462E-02  0.1875E+00
     -2.661  0.2750E+00  0.2109E+00
     -2.576  0.2258E+01  0.4026E+00
     -2.491  0.4107E+00  0.4374E+00
     -2.406  0.3493E-02  0.4377E+00
     -2.322  0.1358E+01  0.5530E+00
     -2.237  0.6736E+01  0.1125E+01
     -2.152  0.7368E+00  0.1187E+01
     -2.067  0.6839E-03  0.1187E+01
     -1.982  0.2755E-08  0.1188E+01
     -1.897  0.2211E-05  0.1188E+01
     -1.812  0.2819E-01  0.1190E+01
     -1.727  0.2031E+01  0.1362E+01
     -1.642  0.3139E+01  0.1629E+01
     -1.557  0.2181E+01  0.1814E+01
     -1.473  0.4098E+01  0.2162E+01
     -1.388  0.2388E+01  0.2365E+01
     -1.303  0.1879E+00  0.2380E+01
     -1.218  0.3135E+01  0.2647E+01
     -1.133  0.2655E+01  0.2872E+01
     -1.048  0.1664E+00  0.2886E+01
     -0.963  0.5076E+01  0.3317E+01
     -0.878  0.3590E+01  0.3622E+01
     -0.793  0.3804E-01  0.3625E+01
     -0.709  0.2189E-05  0.3625E+01
     -0.624  0.5275E-03  0.3625E+01
     -0.539  0.4480E+00  0.3663E+01
     -0.454  0.3420E+01  0.3953E+01
     -0.369  0.2828E+01  0.4194E+01
     -0.284  0.5819E+01  0.4688E+01
     -0.199  0.2139E+01  0.4869E+01
     -0.114  0.1316E+01  0.4981E+01
     -0.029  0.6290E+01  0.5515E+01
      0.056  0.5397E+01  0.5973E+01
      0.140  0.6865E+01  0.6556E+01
      0.225  0.8133E+00  0.6625E+01
      0.310  0.8500E-03  0.6625E+01
      0.395  0.1365E-02  0.6625E+01
      0.480  0.1004E+01  0.6710E+01
      0.565  0.6812E+01  0.7289E+01
      0.650  0.2423E+01  0.7494E+01
      0.735  0.2892E+01  0.7740E+01
      0.820  0.1193E+00  0.7750E+01
      0.904  0.3511E+00  0.7780E+01
      0.989  0.1681E+01  0.7923E+01
      1.074  0.7430E+00  0.7986E+01
      1.159  0.3798E+01  0.8308E+01
      1.244  0.9048E+01  0.9076E+01
      1.329  0.1011E+02  0.9935E+01
      1.414  0.1494E+01  0.1006E+02
      1.499  0.1314E+01  0.1017E+02
      1.584  0.8428E+01  0.1089E+02
      1.669  0.1311E+01  0.1100E+02
      1.753  0.6939E+00  0.1106E+02
      1.838  0.6708E+01  0.1163E+02
      1.923  0.1431E+01  0.1175E+02
      2.008  0.1681E-01  0.1175E+02
      2.093  0.1664E+01  0.1189E+02
      2.178  0.6349E+01  0.1243E+02
      2.263  0.5130E+01  0.1287E+02
      2.348  0.3410E+01  0.1316E+02
      2.433  0.7371E+01  0.1378E+02
      2.517  0.4286E+01  0.1415E+02
      2.602  0.4225E+01  0.1450E+02
      2.687  0.8721E+01  0.1525E+02
      2.772  0.2501E+01  0.1546E+02
      2.857  0.1642E+01  0.1560E+02
      2.942  0.3103E+01  0.1586E+02
      3.027  0.1431E+01  0.1598E+02
      3.112  0.7566E+01  0.1662E+02
      3.197  0.4151E+01  0.1698E+02
      3.282  0.2975E+00  0.1700E+02
      3.366  0.2253E+01  0.1719E+02
      3.451  0.6359E+01  0.1773E+02
      3.536  0.9931E+01  0.1858E+02
      3.621  0.4032E+01  0.1892E+02
      3.706  0.4924E+01  0.1934E+02
      3.791  0.4602E+01  0.1973E+02
      3.876  0.6868E+01  0.2031E+02
      3.961  0.1523E+01  0.2044E+02
      4.046  0.5025E+01  0.2087E+02
      4.130  0.8663E+00  0.2094E+02
      4.215  0.1977E+01  0.2111E+02
      4.300  0.6616E+01  0.2167E+02
      4.385  0.9402E+01  0.2247E+02
      4.470  0.2192E+01  0.2265E+02
      4.555  0.7437E+01  0.2328E+02
      4.640  0.5446E+01  0.2375E+02
      4.725  0.1267E+02  0.2482E+02
      4.810  0.7843E+01  0.2549E+02
      4.895  0.3008E+01  0.2574E+02
      4.979  0.3253E+01  0.2602E+02
      5.064  0.6742E+01  0.2659E+02
      5.149  0.1693E+01  0.2674E+02
      5.234  0.1804E+01  0.2689E+02
      5.319  0.6044E+01  0.2740E+02
      5.404  0.4766E+01  0.2781E+02
      5.489  0.2014E+01  0.2798E+02
      5.574  0.8296E+01  0.2868E+02
      5.659  0.1993E+02  0.3037E+02
      5.743  0.5153E+01  0.3081E+02
      5.828  0.3637E+01  0.3112E+02
      5.913  0.2908E+01  0.3137E+02
      5.998  0.1002E+00  0.3138E+02
      6.083  0.2387E+00  0.3140E+02
      6.168  0.5075E+01  0.3183E+02
      6.253  0.8449E+01  0.3254E+02
      6.338  0.2731E+01  0.3278E+02
      6.423  0.9106E+01  0.3355E+02
      6.508  0.1009E+02  0.3441E+02
      6.592  0.1024E+02  0.3527E+02
      6.677  0.7055E+01  0.3587E+02
      6.762  0.5885E+01  0.3637E+02
      6.847  0.9904E+01  0.3721E+02
      6.932  0.7053E+01  0.3781E+02
      7.017  0.3671E+01  0.3812E+02
      7.102  0.5185E+01  0.3856E+02
      7.187  0.9365E+01  0.3936E+02
      7.272  0.1424E+02  0.4057E+02
      7.356  0.1164E+02  0.4156E+02
      7.441  0.3663E+01  0.4187E+02
      7.526  0.8368E-01  0.4188E+02
      7.611  0.3994E+00  0.4191E+02
      7.696  0.4202E+01  0.4227E+02
      7.781  0.2742E+01  0.4250E+02
      7.866  0.4796E+01  0.4291E+02
      7.951  0.5605E+01  0.4338E+02
      8.036  0.2020E+01  0.4355E+02
      8.121  0.3121E+00  0.4358E+02
      8.205  0.4025E+01  0.4392E+02
      8.290  0.1665E+01  0.4406E+02
      8.375  0.1660E+01  0.4420E+02
      8.460  0.8759E+01  0.4495E+02
      8.545  0.2813E+01  0.4519E+02
      8.630  0.8301E-01  0.4519E+02
      8.715  0.2988E+01  0.4545E+02
      8.800  0.8338E+01  0.4615E+02
      8.885  0.4012E+01  0.4649E+02
      8.969  0.2187E+01  0.4668E+02
      9.054  0.9253E+01  0.4747E+02
      9.139  0.7430E+01  0.4810E+02
      9.224  0.1255E+02  0.4916E+02
      9.309  0.7361E+01  0.4979E+02
      9.394  0.3726E+01  0.5010E+02
      9.479  0.4883E+01  0.5052E+02
      9.564  0.3609E+01  0.5082E+02
      9.649  0.2809E+01  0.5106E+02
      9.734  0.4412E+01  0.5144E+02
      9.818  0.4023E+01  0.5178E+02
      9.903  0.1017E+02  0.5264E+02
      9.988  0.5730E+01  0.5313E+02
     10.073  0.8093E+01  0.5382E+02
     10.158  0.7427E+01  0.5445E+02
     10.243  0.6062E+01  0.5496E+02
     10.328  0.7017E+01  0.5556E+02
     10.413  0.6376E+01  0.5610E+02
     10.498  0.4723E+01  0.5650E+02
     10.582  0.7876E+01  0.5717E+02
     10.667  0.7737E+01  0.5782E+02
     10.752  0.1943E+01  0.5799E+02
     10.837  0.2614E+01  0.5821E+02
     10.922  0.6340E+01  0.5875E+02
     11.007  0.9249E+01  0.5953E+02
     11.092  0.7990E+01  0.6021E+02
     11.177  0.5254E+01  0.6066E+02
     11.262  0.1275E+02  0.6174E+02
     11.347  0.1012E+02  0.6260E+02
     11.431  0.2257E+01  0.6279E+02
     11.516  0.2807E+01  0.6303E+02
     11.601  0.3778E+01  0.6335E+02
     11.686  0.4500E+01  0.6373E+02
     11.771  0.9236E+01  0.6452E+02
     11.856  0.6167E+01  0.6504E+02
     11.941  0.7327E+01  0.6566E+02
     12.026  0.1050E+02  0.6655E+02
     12.111  0.8261E+01  0.6726E+02
     12.195  0.1035E+02  0.6813E+02
     12.280  0.1015E+02  0.6900E+02
     12.365  0.9893E+01  0.6984E+02
     12.450  0.2136E+01  0.7002E+02
     12.535  0.4481E+01  0.7040E+02
     12.620  0.4816E+00  0.7044E+02
     12.705  0.3821E+01  0.7076E+02
     12.790  0.1221E+02  0.7180E+02
     12.875  0.2848E+01  0.7204E+02
     12.960  0.1157E+02  0.7302E+02
     13.044  0.1182E+02  0.7403E+02
     13.129  0.2995E+01  0.7428E+02
     13.214  0.5995E+01  0.7479E+02
     13.299  0.4996E+01  0.7521E+02
     13.384  0.1180E+02  0.7622E+02
     13.469  0.8922E+01  0.7697E+02
     13.554  0.9349E+01  0.7777E+02
     13.639  0.1048E+02  0.7866E+02
     13.724  0.6162E+01  0.7918E+02
     13.808  0.9593E+01  0.7999E+02
     13.893  0.2049E+01  0.8017E+02
     13.978  0.1254E+02  0.8123E+02
     14.063  0.1607E+02  0.8260E+02
     14.148  0.7533E+01  0.8324E+02
     14.233  0.2826E+01  0.8348E+02
     14.318  0.4978E+01  0.8390E+02
     14.403  0.3193E+01  0.8417E+02
     14.488  0.4105E+00  0.8421E+02
     14.573  0.3169E+01  0.8447E+02
     14.657  0.4556E+01  0.8486E+02
     14.742  0.3845E+01  0.8519E+02
     14.827  0.6027E+01  0.8570E+02
     14.912  0.6139E+01  0.8622E+02
     14.997  0.6020E+01  0.8673E+02
     15.082  0.5386E+01  0.8719E+02
     15.167  0.1380E+02  0.8836E+02
     15.252  0.8048E+01  0.8904E+02
     15.337  0.3194E+01  0.8932E+02
     15.421  0.1732E+01  0.8946E+02
     15.506  0.6037E+01  0.8997E+02
     15.591  0.9682E+01  0.9080E+02
     15.676  0.9282E+01  0.9158E+02
     15.761  0.5125E+01  0.9202E+02
     15.846  0.4792E+01  0.9243E+02
     15.931  0.5702E+01  0.9291E+02
     16.016  0.4312E+01  0.9328E+02
     16.101  0.9109E+01  0.9405E+02
     16.185  0.1614E+02  0.9542E+02
     16.270  0.1109E+02  0.9636E+02
     16.355  0.3136E+01  0.9663E+02
     16.440  0.4834E+01  0.9704E+02
     16.525  0.4198E+01  0.9739E+02
     16.610  0.3291E+01  0.9767E+02
     16.695  0.2460E+01  0.9788E+02
     16.780  0.1170E+02  0.9888E+02
     16.865  0.6447E+01  0.9942E+02
     16.950  0.1190E+02  0.1004E+03
     17.034  0.1559E+02  0.1018E+03
     17.119  0.2126E+01  0.1019E+03
     17.204  0.1537E+01  0.1021E+03
     17.289  0.7692E+01  0.1027E+03
     17.374  0.1215E+02  0.1038E+03
     17.459  0.1362E+02  0.1049E+03
     17.544  0.8396E+01  0.1056E+03
     17.629  0.1873E+01  0.1058E+03
     17.714  0.3206E+01  0.1061E+03
     17.798  0.9975E+01  0.1069E+03
     17.883  0.9370E+01  0.1077E+03
     17.968  0.9865E+01  0.1085E+03
     18.053  0.7855E+01  0.1092E+03
     18.138  0.1146E+02  0.1102E+03
     18.223  0.1117E+02  0.1111E+03
     18.308  0.6146E+01  0.1116E+03
     18.393  0.5369E+01  0.1121E+03
     18.478  0.6273E+01  0.1126E+03
     18.563  0.9343E+01  0.1134E+03
     18.647  0.8807E+01  0.1142E+03
     18.732  0.5061E+01  0.1146E+03
     18.817  0.6932E+01  0.1152E+03
     18.902  0.4852E+01  0.1156E+03
     18.987  0.1085E+02  0.1165E+03
     19.072  0.6937E+01  0.1171E+03
     19.157  0.9002E+01  0.1179E+03
     19.242  0.6447E+01  0.1184E+03
     19.327  0.3993E+01  0.1188E+03
     19.411  0.3613E+01  0.1191E+03
     19.496  0.3101E+01  0.1193E+03
     19.581  0.2064E+01  0.1195E+03
     19.666  0.1336E+01  0.1196E+03
     19.751  0.3976E-01  0.1196E+03
     19.836  0.1379E+00  0.1196E+03
     19.921  0.1644E+01  0.1198E+03
     20.006  0.4258E+00  0.1198E+03
     20.091  0.2375E+00  0.1198E+03
     20.176  0.1393E+01  0.1200E+03
     20.260  0.5539E+00  0.1200E+03
     20.345  0.2511E-01  0.1200E+03
     20.430  0.1579E-04  0.1200E+03
     20.515  0.4503E-10  0.1200E+03
     20.600  0.0000E+00  0.1200E+03
     20.685  0.0000E+00  0.1200E+03
     20.770  0.0000E+00  0.1200E+03
     20.855  0.0000E+00  0.1200E+03
     20.940  0.0000E+00  0.1200E+03
     21.024  0.0000E+00  0.1200E+03
     21.109  0.0000E+00  0.1200E+03
     21.194  0.0000E+00  0.1200E+03
     21.279  0.0000E+00  0.1200E+03
     21.364  0.0000E+00  0.1200E+03
