       N       E                     dE             d eps       ncg     rms          rms(c)
DAV:   1     0.531363371955E+02    0.53136E+02   -0.15585E+04  7680   0.642E+02
DAV:   2    -0.540429373108E+02   -0.10718E+03   -0.98608E+02  8960   0.111E+02
DAV:   3    -0.599076127148E+02   -0.58647E+01   -0.57270E+01  9776   0.219E+01
DAV:   4    -0.599895207088E+02   -0.81908E-01   -0.81847E-01  9248   0.305E+00
DAV:   5    -0.599915115773E+02   -0.19909E-02   -0.19908E-02  9384   0.487E-01    0.212E+01
DAV:   6    -0.592593265055E+02    0.73219E+00   -0.33021E-01  8916   0.169E+00    0.110E+01
DAV:   7    -0.589764652769E+02    0.28286E+00   -0.37996E-01  9064   0.174E+00    0.674E-01
DAV:   8    -0.589721957262E+02    0.42696E-02   -0.66207E-02  9404   0.753E-01    0.470E-01
DAV:   9    -0.589686661597E+02    0.35296E-02   -0.61169E-03  9680   0.252E-01    0.197E-01
DAV:  10    -0.589684739258E+02    0.19223E-03   -0.70831E-04  8732   0.812E-02    0.109E-01
DAV:  11    -0.589684778732E+02   -0.39474E-05   -0.29532E-05  9792   0.176E-02    0.241E-02
DAV:  12    -0.589684754793E+02    0.23939E-05   -0.76408E-06  8956   0.742E-03    0.726E-03
DAV:  13    -0.589684742523E+02    0.12270E-05   -0.86014E-07  5000   0.343E-03    0.618E-03
DAV:  14    -0.589684740609E+02    0.19140E-06   -0.15448E-07  4608   0.161E-03
   1 F= -.58968474E+02 E0= -.58965969E+02  d E =-.501087E-02
