Al12W1
1.0
      6.1489806       0.0000000      -2.1739926
     -3.0744903       5.3251740      -2.1739936
      0.0000000       0.0000000       6.5219789
  Al    W   
  12    1   
Direct
      0.4945063       0.3076067       0.1868996
      0.3076067       0.8131004       0.1207081
      0.1868996       0.8792919       0.6923933
      0.6923933       0.8131004       0.5054937
      0.8131004       0.1207081       0.3076067
      0.6923933       0.1868996       0.8792919
      0.8131004       0.5054937       0.6923933
      0.1868996       0.4945063       0.3076067
      0.3076067       0.1868996       0.4945063
      0.1207081       0.3076067       0.8131004
      0.8792919       0.6923933       0.1868996
      0.5054937       0.6923933       0.8131004
      0.0000000       0.0000000       0.0000000
