Al12 W1
1.0
   6.1489805799999999   -0.0000000000000000   -2.1739926399999998
  -3.0744902900000000    5.3251739599999999   -2.1739936399999999
  -0.0000000000000000    0.0000000000000000    6.5219789300000004
Al W
12 1
direct
   0.4945062500000000    0.3076066800000000    0.1868995700000000 Al
   0.3076066800000000    0.8131004300000000    0.1207081200000000 Al
   0.1868995700000000    0.8792918800000000    0.6923933200000000 Al
   0.6923933200000000    0.8131004300000000    0.5054937500000000 Al
   0.8131004300000000    0.1207081200000000    0.3076066800000000 Al
   0.6923933200000000    0.1868995700000000    0.8792918800000000 Al
   0.8131004300000000    0.5054937500000000    0.6923933200000000 Al
   0.1868995700000000    0.4945062500000000    0.3076066800000000 Al
   0.3076066800000000    0.1868995700000000    0.4945062500000000 Al
   0.1207081200000000    0.3076066800000000    0.8131004300000000 Al
   0.8792918800000000    0.6923933200000000    0.1868995700000000 Al
   0.5054937500000000    0.6923933200000000    0.8131004300000000 Al
  -0.0000000000000000   -0.0000000000000000   -0.0000000000000000 W
