unknown system                          
           1
     6.148981    0.000000   -2.173993
    -3.074490    5.325174   -2.173994
     0.000000    0.000000    6.521979
   Al   W 
    12     1
Direct configuration=     1
   0.49450625  0.30760668  0.18689957
   0.30760668  0.81310043  0.12070812
   0.18689957  0.87929188  0.69239332
   0.69239332  0.81310043  0.50549375
   0.81310043  0.12070812  0.30760668
   0.69239332  0.18689957  0.87929188
   0.81310043  0.50549375  0.69239332
   0.18689957  0.49450625  0.30760668
   0.30760668  0.18689957  0.49450625
   0.12070812  0.30760668  0.81310043
   0.87929188  0.69239332  0.18689957
   0.50549375  0.69239332  0.81310043
   0.00000000  0.00000000  0.00000000
