Mn1 Al12                                
   1.00000000000000     
    -3.7020826100000002   -3.7020826100000002    3.7020826100000002
    -3.7020826100000002    3.7020826100000002   -3.7020826100000002
     3.7020826100000002   -3.7020826100000002   -3.7020826100000002
   Mn   Al
     1    12
Direct
     0.0000000000000000    0.0000000000000000    0.0000000000000000
     0.3048838300000014    0.1197056399999994    0.8148217999999972
     0.6951161699999986    0.8802943600000006    0.1851782000000028
     0.6951161699999986    0.5099349700000033    0.8148217999999972
     0.3048838300000014    0.4900650299999967    0.1851782000000028
     0.1197056399999994    0.8148217999999972    0.3048838300000014
     0.8802943600000006    0.1851782000000028    0.6951161699999986
     0.5099349700000033    0.8148217999999972    0.6951161699999986
     0.4900650299999967    0.1851782000000028    0.3048838300000014
     0.8148217999999972    0.3048838300000014    0.1197056399999994
     0.1851782000000028    0.6951161699999986    0.8802943600000006
     0.8148217999999972    0.6951161699999986    0.5099349700000033
     0.1851782000000028    0.3048838300000014    0.4900650299999967
 
  0.00000000E+00  0.00000000E+00  0.00000000E+00
  0.00000000E+00  0.00000000E+00  0.00000000E+00
  0.00000000E+00  0.00000000E+00  0.00000000E+00
  0.00000000E+00  0.00000000E+00  0.00000000E+00
  0.00000000E+00  0.00000000E+00  0.00000000E+00
  0.00000000E+00  0.00000000E+00  0.00000000E+00
  0.00000000E+00  0.00000000E+00  0.00000000E+00
  0.00000000E+00  0.00000000E+00  0.00000000E+00
  0.00000000E+00  0.00000000E+00  0.00000000E+00
  0.00000000E+00  0.00000000E+00  0.00000000E+00
  0.00000000E+00  0.00000000E+00  0.00000000E+00
  0.00000000E+00  0.00000000E+00  0.00000000E+00
  0.00000000E+00  0.00000000E+00  0.00000000E+00
