       N       E                     dE             d eps       ncg     rms          rms(c)
DAV:   1     0.525714234633E+03    0.52571E+03   -0.30401E+04 12008   0.129E+03
DAV:   2     0.105520850831E+02   -0.51516E+03   -0.47640E+03 12880   0.338E+02
DAV:   3    -0.769347113745E+01   -0.18246E+02   -0.18104E+02 13960   0.714E+01
DAV:   4    -0.779036830497E+01   -0.96897E-01   -0.96863E-01 13312   0.489E+00
DAV:   5    -0.779156724894E+01   -0.11989E-02   -0.11989E-02 13568   0.502E-01    0.121E+01
DAV:   6    -0.733800848334E+01    0.45356E+00   -0.59713E-01 13752   0.591E+00    0.821E+00
DAV:   7    -0.724125956404E+01    0.96749E-01   -0.35529E-01 13672   0.287E+00    0.234E+00
DAV:   8    -0.723739278760E+01    0.38668E-02   -0.66120E-02 13304   0.130E+00    0.635E-01
DAV:   9    -0.723447739501E+01    0.29154E-02   -0.13793E-02 12448   0.689E-01    0.205E-01
DAV:  10    -0.723460730734E+01   -0.12991E-03   -0.43456E-04 13744   0.107E-01    0.850E-02
DAV:  11    -0.723463374133E+01   -0.26434E-04   -0.12337E-04 12584   0.534E-02    0.153E-02
DAV:  12    -0.723463260788E+01    0.11335E-05   -0.10575E-05 12864   0.179E-02    0.977E-03
DAV:  13    -0.723463314322E+01   -0.53534E-06   -0.16995E-06  9992   0.780E-03
   1 F= -.72346331E+01 E0= -.72323683E+01  d E =-.452960E-02
