unknown system                          
           1
     6.541082   -0.000000    0.000000
    -0.000000   11.107506   -0.000000
     0.000000    0.000000   16.106282
   Pb   N 
    12    72
Direct configuration=     1
   0.14658565  0.61902312  0.90520882
   0.16149844  0.62167052  0.58429353
   0.66149844  0.87832948  0.58429353
   0.93304516  0.14130899  0.74243758
   0.83850156  0.37832948  0.08429353
   0.64658565  0.88097688  0.90520882
   0.33850156  0.12167052  0.08429353
   0.43304516  0.35869101  0.74243758
   0.35341435  0.11902311  0.40520882
   0.56695484  0.64130899  0.24243758
   0.85341435  0.38097689  0.40520882
   0.06695484  0.85869101  0.24243758
   0.65247808  0.22316165  0.31922228
   0.19950948  0.50358260  0.44329164
   0.63920573  0.21752335  0.85247963
   0.99218773  0.99530585  0.86714838
   0.11108939  0.26151089  0.56415290
   0.17464695  0.59248471  0.24307154
   0.69950947  0.99641740  0.44329164
   0.57632011  0.26512769  0.49420274
   0.16530189  0.99617144  0.58319926
   0.82278847  0.49738718  0.54754934
   0.83469809  0.00382856  0.08319926
   0.10634861  0.26219377  0.92301233
   0.89365139  0.73780623  0.42301231
   0.15324461  0.27822156  0.24579348
   0.82535305  0.40751529  0.74307154
   0.85780766  0.71299257  0.13392924
   0.30049053  0.00358261  0.94329163
   0.17721153  0.50261282  0.04754935
   0.07632011  0.23487230  0.49420274
   0.65257070  0.21808414  0.17260211
   0.67464695  0.90751529  0.24307154
   0.15247808  0.27683835  0.31922228
   0.49086910  0.49105971  0.11976664
   0.34752192  0.77683835  0.81922227
   0.84742930  0.71808413  0.67260210
   0.13920573  0.28247665  0.85247963
   0.80049053  0.49641739  0.94329163
   0.32278848  0.00261282  0.54754934
   0.00781226  0.00469415  0.36714838
   0.65324461  0.22177844  0.24579348
   0.66530189  0.50382856  0.58319926
   0.35780766  0.78700743  0.13392924
   0.86716097  0.48052590  0.24326818
   0.85409269  0.00108535  0.40564054
   0.36716097  0.01947410  0.24326818
   0.13283903  0.51947410  0.74326817
   0.47518842  0.03593492  0.74301931
   0.02481158  0.53593492  0.24301932
   0.50781226  0.49530585  0.36714838
   0.86079427  0.71752335  0.35247962
   0.97518842  0.46406508  0.74301931
   0.61108939  0.23848911  0.56415290
   0.14219234  0.28700743  0.63392923
   0.64590732  0.50108535  0.90564053
   0.33469809  0.49617144  0.08319926
   0.84675539  0.72177844  0.74579351
   0.64219234  0.21299257  0.63392923
   0.07107277  0.24049414  0.99370857
   0.92892723  0.75950586  0.49370857
   0.34742930  0.78191587  0.67260210
   0.50913091  0.50894029  0.61976663
   0.42892723  0.74049414  0.49370857
   0.84752192  0.72316165  0.81922227
   0.39365139  0.76219377  0.42301232
   0.14590732  0.99891465  0.90564053
   0.35409269  0.49891465  0.40564053
   0.99086910  0.00894029  0.11976664
   0.42367989  0.73487231  0.99420274
   0.63283903  0.98052590  0.74326817
   0.52481157  0.96406508  0.24301932
   0.57107278  0.25950586  0.99370857
   0.92367989  0.76512769  0.99420274
   0.36079427  0.78247665  0.35247963
   0.32535305  0.09248471  0.74307154
   0.67721153  0.99738718  0.04754934
   0.49218773  0.50469415  0.86714838
   0.38891062  0.76151089  0.06415288
   0.88891062  0.73848911  0.06415288
   0.34675539  0.77822156  0.74579351
   0.60634861  0.23780623  0.92301232
   0.15257070  0.28191586  0.17260211
   0.00913091  0.99105971  0.61976663
unknown system                          
           1
     6.546762   -0.000000    0.000000
    -0.000000   11.099046    0.000000
     0.000000    0.000000   16.091736
   Pb   N 
    12    72
Direct configuration=     2
   0.14687049  0.61935235  0.90517053
   0.16134728  0.62182488  0.58420846
   0.66134728  0.87817512  0.58420846
   0.93347981  0.14129835  0.74262790
   0.83865272  0.37817512  0.08420846
   0.64687049  0.88064765  0.90517052
   0.33865272  0.12182488  0.08420846
   0.43347981  0.35870165  0.74262790
   0.35312951  0.11935235  0.40517052
   0.56652018  0.64129836  0.24262790
   0.85312951  0.38064765  0.40517052
   0.06652018  0.85870164  0.24262790
   0.65266060  0.22293571  0.31894814
   0.19878212  0.50339382  0.44332076
   0.63921246  0.21739312  0.85263532
   0.99207295  0.99544695  0.86707125
   0.11096740  0.26143304  0.56388221
   0.17571336  0.59296008  0.24311601
   0.69878211  0.99660618  0.44332076
   0.57622363  0.26508719  0.49427426
   0.16590227  0.99640097  0.58310759
   0.82253306  0.49731981  0.54755277
   0.83409789  0.00359904  0.08310763
   0.10633179  0.26229627  0.92290926
   0.89366822  0.73770374  0.42290927
   0.15352705  0.27807231  0.24617638
   0.82428662  0.40703992  0.74311601
   0.85782709  0.71304364  0.13403732
   0.30121790  0.00339382  0.94332077
   0.17746685  0.50268019  0.04755277
   0.07622363  0.23491281  0.49427426
   0.65241074  0.21801579  0.17231332
   0.67571336  0.90703992  0.24311601
   0.15266060  0.27706429  0.31894813
   0.49164696  0.49126617  0.12003732
   0.34733940  0.77706429  0.81894828
   0.84758926  0.71801579  0.67231347
   0.13921246  0.28260688  0.85263532
   0.80121791  0.49660618  0.94332077
   0.32253307  0.00268019  0.54755277
   0.00792706  0.00455304  0.36707125
   0.65352705  0.22192769  0.24617637
   0.66590227  0.50359904  0.58310759
   0.35782709  0.78695636  0.13403732
   0.86814259  0.48097433  0.24330232
   0.85391931  0.00097270  0.40558253
   0.36814259  0.01902567  0.24330232
   0.13185741  0.51902567  0.74330232
   0.47694542  0.03533303  0.74306050
   0.02305459  0.53533304  0.24306050
   0.50792706  0.49544696  0.36707124
   0.86078753  0.71739311  0.35263529
   0.97694543  0.46466698  0.74306050
   0.61096740  0.23856696  0.56388221
   0.14217295  0.28695640  0.63403742
   0.64608065  0.50097270  0.90558252
   0.33409788  0.49640096  0.08310763
   0.84647295  0.72192768  0.74617609
   0.64217295  0.21304360  0.63403742
   0.07087660  0.24034011  0.99366376
   0.92912340  0.75965989  0.49366374
   0.34758926  0.78198421  0.67231347
   0.50835296  0.50873383  0.62003733
   0.42912340  0.74034011  0.49366374
   0.84733940  0.72293571  0.81894828
   0.39366822  0.76229626  0.42290927
   0.14608066  0.99902730  0.90558252
   0.35391931  0.49902730  0.40558253
   0.99164696  0.00873383  0.12003732
   0.42377641  0.73491278  0.99427417
   0.63185741  0.98097433  0.74330232
   0.52305460  0.96466696  0.24306050
   0.57087660  0.25965989  0.99366376
   0.92377641  0.76508722  0.99427417
   0.36078753  0.78260689  0.35263529
   0.32428662  0.09296008  0.74311601
   0.67746685  0.99731981  0.04755276
   0.49207295  0.50455305  0.86707126
   0.38903252  0.76143311  0.06388240
   0.88903252  0.73856689  0.06388240
   0.34647295  0.77807232  0.74617609
   0.60633179  0.23770373  0.92290926
   0.15241074  0.28198421  0.17231332
   0.00835296  0.99126617  0.62003733
unknown system                          
           1
     6.541722   -0.000000    0.000000
    -0.000000   11.106554    0.000000
     0.000000    0.000000   16.104644
   Pb   N 
    12    72
Direct configuration=     3
   0.14661794  0.61905996  0.90520454
   0.16148131  0.62168779  0.58428402
   0.66148131  0.87831221  0.58428402
   0.93309442  0.14130780  0.74245885
   0.83851869  0.37831221  0.08428402
   0.64661794  0.88094004  0.90520454
   0.33851869  0.12168779  0.08428402
   0.43309443  0.35869220  0.74245885
   0.35338206  0.11905995  0.40520454
   0.56690558  0.64130780  0.24245885
   0.85338206  0.38094005  0.40520454
   0.06690558  0.85869220  0.24245885
   0.65249876  0.22313637  0.31919164
   0.19942703  0.50356148  0.44329490
   0.63920649  0.21750878  0.85249703
   0.99217472  0.99532164  0.86713975
   0.11107556  0.26150218  0.56412264
   0.17476782  0.59253790  0.24307651
   0.69942703  0.99643852  0.44329489
   0.57630917  0.26512316  0.49421073
   0.16536994  0.99619713  0.58318901
   0.82275952  0.49737964  0.54754972
   0.83463006  0.00380288  0.08318902
   0.10634670  0.26220524  0.92300081
   0.89365330  0.73779476  0.42300080
   0.15327662  0.27820486  0.24583628
   0.82523218  0.40746210  0.74307651
   0.85780986  0.71299828  0.13394132
   0.30057297  0.00356148  0.94329489
   0.17724047  0.50262036  0.04754973
   0.07630917  0.23487684  0.49421073
   0.65255257  0.21807649  0.17256983
   0.67476782  0.90746210  0.24307651
   0.15249876  0.27686363  0.31919164
   0.49095727  0.49108281  0.11979689
   0.34750124  0.77686363  0.81919165
   0.84744743  0.71807649  0.67256983
   0.13920649  0.28249122  0.85249703
   0.80057298  0.49643852  0.94329489
   0.32275953  0.00262036  0.54754972
   0.00782528  0.00467836  0.36713976
   0.65327662  0.22179514  0.24583628
   0.66536994  0.50380287  0.58318901
   0.35780986  0.78700172  0.13394132
   0.86727223  0.48057608  0.24327200
   0.85407303  0.00107274  0.40563405
   0.36727223  0.01942392  0.24327199
   0.13272777  0.51942392  0.74327199
   0.47538757  0.03586756  0.74302392
   0.02461243  0.53586756  0.24302392
   0.50782527  0.49532164  0.36713976
   0.86079350  0.71750878  0.35249702
   0.97538758  0.46413244  0.74302392
   0.61107556  0.23849782  0.56412264
   0.14219014  0.28700172  0.63394132
   0.64592697  0.50107274  0.90563405
   0.33463006  0.49619713  0.08318902
   0.84672338  0.72179514  0.74583627
   0.64219014  0.21299828  0.63394132
   0.07105054  0.24047690  0.99370357
   0.92894946  0.75952310  0.49370356
   0.34744743  0.78192351  0.67256984
   0.50904273  0.50891719  0.61979689
   0.42894947  0.74047690  0.49370356
   0.84750124  0.72313637  0.81919165
   0.39365330  0.76220524  0.42300080
   0.14592697  0.99892726  0.90563405
   0.35407303  0.49892726  0.40563405
   0.99095726  0.00891719  0.11979690
   0.42369083  0.73487684  0.99421073
   0.63272777  0.98057608  0.74327199
   0.52461243  0.96413244  0.24302392
   0.57105054  0.25952310  0.99370356
   0.92369083  0.76512316  0.99421073
   0.36079350  0.78249122  0.35249703
   0.32523218  0.09253790  0.74307651
   0.67724047  0.99737964  0.04754973
   0.49217472  0.50467836  0.86713976
   0.38892443  0.76150218  0.06412265
   0.88892444  0.73849782  0.06412265
   0.34672338  0.77820486  0.74583627
   0.60634670  0.23779476  0.92300080
   0.15255257  0.28192351  0.17256983
   0.00904273  0.99108282  0.61979689
unknown system                          
           1
     6.545722   -0.000000    0.000000
     0.000000   11.096871    0.000000
     0.000000    0.000000   16.091321
   Pb   N 
    12    72
Direct configuration=     4
   0.14692632  0.61940556  0.90517943
   0.16134754  0.62187386  0.58418753
   0.66134754  0.87812614  0.58418753
   0.93363186  0.14132512  0.74264754
   0.83865246  0.37812614  0.08418753
   0.64692632  0.88059444  0.90517943
   0.33865246  0.12187386  0.08418753
   0.43363187  0.35867488  0.74264754
   0.35307368  0.11940556  0.40517943
   0.56636813  0.64132512  0.24264754
   0.85307368  0.38059444  0.40517943
   0.06636813  0.85867488  0.24264754
   0.65270107  0.22290405  0.31916413
   0.19886851  0.50335055  0.44326468
   0.63926483  0.21733092  0.85255725
   0.99218011  0.99547213  0.86709748
   0.11106624  0.26151905  0.56411060
   0.17473278  0.59261715  0.24312515
   0.69886851  0.99664945  0.44326467
   0.57613476  0.26513489  0.49413386
   0.16519435  0.99641872  0.58327745
   0.82269772  0.49729078  0.54749931
   0.83480563  0.00358128  0.08327745
   0.10627559  0.26228340  0.92300186
   0.89372442  0.73771661  0.42300187
   0.15356968  0.27807554  0.24574393
   0.82526722  0.40738285  0.74312515
   0.85788630  0.71309542  0.13393387
   0.30113150  0.00335055  0.94326468
   0.17730229  0.50270922  0.04749932
   0.07613476  0.23486511  0.49413386
   0.65238843  0.21801977  0.17248073
   0.67473279  0.90738285  0.24312515
   0.15270107  0.27709595  0.31916413
   0.49122671  0.49132499  0.11995449
   0.34729893  0.77709595  0.81916413
   0.84761157  0.71801977  0.67248074
   0.13926483  0.28266908  0.85255725
   0.80113151  0.49664944  0.94326467
   0.32269772  0.00270922  0.54749931
   0.00781991  0.00452786  0.36709749
   0.65356968  0.22192446  0.24574393
   0.66519435  0.50358128  0.58327745
   0.35788629  0.78690458  0.13393387
   0.86751013  0.48076193  0.24331395
   0.85378330  0.00095783  0.40559553
   0.36751014  0.01923807  0.24331395
   0.13248987  0.51923807  0.74331395
   0.47522734  0.03596399  0.74306985
   0.02477265  0.53596399  0.24306986
   0.50781990  0.49547214  0.36709748
   0.86073516  0.71733092  0.35255723
   0.97522734  0.46403601  0.74306985
   0.61106624  0.23848095  0.56411060
   0.14211370  0.28690457  0.63393386
   0.64621668  0.50095783  0.90559552
   0.33480563  0.49641872  0.08327745
   0.84643032  0.72192446  0.74574393
   0.64211370  0.21309543  0.63393386
   0.07083922  0.24030941  0.99365940
   0.92916078  0.75969059  0.49365938
   0.34761157  0.78198023  0.67248074
   0.50877331  0.50867501  0.61995448
   0.42916078  0.74030941  0.49365938
   0.84729893  0.72290405  0.81916413
   0.39372443  0.76228339  0.42300188
   0.14621668  0.99904217  0.90559552
   0.35378330  0.49904217  0.40559553
   0.99122670  0.00867501  0.11995449
   0.42386524  0.73486511  0.99413387
   0.63248987  0.98076193  0.74331395
   0.52477264  0.96403602  0.24306985
   0.57083922  0.25969059  0.99365940
   0.92386524  0.76513489  0.99413387
   0.36073516  0.78266908  0.35255723
   0.32526722  0.09261715  0.74312515
   0.67730229  0.99729078  0.04749932
   0.49218011  0.50452787  0.86709749
   0.38893377  0.76151904  0.06411058
   0.88893377  0.73848096  0.06411058
   0.34643032  0.77807554  0.74574393
   0.60627559  0.23771660  0.92300185
   0.15238843  0.28198023  0.17248073
   0.00877330  0.99132499  0.61995448
unknown system                          
           1
     6.547424    0.000000    0.000000
     0.000000   11.092754    0.000000
     0.000000    0.000000   16.085656
   Pb   N 
    12    72
Direct configuration=     5
   0.14705738  0.61955265  0.90516874
   0.16129070  0.62195305  0.58414646
   0.66129070  0.87804695  0.58414646
   0.93386026  0.14133249  0.74272784
   0.83870931  0.37804695  0.08414646
   0.64705738  0.88044735  0.90516874
   0.33870931  0.12195305  0.08414646
   0.43386026  0.35866751  0.74272784
   0.35294262  0.11955265  0.40516874
   0.56613973  0.64133249  0.24272784
   0.85294262  0.38044735  0.40516874
   0.06613973  0.85866751  0.24272784
   0.65278705  0.22280517  0.31915243
   0.19863116  0.50326078  0.44325181
   0.63928962  0.21725522  0.85258288
   0.99218240  0.99553618  0.86707949
   0.11106228  0.26152623  0.56410548
   0.17471789  0.59265088  0.24314586
   0.69863115  0.99673922  0.44325181
   0.57606063  0.26513989  0.49410115
   0.16511972  0.99651302  0.58331509
   0.82267145  0.49725296  0.54747786
   0.83488024  0.00348698  0.08331508
   0.10624537  0.26231666  0.92300230
   0.89375465  0.73768335  0.42300233
   0.15369422  0.27802050  0.24570463
   0.82528211  0.40734913  0.74314585
   0.85791878  0.71313677  0.13393071
   0.30136886  0.00326078  0.94325182
   0.17732856  0.50274704  0.04747787
   0.07606063  0.23486011  0.49410115
   0.65231867  0.21799563  0.17244281
   0.67471790  0.90734912  0.24314585
   0.15278705  0.27719483  0.31915242
   0.49134121  0.49142806  0.12002156
   0.34721295  0.77719483  0.81915242
   0.84768133  0.71799563  0.67244282
   0.13928962  0.28274478  0.85258288
   0.80136887  0.49673922  0.94325182
   0.32267146  0.00274704  0.54747786
   0.00781762  0.00446381  0.36707949
   0.65369422  0.22197950  0.24570463
   0.66511972  0.50348698  0.58331509
   0.35791878  0.78686324  0.13393070
   0.86761123  0.48084103  0.24333181
   0.85366017  0.00090892  0.40557913
   0.36761124  0.01915897  0.24333181
   0.13238878  0.51915898  0.74333180
   0.47515925  0.03600502  0.74308940
   0.02484074  0.53600502  0.24308941
   0.50781762  0.49553619  0.36707949
   0.86071037  0.71725522  0.35258285
   0.97515925  0.46399498  0.74308940
   0.61106228  0.23847377  0.56410548
   0.14208122  0.28686323  0.63393069
   0.64633979  0.50090892  0.90557912
   0.33488023  0.49651303  0.08331508
   0.84630578  0.72197950  0.74570463
   0.64208121  0.21313677  0.63393068
   0.07074942  0.24023812  0.99364060
   0.92925058  0.75976187  0.49364057
   0.34768133  0.78200437  0.67244282
   0.50865881  0.50857194  0.62002155
   0.42925058  0.74023813  0.49364057
   0.84721295  0.72280517  0.81915242
   0.39375465  0.76231665  0.42300233
   0.14633979  0.99909108  0.90557912
   0.35366017  0.49909108  0.40557913
   0.99134121  0.00857195  0.12002156
   0.42393936  0.73486012  0.99410117
   0.63238877  0.98084102  0.74333181
   0.52484073  0.96399498  0.24308940
   0.57074942  0.25976188  0.99364060
   0.92393936  0.76513988  0.99410117
   0.36071037  0.78274478  0.35258285
   0.32528211  0.09265087  0.74314586
   0.67732857  0.99725296  0.04747787
   0.49218239  0.50446381  0.86707950
   0.38893774  0.76152621  0.06410544
   0.88893774  0.73847379  0.06410544
   0.34630578  0.77802050  0.74570463
   0.60624537  0.23768334  0.92300230
   0.15231867  0.28200437  0.17244282
   0.00865881  0.99142806  0.62002155
unknown system                          
           1
     6.548056    0.000000    0.000000
     0.000000   11.090450    0.000000
     0.000000    0.000000   16.083145
   Pb   N 
    12    72
Direct configuration=     6
   0.14714011  0.61964278  0.90516250
   0.16125495  0.62199888  0.58412152
   0.66125495  0.87800112  0.58412152
   0.93399883  0.14133847  0.74277638
   0.83874506  0.37800112  0.08412152
   0.64714011  0.88035722  0.90516250
   0.33874506  0.12199888  0.08412152
   0.43399883  0.35866153  0.74277638
   0.35285989  0.11964277  0.40516250
   0.56600116  0.64133847  0.24277638
   0.85285989  0.38035722  0.40516250
   0.06600116  0.85866153  0.24277638
   0.65284677  0.22274746  0.31914819
   0.19855923  0.50320629  0.44322538
   0.63931896  0.21719821  0.85257280
   0.99225860  0.99557906  0.86708726
   0.11104676  0.26152321  0.56408658
   0.17473697  0.59268267  0.24315919
   0.69855923  0.99679371  0.44322537
   0.57601526  0.26514284  0.49408025
   0.16508425  0.99657068  0.58333544
   0.82257895  0.49723149  0.54748278
   0.83491573  0.00342932  0.08333544
   0.10622178  0.26233294  0.92301236
   0.89377823  0.73766707  0.42301238
   0.15376213  0.27799651  0.24568947
   0.82526303  0.40731734  0.74315919
   0.85792762  0.71315490  0.13394491
   0.30144078  0.00320629  0.94322538
   0.17742106  0.50276851  0.04748279
   0.07601526  0.23485716  0.49408025
   0.65228029  0.21798519  0.17240535
   0.67473697  0.90731733  0.24315919
   0.15284677  0.27725254  0.31914819
   0.49134857  0.49149424  0.12004822
   0.34715323  0.77725254  0.81914819
   0.84771971  0.71798519  0.67240535
   0.13931896  0.28280179  0.85257280
   0.80144078  0.49679371  0.94322537
   0.32257895  0.00276852  0.54748278
   0.00774141  0.00442093  0.36708726
   0.65376213  0.22200349  0.24568947
   0.66508425  0.50342932  0.58333544
   0.35792762  0.78684510  0.13394491
   0.86764458  0.48087803  0.24334249
   0.85357867  0.00088392  0.40556910
   0.36764458  0.01912197  0.24334249
   0.13235543  0.51912198  0.74334249
   0.47511757  0.03603242  0.74310179
   0.02488242  0.53603242  0.24310179
   0.50774140  0.49557907  0.36708726
   0.86068103  0.71719821  0.35257278
   0.97511757  0.46396758  0.74310179
   0.61104676  0.23847679  0.56408658
   0.14207237  0.28684509  0.63394490
   0.64642131  0.50088392  0.90556909
   0.33491573  0.49657068  0.08333544
   0.84623787  0.72200349  0.74568948
   0.64207237  0.21315491  0.63394490
   0.07068384  0.24018861  0.99364606
   0.92931615  0.75981139  0.49364604
   0.34771970  0.78201481  0.67240535
   0.50865145  0.50850576  0.62004821
   0.42931616  0.74018861  0.49364604
   0.84715323  0.72274746  0.81914819
   0.39377823  0.76233293  0.42301238
   0.14642131  0.99911608  0.90556909
   0.35357867  0.49911608  0.40556910
   0.99134856  0.00850576  0.12004822
   0.42398473  0.73485716  0.99408026
   0.63235543  0.98087802  0.74334249
   0.52488242  0.96396758  0.24310179
   0.57068384  0.25981139  0.99364606
   0.92398473  0.76514284  0.99408026
   0.36068103  0.78280179  0.35257278
   0.32526303  0.09268266  0.74315919
   0.67742107  0.99723149  0.04748279
   0.49225860  0.50442093  0.86708726
   0.38895325  0.76152320  0.06408655
   0.88895325  0.73847680  0.06408656
   0.34623787  0.77799651  0.74568948
   0.60622178  0.23766706  0.92301236
   0.15228029  0.28201481  0.17240535
   0.00865144  0.99149424  0.62004821
unknown system                          
           1
     6.549953    0.000000    0.000000
     0.000000   11.083536    0.000000
     0.000000    0.000000   16.075610
   Pb   N 
    12    72
Direct configuration=     7
   0.14738829  0.61991320  0.90514378
   0.16114772  0.62213638  0.58404667
   0.66114772  0.87786362  0.58404667
   0.93441450  0.14135643  0.74292201
   0.83885229  0.37786362  0.08404667
   0.64738829  0.88008680  0.90514378
   0.33885229  0.12213638  0.08404667
   0.43441451  0.35864357  0.74292201
   0.35261171  0.11991321  0.40514377
   0.56558549  0.64135643  0.24292201
   0.85261171  0.38008679  0.40514377
   0.06558549  0.85864357  0.24292201
   0.65302590  0.22257431  0.31913549
   0.19834348  0.50304278  0.44314605
   0.63940699  0.21702713  0.85254256
   0.99248720  0.99570773  0.86711056
   0.11100023  0.26151413  0.56402987
   0.17479419  0.59277806  0.24319921
   0.69834347  0.99695722  0.44314604
   0.57587916  0.26515171  0.49401754
   0.16497782  0.99674367  0.58339650
   0.82230145  0.49716705  0.54749755
   0.83502220  0.00325634  0.08339651
   0.10615104  0.26238179  0.92304255
   0.89384895  0.73761820  0.42304251
   0.15396581  0.27792454  0.24564401
   0.82520580  0.40722194  0.74319920
   0.85795416  0.71320933  0.13398754
   0.30165651  0.00304278  0.94314604
   0.17769853  0.50283295  0.04749756
   0.07587916  0.23484829  0.49401753
   0.65216517  0.21795385  0.17229293
   0.67479418  0.90722194  0.24319921
   0.15302590  0.27742569  0.31913549
   0.49137063  0.49169283  0.12012822
   0.34697410  0.77742569  0.81913549
   0.84783483  0.71795385  0.67229294
   0.13940699  0.28297287  0.85254256
   0.80165651  0.49695722  0.94314604
   0.32230146  0.00283295  0.54749755
   0.00751279  0.00429226  0.36711057
   0.65396581  0.22207546  0.24564401
   0.66497782  0.50325633  0.58339650
   0.35795416  0.78679067  0.13398754
   0.86774460  0.48098905  0.24337456
   0.85333419  0.00080889  0.40553899
   0.36774460  0.01901095  0.24337456
   0.13225541  0.51901095  0.74337456
   0.47499256  0.03611462  0.74313896
   0.02500745  0.53611463  0.24313896
   0.50751278  0.49570774  0.36711057
   0.86059301  0.71702714  0.35254256
   0.97499256  0.46388538  0.74313895
   0.61100023  0.23848587  0.56402987
   0.14204585  0.28679067  0.63398755
   0.64666584  0.50080889  0.90553899
   0.33502220  0.49674367  0.08339651
   0.84603419  0.72207546  0.74564402
   0.64204584  0.21320933  0.63398755
   0.07048715  0.24004002  0.99366245
   0.92951286  0.75995999  0.49366246
   0.34783483  0.78204615  0.67229293
   0.50862936  0.50830717  0.62012822
   0.42951286  0.74004001  0.49366246
   0.84697410  0.72257431  0.81913549
   0.39384895  0.76238180  0.42304251
   0.14666584  0.99919111  0.90553899
   0.35333419  0.49919111  0.40553899
   0.99137062  0.00830718  0.12012822
   0.42412085  0.73484828  0.99401752
   0.63225541  0.98098905  0.74337456
   0.52500745  0.96388537  0.24313896
   0.57048715  0.25995998  0.99366245
   0.92412085  0.76515172  0.99401753
   0.36059301  0.78297286  0.35254256
   0.32520580  0.09277806  0.74319921
   0.67769854  0.99716705  0.04749756
   0.49248720  0.50429227  0.86711057
   0.38899976  0.76151414  0.06402989
   0.88899976  0.73848586  0.06402990
   0.34603419  0.77792454  0.74564402
   0.60615104  0.23761821  0.92304255
   0.15216517  0.28204615  0.17229293
   0.00862936  0.99169283  0.62012821
unknown system                          
           1
     6.553748    0.000000   -0.000000
     0.000000   11.069709    0.000000
    -0.000000    0.000000   16.060542
   Pb   N 
    12    72
Direct configuration=     8
   0.14788451  0.62045440  0.90510632
   0.16093331  0.62241154  0.58389690
   0.66093331  0.87758846  0.58389690
   0.93524561  0.14139236  0.74321341
   0.83906669  0.37758845  0.08389690
   0.64788451  0.87954560  0.90510632
   0.33906669  0.12241155  0.08389690
   0.43524561  0.35860764  0.74321341
   0.35211549  0.12045440  0.40510631
   0.56475438  0.64139236  0.24321341
   0.85211549  0.37954560  0.40510631
   0.06475438  0.85860764  0.24321341
   0.65338407  0.22222779  0.31911007
   0.19791210  0.50271555  0.44298731
   0.63958300  0.21668476  0.85248204
   0.99294427  0.99596523  0.86715719
   0.11090720  0.26149598  0.56391640
   0.17490859  0.59296896  0.24327928
   0.69791209  0.99728445  0.44298731
   0.57560703  0.26516946  0.49389205
   0.16476504  0.99708986  0.58351868
   0.82174663  0.49703810  0.54752711
   0.83523508  0.00291014  0.08351871
   0.10600959  0.26247954  0.92310295
   0.89399035  0.73752042  0.42310281
   0.15437306  0.27778050  0.24555304
   0.82509138  0.40703104  0.74327927
   0.85800722  0.71331826  0.13407284
   0.30208784  0.00271555  0.94298730
   0.17825331  0.50296190  0.04752711
   0.07560703  0.23483054  0.49389205
   0.65193498  0.21789114  0.17206799
   0.67490858  0.90703105  0.24327928
   0.15338407  0.27777221  0.31911007
   0.49141473  0.49209025  0.12028829
   0.34661593  0.77777221  0.81911007
   0.84806502  0.71789114  0.67206800
   0.13958300  0.28331524  0.85248204
   0.80208784  0.49728445  0.94298730
   0.32174663  0.00296190  0.54752711
   0.00705568  0.00403477  0.36715721
   0.65437306  0.22221950  0.24555304
   0.66476504  0.50291014  0.58351868
   0.35800722  0.78668174  0.13407284
   0.86794458  0.48121124  0.24343872
   0.85284536  0.00065874  0.40547875
   0.36794457  0.01878876  0.24343872
   0.13205541  0.51878876  0.74343872
   0.47474259  0.03627913  0.74321332
   0.02525743  0.53627914  0.24321333
   0.50705568  0.49596523  0.36715720
   0.86041703  0.71668478  0.35248210
   0.97474260  0.46372088  0.74321332
   0.61090719  0.23850402  0.56391640
   0.14199281  0.28668176  0.63407290
   0.64715476  0.50065874  0.90547877
   0.33523508  0.49708986  0.08351871
   0.84562694  0.72221950  0.74555305
   0.64199281  0.21331824  0.63407290
   0.07009387  0.23974266  0.99369525
   0.92990617  0.76025736  0.49369530
   0.34806502  0.78210886  0.67206799
   0.50858521  0.50790975  0.62028830
   0.42990617  0.73974264  0.49369530
   0.84661593  0.72222779  0.81911007
   0.39399035  0.76247958  0.42310281
   0.14715476  0.99934126  0.90547877
   0.35284536  0.49934126  0.40547875
   0.99141473  0.00790975  0.12028829
   0.42439300  0.73483052  0.99389200
   0.63205542  0.98121124  0.74343872
   0.52525746  0.96372085  0.24321333
   0.57009387  0.26025734  0.99369525
   0.92439300  0.76516948  0.99389200
   0.36041703  0.78331522  0.35248210
   0.32509139  0.09296896  0.74327928
   0.67825331  0.99703810  0.04752711
   0.49294426  0.50403477  0.86715719
   0.38909275  0.76149602  0.06391652
   0.88909275  0.73850398  0.06391652
   0.34562694  0.77778050  0.74555305
   0.60600959  0.23752046  0.92310295
   0.15193498  0.28210886  0.17206799
   0.00858521  0.99209025  0.62028830
unknown system                          
           1
     6.555478    0.000000   -0.000000
     0.000000   11.065025    0.000000
    -0.000000    0.000000   16.055325
   Pb   N 
    12    72
Direct configuration=     9
   0.14809610  0.62065294  0.90509128
   0.16084694  0.62249441  0.58384393
   0.66084694  0.87750559  0.58384392
   0.93556315  0.14141312  0.74332266
   0.83915307  0.37750559  0.08384392
   0.64809610  0.87934706  0.90509128
   0.33915307  0.12249441  0.08384393
   0.43556315  0.35858688  0.74332266
   0.35190390  0.12065295  0.40509127
   0.56443684  0.64141312  0.24332266
   0.85190390  0.37934705  0.40509127
   0.06443684  0.85858687  0.24332266
   0.65356055  0.22210134  0.31909750
   0.19777467  0.50259634  0.44291175
   0.63964361  0.21654243  0.85249643
   0.99320510  0.99607627  0.86719842
   0.11088264  0.26151226  0.56396329
   0.17506509  0.59309061  0.24331469
   0.69777466  0.99740365  0.44291174
   0.57548222  0.26518728  0.49381093
   0.16464065  0.99722225  0.58357318
   0.82148719  0.49698111  0.54754963
   0.83535936  0.00277775  0.08357319
   0.10598413  0.26253220  0.92305500
   0.89401587  0.73746779  0.42305498
   0.15449399  0.27777507  0.24547976
   0.82493491  0.40690939  0.74331468
   0.85803660  0.71337576  0.13404797
   0.30222532  0.00259635  0.94291175
   0.17851279  0.50301889  0.04754964
   0.07548222  0.23481272  0.49381092
   0.65186675  0.21789123  0.17200238
   0.67506509  0.90690939  0.24331468
   0.15356055  0.27789866  0.31909750
   0.49137578  0.49225490  0.12033826
   0.34643945  0.77789866  0.81909751
   0.84813325  0.71789123  0.67200238
   0.13964361  0.28345757  0.85249643
   0.80222532  0.49740365  0.94291175
   0.32148720  0.00301889  0.54754963
   0.00679491  0.00392373  0.36719843
   0.65449399  0.22222493  0.24547976
   0.66464065  0.50277775  0.58357318
   0.35803660  0.78662425  0.13404797
   0.86800229  0.48128247  0.24346382
   0.85265722  0.00062661  0.40544782
   0.36800229  0.01871753  0.24346382
   0.13199771  0.51871754  0.74346382
   0.47474219  0.03631970  0.74324525
   0.02525780  0.53631971  0.24324526
   0.50679490  0.49607627  0.36719843
   0.86035639  0.71654243  0.35249642
   0.97474219  0.46368030  0.74324525
   0.61088264  0.23848774  0.56396330
   0.14196341  0.28662425  0.63404797
   0.64734280  0.50062661  0.90544781
   0.33535936  0.49722225  0.08357319
   0.84550601  0.72222493  0.74547977
   0.64196340  0.21337576  0.63404798
   0.06990581  0.23960753  0.99374404
   0.93009419  0.76039247  0.49374403
   0.34813325  0.78210877  0.67200238
   0.50862422  0.50774510  0.62033826
   0.43009419  0.73960753  0.49374403
   0.84643945  0.72210134  0.81909751
   0.39401587  0.76253220  0.42305498
   0.14734279  0.99937339  0.90544782
   0.35265722  0.49937339  0.40544782
   0.99137577  0.00774510  0.12033826
   0.42451778  0.73481271  0.99381092
   0.63199771  0.98128247  0.74346382
   0.52525781  0.96368029  0.24324526
   0.56990581  0.26039247  0.99374404
   0.92451778  0.76518728  0.99381093
   0.36035639  0.78345757  0.35249642
   0.32493491  0.09309061  0.74331468
   0.67851280  0.99698111  0.04754964
   0.49320509  0.50392373  0.86719843
   0.38911736  0.76151226  0.06396330
   0.88911736  0.73848774  0.06396331
   0.34550601  0.77777507  0.74547977
   0.60598413  0.23746780  0.92305501
   0.15186675  0.28210877  0.17200237
   0.00862422  0.99225490  0.62033825
unknown system                          
           1
     6.556177    0.000000   -0.000000
     0.000000   11.063131    0.000000
    -0.000000    0.000000   16.053216
   Pb   N 
    12    72
Direct configuration=    10
   0.14818165  0.62073327  0.90508519
   0.16081202  0.62252793  0.58382250
   0.66081202  0.87747207  0.58382249
   0.93569153  0.14142153  0.74336686
   0.83918799  0.37747206  0.08382249
   0.64818165  0.87926673  0.90508519
   0.33918799  0.12252794  0.08382250
   0.43569153  0.35857848  0.74336686
   0.35181836  0.12073328  0.40508518
   0.56430846  0.64142152  0.24336686
   0.85181836  0.37926672  0.40508518
   0.06430846  0.85857848  0.24336686
   0.65363190  0.22205019  0.31909242
   0.19771911  0.50254812  0.44288118
   0.63966811  0.21648485  0.85250225
   0.99331055  0.99612119  0.86721511
   0.11087271  0.26151885  0.56398226
   0.17512836  0.59313983  0.24332901
   0.69771910  0.99745188  0.44288118
   0.57543177  0.26519450  0.49377811
   0.16459036  0.99727582  0.58359523
   0.82138231  0.49695805  0.54755874
   0.83540960  0.00272418  0.08359523
   0.10597384  0.26255351  0.92303561
   0.89402618  0.73744651  0.42303564
   0.15454288  0.27777287  0.24545012
   0.82487164  0.40686018  0.74332900
   0.85804847  0.71339902  0.13403791
   0.30228090  0.00254812  0.94288119
   0.17861770  0.50304195  0.04755876
   0.07543177  0.23480551  0.49377811
   0.65183916  0.21789127  0.17197583
   0.67512837  0.90686017  0.24332901
   0.15363190  0.27794982  0.31909241
   0.49136003  0.49232151  0.12035847
   0.34636810  0.77794982  0.81909242
   0.84816084  0.71789127  0.67197584
   0.13966812  0.28351515  0.85250225
   0.80228091  0.49745188  0.94288119
   0.32138231  0.00304195  0.54755875
   0.00668948  0.00387881  0.36721511
   0.65454288  0.22222713  0.24545012
   0.66459036  0.50272419  0.58359523
   0.35804847  0.78660099  0.13403791
   0.86802562  0.48131129  0.24347397
   0.85258115  0.00061361  0.40543530
   0.36802563  0.01868871  0.24347397
   0.13197438  0.51868872  0.74347398
   0.47474203  0.03633611  0.74325817
   0.02525795  0.53633612  0.24325818
   0.50668947  0.49612119  0.36721510
   0.86033188  0.71648484  0.35250222
   0.97474203  0.46366389  0.74325817
   0.61087271  0.23848116  0.56398226
   0.14195152  0.28660098  0.63403789
   0.64741882  0.50061361  0.90543529
   0.33540960  0.49727582  0.08359523
   0.84545712  0.72222713  0.74545013
   0.64195152  0.21339902  0.63403789
   0.06982979  0.23955286  0.99376378
   0.93017021  0.76044713  0.49376374
   0.34816084  0.78210873  0.67197584
   0.50864000  0.50767849  0.62035847
   0.43017021  0.73955287  0.49376374
   0.84636810  0.72205018  0.81909243
   0.39402618  0.76255349  0.42303564
   0.14741881  0.99938639  0.90543529
   0.35258116  0.49938639  0.40543531
   0.99136002  0.00767849  0.12035848
   0.42456823  0.73480551  0.99377813
   0.63197438  0.98131128  0.74347397
   0.52525795  0.96366389  0.24325818
   0.56982979  0.26044714  0.99376378
   0.92456822  0.76519449  0.99377813
   0.36033187  0.78351516  0.35250222
   0.32487164  0.09313982  0.74332901
   0.67861770  0.99695805  0.04755876
   0.49331054  0.50387881  0.86721511
   0.38912731  0.76151883  0.06398223
   0.88912731  0.73848117  0.06398223
   0.34545712  0.77777287  0.74545012
   0.60597384  0.23744649  0.92303561
   0.15183916  0.28210873  0.17197583
   0.00863999  0.99232151  0.62035846
unknown system                          
           1
     6.557222    0.000000   -0.000000
     0.000000   11.062516    0.000000
    -0.000000    0.000000   16.052789
   Pb   N 
    12    72
Direct configuration=    11
   0.14825838  0.62077343  0.90508495
   0.16078447  0.62251938  0.58380911
   0.66078447  0.87748062  0.58380910
   0.93577150  0.14143106  0.74339077
   0.83921554  0.37748062  0.08380910
   0.64825838  0.87922657  0.90508496
   0.33921554  0.12251938  0.08380911
   0.43577151  0.35856895  0.74339077
   0.35174162  0.12077344  0.40508494
   0.56422848  0.64143106  0.24339077
   0.85174162  0.37922656  0.40508495
   0.06422848  0.85856894  0.24339077
   0.65372216  0.22202492  0.31906223
   0.19766344  0.50252784  0.44285863
   0.63969215  0.21642548  0.85251584
   0.99338770  0.99616216  0.86723032
   0.11082101  0.26150575  0.56397563
   0.17516719  0.59318021  0.24334355
   0.69766344  0.99747216  0.44285862
   0.57540455  0.26518958  0.49377927
   0.16455135  0.99730947  0.58360767
   0.82130450  0.49693337  0.54756831
   0.83544864  0.00269053  0.08360768
   0.10595113  0.26255371  0.92304265
   0.89404888  0.73744630  0.42304265
   0.15453305  0.27782960  0.24543087
   0.82483281  0.40681980  0.74334354
   0.85803847  0.71340973  0.13402501
   0.30233656  0.00252784  0.94285864
   0.17869550  0.50306663  0.04756833
   0.07540455  0.23481042  0.49377927
   0.65184458  0.21791836  0.17196346
   0.67516719  0.90681979  0.24334355
   0.15372216  0.27797508  0.31906223
   0.49136980  0.49237524  0.12037756
   0.34627784  0.77797508  0.81906224
   0.84815542  0.71791836  0.67196347
   0.13969215  0.28357452  0.85251584
   0.80233656  0.49747215  0.94285863
   0.32130450  0.00306663  0.54756831
   0.00661232  0.00383783  0.36723032
   0.65453305  0.22217040  0.24543088
   0.66455135  0.50269053  0.58360768
   0.35803847  0.78659027  0.13402500
   0.86801566  0.48131330  0.24348019
   0.85249544  0.00063465  0.40542805
   0.36801567  0.01868670  0.24348019
   0.13198434  0.51868671  0.74348019
   0.47472031  0.03636981  0.74327027
   0.02527968  0.53636982  0.24327028
   0.50661231  0.49616217  0.36723032
   0.86030785  0.71642548  0.35251582
   0.97472031  0.46363019  0.74327027
   0.61082101  0.23849426  0.56397563
   0.14196153  0.28659027  0.63402499
   0.64750456  0.50063464  0.90542804
   0.33544863  0.49730947  0.08360768
   0.84546695  0.72217040  0.74543088
   0.64196153  0.21340973  0.63402500
   0.06976983  0.23951406  0.99375366
   0.93023017  0.76048594  0.49375363
   0.34815542  0.78208164  0.67196347
   0.50863022  0.50762476  0.62037756
   0.43023017  0.73951406  0.49375363
   0.84627784  0.72202492  0.81906224
   0.39404888  0.76255370  0.42304265
   0.14750455  0.99936535  0.90542804
   0.35249544  0.49936535  0.40542805
   0.99136979  0.00762476  0.12037757
   0.42459544  0.73481042  0.99377928
   0.63198434  0.98131330  0.74348019
   0.52527968  0.96363018  0.24327028
   0.56976983  0.26048594  0.99375366
   0.92459544  0.76518958  0.99377929
   0.36030784  0.78357452  0.35251582
   0.32483281  0.09318020  0.74334355
   0.67869551  0.99693337  0.04756832
   0.49338769  0.50383783  0.86723032
   0.38917900  0.76150574  0.06397562
   0.88917900  0.73849426  0.06397562
   0.34546695  0.77782960  0.74543088
   0.60595113  0.23744629  0.92304265
   0.15184458  0.28208164  0.17196346
   0.00863021  0.99237524  0.62037756
unknown system                          
           1
     6.560354    0.000000   -0.000000
     0.000000   11.060673    0.000000
    -0.000000    0.000000   16.051509
   Pb   N 
    12    72
Direct configuration=    12
   0.14848855  0.62089392  0.90508425
   0.16070183  0.62249370  0.58376893
   0.66070183  0.87750630  0.58376893
   0.93601140  0.14145965  0.74346251
   0.83929818  0.37750629  0.08376893
   0.64848855  0.87910608  0.90508425
   0.33929818  0.12249371  0.08376893
   0.43601140  0.35854035  0.74346251
   0.35151145  0.12089393  0.40508424
   0.56398859  0.64145965  0.24346250
   0.85151145  0.37910607  0.40508424
   0.06398859  0.85854035  0.24346250
   0.65399288  0.22194911  0.31897167
   0.19749647  0.50246700  0.44279096
   0.63976424  0.21624737  0.85255662
   0.99361911  0.99628510  0.86727596
   0.11066593  0.26146644  0.56395573
   0.17528364  0.59330134  0.24338718
   0.69749647  0.99753299  0.44279095
   0.57532292  0.26517485  0.49378277
   0.16443433  0.99741045  0.58364501
   0.82107110  0.49685934  0.54759701
   0.83556571  0.00258955  0.08364503
   0.10588302  0.26255431  0.92306377
   0.89411695  0.73744567  0.42306370
   0.15450356  0.27799982  0.24537314
   0.82471635  0.40669866  0.74338717
   0.85800846  0.71344187  0.13398628
   0.30250349  0.00246701  0.94279096
   0.17892887  0.50314066  0.04759702
   0.07532292  0.23482515  0.49378277
   0.65186084  0.21799963  0.17192636
   0.67528364  0.90669866  0.24338717
   0.15399288  0.27805089  0.31897167
   0.49139910  0.49253644  0.12043484
   0.34600712  0.77805089  0.81897167
   0.84813916  0.71799963  0.67192636
   0.13976425  0.28375263  0.85255661
   0.80250350  0.49753299  0.94279095
   0.32107110  0.00314066  0.54759701
   0.00638088  0.00371490  0.36727597
   0.65450356  0.22200018  0.24537314
   0.66443433  0.50258955  0.58364502
   0.35800846  0.78655813  0.13398628
   0.86798579  0.48131934  0.24349884
   0.85223832  0.00069775  0.40540628
   0.36798579  0.01868066  0.24349884
   0.13201420  0.51868066  0.74349885
   0.47465516  0.03647091  0.74330657
   0.02534486  0.53647093  0.24330657
   0.50638087  0.49628510  0.36727597
   0.86023577  0.71624738  0.35255663
   0.97465516  0.46352909  0.74330656
   0.61066593  0.23853356  0.56395573
   0.14199155  0.28655814  0.63398630
   0.64776174  0.50069775  0.90540629
   0.33556571  0.49741045  0.08364503
   0.84549644  0.72200018  0.74537316
   0.64199155  0.21344186  0.63398630
   0.06958998  0.23939765  0.99372329
   0.93041004  0.76060235  0.49372330
   0.34813916  0.78200037  0.67192636
   0.50860088  0.50746356  0.62043485
   0.43041004  0.73939765  0.49372330
   0.84600712  0.72194911  0.81897168
   0.39411696  0.76255433  0.42306370
   0.14776174  0.99930225  0.90540629
   0.35223832  0.49930225  0.40540628
   0.99139910  0.00746356  0.12043485
   0.42467709  0.73482514  0.99378275
   0.63201420  0.98131934  0.74349884
   0.52534486  0.96352907  0.24330657
   0.56958998  0.26060235  0.99372329
   0.92467709  0.76517486  0.99378276
   0.36023577  0.78375262  0.35255663
   0.32471634  0.09330134  0.74338717
   0.67892887  0.99685934  0.04759702
   0.49361910  0.50371490  0.86727596
   0.38933405  0.76146645  0.06395578
   0.88933405  0.73853354  0.06395578
   0.34549644  0.77799982  0.74537315
   0.60588302  0.23744569  0.92306377
   0.15186084  0.28200037  0.17192635
   0.00860088  0.99253645  0.62043484
unknown system                          
           1
     6.566619    0.000000   -0.000000
     0.000000   11.056985    0.000000
    -0.000000    0.000000   16.048949
   Pb   N 
    12    72
Direct configuration=    13
   0.14894867  0.62113494  0.90508284
   0.16053663  0.62244234  0.58368858
   0.66053663  0.87755766  0.58368858
   0.93649097  0.14151686  0.74360599
   0.83946337  0.37755765  0.08368858
   0.64894867  0.87886506  0.90508284
   0.33946337  0.12244235  0.08368859
   0.43649097  0.35848314  0.74360599
   0.35105132  0.12113495  0.40508283
   0.56350902  0.64151686  0.24360598
   0.85105132  0.37886506  0.40508283
   0.06350902  0.85848314  0.24360598
   0.65453408  0.22179747  0.31879053
   0.19716269  0.50234531  0.44265561
   0.63990837  0.21589109  0.85263817
   0.99408171  0.99653100  0.86736724
   0.11035593  0.26138782  0.56391593
   0.17551644  0.59354365  0.24347444
   0.69716269  0.99765469  0.44265560
   0.57515974  0.26514538  0.49378977
   0.16420040  0.99761244  0.58371969
   0.82060452  0.49671125  0.54765442
   0.83579976  0.00238757  0.08371974
   0.10574686  0.26255552  0.92310601
   0.89425304  0.73744442  0.42310580
   0.15444461  0.27834030  0.24525765
   0.82448352  0.40645634  0.74347442
   0.85794847  0.71350616  0.13390883
   0.30283720  0.00234531  0.94265559
   0.17939538  0.50328876  0.04765441
   0.07515974  0.23485462  0.49378977
   0.65189334  0.21816220  0.17185214
   0.67551644  0.90645635  0.24347443
   0.15453408  0.27820253  0.31879053
   0.49145769  0.49285891  0.12054941
   0.34546593  0.77820253  0.81879053
   0.84810666  0.71816220  0.67185214
   0.13990837  0.28410891  0.85263817
   0.80283721  0.49765469  0.94265559
   0.32060453  0.00328876  0.54765442
   0.00591822  0.00346899  0.36736728
   0.65444461  0.22165970  0.24525766
   0.66420040  0.50238757  0.58371970
   0.35794847  0.78649384  0.13390883
   0.86792607  0.48133141  0.24353615
   0.85172433  0.00082398  0.40536274
   0.36792607  0.01866859  0.24353615
   0.13207389  0.51866858  0.74353615
   0.47452492  0.03667315  0.74337917
   0.02547515  0.53667318  0.24337917
   0.50591822  0.49653101  0.36736728
   0.86009168  0.71589112  0.35263825
   0.97452493  0.46332685  0.74337916
   0.61035592  0.23861218  0.56391594
   0.14205156  0.28649387  0.63390891
   0.64827586  0.50082398  0.90536278
   0.33579975  0.49761243  0.08371974
   0.84555539  0.72165970  0.74525769
   0.64205156  0.21350613  0.63390891
   0.06923045  0.23916480  0.99366255
   0.93076960  0.76083523  0.49366263
   0.34810665  0.78183780  0.67185213
   0.50854224  0.50714109  0.62054943
   0.43076960  0.73916477  0.49366263
   0.84546592  0.72179747  0.81879054
   0.39425304  0.76255558  0.42310580
   0.14827586  0.99917602  0.90536279
   0.35172433  0.49917602  0.40536274
   0.99145769  0.00714110  0.12054942
   0.42484031  0.73485459  0.99378969
   0.63207389  0.98133142  0.74353615
   0.52547516  0.96332681  0.24337917
   0.56923045  0.26083520  0.99366255
   0.92484031  0.76514541  0.99378969
   0.36009168  0.78410888  0.35263825
   0.32448352  0.09354366  0.74347443
   0.67939539  0.99671124  0.04765441
   0.49408170  0.50346899  0.86736725
   0.38964400  0.76138788  0.06391610
   0.88964400  0.73861212  0.06391611
   0.34555539  0.77834030  0.74525768
   0.60574686  0.23744448  0.92310602
   0.15189334  0.28183780  0.17185214
   0.00854223  0.99285891  0.62054943
unknown system                          
           1
     6.563908    0.000000   -0.000000
     0.000000   11.058581    0.000000
    -0.000000    0.000000   16.050057
   Pb   N 
    12    72
Direct configuration=    14
   0.14874972  0.62103059  0.90508345
   0.16060806  0.62246458  0.58372337
   0.66060806  0.87753542  0.58372336
   0.93628360  0.14149209  0.74354388
   0.83939195  0.37753542  0.08372336
   0.64874972  0.87896941  0.90508345
   0.33939194  0.12246458  0.08372337
   0.43628361  0.35850791  0.74354388
   0.35125028  0.12103060  0.40508344
   0.56371639  0.64149209  0.24354387
   0.85125028  0.37896940  0.40508344
   0.06371639  0.85850791  0.24354387
   0.65430007  0.22186312  0.31886894
   0.19730701  0.50239800  0.44271420
   0.63984605  0.21604534  0.85260287
   0.99388168  0.99642454  0.86732773
   0.11048997  0.26142186  0.56393316
   0.17541578  0.59343874  0.24343667
   0.69730701  0.99760200  0.44271419
   0.57523030  0.26515814  0.49378674
   0.16430155  0.99752499  0.58368737
   0.82080626  0.49677536  0.54762957
   0.83569856  0.00247502  0.08368740
   0.10580574  0.26255499  0.92308772
   0.89419420  0.73744496  0.42308758
   0.15447010  0.27819289  0.24530764
   0.82458419  0.40656125  0.74343665
   0.85797441  0.71347832  0.13394236
   0.30269291  0.00239800  0.94271419
   0.17919366  0.50322464  0.04762956
   0.07523030  0.23484186  0.49378674
   0.65187929  0.21809182  0.17188427
   0.67541578  0.90656126  0.24343666
   0.15430007  0.27813688  0.31886894
   0.49143236  0.49271930  0.12049982
   0.34569993  0.77813688  0.81886894
   0.84812071  0.71809182  0.67188427
   0.13984605  0.28395466  0.85260286
   0.80269291  0.49760200  0.94271418
   0.32080628  0.00322464  0.54762957
   0.00611827  0.00357546  0.36732775
   0.65447010  0.22180712  0.24530765
   0.66430155  0.50247502  0.58368737
   0.35797441  0.78652168  0.13394235
   0.86795189  0.48132619  0.24352000
   0.85194658  0.00076933  0.40538159
   0.36795189  0.01867382  0.24352000
   0.13204808  0.51867381  0.74352001
   0.47458124  0.03658559  0.74334774
   0.02541881  0.53658561  0.24334775
   0.50611827  0.49642454  0.36732775
   0.86015398  0.71604536  0.35260292
   0.97458124  0.46341441  0.74334774
   0.61048997  0.23857814  0.56393316
   0.14202561  0.28652170  0.63394241
   0.64805356  0.50076933  0.90538162
   0.33569855  0.49752498  0.08368740
   0.84552990  0.72180711  0.74530767
   0.64202561  0.21347831  0.63394241
   0.06938591  0.23926562  0.99368884
   0.93061413  0.76073440  0.49368890
   0.34812071  0.78190818  0.67188426
   0.50856759  0.50728070  0.62049983
   0.43061413  0.73926560  0.49368889
   0.84569993  0.72186312  0.81886895
   0.39419420  0.76255504  0.42308757
   0.14805355  0.99923067  0.90538162
   0.35194658  0.49923067  0.40538159
   0.99143236  0.00728071  0.12049982
   0.42476973  0.73484184  0.99378669
   0.63204808  0.98132619  0.74352000
   0.52541882  0.96341438  0.24334774
   0.56938591  0.26073438  0.99368885
   0.92476973  0.76515816  0.99378669
   0.36015398  0.78395464  0.35260292
   0.32458419  0.09343875  0.74343666
   0.67919367  0.99677536  0.04762956
   0.49388168  0.50357546  0.86732773
   0.38950998  0.76142190  0.06393328
   0.88950998  0.73857810  0.06393328
   0.34552990  0.77819289  0.74530767
   0.60580574  0.23744501  0.92308773
   0.15187929  0.28190818  0.17188426
   0.00856759  0.99271930  0.62049983
unknown system                          
           1
     6.564759    0.000000   -0.000000
     0.000000   11.058105    0.000000
    -0.000000    0.000000   16.050866
   Pb   N 
    12    72
Direct configuration=    15
   0.14882100  0.62105852  0.90508358
   0.16058265  0.62244566  0.58371343
   0.66058265  0.87755434  0.58371342
   0.93634514  0.14150256  0.74356211
   0.83941735  0.37755433  0.08371342
   0.64882100  0.87894148  0.90508359
   0.33941735  0.12244567  0.08371343
   0.43634515  0.35849744  0.74356211
   0.35117902  0.12105858  0.40508358
   0.56365485  0.64150256  0.24356211
   0.85117902  0.37894142  0.40508358
   0.06365485  0.85849744  0.24356210
   0.65438456  0.22183877  0.31885052
   0.19722587  0.50238288  0.44270002
   0.63986696  0.21598984  0.85262209
   0.99394180  0.99645951  0.86734044
   0.11044283  0.26141141  0.56393417
   0.17539688  0.59345862  0.24345097
   0.69722587  0.99761712  0.44270001
   0.57519700  0.26515761  0.49377839
   0.16425621  0.99755340  0.58369995
   0.82074848  0.49675145  0.54763624
   0.83574386  0.00244660  0.08369998
   0.10578859  0.26255633  0.92308609
   0.89421136  0.73744364  0.42308599
   0.15445822  0.27825057  0.24528968
   0.82460310  0.40654138  0.74345095
   0.85796028  0.71348524  0.13393332
   0.30277407  0.00238288  0.94270002
   0.17925146  0.50324856  0.04763624
   0.07519701  0.23484239  0.49377838
   0.65188555  0.21811860  0.17186033
   0.67539688  0.90654138  0.24345096
   0.15438455  0.27816123  0.31885052
   0.49144965  0.49276675  0.12051744
   0.34561545  0.77816123  0.81885052
   0.84811445  0.71811860  0.67186033
   0.13986696  0.28401016  0.85262208
   0.80277408  0.49761712  0.94270001
   0.32074849  0.00324856  0.54763624
   0.00605818  0.00354048  0.36734046
   0.65445822  0.22174943  0.24528968
   0.66425621  0.50244660  0.58369995
   0.35796027  0.78651476  0.13393331
   0.86800731  0.48134868  0.24352494
   0.85188022  0.00079286  0.40537202
   0.36800731  0.01865132  0.24352495
   0.13199267  0.51865132  0.74352495
   0.47458233  0.03661210  0.74335917
   0.02541770  0.53661212  0.24335918
   0.50605818  0.49645951  0.36734046
   0.86013306  0.71598985  0.35262212
   0.97458233  0.46338790  0.74335917
   0.61044283  0.23858859  0.56393418
   0.14203974  0.28651477  0.63393335
   0.64811987  0.50079286  0.90537204
   0.33574386  0.49755340  0.08369998
   0.84554178  0.72174943  0.74528970
   0.64203974  0.21348523  0.63393335
   0.06932639  0.23922751  0.99368304
   0.93067364  0.76077251  0.49368308
   0.34811445  0.78188140  0.67186033
   0.50855032  0.50723325  0.62051745
   0.43067364  0.73922749  0.49368307
   0.84561544  0.72183877  0.81885053
   0.39421136  0.76255636  0.42308599
   0.14811987  0.99920714  0.90537204
   0.35188022  0.49920713  0.40537202
   0.99144965  0.00723326  0.12051745
   0.42480301  0.73484238  0.99377835
   0.63199267  0.98134868  0.74352495
   0.52541771  0.96338788  0.24335918
   0.56932639  0.26077249  0.99368305
   0.92480301  0.76515762  0.99377835
   0.36013306  0.78401015  0.35262211
   0.32460310  0.09345862  0.74345096
   0.67925147  0.99675144  0.04763624
   0.49394179  0.50354049  0.86734044
   0.38955713  0.76141144  0.06393425
   0.88955713  0.73858856  0.06393426
   0.34554178  0.77825057  0.74528970
   0.60578859  0.23744367  0.92308610
   0.15188555  0.28188140  0.17186032
   0.00855032  0.99276675  0.62051745
unknown system                          
           1
     6.567314    0.000000    0.000000
     0.000000   11.056677    0.000000
     0.000000    0.000000   16.053295
   Pb   N 
    12    72
Direct configuration=    16
   0.14903480  0.62114232  0.90508399
   0.16050644  0.62238892  0.58368361
   0.66050643  0.87761108  0.58368360
   0.93652974  0.14153399  0.74361680
   0.83949357  0.37761108  0.08368361
   0.64903480  0.87885768  0.90508399
   0.33949357  0.12238892  0.08368361
   0.43652974  0.35846602  0.74361680
   0.35096528  0.12114252  0.40508400
   0.56347026  0.64153398  0.24361680
   0.85096527  0.37885748  0.40508400
   0.06347026  0.85846602  0.24361680
   0.65463799  0.22176573  0.31879525
   0.19698247  0.50233752  0.44265749
   0.63992967  0.21582332  0.85267974
   0.99412211  0.99656443  0.86737857
   0.11030143  0.26138007  0.56393722
   0.17534018  0.59351825  0.24349386
   0.69698247  0.99766248  0.44265748
   0.57509714  0.26515601  0.49375332
   0.16412020  0.99763865  0.58373770
   0.82057516  0.49667970  0.54765624
   0.83587976  0.00236135  0.08373770
   0.10573717  0.26256034  0.92308120
   0.89426285  0.73743967  0.42308123
   0.15442259  0.27842363  0.24523579
   0.82465982  0.40648176  0.74349384
   0.85791787  0.71350599  0.13390620
   0.30301753  0.00233752  0.94265750
   0.17942484  0.50332031  0.04765626
   0.07509714  0.23484399  0.49375332
   0.65190433  0.21819896  0.17178852
   0.67534019  0.90648175  0.24349385
   0.15463798  0.27823428  0.31879524
   0.49150150  0.49290911  0.12057031
   0.34536201  0.77823428  0.81879526
   0.84809566  0.71819896  0.67178853
   0.13992967  0.28417668  0.85267974
   0.80301754  0.49766248  0.94265749
   0.32057517  0.00332031  0.54765624
   0.00587793  0.00343556  0.36737857
   0.65442259  0.22157637  0.24523579
   0.66412019  0.50236135  0.58373770
   0.35791787  0.78649401  0.13390620
   0.86817354  0.48141617  0.24353979
   0.85168117  0.00086347  0.40534331
   0.36817354  0.01858383  0.24353979
   0.13182645  0.51858383  0.74353980
   0.47458559  0.03669164  0.74339348
   0.02541438  0.53669164  0.24339349
   0.50587792  0.49656443  0.36737857
   0.86007032  0.71582331  0.35267970
   0.97458559  0.46330836  0.74339348
   0.61030143  0.23861993  0.56393723
   0.14208211  0.28649400  0.63390617
   0.64831878  0.50086346  0.90534330
   0.33587976  0.49763865  0.08373770
   0.84557740  0.72157637  0.74523580
   0.64208211  0.21350600  0.63390617
   0.06914785  0.23911317  0.99366564
   0.93085214  0.76088683  0.49366561
   0.34809566  0.78180104  0.67178852
   0.50849852  0.50709089  0.62057030
   0.43085214  0.73911317  0.49366561
   0.84536201  0.72176572  0.81879526
   0.39426285  0.76256033  0.42308122
   0.14831878  0.99913653  0.90534330
   0.35168117  0.49913653  0.40534331
   0.99150150  0.00709090  0.12057031
   0.42490285  0.73484400  0.99375334
   0.63182645  0.98141617  0.74353979
   0.52541439  0.96330836  0.24339349
   0.56914785  0.26088683  0.99366565
   0.92490285  0.76515600  0.99375335
   0.36007031  0.78417669  0.35267970
   0.32465982  0.09351824  0.74349385
   0.67942485  0.99667970  0.04765626
   0.49412210  0.50343557  0.86737857
   0.38969859  0.76138006  0.06393719
   0.88969859  0.73861994  0.06393719
   0.34557740  0.77842363  0.74523579
   0.60573716  0.23743966  0.92308120
   0.15190433  0.28180104  0.17178851
   0.00849852  0.99290911  0.62057030
unknown system                          
           1
     6.572423    0.000000    0.000000
     0.000000   11.053819    0.000000
     0.000000    0.000000   16.058152
   Pb   N 
    12    72
Direct configuration=    17
   0.14946224  0.62130996  0.90508481
   0.16035406  0.62227541  0.58362398
   0.66035406  0.87772459  0.58362398
   0.93689878  0.14159684  0.74372617
   0.83964595  0.37772459  0.08362398
   0.64946224  0.87869005  0.90508481
   0.33964595  0.12227541  0.08362398
   0.43689878  0.35840316  0.74372617
   0.35053795  0.12131044  0.40508485
   0.56310122  0.64159683  0.24372617
   0.85053795  0.37868956  0.40508485
   0.06310122  0.85840317  0.24372617
   0.65514465  0.22161961  0.31868472
   0.19649587  0.50224678  0.44257243
   0.64005504  0.21549023  0.85279504
   0.99448260  0.99677430  0.86745481
   0.11001873  0.26131739  0.56394331
   0.17522684  0.59363752  0.24357963
   0.69649586  0.99775322  0.44257243
   0.57489750  0.26515280  0.49370321
   0.16384828  0.99780918  0.58381319
   0.82022864  0.49653618  0.54769625
   0.83615145  0.00219081  0.08381314
   0.10563435  0.26256837  0.92307140
   0.89436579  0.73743173  0.42307171
   0.15435136  0.27876979  0.24512802
   0.82477322  0.40636251  0.74357961
   0.85783309  0.71354749  0.13385197
   0.30350426  0.00224679  0.94257248
   0.17977146  0.50346382  0.04769629
   0.07489750  0.23484720  0.49370320
   0.65194188  0.21835971  0.17164491
   0.67522684  0.90636247  0.24357962
   0.15514465  0.27838039  0.31868472
   0.49160517  0.49319386  0.12067602
   0.34485534  0.77838039  0.81868475
   0.84805810  0.71835971  0.67164494
   0.14005504  0.28450977  0.85279503
   0.80350427  0.49775321  0.94257247
   0.32022865  0.00346383  0.54769625
   0.00551757  0.00322570  0.36745478
   0.65435136  0.22123021  0.24512803
   0.66384827  0.50219082  0.58381319
   0.35783309  0.78645250  0.13385196
   0.86850588  0.48155118  0.24356946
   0.85128323  0.00100469  0.40528590
   0.36850589  0.01844882  0.24356947
   0.13149415  0.51844885  0.74356948
   0.47459213  0.03685074  0.74346208
   0.02540774  0.53685070  0.24346209
   0.50551756  0.49677430  0.36745478
   0.85994487  0.71549018  0.35279485
   0.97459213  0.46314926  0.74346208
   0.61001873  0.23868262  0.56394332
   0.14216683  0.28645245  0.63385182
   0.64871645  0.50100469  0.90528583
   0.33615145  0.49780919  0.08381314
   0.84564863  0.72123021  0.74512800
   0.64216683  0.21354755  0.63385182
   0.06879092  0.23888446  0.99363085
   0.93120900  0.76111549  0.49363070
   0.34805810  0.78164029  0.67164494
   0.50839495  0.50680613  0.62067599
   0.43120900  0.73888450  0.49363069
   0.84485534  0.72161961  0.81868475
   0.39436579  0.76256827  0.42307170
   0.14871645  0.99899531  0.90528583
   0.35128323  0.49899531  0.40528591
   0.99160517  0.00680614  0.12067602
   0.42510243  0.73484724  0.99370333
   0.63149415  0.98155115  0.74356947
   0.52540774  0.96314930  0.24346209
   0.56879092  0.26111554  0.99363086
   0.92510243  0.76515276  0.99370334
   0.35994487  0.78450982  0.35279485
   0.32477322  0.09363749  0.74357962
   0.67977147  0.99653618  0.04769629
   0.49448259  0.50322570  0.86745481
   0.38998138  0.76131729  0.06394305
   0.88998138  0.73868271  0.06394306
   0.34564863  0.77876979  0.74512799
   0.60563435  0.23743163  0.92307141
   0.15194188  0.28164030  0.17164490
   0.00839495  0.99319387  0.62067598
unknown system                          
           1
     6.574838    0.000000    0.000000
     0.000000   11.052469    0.000000
     0.000000    0.000000   16.060447
   Pb   N 
    12    72
Direct configuration=    18
   0.14966406  0.62138918  0.90508519
   0.16028212  0.62222176  0.58359581
   0.66028211  0.87777824  0.58359581
   0.93707303  0.14162654  0.74377784
   0.83971790  0.37777824  0.08359581
   0.64966406  0.87861082  0.90508519
   0.33971789  0.12222176  0.08359581
   0.43707303  0.35837346  0.74377784
   0.35033619  0.12138980  0.40508525
   0.56292698  0.64162653  0.24377783
   0.85033618  0.37861020  0.40508525
   0.06292698  0.85837347  0.24377783
   0.65538387  0.22155055  0.31863251
   0.19626612  0.50220390  0.44253225
   0.64011424  0.21533280  0.85284950
   0.99465280  0.99687349  0.86749082
   0.10988526  0.26128776  0.56394619
   0.17517332  0.59369390  0.24362015
   0.69626611  0.99779610  0.44253225
   0.57480324  0.26515129  0.49367953
   0.16371989  0.99788978  0.58384885
   0.82006503  0.49646834  0.54771515
   0.83627973  0.00211021  0.08384878
   0.10558581  0.26257216  0.92306678
   0.89441440  0.73742797  0.42306721
   0.15431773  0.27893340  0.24507712
   0.82482676  0.40630615  0.74362013
   0.85779307  0.71356711  0.13382636
   0.30373408  0.00220391  0.94253232
   0.17993512  0.50353165  0.04771520
   0.07480324  0.23484871  0.49367953
   0.65195961  0.21843568  0.17157708
   0.67517333  0.90630610  0.24362014
   0.15538387  0.27844945  0.31863251
   0.49165412  0.49332845  0.12072595
   0.34461612  0.77844945  0.81863254
   0.84804037  0.71843568  0.67157712
   0.14011424  0.28466720  0.85284949
   0.80373408  0.49779609  0.94253231
   0.32006504  0.00353166  0.54771515
   0.00534742  0.00312651  0.36749078
   0.65431773  0.22106660  0.24507712
   0.66371988  0.50211022  0.58384885
   0.35779306  0.78643289  0.13382635
   0.86866280  0.48161498  0.24358348
   0.85109535  0.00107143  0.40525878
   0.36866280  0.01838501  0.24358349
   0.13133725  0.51838505  0.74358350
   0.47459521  0.03692593  0.74349449
   0.02540461  0.53692588  0.24349449
   0.50534742  0.49687349  0.36749078
   0.85988564  0.71533273  0.35284925
   0.97459521  0.46307407  0.74349449
   0.60988526  0.23871224  0.56394620
   0.14220683  0.28643281  0.63382614
   0.64890420  0.50107144  0.90525869
   0.33627973  0.49788979  0.08384878
   0.84568226  0.72106660  0.74507708
   0.64220683  0.21356719  0.63382615
   0.06862239  0.23877636  0.99361442
   0.93137749  0.76122357  0.49361420
   0.34804037  0.78156432  0.67157711
   0.50834605  0.50667155  0.62072591
   0.43137750  0.73877643  0.49361419
   0.84461612  0.72155055  0.81863255
   0.39441440  0.76257203  0.42306720
   0.14890421  0.99892856  0.90525869
   0.35109534  0.49892856  0.40525879
   0.99165412  0.00667155  0.12072596
   0.42519667  0.73484877  0.99367970
   0.63133725  0.98161495  0.74358349
   0.52540460  0.96307412  0.24349449
   0.56862239  0.26122364  0.99361442
   0.92519666  0.76515122  0.99367971
   0.35988564  0.78466727  0.35284924
   0.32482676  0.09369385  0.74362014
   0.67993512  0.99646835  0.04771520
   0.49465280  0.50312651  0.86749082
   0.39011490  0.76128763  0.06394583
   0.89011491  0.73871238  0.06394583
   0.34568226  0.77893340  0.74507707
   0.60558581  0.23742784  0.92306679
   0.15195961  0.28156432  0.17157707
   0.00834605  0.99332846  0.62072591
unknown system                          
           1
     6.576347    0.000000    0.000000
     0.000000   11.051298    0.000000
     0.000000    0.000000   16.062839
   Pb   N 
    12    72
Direct configuration=    19
   0.14985925  0.62143695  0.90508880
   0.16020096  0.62213455  0.58357002
   0.66020096  0.87786545  0.58357002
   0.93721364  0.14166356  0.74381759
   0.83979903  0.37786545  0.08357003
   0.64985925  0.87856305  0.90508880
   0.33979903  0.12213455  0.08357003
   0.43721364  0.35833644  0.74381759
   0.35014102  0.12143767  0.40508887
   0.56278635  0.64166356  0.24381759
   0.85014102  0.37856233  0.40508887
   0.06278635  0.85833644  0.24381758
   0.65559541  0.22144027  0.31857537
   0.19609296  0.50215348  0.44246977
   0.64018626  0.21516324  0.85289084
   0.99477729  0.99694793  0.86751852
   0.10975353  0.26125295  0.56391205
   0.17502801  0.59373668  0.24366599
   0.69609295  0.99784651  0.44246976
   0.57468575  0.26514434  0.49368209
   0.16365561  0.99797546  0.58386999
   0.81984178  0.49640139  0.54774815
   0.83634451  0.00202455  0.08387004
   0.10550259  0.26255990  0.92313231
   0.89449732  0.73744004  0.42313215
   0.15433367  0.27906063  0.24499679
   0.82497194  0.40626331  0.74366596
   0.85775407  0.71358420  0.13380796
   0.30390694  0.00215348  0.94246976
   0.18015813  0.50359862  0.04774814
   0.07468575  0.23485566  0.49368209
   0.65194796  0.21849105  0.17152564
   0.67502801  0.90626331  0.24366598
   0.15559541  0.27855973  0.31857536
   0.49173051  0.49345626  0.12077419
   0.34440458  0.77855973  0.81857537
   0.84805203  0.71849105  0.67152564
   0.14018626  0.28483676  0.85289083
   0.80390695  0.49784651  0.94246975
   0.31984179  0.00359861  0.54774814
   0.00522265  0.00305206  0.36751855
   0.65433366  0.22093937  0.24499679
   0.66365560  0.50202454  0.58386999
   0.35775407  0.78641580  0.13380795
   0.86886818  0.48170197  0.24359584
   0.85075517  0.00111904  0.40527079
   0.36886818  0.01829803  0.24359585
   0.13113178  0.51829803  0.74359585
   0.47459662  0.03700387  0.74352778
   0.02540341  0.53700390  0.24352779
   0.50522264  0.49694793  0.36751855
   0.85981377  0.71516327  0.35289090
   0.97459662  0.46299613  0.74352779
   0.60975353  0.23874705  0.56391205
   0.14224595  0.28641582  0.63380801
   0.64924497  0.50111904  0.90527083
   0.33634451  0.49797545  0.08387003
   0.84566632  0.72093937  0.74499683
   0.64224594  0.21358418  0.63380801
   0.06846269  0.23867047  0.99355739
   0.93153733  0.76132954  0.49355745
   0.34805203  0.78150895  0.67152563
   0.50826941  0.50654374  0.62077421
   0.43153733  0.73867045  0.49355744
   0.84440458  0.72144027  0.81857537
   0.39449732  0.76255995  0.42313214
   0.14924497  0.99888096  0.90527084
   0.35075517  0.49888095  0.40527079
   0.99173051  0.00654374  0.12077419
   0.42531427  0.73485564  0.99368204
   0.63113178  0.98170197  0.74359585
   0.52540342  0.96299610  0.24352779
   0.56846269  0.26132952  0.99355740
   0.92531427  0.76514436  0.99368204
   0.35981377  0.78483673  0.35289090
   0.32497194  0.09373669  0.74366597
   0.68015814  0.99640139  0.04774814
   0.49477729  0.50305206  0.86751852
   0.39024639  0.76125299  0.06391217
   0.89024639  0.73874701  0.06391218
   0.34566632  0.77906063  0.74499682
   0.60550259  0.23744010  0.92313232
   0.15194796  0.28150895  0.17152563
   0.00826941  0.99345626  0.62077420
unknown system                          
           1
     6.576517    0.000000    0.000000
     0.000000   11.051166    0.000000
     0.000000    0.000000   16.063109
   Pb   N 
    12    72
Direct configuration=    20
   0.14988127  0.62144234  0.90508921
   0.16019181  0.62212471  0.58356711
   0.66019181  0.87787529  0.58356711
   0.93722950  0.14166774  0.74382208
   0.83980818  0.37787529  0.08356712
   0.64988127  0.87855766  0.90508921
   0.33980818  0.12212471  0.08356712
   0.43722950  0.35833226  0.74382207
   0.35011901  0.12144308  0.40508928
   0.56277049  0.64166773  0.24382207
   0.85011900  0.37855693  0.40508928
   0.06277049  0.85833226  0.24382207
   0.65561927  0.22142783  0.31856892
   0.19607342  0.50214779  0.44246272
   0.64019438  0.21514411  0.85289550
   0.99479133  0.99695633  0.86752164
   0.10973868  0.26124902  0.56390819
   0.17501162  0.59374151  0.24367116
   0.69607342  0.99785220  0.44246271
   0.57467249  0.26514355  0.49368238
   0.16364835  0.99798513  0.58387238
   0.81981660  0.49639384  0.54775187
   0.83635182  0.00201488  0.08387243
   0.10549320  0.26255852  0.92313970
   0.89450668  0.73744141  0.42313947
   0.15433546  0.27907498  0.24498772
   0.82498832  0.40625848  0.74367113
   0.85774968  0.71358613  0.13380588
   0.30392644  0.00214779  0.94246270
   0.18018329  0.50360617  0.04775185
   0.07467250  0.23485645  0.49368238
   0.65194664  0.21849729  0.17151984
   0.67501161  0.90625849  0.24367115
   0.15561927  0.27857217  0.31856892
   0.49173913  0.49347068  0.12077963
   0.34438072  0.77857217  0.81856892
   0.84805334  0.71849729  0.67151983
   0.14019438  0.28485590  0.85289550
   0.80392645  0.49785220  0.94246270
   0.31981661  0.00360617  0.54775187
   0.00520857  0.00304366  0.36752168
   0.65433546  0.22092502  0.24498773
   0.66364835  0.50201487  0.58387238
   0.35774967  0.78641387  0.13380587
   0.86889135  0.48171178  0.24359723
   0.85071680  0.00112442  0.40527214
   0.36889135  0.01828822  0.24359724
   0.13110861  0.51828821  0.74359725
   0.47459678  0.03701266  0.74353154
   0.02540328  0.53701270  0.24353154
   0.50520857  0.49695633  0.36752168
   0.85980566  0.71514415  0.35289560
   0.97459678  0.46298734  0.74353154
   0.60973868  0.23875098  0.56390820
   0.14225036  0.28641391  0.63380596
   0.64928340  0.50112441  0.90527220
   0.33635181  0.49798512  0.08387243
   0.84566452  0.72092502  0.74498778
   0.64225035  0.21358610  0.63380597
   0.06844468  0.23865853  0.99355096
   0.93155536  0.76134150  0.49355105
   0.34805334  0.78150271  0.67151982
   0.50826077  0.50652932  0.62077966
   0.43155536  0.73865850  0.49355104
   0.84438072  0.72142783  0.81856892
   0.39450667  0.76255859  0.42313947
   0.14928340  0.99887559  0.90527221
   0.35071680  0.49887558  0.40527214
   0.99173912  0.00652932  0.12077963
   0.42532754  0.73485642  0.99368230
   0.63110861  0.98171179  0.74359724
   0.52540328  0.96298730  0.24353155
   0.56844468  0.26134147  0.99355097
   0.92532754  0.76514358  0.99368231
   0.35980566  0.78485585  0.35289560
   0.32498832  0.09374152  0.74367114
   0.68018329  0.99639383  0.04775185
   0.49479133  0.50304366  0.86752164
   0.39026122  0.76124909  0.06390838
   0.89026122  0.73875091  0.06390839
   0.34566452  0.77907498  0.74498777
   0.60549320  0.23744148  0.92313971
   0.15194664  0.28150271  0.17151983
   0.00826077  0.99347069  0.62077965
unknown system                          
           1
     6.576573    0.000000   -0.000000
     0.000000   11.050964    0.000000
    -0.000000    0.000000   16.063908
   Pb   N 
    12    72
Direct configuration=    21
   0.14996599  0.62143168  0.90508993
   0.16014947  0.62205298  0.58356155
   0.66014947  0.87794702  0.58356155
   0.93726011  0.14169237  0.74383011
   0.83985052  0.37794702  0.08356156
   0.64996599  0.87856832  0.90508993
   0.33985051  0.12205298  0.08356156
   0.43726011  0.35830763  0.74383011
   0.35003445  0.12143250  0.40509003
   0.56273988  0.64169237  0.24383011
   0.85003445  0.37856750  0.40509004
   0.06273988  0.85830763  0.24383011
   0.65567982  0.22133371  0.31851751
   0.19595401  0.50211876  0.44243727
   0.64021682  0.21507204  0.85294204
   0.99489747  0.99696211  0.86754953
   0.10970868  0.26124669  0.56390092
   0.17494403  0.59377998  0.24369666
   0.69595401  0.99788124  0.44243726
   0.57458595  0.26514247  0.49369051
   0.16358581  0.99802509  0.58389043
   0.81972125  0.49636428  0.54776646
   0.83641425  0.00197491  0.08389046
   0.10546858  0.26256790  0.92314714
   0.89453134  0.73743206  0.42314703
   0.15440038  0.27908526  0.24495890
   0.82505592  0.40622002  0.74369663
   0.85774814  0.71360025  0.13378024
   0.30404590  0.00211877  0.94243727
   0.18027868  0.50363573  0.04776646
   0.07458595  0.23485753  0.49369050
   0.65190834  0.21849713  0.17150003
   0.67494403  0.90622002  0.24369665
   0.15567982  0.27866629  0.31851750
   0.49176658  0.49351888  0.12078947
   0.34432016  0.77866628  0.81851751
   0.84809163  0.71849713  0.67150003
   0.14021682  0.28492796  0.85294203
   0.80404590  0.49788123  0.94243726
   0.31972125  0.00363573  0.54776646
   0.00510250  0.00303789  0.36754955
   0.65440038  0.22091475  0.24495891
   0.66358580  0.50197491  0.58389043
   0.35774814  0.78639975  0.13378023
   0.86894476  0.48174355  0.24360063
   0.85061887  0.00112433  0.40526778
   0.36894476  0.01825645  0.24360063
   0.13105520  0.51825645  0.74360064
   0.47459765  0.03704595  0.74354646
   0.02540236  0.53704597  0.24354646
   0.50510249  0.49696211  0.36754955
   0.85978319  0.71507206  0.35294207
   0.97459765  0.46295405  0.74354646
   0.60970869  0.23875331  0.56390092
   0.14225185  0.28639976  0.63378027
   0.64938120  0.50112433  0.90526781
   0.33641425  0.49802509  0.08389046
   0.84559959  0.72091475  0.74495894
   0.64225185  0.21360024  0.63378027
   0.06835885  0.23859814  0.99353432
   0.93164115  0.76140187  0.49353435
   0.34809163  0.78150287  0.67150002
   0.50823335  0.50648112  0.62078948
   0.43164115  0.73859813  0.49353435
   0.84432016  0.72133372  0.81851752
   0.39453134  0.76256794  0.42314702
   0.14938120  0.99887567  0.90526782
   0.35061887  0.49887567  0.40526779
   0.99176658  0.00648113  0.12078947
   0.42541405  0.73485752  0.99369047
   0.63105520  0.98174355  0.74360063
   0.52540236  0.96295403  0.24354646
   0.56835885  0.26140186  0.99353433
   0.92541405  0.76514248  0.99369048
   0.35978319  0.78492794  0.35294207
   0.32505592  0.09377998  0.74369664
   0.68027869  0.99636428  0.04776646
   0.49489747  0.50303788  0.86754953
   0.39029125  0.76124672  0.06390099
   0.89029125  0.73875328  0.06390100
   0.34559959  0.77908525  0.74495893
   0.60546858  0.23743210  0.92314714
   0.15190834  0.28150287  0.17150002
   0.00823336  0.99351888  0.62078948
unknown system                          
           1
     6.576742    0.000000   -0.000000
     0.000000   11.050357    0.000000
    -0.000001    0.000000   16.066304
   Pb   N 
    12    72
Direct configuration=    22
   0.15022015  0.62139969  0.90509211
   0.16002245  0.62183780  0.58354487
   0.66002245  0.87816220  0.58354486
   0.93735192  0.14176626  0.74385422
   0.83997752  0.37816222  0.08354488
   0.65022015  0.87860031  0.90509211
   0.33997752  0.12183778  0.08354488
   0.43735191  0.35823374  0.74385422
   0.34978080  0.12140077  0.40509231
   0.56264806  0.64176626  0.24385423
   0.84978080  0.37859923  0.40509231
   0.06264806  0.85823374  0.24385422
   0.65586147  0.22105136  0.31836328
   0.19559578  0.50203166  0.44236091
   0.64028412  0.21485584  0.85308165
   0.99521589  0.99697945  0.86763318
   0.10961871  0.26123969  0.56387908
   0.17474127  0.59389540  0.24377316
   0.69559578  0.99796834  0.44236090
   0.57432631  0.26513923  0.49371489
   0.16339817  0.99814499  0.58394458
   0.81943519  0.49627559  0.54781024
   0.83660155  0.00185501  0.08394453
   0.10539474  0.26259605  0.92316944
   0.89460535  0.73740403  0.42316969
   0.15459515  0.27911607  0.24487243
   0.82525872  0.40610463  0.74377312
   0.85774355  0.71364262  0.13370332
   0.30440427  0.00203168  0.94236095
   0.18056487  0.50372439  0.04781029
   0.07432631  0.23486077  0.49371488
   0.65179344  0.21849663  0.17144060
   0.67474127  0.90610460  0.24377314
   0.15586146  0.27894864  0.31836327
   0.49184894  0.49366347  0.12081898
   0.34413848  0.77894863  0.81836332
   0.84820651  0.71849663  0.67144062
   0.14028412  0.28514416  0.85308164
   0.80440428  0.49796832  0.94236095
   0.31943519  0.00372441  0.54781024
   0.00478426  0.00302056  0.36763317
   0.65459515  0.22088393  0.24487244
   0.66339816  0.50185501  0.58394458
   0.35774355  0.78635738  0.13370331
   0.86910502  0.48183885  0.24361080
   0.85032507  0.00112408  0.40525471
   0.36910502  0.01816115  0.24361081
   0.13089498  0.51816116  0.74361082
   0.47460025  0.03714582  0.74359121
   0.02539960  0.53714579  0.24359122
   0.50478425  0.49697944  0.36763317
   0.85971576  0.71485581  0.35308149
   0.97460025  0.46285418  0.74359121
   0.60961871  0.23876031  0.56387909
   0.14225635  0.28635733  0.63370318
   0.64967460  0.50112408  0.90525465
   0.33660155  0.49814500  0.08394453
   0.84540480  0.72088393  0.74487242
   0.64225634  0.21364267  0.63370319
   0.06810135  0.23841696  0.99348442
   0.93189853  0.76158299  0.49348428
   0.34820651  0.78150337  0.67144062
   0.50815112  0.50633652  0.62081896
   0.43189853  0.73841701  0.49348427
   0.84413848  0.72105137  0.81836333
   0.39460535  0.76259597  0.42316969
   0.14967460  0.99887592  0.90525466
   0.35032507  0.49887592  0.40525471
   0.99184894  0.00633653  0.12081898
   0.42567361  0.73486083  0.99371498
   0.63089498  0.98183884  0.74361081
   0.52539960  0.96285421  0.24359122
   0.56810135  0.26158304  0.99348442
   0.92567361  0.76513918  0.99371499
   0.35971576  0.78514419  0.35308149
   0.32525872  0.09389537  0.74377313
   0.68056488  0.99627561  0.04781029
   0.49521589  0.50302054  0.86763319
   0.39038134  0.76123960  0.06387884
   0.89038134  0.73876040  0.06387885
   0.34540480  0.77911607  0.74487241
   0.60539473  0.23740395  0.92316945
   0.15179344  0.28150337  0.17144059
   0.00815112  0.99366348  0.62081895
unknown system                          
           1
     6.577079    0.000000   -0.000001
     0.000000   11.049143    0.000000
    -0.000002    0.000000   16.071097
   Pb   N 
    12    72
Direct configuration=    23
   0.15072845  0.62133570  0.90509645
   0.15976843  0.62140741  0.58351150
   0.65976842  0.87859259  0.58351150
   0.93753553  0.14191405  0.74390244
   0.84023152  0.37859266  0.08351153
   0.65072845  0.87866430  0.90509645
   0.34023151  0.12140734  0.08351153
   0.43753553  0.35808594  0.74390244
   0.34927350  0.12133731  0.40509687
   0.56246443  0.64191406  0.24390245
   0.84927350  0.37866269  0.40509687
   0.06246443  0.85808594  0.24390245
   0.65622475  0.22048662  0.31805486
   0.19487934  0.50185745  0.44220822
   0.64041873  0.21442343  0.85336082
   0.99585271  0.99701414  0.86780047
   0.10943877  0.26122570  0.56383542
   0.17433576  0.59412625  0.24392613
   0.69487934  0.99814255  0.44220821
   0.57380704  0.26513274  0.49376364
   0.16302289  0.99838481  0.58405286
   0.81886309  0.49609821  0.54789779
   0.83697614  0.00161518  0.08405266
   0.10524704  0.26265236  0.92321405
   0.89475335  0.73734795  0.42321501
   0.15498467  0.27917770  0.24469952
   0.82566432  0.40587383  0.74392609
   0.85773436  0.71372737  0.13354951
   0.30512100  0.00185749  0.94220836
   0.18113723  0.50390174  0.04789792
   0.07380704  0.23486726  0.49376363
   0.65156363  0.21849564  0.17132175
   0.67433576  0.90587375  0.24392612
   0.15622475  0.27951338  0.31805485
   0.49201365  0.49395267  0.12087799
   0.34377514  0.77951334  0.81805497
   0.84843627  0.71849564  0.67132183
   0.14041873  0.28557658  0.85336081
   0.80512100  0.49814250  0.94220835
   0.31886309  0.00390179  0.54789779
   0.00414781  0.00298589  0.36780036
   0.65498467  0.22082230  0.24469953
   0.66302289  0.50161520  0.58405286
   0.35773436  0.78627263  0.13354950
   0.86942551  0.48202945  0.24363114
   0.84973748  0.00112357  0.40522857
   0.36942552  0.01797054  0.24363115
   0.13057454  0.51797058  0.74363117
   0.47460546  0.03734555  0.74368070
   0.02539409  0.53734543  0.24368071
   0.50414780  0.49701411  0.36780036
   0.85958092  0.71442328  0.35336028
   0.97460546  0.46265445  0.74368070
   0.60943877  0.23877430  0.56383543
   0.14226533  0.28627247  0.63354904
   0.65026139  0.50112359  0.90522833
   0.33697614  0.49838482  0.08405266
   0.84501523  0.72082230  0.74469940
   0.64226533  0.21372753  0.63354904
   0.06758637  0.23805460  0.99338461
   0.93241329  0.76194524  0.49338414
   0.34843627  0.78150436  0.67132183
   0.50798665  0.50604730  0.62087790
   0.43241328  0.73805476  0.49338413
   0.84377513  0.72048665  0.81805498
   0.39475335  0.76265205  0.42321501
   0.15026139  0.99887641  0.90522834
   0.34973748  0.49887643  0.40522858
   0.99201366  0.00604734  0.12087799
   0.42619270  0.73486743  0.99376400
   0.63057454  0.98202943  0.74363116
   0.52539409  0.96265457  0.24368071
   0.56758637  0.26194540  0.99338462
   0.92619270  0.76513257  0.99376400
   0.35958092  0.78557672  0.35336028
   0.32566432  0.09412617  0.74392610
   0.68113724  0.99609826  0.04789792
   0.49585271  0.50298586  0.86780047
   0.39056152  0.76122538  0.06383455
   0.89056152  0.73877462  0.06383456
   0.34501523  0.77917770  0.74469939
   0.60524704  0.23734764  0.92321405
   0.15156363  0.28150436  0.17132174
   0.00798666  0.99395270  0.62087789
unknown system                          
           1
     6.576834    0.000000   -0.000000
     0.000000   11.050027    0.000000
    -0.000001    0.000000   16.067605
   Pb   N 
    12    72
Direct configuration=    24
   0.15035812  0.62138233  0.90509329
   0.15995350  0.62172103  0.58353580
   0.65995350  0.87827897  0.58353580
   0.93740176  0.14180636  0.74386732
   0.84004646  0.37827901  0.08353582
   0.65035812  0.87861767  0.90509329
   0.34004646  0.12172099  0.08353582
   0.43740175  0.35819364  0.74386732
   0.34964310  0.12138355  0.40509355
   0.56259822  0.64180636  0.24386732
   0.84964310  0.37861645  0.40509355
   0.06259822  0.85819364  0.24386732
   0.65596007  0.22089814  0.31827951
   0.19540132  0.50198439  0.44231944
   0.64032066  0.21473852  0.85315747
   0.99538875  0.99698886  0.86767862
   0.10956987  0.26123590  0.56386722
   0.17463120  0.59395803  0.24381470
   0.69540131  0.99801560  0.44231943
   0.57418536  0.26513747  0.49372813
   0.16329630  0.99821006  0.58397399
   0.81927990  0.49622746  0.54783402
   0.83670323  0.00178994  0.08397390
   0.10535465  0.26261133  0.92318156
   0.89464552  0.73738881  0.42318200
   0.15470088  0.27913279  0.24482546
   0.82536882  0.40604201  0.74381467
   0.85774105  0.71366561  0.13366154
   0.30459882  0.00198442  0.94231951
   0.18072023  0.50377251  0.04783409
   0.07418536  0.23486253  0.49372812
   0.65173106  0.21849636  0.17140832
   0.67463120  0.90604196  0.24381469
   0.15596007  0.27910186  0.31827950
   0.49189365  0.49374193  0.12083500
   0.34403986  0.77910184  0.81827957
   0.84826888  0.71849636  0.67140836
   0.14032066  0.28526148  0.85315747
   0.80459882  0.49801558  0.94231950
   0.31927990  0.00377254  0.54783402
   0.00461150  0.00301115  0.36767858
   0.65470088  0.22086721  0.24482547
   0.66329630  0.50178994  0.58397399
   0.35774105  0.78633439  0.13366154
   0.86919201  0.48189056  0.24361632
   0.85016557  0.00112394  0.40524761
   0.36919201  0.01810944  0.24361633
   0.13080800  0.51810945  0.74361634
   0.47460167  0.03720001  0.74361552
   0.02539810  0.53719995  0.24361552
   0.50461150  0.49698885  0.36767858
   0.85967916  0.71473846  0.35315721
   0.97460167  0.46279999  0.74361552
   0.60956987  0.23876410  0.56386723
   0.14225878  0.28633431  0.63366131
   0.64983388  0.50112395  0.90524750
   0.33670322  0.49821006  0.08397390
   0.84529906  0.72086721  0.74482542
   0.64225878  0.21366569  0.63366132
   0.06796157  0.23831865  0.99345731
   0.93203826  0.76168127  0.49345708
   0.34826888  0.78150364  0.67140835
   0.50810648  0.50625805  0.62083496
   0.43203826  0.73831873  0.49345707
   0.84403985  0.72089815  0.81827958
   0.39464552  0.76261119  0.42318200
   0.14983388  0.99887605  0.90524751
   0.35016557  0.49887606  0.40524761
   0.99189365  0.00625807  0.12083501
   0.42581451  0.73486262  0.99372829
   0.63080800  0.98189055  0.74361634
   0.52539811  0.96280005  0.24361553
   0.56796157  0.26168135  0.99345731
   0.92581451  0.76513738  0.99372830
   0.35967916  0.78526154  0.35315721
   0.32536881  0.09395799  0.74381468
   0.68072023  0.99622749  0.04783409
   0.49538874  0.50301113  0.86767862
   0.39043025  0.76123574  0.06386681
   0.89043025  0.73876426  0.06386682
   0.34529906  0.77913279  0.74482541
   0.60535464  0.23738867  0.92318156
   0.15173106  0.28150364  0.17140831
   0.00810648  0.99374195  0.62083496
unknown system                          
           1
     6.576960    0.000000   -0.000000
     0.000000   11.049991    0.000000
    -0.000001    0.000000   16.068630
   Pb   N 
    12    72
Direct configuration=    25
   0.15040620  0.62137217  0.90509324
   0.15992863  0.62167727  0.58353345
   0.65992863  0.87832273  0.58353345
   0.93741412  0.14182155  0.74387065
   0.84007133  0.37832277  0.08353347
   0.65040620  0.87862783  0.90509324
   0.34007133  0.12167723  0.08353348
   0.43741411  0.35817845  0.74387065
   0.34959510  0.12137344  0.40509352
   0.56258585  0.64182156  0.24387066
   0.84959510  0.37862656  0.40509352
   0.06258586  0.85817844  0.24387066
   0.65599201  0.22083936  0.31825763
   0.19532123  0.50196769  0.44230668
   0.64033821  0.21469417  0.85317592
   0.99543718  0.99698831  0.86769166
   0.10955425  0.26123534  0.56386045
   0.17462336  0.59399460  0.24383003
   0.69532122  0.99803231  0.44230667
   0.57412853  0.26513867  0.49372915
   0.16326197  0.99823311  0.58398374
   0.81923843  0.49621006  0.54783936
   0.83673762  0.00176689  0.08398367
   0.10533782  0.26261591  0.92319226
   0.89466231  0.73738421  0.42319264
   0.15474253  0.27913418  0.24480355
   0.82537664  0.40600544  0.74382999
   0.85773794  0.71367161  0.13365236
   0.30467886  0.00196771  0.94230674
   0.18076166  0.50378992  0.04783942
   0.07412853  0.23486133  0.49372914
   0.65170670  0.21849424  0.17139272
   0.67462336  0.90600540  0.24383002
   0.15599201  0.27916064  0.31825762
   0.49192660  0.49376783  0.12084346
   0.34400791  0.77916062  0.81825768
   0.84829323  0.71849424  0.67139276
   0.14033821  0.28530584  0.85317591
   0.80467887  0.49803228  0.94230674
   0.31923843  0.00378995  0.54783936
   0.00456303  0.00301170  0.36769163
   0.65474253  0.22086583  0.24480356
   0.66326197  0.50176690  0.58398374
   0.35773794  0.78632839  0.13365235
   0.86919556  0.48190055  0.24361794
   0.85010289  0.00112157  0.40524724
   0.36919556  0.01809945  0.24361795
   0.13080444  0.51809946  0.74361796
   0.47461263  0.03721492  0.74362400
   0.02538715  0.53721488  0.24362401
   0.50456302  0.49698830  0.36769163
   0.85966162  0.71469411  0.35317570
   0.97461263  0.46278508  0.74362400
   0.60955425  0.23876467  0.56386046
   0.14226190  0.28632832  0.63365216
   0.64989663  0.50112158  0.90524715
   0.33673761  0.49823311  0.08398367
   0.84525740  0.72086583  0.74480352
   0.64226190  0.21367168  0.63365217
   0.06790861  0.23828144  0.99345260
   0.93209122  0.76171849  0.49345240
   0.34829323  0.78150576  0.67139275
   0.50807349  0.50623215  0.62084343
   0.43209122  0.73828151  0.49345240
   0.84400791  0.72083938  0.81825769
   0.39466231  0.76261579  0.42319263
   0.14989663  0.99887842  0.90524716
   0.35010289  0.49887843  0.40524725
   0.99192660  0.00623217  0.12084347
   0.42587135  0.73486141  0.99372928
   0.63080444  0.98190054  0.74361795
   0.52538716  0.96278512  0.24362401
   0.56790861  0.26171856  0.99345261
   0.92587135  0.76513859  0.99372929
   0.35966162  0.78530589  0.35317569
   0.32537664  0.09399456  0.74383000
   0.68076167  0.99621008  0.04783942
   0.49543718  0.50301168  0.86769166
   0.39044583  0.76123520  0.06386010
   0.89044583  0.73876480  0.06386011
   0.34525741  0.77913417  0.74480351
   0.60533782  0.23738409  0.92319227
   0.15170670  0.28150576  0.17139272
   0.00807349  0.99376785  0.62084343
unknown system                          
           1
     6.577341    0.000000   -0.000001
     0.000000   11.049883    0.000000
    -0.000001    0.000000   16.071707
   Pb   N 
    12    72
Direct configuration=    26
   0.15055044  0.62134170  0.90509310
   0.15985401  0.62154601  0.58352640
   0.65985401  0.87845399  0.58352640
   0.93745119  0.14186713  0.74388066
   0.84014593  0.37845404  0.08352643
   0.65055045  0.87865830  0.90509310
   0.34014593  0.12154596  0.08352643
   0.43745119  0.35813287  0.74388066
   0.34945111  0.12134309  0.40509343
   0.56254876  0.64186715  0.24388067
   0.84945111  0.37865691  0.40509343
   0.06254877  0.85813285  0.24388067
   0.65608783  0.22066304  0.31819199
   0.19508097  0.50191757  0.44226842
   0.64039089  0.21456110  0.85323126
   0.99558249  0.99698667  0.86773077
   0.10950741  0.26123365  0.56384014
   0.17459984  0.59410429  0.24387599
   0.69508097  0.99808242  0.44226842
   0.57395803  0.26514228  0.49373220
   0.16315898  0.99830224  0.58401299
   0.81911401  0.49615783  0.54785537
   0.83684078  0.00169777  0.08401296
   0.10528733  0.26262966  0.92322437
   0.89471268  0.73737039  0.42322454
   0.15486746  0.27913833  0.24473782
   0.82540010  0.40589572  0.74387596
   0.85772862  0.71368959  0.13362480
   0.30491899  0.00191760  0.94226846
   0.18088597  0.50384215  0.04785541
   0.07395803  0.23485772  0.49373219
   0.65163363  0.21848788  0.17134595
   0.67459984  0.90589570  0.24387598
   0.15608783  0.27933696  0.31819198
   0.49202546  0.49384552  0.12086884
   0.34391208  0.77933693  0.81819203
   0.84836629  0.71848788  0.67134597
   0.14039089  0.28543890  0.85323126
   0.80491900  0.49808240  0.94226845
   0.31911402  0.00384217  0.54785537
   0.00441759  0.00301336  0.36773077
   0.65486747  0.22086168  0.24473783
   0.66315898  0.50169776  0.58401299
   0.35772861  0.78631041  0.13362479
   0.86920620  0.48193052  0.24362278
   0.84991485  0.00111446  0.40524614
   0.36920621  0.01806948  0.24362279
   0.13079375  0.51806947  0.74362281
   0.47464553  0.03725967  0.74364946
   0.02535431  0.53725964  0.24364947
   0.50441759  0.49698664  0.36773077
   0.85960899  0.71456108  0.35323114
   0.97464553  0.46274033  0.74364946
   0.60950741  0.23876636  0.56384015
   0.14227126  0.28631037  0.63362469
   0.65008490  0.50111447  0.90524611
   0.33684078  0.49830223  0.08401296
   0.84513245  0.72086168  0.74473783
   0.64227126  0.21368963  0.63362470
   0.06774976  0.23816981  0.99343848
   0.93225011  0.76183015  0.49343838
   0.34836629  0.78151212  0.67134596
   0.50797453  0.50615446  0.62086883
   0.43225011  0.73816984  0.49343837
   0.84391207  0.72066306  0.81819204
   0.39471268  0.76262961  0.42322453
   0.15008489  0.99888553  0.90524611
   0.34991485  0.49888554  0.40524615
   0.99202546  0.00615448  0.12086884
   0.42604188  0.73485778  0.99373224
   0.63079375  0.98193053  0.74362280
   0.52535431  0.96274036  0.24364947
   0.56774976  0.26183019  0.99343849
   0.92604188  0.76514222  0.99373225
   0.35960899  0.78543892  0.35323114
   0.32540010  0.09410427  0.74387597
   0.68088597  0.99615786  0.04785541
   0.49558249  0.50301333  0.86773077
   0.39049258  0.76123357  0.06383996
   0.89049258  0.73876643  0.06383997
   0.34513245  0.77913832  0.74473782
   0.60528733  0.23737034  0.92322437
   0.15163363  0.28151212  0.17134594
   0.00797454  0.99384555  0.62086882
unknown system                          
           1
     6.578102    0.000000   -0.000001
     0.000000   11.049666    0.000000
    -0.000002    0.000000   16.077861
   Pb   N 
    12    72
Direct configuration=    27
   0.15083891  0.62128075  0.90509283
   0.15970478  0.62128348  0.58351229
   0.65970478  0.87871652  0.58351229
   0.93752535  0.14195829  0.74390066
   0.84029512  0.37871660  0.08351234
   0.65083892  0.87871925  0.90509282
   0.34029511  0.12128340  0.08351234
   0.43752535  0.35804171  0.74390066
   0.34916315  0.12128238  0.40509325
   0.56247459  0.64195833  0.24390068
   0.84916314  0.37871762  0.40509325
   0.06247459  0.85804167  0.24390068
   0.65627946  0.22031039  0.31806073
   0.19460049  0.50181735  0.44219192
   0.64049622  0.21429496  0.85334192
   0.99587310  0.99698337  0.86780898
   0.10941372  0.26123027  0.56379952
   0.17455280  0.59432368  0.24396790
   0.69460048  0.99818265  0.44219192
   0.57361705  0.26514950  0.49373829
   0.16295301  0.99844051  0.58407148
   0.81886520  0.49605337  0.54788739
   0.83704711  0.00155951  0.08407154
   0.10518637  0.26265716  0.92328857
   0.89481341  0.73734276  0.42328833
   0.15511733  0.27914663  0.24460638
   0.82544703  0.40567630  0.74396787
   0.85770996  0.71372556  0.13356969
   0.30539922  0.00181737  0.94219190
   0.18113455  0.50394660  0.04788738
   0.07361705  0.23485050  0.49373828
   0.65148750  0.21847515  0.17125242
   0.67455281  0.90567631  0.24396789
   0.15627946  0.27968961  0.31806072
   0.49222316  0.49400091  0.12091958
   0.34372042  0.77968957  0.81806075
   0.84851240  0.71847515  0.67125241
   0.14049622  0.28570504  0.85334192
   0.80539922  0.49818262  0.94219190
   0.31886520  0.00394663  0.54788739
   0.00412674  0.00301667  0.36780904
   0.65511733  0.22085338  0.24460639
   0.66295300  0.50155949  0.58407148
   0.35770996  0.78627444  0.13356968
   0.86922750  0.48199045  0.24363247
   0.84953880  0.00110025  0.40524394
   0.36922750  0.01800955  0.24363248
   0.13077238  0.51800950  0.74363250
   0.47471133  0.03734916  0.74370036
   0.02528862  0.53734918  0.24370037
   0.50412674  0.49698332  0.36780904
   0.85950373  0.71429502  0.35334202
   0.97471133  0.46265084  0.74370036
   0.60941372  0.23876974  0.56379953
   0.14228998  0.28627447  0.63356978
   0.65046140  0.50110025  0.90524402
   0.33704710  0.49844049  0.08407154
   0.84488256  0.72085339  0.74460646
   0.64228998  0.21372553  0.63356979
   0.06743206  0.23794654  0.99341025
   0.93256788  0.76205348  0.49341034
   0.34851240  0.78152485  0.67125240
   0.50777663  0.50599906  0.62091961
   0.43256788  0.73794652  0.49341033
   0.84372042  0.72031043  0.81806076
   0.39481341  0.76265724  0.42328833
   0.15046140  0.99889975  0.90524403
   0.34953880  0.49889975  0.40524395
   0.99222317  0.00599909  0.12091958
   0.42638293  0.73485052  0.99373817
   0.63077238  0.98199050  0.74363249
   0.52528862  0.96265082  0.24370037
   0.56743206  0.26205346  0.99341025
   0.92638292  0.76514948  0.99373818
   0.35950373  0.78570498  0.35334201
   0.32544702  0.09432370  0.74396788
   0.68113456  0.99605340  0.04788738
   0.49587309  0.50301663  0.86780898
   0.39058607  0.76123031  0.06379968
   0.89058607  0.73876969  0.06379969
   0.34488256  0.77914661  0.74460645
   0.60518637  0.23734284  0.92328857
   0.15148750  0.28152485  0.17125241
   0.00777664  0.99400094  0.62091961
unknown system                          
           1
     6.579623   -0.000000   -0.000001
     0.000000   11.049233    0.000000
    -0.000003    0.000000   16.090169
   Pb   N 
    12    72
Direct configuration=    28
   0.15141578  0.62115886  0.90509227
   0.15940636  0.62075840  0.58348409
   0.65940636  0.87924160  0.58348409
   0.93767364  0.14214061  0.74394066
   0.84059346  0.37924171  0.08348417
   0.65141579  0.87884114  0.90509227
   0.34059346  0.12075829  0.08348417
   0.43767364  0.35785939  0.74394066
   0.34858729  0.12116098  0.40509290
   0.56232625  0.64214069  0.24394069
   0.84858728  0.37883902  0.40509290
   0.06232625  0.85785931  0.24394069
   0.65666267  0.21960508  0.31779832
   0.19363964  0.50161689  0.44203898
   0.64070687  0.21376267  0.85356316
   0.99645423  0.99697677  0.86796533
   0.10922636  0.26122351  0.56371831
   0.17445874  0.59476248  0.24415166
   0.69363963  0.99838311  0.44203897
   0.57293517  0.26516394  0.49375048
   0.16254111  0.99871706  0.58418843
   0.81836763  0.49584446  0.54795140
   0.83745970  0.00128299  0.08418865
   0.10498446  0.26271216  0.92341692
   0.89501485  0.73728749  0.42341587
   0.15561699  0.27916323  0.24434360
   0.82554086  0.40523744  0.74415161
   0.85767266  0.71379750  0.13345951
   0.30635957  0.00161692  0.94203885
   0.18163167  0.50415552  0.04795129
   0.07293517  0.23483606  0.49375047
   0.65119527  0.21844970  0.17106544
   0.67445875  0.90523752  0.24415165
   0.15666267  0.28039492  0.31779831
   0.49261853  0.49431170  0.12102102
   0.34333715  0.78039487  0.81779828
   0.84880458  0.71844969  0.67106536
   0.14070687  0.28623733  0.85356315
   0.80635957  0.49838308  0.94203884
   0.31836763  0.00415555  0.54795140
   0.00354512  0.00302330  0.36796553
   0.65561700  0.22083678  0.24434361
   0.66254110  0.50128294  0.58418842
   0.35767266  0.78620250  0.13345950
   0.86927008  0.48211031  0.24365185
   0.84878678  0.00107181  0.40523954
   0.36927009  0.01788968  0.24365186
   0.13072965  0.51788956  0.74365188
   0.47484290  0.03752816  0.74380212
   0.02515726  0.53752826  0.24380214
   0.50354511  0.49697670  0.36796553
   0.85929325  0.71376287  0.35356367
   0.97484290  0.46247184  0.74380212
   0.60922636  0.23877650  0.56371832
   0.14232742  0.28620267  0.63345998
   0.65121432  0.50107180  0.90523985
   0.33745970  0.49871701  0.08418865
   0.84438283  0.72083680  0.74434382
   0.64232741  0.21379733  0.63346000
   0.06679674  0.23750000  0.99335380
   0.93320334  0.76250014  0.49335428
   0.34880458  0.78155031  0.67106535
   0.50738088  0.50568826  0.62102114
   0.43320334  0.73749986  0.49335428
   0.84333715  0.71960513  0.81779829
   0.39501485  0.76271251  0.42341586
   0.15121431  0.99892819  0.90523985
   0.34878677  0.49892818  0.40523955
   0.99261853  0.00568831  0.12102101
   0.42706494  0.73483600  0.99375001
   0.63072965  0.98211044  0.74365187
   0.52515724  0.96247174  0.24380214
   0.56679674  0.26250000  0.99335380
   0.92706493  0.76516400  0.99375002
   0.35929325  0.78623713  0.35356367
   0.32554086  0.09476256  0.74415162
   0.68163168  0.99584449  0.04795129
   0.49645423  0.50302322  0.86796533
   0.39077303  0.76122379  0.06371916
   0.89077303  0.73877621  0.06371916
   0.34438283  0.77916320  0.74434382
   0.60498446  0.23728784  0.92341693
   0.15119527  0.28155030  0.17106543
   0.00738088  0.99431174  0.62102114
unknown system                          
           1
     6.579570   -0.000000   -0.000001
     0.000000   11.048477    0.000000
    -0.000003    0.000000   16.094747
   Pb   N 
    12    72
Direct configuration=    29
   0.15165513  0.62110571  0.90508315
   0.15928665  0.62055240  0.58347273
   0.65928664  0.87944760  0.58347273
   0.93771763  0.14222725  0.74395821
   0.84071320  0.37944776  0.08347282
   0.65165513  0.87889429  0.90508315
   0.34071319  0.12055224  0.08347282
   0.43771762  0.35777275  0.74395821
   0.34834834  0.12110794  0.40508384
   0.56228229  0.64222732  0.24395825
   0.84834834  0.37889206  0.40508384
   0.06228229  0.85777268  0.24395825
   0.65683955  0.21932181  0.31768152
   0.19322506  0.50154728  0.44198229
   0.64078454  0.21355082  0.85367097
   0.99666681  0.99696753  0.86801878
   0.10914467  0.26122927  0.56369377
   0.17434390  0.59492624  0.24422913
   0.69322506  0.99845272  0.44198229
   0.57263279  0.26517410  0.49373958
   0.16238894  0.99882802  0.58422710
   0.81818682  0.49575724  0.54797278
   0.83761082  0.00117201  0.08422709
   0.10491955  0.26274651  0.92344073
   0.89508032  0.73725351  0.42344079
   0.15578446  0.27919191  0.24428178
   0.82565590  0.40507376  0.74422908
   0.85764800  0.71382255  0.13341613
   0.30677476  0.00154734  0.94198233
   0.18181294  0.50424270  0.04797280
   0.07263279  0.23482591  0.49373957
   0.65110047  0.21845613  0.17094847
   0.67434390  0.90507376  0.24422912
   0.15683955  0.28067819  0.31768151
   0.49282772  0.49443396  0.12107053
   0.34316025  0.78067812  0.81768157
   0.84889936  0.71845612  0.67094850
   0.14078453  0.28644919  0.85367096
   0.80677477  0.49845266  0.94198232
   0.31818683  0.00424277  0.54797278
   0.00333314  0.00303256  0.36801884
   0.65578447  0.22080809  0.24428179
   0.66238893  0.50117198  0.58422710
   0.35764800  0.78617745  0.13341612
   0.86914472  0.48211495  0.24365712
   0.84844497  0.00106731  0.40524700
   0.36914473  0.01788505  0.24365713
   0.13085515  0.51788498  0.74365717
   0.47470409  0.03767717  0.74384378
   0.02529567  0.53767714  0.24384380
   0.50333313  0.49696744  0.36801884
   0.85921526  0.71355083  0.35367089
   0.97470409  0.46232283  0.74384379
   0.60914466  0.23877073  0.56369378
   0.14235182  0.28617744  0.63341610
   0.65155484  0.50106731  0.90524701
   0.33761081  0.49882799  0.08422709
   0.84421534  0.72080812  0.74428182
   0.64235181  0.21382256  0.63341611
   0.06651755  0.23730918  0.99336201
   0.93348223  0.76269078  0.49336198
   0.34889936  0.78154388  0.67094849
   0.50717221  0.50556599  0.62107052
   0.43348223  0.73730922  0.49336198
   0.84316025  0.71932188  0.81768158
   0.39508032  0.76274648  0.42344079
   0.15155483  0.99893269  0.90524701
   0.34844498  0.49893269  0.40524700
   0.99282772  0.00556604  0.12107053
   0.42736708  0.73482603  0.99373955
   0.63085515  0.98211502  0.74365715
   0.52529567  0.96232286  0.24384381
   0.56651755  0.26269082  0.99336202
   0.92736708  0.76517397  0.99373956
   0.35921526  0.78644917  0.35367089
   0.32565590  0.09492624  0.74422909
   0.68181295  0.99575730  0.04797280
   0.49666680  0.50303247  0.86801878
   0.39085507  0.76122919  0.06369369
   0.89085507  0.73877081  0.06369370
   0.34421535  0.77919188  0.74428181
   0.60491955  0.23725349  0.92344073
   0.15110047  0.28154387  0.17094846
   0.00717221  0.99443402  0.62107052
unknown system                          
           1
     6.579564   -0.000000   -0.000001
     0.000000   11.048383    0.000000
    -0.000003    0.000000   16.095316
   Pb   N 
    12    72
Direct configuration=    30
   0.15168489  0.62109910  0.90508202
   0.15927176  0.62052678  0.58347132
   0.65927176  0.87947322  0.58347132
   0.93772309  0.14223802  0.74396039
   0.84072808  0.37947338  0.08347141
   0.65168489  0.87890090  0.90508202
   0.34072808  0.12052662  0.08347141
   0.43772309  0.35776197  0.74396039
   0.34831863  0.12110134  0.40508272
   0.56227683  0.64223809  0.24396043
   0.84831863  0.37889866  0.40508271
   0.06227683  0.85776190  0.24396043
   0.65686155  0.21928659  0.31766700
   0.19317352  0.50153862  0.44197525
   0.64079419  0.21352448  0.85368437
   0.99669324  0.99696638  0.86802542
   0.10913451  0.26122999  0.56369072
   0.17432962  0.59494660  0.24423875
   0.69317352  0.99846137  0.44197524
   0.57259520  0.26517536  0.49373823
   0.16237002  0.99884182  0.58423191
   0.81816434  0.49574639  0.54797543
   0.83762961  0.00115822  0.08423186
   0.10491148  0.26275079  0.92344369
   0.89508846  0.73724929  0.42344389
   0.15580528  0.27919548  0.24427410
   0.82567021  0.40505341  0.74423871
   0.85764494  0.71382566  0.13341074
   0.30682638  0.00153869  0.94197530
   0.18183548  0.50425354  0.04797547
   0.07259520  0.23482464  0.49373822
   0.65108869  0.21845693  0.17093393
   0.67432962  0.90505339  0.24423874
   0.15686154  0.28071341  0.31766699
   0.49285372  0.49444916  0.12107668
   0.34313826  0.78071334  0.81766706
   0.84891114  0.71845692  0.67093398
   0.14079419  0.28647553  0.85368436
   0.80682639  0.49846131  0.94197530
   0.31816435  0.00425361  0.54797544
   0.00330678  0.00303371  0.36802547
   0.65580529  0.22080452  0.24427411
   0.66237001  0.50115819  0.58423191
   0.35764493  0.78617433  0.13341073
   0.86912914  0.48211552  0.24365778
   0.84840248  0.00106675  0.40524792
   0.36912914  0.01788448  0.24365779
   0.13087075  0.51788441  0.74365782
   0.47468683  0.03769570  0.74384896
   0.02531288  0.53769565  0.24384898
   0.50330678  0.49696629  0.36802547
   0.85920556  0.71352447  0.35368422
   0.97468683  0.46230430  0.74384896
   0.60913451  0.23877002  0.56369074
   0.14235485  0.28617431  0.63341065
   0.65159718  0.50106675  0.90524790
   0.33762960  0.49884179  0.08423187
   0.84419452  0.72080455  0.74427412
   0.64235485  0.21382569  0.63341066
   0.06648284  0.23728545  0.99336304
   0.93351691  0.76271448  0.49336294
   0.34891114  0.78154308  0.67093397
   0.50714626  0.50555078  0.62107666
   0.43351690  0.73728552  0.49336293
   0.84313825  0.71928666  0.81766707
   0.39508846  0.76275071  0.42344388
   0.15159717  0.99893325  0.90524790
   0.34840249  0.49893325  0.40524793
   0.99285373  0.00555084  0.12107668
   0.42740465  0.73482479  0.99373825
   0.63087075  0.98211559  0.74365781
   0.52531288  0.96230435  0.24384898
   0.56648283  0.26271455  0.99336304
   0.92740464  0.76517521  0.99373826
   0.35920557  0.78647553  0.35368422
   0.32567021  0.09494659  0.74423872
   0.68183548  0.99574646  0.04797547
   0.49669323  0.50303362  0.86802542
   0.39086527  0.76122986  0.06369053
   0.89086527  0.73877014  0.06369054
   0.34419452  0.77919545  0.74427411
   0.60491148  0.23724921  0.92344369
   0.15108869  0.28154307  0.17093392
   0.00714627  0.99444922  0.62107666
unknown system                          
           1
     6.578551   -0.000000   -0.000001
     0.000000   11.047492    0.000000
    -0.000003    0.000000   16.094563
   Pb   N 
    12    72
Direct configuration=    31
   0.15174221  0.62108598  0.90506947
   0.15925009  0.62049929  0.58347112
   0.65925009  0.87950071  0.58347112
   0.93770821  0.14226469  0.74396624
   0.84074975  0.37950088  0.08347122
   0.65174221  0.87891403  0.90506947
   0.34074974  0.12049912  0.08347122
   0.43770821  0.35773531  0.74396624
   0.34826131  0.12108815  0.40507015
   0.56229171  0.64226477  0.24396628
   0.84826131  0.37891185  0.40507015
   0.06229171  0.85773523  0.24396628
   0.65692644  0.21923595  0.31764725
   0.19306339  0.50153812  0.44196918
   0.64080795  0.21348207  0.85371341
   0.99674565  0.99696100  0.86803243
   0.10910071  0.26123428  0.56368206
   0.17431958  0.59499970  0.24425784
   0.69306339  0.99846187  0.44196917
   0.57251555  0.26517602  0.49373335
   0.16232609  0.99886242  0.58423696
   0.81813994  0.49572537  0.54797644
   0.83767362  0.00113763  0.08423693
   0.10489345  0.26275461  0.92346164
   0.89510644  0.73724543  0.42346175
   0.15579123  0.27923289  0.24425227
   0.82568022  0.40500030  0.74425779
   0.85762905  0.71382723  0.13340013
   0.30693648  0.00153819  0.94196922
   0.18185984  0.50427456  0.04797647
   0.07251554  0.23482398  0.49373335
   0.65110222  0.21848171  0.17090720
   0.67431958  0.90500030  0.24425783
   0.15692643  0.28076405  0.31764725
   0.49290947  0.49447349  0.12108839
   0.34307338  0.78076398  0.81764730
   0.84889762  0.71848170  0.67090725
   0.14080795  0.28651793  0.85371341
   0.80693648  0.49846181  0.94196922
   0.31813994  0.00427463  0.54797644
   0.00325432  0.00303909  0.36803249
   0.65579124  0.22076711  0.24425228
   0.66232609  0.50113759  0.58423696
   0.35762905  0.78617277  0.13340012
   0.86909726  0.48212195  0.24365679
   0.84832696  0.00107719  0.40525018
   0.36909727  0.01787805  0.24365680
   0.13090261  0.51787797  0.74365683
   0.47470123  0.03771947  0.74385760
   0.02529851  0.53771943  0.24385762
   0.50325431  0.49696091  0.36803250
   0.85919183  0.71348209  0.35371332
   0.97470123  0.46228053  0.74385761
   0.60910071  0.23876572  0.56368207
   0.14237074  0.28617275  0.63340006
   0.65167280  0.50107719  0.90525018
   0.33767362  0.49886238  0.08423694
   0.84420856  0.72076714  0.74425230
   0.64237074  0.21382725  0.63340007
   0.06641991  0.23724764  0.99336765
   0.93357986  0.76275231  0.49336760
   0.34889762  0.78151830  0.67090724
   0.50709047  0.50552645  0.62108837
   0.43357985  0.73724769  0.49336759
   0.84307337  0.71923602  0.81764731
   0.39510644  0.76275457  0.42346174
   0.15167279  0.99892281  0.90525018
   0.34832697  0.49892281  0.40525019
   0.99290948  0.00552651  0.12108838
   0.42748431  0.73482413  0.99373336
   0.63090261  0.98212203  0.74365682
   0.52529851  0.96228057  0.24385763
   0.56641990  0.26275236  0.99336766
   0.92748431  0.76517587  0.99373337
   0.35919183  0.78651791  0.35371331
   0.32568022  0.09499970  0.74425780
   0.68185985  0.99572544  0.04797646
   0.49674565  0.50303899  0.86803243
   0.39089905  0.76123416  0.06368189
   0.89089904  0.73876584  0.06368191
   0.34420857  0.77923286  0.74425229
   0.60489345  0.23724539  0.92346164
   0.15110222  0.28151829  0.17090719
   0.00709047  0.99447355  0.62108838
unknown system                          
           1
     6.575514   -0.000000   -0.000001
     0.000000   11.044818    0.000000
    -0.000003    0.000000   16.092303
   Pb   N 
    12    72
Direct configuration=    32
   0.15191419  0.62104660  0.90503184
   0.15918507  0.62041680  0.58347054
   0.65918507  0.87958320  0.58347054
   0.93766357  0.14234470  0.74398379
   0.84081476  0.37958340  0.08347067
   0.65191419  0.87895341  0.90503183
   0.34081475  0.12041660  0.08347067
   0.43766356  0.35765530  0.74398379
   0.34808931  0.12104858  0.40503245
   0.56233637  0.64234479  0.24398382
   0.84808931  0.37895142  0.40503245
   0.06233638  0.85765521  0.24398382
   0.65712114  0.21908403  0.31758802
   0.19273295  0.50153663  0.44195097
   0.64084924  0.21335486  0.85380056
   0.99690292  0.99694488  0.86805344
   0.10899929  0.26124716  0.56365608
   0.17428947  0.59515901  0.24431510
   0.69273295  0.99846337  0.44195097
   0.57227655  0.26517802  0.49371874
   0.16219430  0.99892422  0.58425210
   0.81806670  0.49566230  0.54797945
   0.83780568  0.00107585  0.08425214
   0.10483935  0.26276609  0.92351550
   0.89516038  0.73723385  0.42351533
   0.15574907  0.27934515  0.24418677
   0.82571027  0.40484097  0.74431505
   0.85758138  0.71383192  0.13336830
   0.30726680  0.00153669  0.94195099
   0.18193294  0.50433763  0.04797944
   0.07227654  0.23482198  0.49371873
   0.65114281  0.21855606  0.17082701
   0.67428947  0.90484098  0.24431509
   0.15712114  0.28091597  0.31758801
   0.49307675  0.49454648  0.12112350
   0.34287869  0.78091589  0.81758804
   0.84885703  0.71855604  0.67082704
   0.14084924  0.28664515  0.85380055
   0.80726681  0.49846331  0.94195098
   0.31806670  0.00433771  0.54797945
   0.00309689  0.00305523  0.36805357
   0.65574908  0.22065485  0.24418678
   0.66219430  0.50107579  0.58425209
   0.35758138  0.78616808  0.13336829
   0.86900163  0.48214124  0.24365381
   0.84810037  0.00110852  0.40525694
   0.36900164  0.01785876  0.24365382
   0.13099820  0.51785864  0.74365385
   0.47474446  0.03779080  0.74388353
   0.02525539  0.53779078  0.24388355
   0.50309689  0.49694476  0.36805357
   0.85915063  0.71335493  0.35380061
   0.97474445  0.46220920  0.74388353
   0.60899929  0.23875284  0.56365609
   0.14241843  0.28616809  0.63336830
   0.65189970  0.50110850  0.90525702
   0.33780568  0.49892415  0.08425214
   0.84425071  0.72065490  0.74418686
   0.64241843  0.21383191  0.63336831
   0.06623109  0.23713419  0.99338150
   0.93376874  0.76286580  0.49338159
   0.34885703  0.78144396  0.67082703
   0.50692307  0.50545346  0.62112352
   0.43376873  0.73713420  0.49338158
   0.84287868  0.71908411  0.81758805
   0.39516038  0.76276615  0.42351533
   0.15189970  0.99889149  0.90525702
   0.34810038  0.49889148  0.40525695
   0.99307676  0.00545352  0.12112350
   0.42772335  0.73482216  0.99371870
   0.63099820  0.98214136  0.74365384
   0.52525539  0.96220922  0.24388355
   0.56623109  0.26286580  0.99338151
   0.92772334  0.76517784  0.99371871
   0.35915063  0.78664507  0.35380060
   0.32571027  0.09515903  0.74431505
   0.68193295  0.99566238  0.04797943
   0.49690292  0.50305512  0.86805344
   0.39100038  0.76124706  0.06365599
   0.89100037  0.73875294  0.06365601
   0.34425071  0.77934510  0.74418685
   0.60483935  0.23723391  0.92351551
   0.15114281  0.28144394  0.17082700
   0.00692307  0.99454654  0.62112353
unknown system                          
           1
     6.569439   -0.000000   -0.000001
     0.000000   11.039471    0.000000
    -0.000002    0.000000   16.087784
   Pb   N 
    12    72
Direct configuration=    33
   0.15225832  0.62096781  0.90495655
   0.15905498  0.62025178  0.58346938
   0.65905498  0.87974822  0.58346938
   0.93757423  0.14250476  0.74401888
   0.84094484  0.37974848  0.08346956
   0.65225832  0.87903219  0.90495655
   0.34094483  0.12025152  0.08346956
   0.43757423  0.35749524  0.74401888
   0.34774517  0.12096943  0.40495705
   0.56242574  0.64250487  0.24401890
   0.84774516  0.37903057  0.40495705
   0.06242574  0.85749513  0.24401890
   0.65751073  0.21878011  0.31746955
   0.19207177  0.50153363  0.44191456
   0.64093185  0.21310036  0.85397487
   0.99721760  0.99691263  0.86809548
   0.10879635  0.26127292  0.56360410
   0.17422921  0.59547771  0.24442963
   0.69207176  0.99846636  0.44191456
   0.57179833  0.26518201  0.49368951
   0.16193060  0.99904785  0.58428238
   0.81792015  0.49553612  0.54798547
   0.83806992  0.00095228  0.08428256
   0.10473110  0.26278905  0.92362324
   0.89526831  0.73721069  0.42362251
   0.15566471  0.27956971  0.24405575
   0.82577039  0.40452223  0.74442957
   0.85748601  0.71384130  0.13330462
   0.30792776  0.00153369  0.94191451
   0.18207922  0.50446379  0.04798538
   0.07179833  0.23481799  0.49368950
   0.65122403  0.21870480  0.17066661
   0.67422922  0.90452228  0.24442962
   0.15751072  0.28121989  0.31746953
   0.49341146  0.49469250  0.12119375
   0.34248914  0.78121980  0.81746949
   0.84877583  0.71870476  0.67066660
   0.14093185  0.28689964  0.85397487
   0.80792777  0.49846630  0.94191451
   0.31792016  0.00446389  0.54798547
   0.00278191  0.00308753  0.36809573
   0.65566472  0.22043029  0.24405576
   0.66193059  0.50095216  0.58428238
   0.35748600  0.78615870  0.13330461
   0.86881028  0.48217981  0.24364785
   0.84764698  0.00117120  0.40527047
   0.36881028  0.01782018  0.24364786
   0.13118947  0.51781999  0.74364789
   0.47483094  0.03793348  0.74393540
   0.02516911  0.53793353  0.24393541
   0.50278190  0.49691247  0.36809573
   0.85906817  0.71310055  0.35397522
   0.97483093  0.46206652  0.74393540
   0.60879635  0.23872708  0.56360411
   0.14251384  0.28615877  0.63330476
   0.65235372  0.50117115  0.90527069
   0.33806992  0.49904773  0.08428256
   0.84433503  0.72043036  0.74405595
   0.64251384  0.21384123  0.63330477
   0.06585328  0.23690725  0.99340920
   0.93414667  0.76309284  0.49340957
   0.34877583  0.78129525  0.67066659
   0.50658811  0.50530744  0.62119383
   0.43414667  0.73690716  0.49340956
   0.84248913  0.71878020  0.81746949
   0.39526831  0.76278931  0.42362250
   0.15235372  0.99882885  0.90527070
   0.34764699  0.49882880  0.40527048
   0.99341147  0.00530751  0.12119374
   0.42820164  0.73481821  0.99368938
   0.63118947  0.98218001  0.74364788
   0.52516911  0.96206647  0.24393542
   0.56585328  0.26309275  0.99340921
   0.92820163  0.76518179  0.99368939
   0.35906818  0.78689945  0.35397521
   0.32577039  0.09547777  0.74442958
   0.68207922  0.99553621  0.04798538
   0.49721760  0.50308737  0.86809547
   0.39120313  0.76127287  0.06360419
   0.89120313  0.73872713  0.06360420
   0.34433503  0.77956964  0.74405594
   0.60473110  0.23721095  0.92362325
   0.15122403  0.28129520  0.17066660
   0.00658811  0.99469257  0.62119383
unknown system                          
           1
     6.557289   -0.000000   -0.000001
    -0.000000   11.028777    0.000000
    -0.000001    0.000000   16.078746
   Pb   N 
    12    72
Direct configuration=    34
   0.15294721  0.62081018  0.90480594
   0.15879455  0.61992157  0.58346706
   0.65879455  0.88007842  0.58346706
   0.93739539  0.14282504  0.74408909
   0.84120524  0.38007880  0.08346733
   0.65294721  0.87918983  0.90480594
   0.34120523  0.11992119  0.08346733
   0.43739539  0.35717496  0.74408909
   0.34705624  0.12081104  0.40480620
   0.56260464  0.64282519  0.24408910
   0.84705623  0.37918897  0.40480620
   0.06260464  0.85717481  0.24408910
   0.65829062  0.21817197  0.31723252
   0.19074818  0.50152764  0.44184172
   0.64109723  0.21259112  0.85432360
   0.99784755  0.99684809  0.86817957
   0.10839010  0.26132448  0.56350012
   0.17410859  0.59611542  0.24465876
   0.69074817  0.99847236  0.44184172
   0.57084101  0.26519000  0.49363103
   0.16140271  0.99929523  0.58434297
   0.81762679  0.49528364  0.54799752
   0.83859890  0.00070500  0.08434341
   0.10451441  0.26283499  0.92383878
   0.89548436  0.73716434  0.42383692
   0.15549584  0.28001906  0.24379364
   0.82589074  0.40388444  0.74465868
   0.85729508  0.71386007  0.13317724
   0.30925090  0.00152770  0.94184154
   0.18237203  0.50471625  0.04799728
   0.07084100  0.23481000  0.49363102
   0.65138662  0.21900241  0.17034570
   0.67410860  0.90388457  0.24465876
   0.15829061  0.28182803  0.31723251
   0.49408151  0.49498467  0.12133427
   0.34170932  0.78182791  0.81723232
   0.84861327  0.71900233  0.67034564
   0.14109722  0.28740888  0.85432359
   0.80925091  0.49847229  0.94184154
   0.31762680  0.00471637  0.54799752
   0.00215134  0.00315215  0.36818008
   0.65549584  0.21998094  0.24379364
   0.66140270  0.50070478  0.58434296
   0.35729508  0.78613993  0.13317723
   0.86842721  0.48225701  0.24363592
   0.84673937  0.00129661  0.40529754
   0.36842722  0.01774299  0.24363593
   0.13157236  0.51774264  0.74363597
   0.47500406  0.03821898  0.74403915
   0.02499640  0.53821915  0.24403917
   0.50215135  0.49684785  0.36818008
   0.85890312  0.71259155  0.35432453
   0.97500406  0.46178102  0.74403916
   0.60839010  0.23867553  0.56350013
   0.14270485  0.28614012  0.63317766
   0.65326260  0.50129649  0.90529806
   0.33859889  0.49929500  0.08434342
   0.84450383  0.71998106  0.74379405
   0.64270485  0.21385988  0.63317767
   0.06509696  0.23645314  0.99346462
   0.93490324  0.76354713  0.49346555
   0.34861327  0.78099767  0.67034563
   0.50591757  0.50501525  0.62133448
   0.43490323  0.73645287  0.49346554
   0.84170931  0.71817209  0.81723232
   0.39548436  0.76283566  0.42383692
   0.15326260  0.99870350  0.90529807
   0.34673937  0.49870338  0.40529754
   0.99408151  0.00501534  0.12133426
   0.42915910  0.73481032  0.99363071
   0.63157235  0.98225736  0.74363596
   0.52499638  0.96178085  0.24403917
   0.56509696  0.26354686  0.99346463
   0.92915909  0.76518969  0.99363072
   0.35890313  0.78740845  0.35432453
   0.32589074  0.09611556  0.74465869
   0.68237204  0.99528375  0.04799727
   0.49784756  0.50315191  0.86817957
   0.39160901  0.76132451  0.06350055
   0.89160901  0.73867549  0.06350055
   0.34450384  0.78001894  0.74379405
   0.60451440  0.23716501  0.92383878
   0.15138661  0.28099759  0.17034570
   0.00591756  0.99498475  0.62133448
unknown system                          
           1
     6.555799    0.000000   -0.000001
     0.000000   11.027503    0.000000
    -0.000002    0.000000   16.079123
   Pb   N 
    12    72
Direct configuration=    35
   0.15303915  0.62078974  0.90478085
   0.15875887  0.61988841  0.58346788
   0.65875887  0.88011159  0.58346788
   0.93736248  0.14287464  0.74410075
   0.84124096  0.38011200  0.08346817
   0.65303916  0.87921026  0.90478085
   0.34124095  0.11988800  0.08346817
   0.43736248  0.35712536  0.74410075
   0.34696430  0.12079050  0.40478109
   0.56263759  0.64287478  0.24410074
   0.84696429  0.37920950  0.40478109
   0.06263759  0.85712521  0.24410074
   0.65838516  0.21808592  0.31720409
   0.19055184  0.50153327  0.44183989
   0.64113517  0.21251335  0.85434120
   0.99790634  0.99683640  0.86818051
   0.10832597  0.26132901  0.56348039
   0.17406084  0.59619091  0.24468912
   0.69055184  0.99846672  0.44183989
   0.57069789  0.26519519  0.49361054
   0.16134755  0.99932728  0.58434649
   0.81759185  0.49524912  0.54799532
   0.83865289  0.00067293  0.08434666
   0.10448089  0.26283712  0.92387532
   0.89551853  0.73716265  0.42387469
   0.15549253  0.28007374  0.24375342
   0.82593873  0.40380904  0.74468904
   0.85725820  0.71385227  0.13317517
   0.30944785  0.00153335  0.94183987
   0.18240756  0.50475073  0.04799523
   0.07069788  0.23480481  0.49361053
   0.65140046  0.21903856  0.17030716
   0.67406084  0.90380908  0.24468912
   0.15838516  0.28191407  0.31720407
   0.49418825  0.49502183  0.12135771
   0.34161475  0.78191398  0.81720398
   0.84859941  0.71903848  0.67030721
   0.14113517  0.28748665  0.85434120
   0.80944785  0.49846664  0.94183987
   0.31759186  0.00475088  0.54799533
   0.00209327  0.00316384  0.36818086
   0.65549253  0.21992626  0.24375342
   0.66134754  0.50067272  0.58434648
   0.35725820  0.78614773  0.13317516
   0.86841500  0.48228092  0.24363346
   0.84660301  0.00131413  0.40530234
   0.36841501  0.01771908  0.24363347
   0.13158476  0.51771880  0.74363351
   0.47504457  0.03825699  0.74405272
   0.02495545  0.53825699  0.24405273
   0.50209327  0.49683615  0.36818086
   0.85886483  0.71251357  0.35434149
   0.97504456  0.46174301  0.74405272
   0.60832597  0.23867100  0.56348040
   0.14274161  0.28614785  0.63317537
   0.65339763  0.50131402  0.90530254
   0.33865289  0.49932708  0.08434667
   0.84450715  0.71992639  0.74375358
   0.64274161  0.21385215  0.63317538
   0.06497987  0.23638285  0.99350296
   0.93502000  0.76361720  0.49350331
   0.34859942  0.78096153  0.67030720
   0.50581137  0.50497807  0.62135779
   0.43501999  0.73638280  0.49350331
   0.84161477  0.71808605  0.81720403
   0.39551853  0.76283735  0.42387469
   0.15339763  0.99868597  0.90530255
   0.34660301  0.49868587  0.40530234
   0.99418825  0.00497817  0.12135770
   0.42930214  0.73480520  0.99361038
   0.63158476  0.98228120  0.74363350
   0.52495544  0.96174301  0.24405274
   0.56497987  0.26361715  0.99350296
   0.92930213  0.76519480  0.99361039
   0.35886484  0.78748643  0.35434149
   0.32593874  0.09619096  0.74468905
   0.68240757  0.99524927  0.04799522
   0.49790635  0.50316360  0.86818051
   0.39167332  0.76132891  0.06348043
   0.89167332  0.73867109  0.06348044
   0.34450715  0.78007361  0.74375357
   0.60448089  0.23716288  0.92387532
   0.15140046  0.28096144  0.17030716
   0.00581137  0.99502193  0.62135779
unknown system                          
           1
     6.552423    0.000000   -0.000001
     0.000000   11.024612    0.000000
    -0.000002    0.000000   16.079978
   Pb   N 
    12    72
Direct configuration=    36
   0.15324769  0.62074341  0.90472395
   0.15867795  0.61981319  0.58346975
   0.65867795  0.88018681  0.58346975
   0.93728783  0.14298713  0.74412717
   0.84132197  0.38018728  0.08347008
   0.65324769  0.87925659  0.90472395
   0.34132197  0.11981271  0.08347008
   0.43728783  0.35701287  0.74412717
   0.34675578  0.12074393  0.40472417
   0.56271232  0.64298724  0.24412713
   0.84675578  0.37925607  0.40472417
   0.06271232  0.85701275  0.24412713
   0.65859959  0.21789080  0.31713961
   0.19010655  0.50154605  0.44183576
   0.64122124  0.21233699  0.85438111
   0.99803968  0.99680989  0.86818266
   0.10818052  0.26133928  0.56343565
   0.17395253  0.59636212  0.24475798
   0.69010655  0.99845395  0.44183575
   0.57037328  0.26520694  0.49356408
   0.16122246  0.99939997  0.58435448
   0.81751259  0.49517084  0.54799035
   0.83877535  0.00060018  0.08435404
   0.10440488  0.26284195  0.92395816
   0.89559603  0.73715881  0.42396033
   0.15548502  0.28019775  0.24366222
   0.82604759  0.40363805  0.74475788
   0.85717456  0.71383458  0.13317046
   0.30989451  0.00154617  0.94183607
   0.18248814  0.50482893  0.04799058
   0.07037327  0.23479306  0.49356407
   0.65143187  0.21912053  0.17021977
   0.67395252  0.90363788  0.24475798
   0.15859958  0.28210920  0.31713960
   0.49443034  0.49510611  0.12141086
   0.34140027  0.78210916  0.81713971
   0.84856799  0.71912044  0.67022007
   0.14122123  0.28766301  0.85438111
   0.80989451  0.49845382  0.94183607
   0.31751260  0.00482916  0.54799036
   0.00196155  0.00319037  0.36818263
   0.65548502  0.21980225  0.24366223
   0.66122246  0.50060004  0.58435447
   0.35717456  0.78616541  0.13317045
   0.86838730  0.48233515  0.24362787
   0.84629374  0.00135385  0.40531322
   0.36838730  0.01766485  0.24362788
   0.13161288  0.51766472  0.74362794
   0.47513643  0.03834318  0.74408348
   0.02486257  0.53834281  0.24408349
   0.50196156  0.49680963  0.36818263
   0.85877800  0.71233671  0.35437994
   0.97513644  0.46165682  0.74408348
   0.60818052  0.23866072  0.56343566
   0.14282498  0.28616539  0.63317018
   0.65370389  0.50135376  0.90531270
   0.33877534  0.49939982  0.08435405
   0.84451468  0.71980239  0.74366181
   0.64282497  0.21383461  0.63317019
   0.06471431  0.23622346  0.99358989
   0.93528481  0.76377611  0.49358894
   0.34856799  0.78087956  0.67022007
   0.50557053  0.50489376  0.62141064
   0.43528481  0.73622389  0.49358894
   0.84140035  0.71789093  0.81713986
   0.39559603  0.76284119  0.42396033
   0.15370388  0.99864623  0.90531271
   0.34629374  0.49864614  0.40531322
   0.99443034  0.00489389  0.12141086
   0.42962656  0.73479361  0.99356428
   0.63161288  0.98233528  0.74362793
   0.52486259  0.96165718  0.24408349
   0.56471431  0.26377654  0.99358989
   0.92962655  0.76520639  0.99356429
   0.35877801  0.78766328  0.35437994
   0.32604760  0.09636195  0.74475788
   0.68248815  0.99517107  0.04799057
   0.49803968  0.50319011  0.86818265
   0.39181919  0.76133888  0.06343483
   0.89181919  0.73866112  0.06343484
   0.34451468  0.78019761  0.74366181
   0.60440488  0.23715804  0.92395817
   0.15143187  0.28087947  0.17021976
   0.00557053  0.99510624  0.62141064
unknown system                          
           1
     6.552343    0.000000   -0.000001
     0.000000   11.024737    0.000000
    -0.000002    0.000000   16.080442
   Pb   N 
    12    72
Direct configuration=    37
   0.15326512  0.62074078  0.90471124
   0.15867051  0.61982061  0.58347211
   0.65867051  0.88017938  0.58347211
   0.93727454  0.14300713  0.74413250
   0.84132935  0.38017981  0.08347241
   0.65326512  0.87925922  0.90471124
   0.34132935  0.11982018  0.08347241
   0.43727454  0.35699287  0.74413250
   0.34673821  0.12074126  0.40471142
   0.56272557  0.64300726  0.24413248
   0.84673821  0.37925874  0.40471142
   0.06272557  0.85699274  0.24413248
   0.65859806  0.21786485  0.31712026
   0.19006171  0.50155579  0.44184231
   0.64122554  0.21232421  0.85439095
   0.99806388  0.99680301  0.86817921
   0.10816261  0.26134261  0.56344129
   0.17390911  0.59636664  0.24476334
   0.69006171  0.99844420  0.44184230
   0.57033012  0.26520919  0.49355593
   0.16119363  0.99940435  0.58435870
   0.81750935  0.49516311  0.54798411
   0.83880605  0.00059585  0.08435870
   0.10440079  0.26284260  0.92395703
   0.89559900  0.73715742  0.42395712
   0.15552302  0.28019583  0.24366581
   0.82609059  0.40363336  0.74476326
   0.85716918  0.71382929  0.13315846
   0.30993823  0.00155588  0.94184234
   0.18249050  0.50483671  0.04798411
   0.07033012  0.23479081  0.49355592
   0.65141794  0.21911825  0.17021984
   0.67390911  0.90363335  0.24476334
   0.15859805  0.28213515  0.31712025
   0.49443225  0.49511179  0.12141201
   0.34140181  0.78213512  0.81712019
   0.84858193  0.71911816  0.67021990
   0.14122554  0.28767579  0.85439094
   0.80993823  0.49844411  0.94184234
   0.31750936  0.00483689  0.54798411
   0.00193631  0.00319724  0.36817944
   0.65552302  0.21980417  0.24366582
   0.66119362  0.50059565  0.58435869
   0.35716918  0.78617070  0.13315845
   0.86839911  0.48234344  0.24362609
   0.84627680  0.00135648  0.40530773
   0.36839912  0.01765656  0.24362610
   0.13160079  0.51765632  0.74362615
   0.47513711  0.03836163  0.74408561
   0.02486262  0.53836153  0.24408562
   0.50193631  0.49680275  0.36817944
   0.85877429  0.71232432  0.35439087
   0.97513711  0.46163836  0.74408561
   0.60816261  0.23865739  0.56344130
   0.14283054  0.28617081  0.63315856
   0.65372308  0.50135636  0.90530773
   0.33880605  0.49940415  0.08435871
   0.84447667  0.71980430  0.74366587
   0.64283054  0.21382918  0.63315856
   0.06468457  0.23620547  0.99361316
   0.93531509  0.76379446  0.49361316
   0.34858194  0.78088184  0.67021988
   0.50556770  0.50488810  0.62141200
   0.43531509  0.73620554  0.49361316
   0.84140190  0.71786498  0.81712030
   0.39559900  0.76284257  0.42395712
   0.15372307  0.99864364  0.90530774
   0.34627680  0.49864351  0.40530773
   0.99443226  0.00488821  0.12141200
   0.42966989  0.73479123  0.99355578
   0.63160080  0.98234367  0.74362614
   0.52486263  0.96163847  0.24408562
   0.56468457  0.26379453  0.99361316
   0.92966989  0.76520877  0.99355579
   0.35877429  0.78767568  0.35439087
   0.32609059  0.09636664  0.74476326
   0.68249051  0.99516329  0.04798411
   0.49806389  0.50319698  0.86817921
   0.39183676  0.76134249  0.06344120
   0.89183676  0.73865751  0.06344121
   0.34447667  0.78019570  0.74366582
   0.60440079  0.23715740  0.92395703
   0.15141794  0.28088176  0.17021983
   0.00556770  0.99511190  0.62141201
unknown system                          
           1
     6.552244    0.000000   -0.000001
     0.000000   11.024893    0.000000
    -0.000002    0.000000   16.081017
   Pb   N 
    12    72
Direct configuration=    38
   0.15328672  0.62073752  0.90469549
   0.15866129  0.61982982  0.58347502
   0.65866128  0.88017018  0.58347502
   0.93725807  0.14303191  0.74413911
   0.84133851  0.38017056  0.08347530
   0.65328672  0.87926248  0.90469549
   0.34133850  0.11982944  0.08347530
   0.43725807  0.35696809  0.74413911
   0.34671645  0.12073795  0.40469562
   0.56274197  0.64303207  0.24413910
   0.84671644  0.37926205  0.40469562
   0.06274198  0.85696793  0.24413910
   0.65859616  0.21783269  0.31709628
   0.19000615  0.50156787  0.44185042
   0.64123087  0.21230837  0.85440313
   0.99809388  0.99679449  0.86817494
   0.10814041  0.26134674  0.56344828
   0.17385531  0.59637225  0.24476999
   0.69000614  0.99843212  0.44185042
   0.57027664  0.26521198  0.49354584
   0.16115789  0.99940979  0.58436394
   0.81750534  0.49515353  0.54797637
   0.83884411  0.00059047  0.08436447
   0.10439572  0.26284339  0.92395562
   0.89560269  0.73715571  0.42395314
   0.15557011  0.28019345  0.24367026
   0.82614387  0.40362756  0.74476991
   0.85716251  0.71382274  0.13314358
   0.30999240  0.00156791  0.94185011
   0.18249343  0.50484635  0.04797610
   0.07027664  0.23478802  0.49354583
   0.65140068  0.21911542  0.17021993
   0.67385532  0.90362774  0.24476999
   0.15859616  0.28216731  0.31709628
   0.49443462  0.49511883  0.12141344
   0.34140372  0.78216728  0.81709600
   0.84859922  0.71911533  0.67021968
   0.14123087  0.28769162  0.85440313
   0.80999241  0.49843208  0.94185011
   0.31750534  0.00484647  0.54797638
   0.00190502  0.00320577  0.36817549
   0.65557011  0.21980655  0.24367027
   0.66115788  0.50059021  0.58436393
   0.35716251  0.78617726  0.13314357
   0.86841374  0.48235370  0.24362388
   0.84625581  0.00135974  0.40530092
   0.36841376  0.01764630  0.24362389
   0.13158582  0.51764592  0.74362393
   0.47513795  0.03838450  0.74408825
   0.02486269  0.53838472  0.24408826
   0.50190503  0.49679423  0.36817549
   0.85876969  0.71230895  0.35440442
   0.97513795  0.46161550  0.74408825
   0.60814041  0.23865326  0.56344829
   0.14283744  0.28617753  0.63314415
   0.65374685  0.50135957  0.90530157
   0.33884410  0.49940953  0.08436448
   0.84442957  0.71980667  0.74367089
   0.64283743  0.21382246  0.63314416
   0.06464773  0.23618318  0.99364199
   0.93535261  0.76381719  0.49364317
   0.34859922  0.78088467  0.67021966
   0.50556419  0.50488108  0.62141369
   0.43535260  0.73618281  0.49364317
   0.84140382  0.71783283  0.81709605
   0.39560269  0.76284429  0.42395314
   0.15374686  0.99864042  0.90530158
   0.34625581  0.49864025  0.40530093
   0.99443462  0.00488117  0.12141343
   0.42972359  0.73478828  0.99354525
   0.63158582  0.98235407  0.74362392
   0.52486267  0.96161528  0.24408826
   0.56464772  0.26381682  0.99364199
   0.92972359  0.76521172  0.99354526
   0.35876969  0.78769104  0.35440441
   0.32614387  0.09637244  0.74476991
   0.68249343  0.99515366  0.04797609
   0.49809389  0.50320550  0.86817494
   0.39185853  0.76134696  0.06344908
   0.89185853  0.73865304  0.06344909
   0.34442957  0.78019333  0.74367079
   0.60439572  0.23715661  0.92395563
   0.15140068  0.28088458  0.17021992
   0.00556419  0.99511892  0.62141370
