In2 Se4                                 
   1.00000000000000     
     3.8948930000000002    0.0000000000000000    0.0000000000000000
     0.0000000000000000    3.8948930000000002    0.0000000000000000
     0.0000000000000000    0.0000000000000000    9.6262310000000006
   In   Se
     2     4
Direct
     0.0000000000000000    0.5000000000000000    0.7064680000000010
     0.5000000000000000    0.0000000000000000    0.2935319999999990
     0.0000000000000000    0.5000000000000000    0.3662119999999973
     0.5000000000000000    0.0000000000000000    0.6337880000000027
     0.0000000000000000    0.0000000000000000    0.0000000000000000
     0.5000000000000000    0.5000000000000000    0.0000000000000000
 
  0.00000000E+00  0.00000000E+00  0.00000000E+00
  0.00000000E+00  0.00000000E+00  0.00000000E+00
  0.00000000E+00  0.00000000E+00  0.00000000E+00
  0.00000000E+00  0.00000000E+00  0.00000000E+00
  0.00000000E+00  0.00000000E+00  0.00000000E+00
  0.00000000E+00  0.00000000E+00  0.00000000E+00
