   6   6   0   0
  0.2433863E+02  0.3894893E-09  0.3894893E-09  0.9626231E-09  0.5000000E-15
  1.000000000000000E-004
  CAR 
 unknown system                          
     14.67212836    -11.26540138  301      4.97795049      1.00000000
    -11.265  0.0000E+00  0.0000E+00
    -11.179  0.0000E+00  0.0000E+00
    -11.092  0.0000E+00  0.0000E+00
    -11.006  0.0000E+00  0.0000E+00
    -10.920  0.0000E+00  0.0000E+00
    -10.833  0.0000E+00  0.0000E+00
    -10.747  0.0000E+00  0.0000E+00
    -10.660  0.0000E+00  0.0000E+00
    -10.574  0.0000E+00  0.0000E+00
    -10.487  0.0000E+00  0.0000E+00
    -10.401  0.0000E+00  0.0000E+00
    -10.314  0.1794E-10  0.1551E-11
    -10.228  0.1128E-04  0.9755E-06
    -10.141  0.2463E-01  0.2131E-02
    -10.055  0.3503E+00  0.3242E-01
     -9.969  0.3577E+00  0.6335E-01
     -9.882  0.1470E+01  0.1904E+00
     -9.796  0.9860E+00  0.2757E+00
     -9.709  0.3165E+01  0.5494E+00
     -9.623  0.7487E+01  0.1197E+01
     -9.536  0.1787E+02  0.2742E+01
     -9.450  0.3161E+02  0.5475E+01
     -9.363  0.1075E+03  0.1476E+02
     -9.277  0.6016E+02  0.1997E+02
     -9.190  0.8451E+01  0.2070E+02
     -9.104  0.1826E+01  0.2086E+02
     -9.017  0.2329E-01  0.2086E+02
     -8.931  0.2268E-03  0.2086E+02
     -8.845  0.2067E+00  0.2088E+02
     -8.758  0.1470E+01  0.2100E+02
     -8.672  0.3298E+00  0.2103E+02
     -8.585  0.1450E+01  0.2116E+02
     -8.499  0.2051E+01  0.2133E+02
     -8.412  0.2011E+01  0.2151E+02
     -8.326  0.1819E+00  0.2152E+02
     -8.239  0.7813E+00  0.2159E+02
     -8.153  0.3943E+01  0.2193E+02
     -8.066  0.2627E+01  0.2216E+02
     -7.980  0.7577E+00  0.2222E+02
     -7.894  0.1372E+01  0.2234E+02
     -7.807  0.1758E+01  0.2249E+02
     -7.721  0.4140E+01  0.2285E+02
     -7.634  0.1928E+01  0.2302E+02
     -7.548  0.3870E+01  0.2335E+02
     -7.461  0.6231E+01  0.2389E+02
     -7.375  0.1056E+02  0.2481E+02
     -7.288  0.5206E+01  0.2526E+02
     -7.202  0.5182E+01  0.2570E+02
     -7.115  0.2097E+01  0.2589E+02
     -7.029  0.4128E+01  0.2624E+02
     -6.942  0.2054E+01  0.2642E+02
     -6.856  0.3382E+01  0.2671E+02
     -6.770  0.1976E+01  0.2688E+02
     -6.683  0.2369E+01  0.2709E+02
     -6.597  0.9367E+00  0.2717E+02
     -6.510  0.3185E+01  0.2744E+02
     -6.424  0.2018E+01  0.2762E+02
     -6.337  0.1603E+00  0.2763E+02
     -6.251  0.1256E-03  0.2763E+02
     -6.164  0.3497E-09  0.2763E+02
     -6.078  0.0000E+00  0.2763E+02
     -5.991  0.1271E-08  0.2763E+02
     -5.905  0.2820E-03  0.2763E+02
     -5.819  0.2278E+00  0.2765E+02
     -5.732  0.1469E+01  0.2778E+02
     -5.646  0.1910E+00  0.2780E+02
     -5.559  0.5048E-01  0.2780E+02
     -5.473  0.1264E+01  0.2791E+02
     -5.386  0.5712E+00  0.2796E+02
     -5.300  0.2922E-02  0.2796E+02
     -5.213  0.1240E-04  0.2796E+02
     -5.127  0.2587E-01  0.2796E+02
     -5.040  0.3523E+00  0.2799E+02
     -4.954  0.9365E-01  0.2800E+02
     -4.867  0.2356E-03  0.2800E+02
     -4.781  0.2282E-08  0.2800E+02
     -4.695  0.1048E-15  0.2800E+02
     -4.608  0.0000E+00  0.2800E+02
     -4.522  0.0000E+00  0.2800E+02
     -4.435  0.0000E+00  0.2800E+02
     -4.349  0.0000E+00  0.2800E+02
     -4.262  0.0000E+00  0.2800E+02
     -4.176  0.0000E+00  0.2800E+02
     -4.089  0.0000E+00  0.2800E+02
     -4.003  0.0000E+00  0.2800E+02
     -3.916  0.0000E+00  0.2800E+02
     -3.830  0.0000E+00  0.2800E+02
     -3.744  0.0000E+00  0.2800E+02
     -3.657  0.0000E+00  0.2800E+02
     -3.571  0.0000E+00  0.2800E+02
     -3.484  0.0000E+00  0.2800E+02
     -3.398  0.0000E+00  0.2800E+02
     -3.311  0.0000E+00  0.2800E+02
     -3.225  0.0000E+00  0.2800E+02
     -3.138  0.0000E+00  0.2800E+02
     -3.052  0.0000E+00  0.2800E+02
     -2.965  0.0000E+00  0.2800E+02
     -2.879  0.0000E+00  0.2800E+02
     -2.792  0.0000E+00  0.2800E+02
     -2.706  0.0000E+00  0.2800E+02
     -2.620  0.0000E+00  0.2800E+02
     -2.533  0.0000E+00  0.2800E+02
     -2.447  0.0000E+00  0.2800E+02
     -2.360  0.0000E+00  0.2800E+02
     -2.274  0.0000E+00  0.2800E+02
     -2.187  0.0000E+00  0.2800E+02
     -2.101  0.0000E+00  0.2800E+02
     -2.014  0.0000E+00  0.2800E+02
     -1.928  0.0000E+00  0.2800E+02
     -1.841  0.0000E+00  0.2800E+02
     -1.755  0.0000E+00  0.2800E+02
     -1.669  0.4934E-09  0.2800E+02
     -1.582  0.1033E-03  0.2800E+02
     -1.496  0.7932E-01  0.2801E+02
     -1.409  0.6602E+00  0.2806E+02
     -1.323  0.1783E+01  0.2822E+02
     -1.236  0.2513E+01  0.2844E+02
     -1.150  0.2970E+01  0.2869E+02
     -1.063  0.2070E+01  0.2887E+02
     -0.977  0.4670E+01  0.2927E+02
     -0.890  0.6844E+01  0.2987E+02
     -0.804  0.3394E+01  0.3016E+02
     -0.717  0.1910E+01  0.3033E+02
     -0.631  0.1752E+01  0.3048E+02
     -0.545  0.3924E+01  0.3082E+02
     -0.458  0.1606E+01  0.3095E+02
     -0.372  0.2143E+01  0.3114E+02
     -0.285  0.4141E+01  0.3150E+02
     -0.199  0.2833E+01  0.3174E+02
     -0.112  0.8790E+00  0.3182E+02
     -0.026  0.7144E+00  0.3188E+02
      0.061  0.2613E+01  0.3211E+02
      0.147  0.1568E+01  0.3224E+02
      0.234  0.1904E+01  0.3241E+02
      0.320  0.5483E+01  0.3288E+02
      0.406  0.5084E+01  0.3332E+02
      0.493  0.2667E+01  0.3355E+02
      0.579  0.1094E+01  0.3365E+02
      0.666  0.1938E-01  0.3365E+02
      0.752  0.9711E+00  0.3373E+02
      0.839  0.3692E+01  0.3405E+02
      0.925  0.2163E+01  0.3424E+02
      1.012  0.2957E+01  0.3449E+02
      1.098  0.4565E+01  0.3489E+02
      1.185  0.3184E+01  0.3516E+02
      1.271  0.3224E+01  0.3544E+02
      1.358  0.2117E+01  0.3562E+02
      1.444  0.3034E+01  0.3589E+02
      1.530  0.4065E+01  0.3624E+02
      1.617  0.3444E+01  0.3654E+02
      1.703  0.6288E+01  0.3708E+02
      1.790  0.2382E+01  0.3729E+02
      1.876  0.3039E+01  0.3755E+02
      1.963  0.6361E+01  0.3810E+02
      2.049  0.4512E+01  0.3849E+02
      2.136  0.2368E+01  0.3869E+02
      2.222  0.1258E+01  0.3880E+02
      2.309  0.3538E+01  0.3911E+02
      2.395  0.4069E+01  0.3946E+02
      2.481  0.1852E+01  0.3962E+02
      2.568  0.3388E+01  0.3991E+02
      2.654  0.3694E+01  0.4023E+02
      2.741  0.2059E+01  0.4041E+02
      2.827  0.3125E+01  0.4068E+02
      2.914  0.7507E+01  0.4133E+02
      3.000  0.5244E+01  0.4178E+02
      3.087  0.4216E+01  0.4215E+02
      3.173  0.4507E+01  0.4254E+02
      3.260  0.1876E+01  0.4270E+02
      3.346  0.3775E+01  0.4303E+02
      3.433  0.4573E+01  0.4342E+02
      3.519  0.8303E+01  0.4414E+02
      3.605  0.6020E+01  0.4466E+02
      3.692  0.6697E+01  0.4524E+02
      3.778  0.4058E+01  0.4559E+02
      3.865  0.5039E+01  0.4603E+02
      3.951  0.8415E+01  0.4675E+02
      4.038  0.5417E+01  0.4722E+02
      4.124  0.3987E+01  0.4757E+02
      4.211  0.5144E+01  0.4801E+02
      4.297  0.5868E+01  0.4852E+02
      4.384  0.4028E+01  0.4887E+02
      4.470  0.2072E+01  0.4905E+02
      4.556  0.2712E+01  0.4928E+02
      4.643  0.4595E+00  0.4932E+02
      4.729  0.4932E+00  0.4936E+02
      4.816  0.1196E+01  0.4947E+02
      4.902  0.2084E+01  0.4965E+02
      4.989  0.4519E+01  0.5004E+02
      5.075  0.1581E+01  0.5017E+02
      5.162  0.1335E+01  0.5029E+02
      5.248  0.1601E+01  0.5043E+02
      5.335  0.7322E+00  0.5049E+02
      5.421  0.1141E+01  0.5059E+02
      5.508  0.3171E+01  0.5086E+02
      5.594  0.2267E+01  0.5106E+02
      5.680  0.1731E+01  0.5121E+02
      5.767  0.3148E+01  0.5148E+02
      5.853  0.3260E+01  0.5176E+02
      5.940  0.4481E+01  0.5215E+02
      6.026  0.4479E+01  0.5254E+02
      6.113  0.2802E+01  0.5278E+02
      6.199  0.1881E+01  0.5294E+02
      6.286  0.6772E+00  0.5300E+02
      6.372  0.2999E+01  0.5326E+02
      6.459  0.2900E+01  0.5351E+02
      6.545  0.2449E+01  0.5372E+02
      6.631  0.5832E+00  0.5377E+02
      6.718  0.4939E+00  0.5382E+02
      6.804  0.6358E+00  0.5387E+02
      6.891  0.9555E+00  0.5395E+02
      6.977  0.3078E+00  0.5398E+02
      7.064  0.3459E+01  0.5428E+02
      7.150  0.3510E+01  0.5458E+02
      7.237  0.3460E+00  0.5461E+02
      7.323  0.2183E-02  0.5461E+02
      7.410  0.3895E-01  0.5462E+02
      7.496  0.2666E+00  0.5464E+02
      7.583  0.2152E+01  0.5482E+02
      7.669  0.3540E+01  0.5513E+02
      7.755  0.7825E+00  0.5520E+02
      7.842  0.3336E+01  0.5549E+02
      7.928  0.3090E+01  0.5575E+02
      8.015  0.2509E+01  0.5597E+02
      8.101  0.1581E+01  0.5611E+02
      8.188  0.2885E+01  0.5636E+02
      8.274  0.2405E+01  0.5656E+02
      8.361  0.3356E+01  0.5686E+02
      8.447  0.6077E+01  0.5738E+02
      8.534  0.2679E+01  0.5761E+02
      8.620  0.1800E+01  0.5777E+02
      8.706  0.2578E+01  0.5799E+02
      8.793  0.5802E+01  0.5849E+02
      8.879  0.4933E+01  0.5892E+02
      8.966  0.4438E+01  0.5930E+02
      9.052  0.1326E+01  0.5942E+02
      9.139  0.2446E+01  0.5963E+02
      9.225  0.3859E+01  0.5996E+02
      9.312  0.4599E+01  0.6036E+02
      9.398  0.3133E+01  0.6063E+02
      9.485  0.2156E+01  0.6082E+02
      9.571  0.3849E+01  0.6115E+02
      9.658  0.3179E+01  0.6142E+02
      9.744  0.3423E+01  0.6172E+02
      9.830  0.2758E+01  0.6196E+02
      9.917  0.2748E+01  0.6220E+02
     10.003  0.2130E+01  0.6238E+02
     10.090  0.2762E+01  0.6262E+02
     10.176  0.3559E+01  0.6293E+02
     10.263  0.1708E+01  0.6308E+02
     10.349  0.5062E+01  0.6351E+02
     10.436  0.5681E+01  0.6400E+02
     10.522  0.3299E+01  0.6429E+02
     10.609  0.2492E+01  0.6450E+02
     10.695  0.3418E+01  0.6480E+02
     10.781  0.4112E+01  0.6516E+02
     10.868  0.3593E+01  0.6547E+02
     10.954  0.4327E+01  0.6584E+02
     11.041  0.4954E+01  0.6627E+02
     11.127  0.5258E+01  0.6672E+02
     11.214  0.2876E+01  0.6697E+02
     11.300  0.5848E+01  0.6748E+02
     11.387  0.3140E+01  0.6775E+02
     11.473  0.2262E+01  0.6794E+02
     11.560  0.1868E+01  0.6811E+02
     11.646  0.9981E+00  0.6819E+02
     11.733  0.2094E+01  0.6837E+02
     11.819  0.2284E+01  0.6857E+02
     11.905  0.8428E+00  0.6864E+02
     11.992  0.1247E+01  0.6875E+02
     12.078  0.3029E+01  0.6901E+02
     12.165  0.3106E+01  0.6928E+02
     12.251  0.5752E+01  0.6978E+02
     12.338  0.5297E+01  0.7024E+02
     12.424  0.2830E+01  0.7048E+02
     12.511  0.1364E+01  0.7060E+02
     12.597  0.2849E+01  0.7085E+02
     12.684  0.7919E+00  0.7091E+02
     12.770  0.1815E+01  0.7107E+02
     12.857  0.2538E+01  0.7129E+02
     12.943  0.1959E+01  0.7146E+02
     13.029  0.1614E+01  0.7160E+02
     13.116  0.2445E+01  0.7181E+02
     13.202  0.2916E+00  0.7184E+02
     13.289  0.3652E-02  0.7184E+02
     13.375  0.4278E+00  0.7187E+02
     13.462  0.9159E+00  0.7195E+02
     13.548  0.5040E+00  0.7200E+02
     13.635  0.3765E-01  0.7200E+02
     13.721  0.1980E-04  0.7200E+02
     13.808  0.3590E-10  0.7200E+02
     13.894  0.0000E+00  0.7200E+02
     13.980  0.0000E+00  0.7200E+02
     14.067  0.0000E+00  0.7200E+02
     14.153  0.0000E+00  0.7200E+02
     14.240  0.0000E+00  0.7200E+02
     14.326  0.0000E+00  0.7200E+02
     14.413  0.0000E+00  0.7200E+02
     14.499  0.0000E+00  0.7200E+02
     14.586  0.0000E+00  0.7200E+02
     14.672  0.0000E+00  0.7200E+02
