       N       E                     dE             d eps       ncg     rms          rms(c)
DAV:   1    -0.124825682097E+02   -0.12483E+02   -0.10590E-01 81040   0.666E+00    0.502E-02
DAV:   2    -0.124826100357E+02   -0.41826E-04   -0.14277E-05 92392   0.512E-02    0.285E-02
DAV:   3    -0.124826418791E+02   -0.31843E-04   -0.74457E-06 87704   0.513E-02    0.701E-03
DAV:   4    -0.124826439587E+02   -0.20797E-05   -0.93863E-07 48208   0.170E-02    0.158E-03
DAV:   5    -0.124826441397E+02   -0.18101E-06   -0.23953E-07 43916   0.659E-03
   1 F= -.13108521E+02 E0= -.13108521E+02  d E =-.576612E-15
