H2 C12                                  
   1.00000000000000     
     2.4645700000000001    0.0000000000000000    0.0000000000000000
    -0.0103860000000000    3.7546620000000002    0.0000000000000000
    -0.9962680000000000   -1.5586020000000000   14.1766719999999999
   H    C 
     2    12
Direct
     0.1824330000000032    0.2524960000000007    0.9546449999999993
     0.8175669999999968    0.7475039999999993    0.0453550000000007
     0.6411599999999993    0.0565950000000015    0.8358709999999974
     0.3588400000000007    0.9434049999999985    0.1641290000000026
     0.4777739999999966    0.4204780000000028    0.4518589999999989
     0.5222260000000034    0.5795219999999972    0.5481410000000011
     0.0825760000000031    0.8174980000000005    0.6918480000000002
     0.9174239999999969    0.1825019999999995    0.3081519999999998
     0.1586929999999995    0.1318479999999980    0.8814520000000030
     0.8413070000000005    0.8681520000000020    0.1185479999999970
     0.0432810000000003    0.6581619999999972    0.5957459999999983
     0.9567189999999997    0.3418380000000028    0.4042540000000017
     0.6016860000000008    0.8961910000000017    0.7391549999999967
     0.3983139999999992    0.1038089999999983    0.2608450000000033
 
  0.00000000E+00  0.00000000E+00  0.00000000E+00
  0.00000000E+00  0.00000000E+00  0.00000000E+00
  0.00000000E+00  0.00000000E+00  0.00000000E+00
  0.00000000E+00  0.00000000E+00  0.00000000E+00
  0.00000000E+00  0.00000000E+00  0.00000000E+00
  0.00000000E+00  0.00000000E+00  0.00000000E+00
  0.00000000E+00  0.00000000E+00  0.00000000E+00
  0.00000000E+00  0.00000000E+00  0.00000000E+00
  0.00000000E+00  0.00000000E+00  0.00000000E+00
  0.00000000E+00  0.00000000E+00  0.00000000E+00
  0.00000000E+00  0.00000000E+00  0.00000000E+00
  0.00000000E+00  0.00000000E+00  0.00000000E+00
  0.00000000E+00  0.00000000E+00  0.00000000E+00
  0.00000000E+00  0.00000000E+00  0.00000000E+00
