Hf1 Cu3
1.0
  -2.0005880000000000    2.0005880000000000    3.5519390000000000
   2.0005880000000000   -2.0005880000000000    3.5519390000000000
   2.0005880000000000    2.0005880000000000   -3.5519390000000000
Hf Cu
1 3
direct
   0.0000000000000000    0.0000000000000000    0.0000000000000000 Hf
   0.7500000000000000    0.2500000000000000    0.5000000000000000 Cu
   0.2500000000000000    0.7500000000000000    0.5000000000000000 Cu
   0.5000000000000000    0.5000000000000000    0.0000000000000000 Cu
