  12  12   0   0
  0.1519035E+02  0.4206076E-09  0.4911955E-09  0.8823023E-09  0.5000000E-15
  1.000000000000000E-004
  CAR 
 unknown system                          
     10.85030050    -33.08263538  301      2.39321035      1.00000000
    -33.083  0.0000E+00  0.0000E+00
    -32.936  0.0000E+00  0.0000E+00
    -32.790  0.0000E+00  0.0000E+00
    -32.643  0.0000E+00  0.0000E+00
    -32.497  0.0000E+00  0.0000E+00
    -32.350  0.0000E+00  0.0000E+00
    -32.204  0.0000E+00  0.0000E+00
    -32.058  0.0000E+00  0.0000E+00
    -31.911  0.0000E+00  0.0000E+00
    -31.765  0.0000E+00  0.0000E+00
    -31.618  0.0000E+00  0.0000E+00
    -31.472  0.0000E+00  0.0000E+00
    -31.325  0.2303E-11  0.3373E-12
    -31.179  0.5772E-02  0.8453E-03
    -31.032  0.2448E+02  0.3586E+01
    -30.886  0.3014E+02  0.7999E+01
    -30.740  0.5691E-02  0.8000E+01
    -30.593  0.6946E-13  0.8000E+01
    -30.447  0.0000E+00  0.8000E+01
    -30.300  0.0000E+00  0.8000E+01
    -30.154  0.0000E+00  0.8000E+01
    -30.007  0.0000E+00  0.8000E+01
    -29.861  0.0000E+00  0.8000E+01
    -29.714  0.0000E+00  0.8000E+01
    -29.568  0.0000E+00  0.8000E+01
    -29.422  0.0000E+00  0.8000E+01
    -29.275  0.0000E+00  0.8000E+01
    -29.129  0.0000E+00  0.8000E+01
    -28.982  0.0000E+00  0.8000E+01
    -28.836  0.0000E+00  0.8000E+01
    -28.689  0.0000E+00  0.8000E+01
    -28.543  0.0000E+00  0.8000E+01
    -28.396  0.0000E+00  0.8000E+01
    -28.250  0.0000E+00  0.8000E+01
    -28.104  0.0000E+00  0.8000E+01
    -27.957  0.0000E+00  0.8000E+01
    -27.811  0.0000E+00  0.8000E+01
    -27.664  0.0000E+00  0.8000E+01
    -27.518  0.0000E+00  0.8000E+01
    -27.371  0.0000E+00  0.8000E+01
    -27.225  0.0000E+00  0.8000E+01
    -27.078  0.0000E+00  0.8000E+01
    -26.932  0.0000E+00  0.8000E+01
    -26.786  0.0000E+00  0.8000E+01
    -26.639  0.0000E+00  0.8000E+01
    -26.493  0.0000E+00  0.8000E+01
    -26.346  0.0000E+00  0.8000E+01
    -26.200  0.0000E+00  0.8000E+01
    -26.053  0.0000E+00  0.8000E+01
    -25.907  0.0000E+00  0.8000E+01
    -25.760  0.0000E+00  0.8000E+01
    -25.614  0.0000E+00  0.8000E+01
    -25.468  0.0000E+00  0.8000E+01
    -25.321  0.0000E+00  0.8000E+01
    -25.175  0.0000E+00  0.8000E+01
    -25.028  0.0000E+00  0.8000E+01
    -24.882  0.0000E+00  0.8000E+01
    -24.735  0.0000E+00  0.8000E+01
    -24.589  0.0000E+00  0.8000E+01
    -24.442  0.0000E+00  0.8000E+01
    -24.296  0.0000E+00  0.8000E+01
    -24.150  0.0000E+00  0.8000E+01
    -24.003  0.0000E+00  0.8000E+01
    -23.857  0.0000E+00  0.8000E+01
    -23.710  0.0000E+00  0.8000E+01
    -23.564  0.0000E+00  0.8000E+01
    -23.417  0.0000E+00  0.8000E+01
    -23.271  0.0000E+00  0.8000E+01
    -23.125  0.0000E+00  0.8000E+01
    -22.978  0.0000E+00  0.8000E+01
    -22.832  0.0000E+00  0.8000E+01
    -22.685  0.0000E+00  0.8000E+01
    -22.539  0.0000E+00  0.8000E+01
    -22.392  0.0000E+00  0.8000E+01
    -22.246  0.0000E+00  0.8000E+01
    -22.099  0.0000E+00  0.8000E+01
    -21.953  0.0000E+00  0.8000E+01
    -21.807  0.0000E+00  0.8000E+01
    -21.660  0.0000E+00  0.8000E+01
    -21.514  0.0000E+00  0.8000E+01
    -21.367  0.0000E+00  0.8000E+01
    -21.221  0.0000E+00  0.8000E+01
    -21.074  0.0000E+00  0.8000E+01
    -20.928  0.0000E+00  0.8000E+01
    -20.781  0.0000E+00  0.8000E+01
    -20.635  0.0000E+00  0.8000E+01
    -20.489  0.0000E+00  0.8000E+01
    -20.342  0.0000E+00  0.8000E+01
    -20.196  0.0000E+00  0.8000E+01
    -20.049  0.0000E+00  0.8000E+01
    -19.903  0.0000E+00  0.8000E+01
    -19.756  0.0000E+00  0.8000E+01
    -19.610  0.0000E+00  0.8000E+01
    -19.463  0.0000E+00  0.8000E+01
    -19.317  0.0000E+00  0.8000E+01
    -19.171  0.0000E+00  0.8000E+01
    -19.024  0.2696E-13  0.8000E+01
    -18.878  0.3170E-03  0.8000E+01
    -18.731  0.2706E+01  0.8396E+01
    -18.585  0.2514E+02  0.1208E+02
    -18.438  0.2455E+02  0.1567E+02
    -18.292  0.2234E+01  0.1600E+02
    -18.145  0.1291E-03  0.1600E+02
    -17.999  0.0000E+00  0.1600E+02
    -17.853  0.0000E+00  0.1600E+02
    -17.706  0.0000E+00  0.1600E+02
    -17.560  0.0000E+00  0.1600E+02
    -17.413  0.0000E+00  0.1600E+02
    -17.267  0.0000E+00  0.1600E+02
    -17.120  0.0000E+00  0.1600E+02
    -16.974  0.0000E+00  0.1600E+02
    -16.827  0.0000E+00  0.1600E+02
    -16.681  0.0000E+00  0.1600E+02
    -16.535  0.0000E+00  0.1600E+02
    -16.388  0.0000E+00  0.1600E+02
    -16.242  0.0000E+00  0.1600E+02
    -16.095  0.0000E+00  0.1600E+02
    -15.949  0.0000E+00  0.1600E+02
    -15.802  0.0000E+00  0.1600E+02
    -15.656  0.0000E+00  0.1600E+02
    -15.509  0.0000E+00  0.1600E+02
    -15.363  0.0000E+00  0.1600E+02
    -15.217  0.0000E+00  0.1600E+02
    -15.070  0.0000E+00  0.1600E+02
    -14.924  0.0000E+00  0.1600E+02
    -14.777  0.0000E+00  0.1600E+02
    -14.631  0.8096E-09  0.1600E+02
    -14.484  0.1454E-01  0.1600E+02
    -14.338  0.8985E+00  0.1613E+02
    -14.191  0.4292E+01  0.1676E+02
    -14.045  0.6530E+01  0.1772E+02
    -13.899  0.8575E+01  0.1897E+02
    -13.752  0.6420E+01  0.1991E+02
    -13.606  0.6987E+01  0.2094E+02
    -13.459  0.8273E+01  0.2215E+02
    -13.313  0.7994E+01  0.2332E+02
    -13.166  0.2442E+02  0.2690E+02
    -13.020  0.5327E+02  0.3470E+02
    -12.873  0.1356E+02  0.3668E+02
    -12.727  0.1088E+02  0.3828E+02
    -12.581  0.1190E+02  0.4002E+02
    -12.434  0.1141E+01  0.4019E+02
    -12.288  0.2572E+01  0.4056E+02
    -12.141  0.2927E+01  0.4099E+02
    -11.995  0.8866E+01  0.4229E+02
    -11.848  0.1097E+02  0.4390E+02
    -11.702  0.7177E+01  0.4495E+02
    -11.555  0.6943E+01  0.4596E+02
    -11.409  0.9134E+01  0.4730E+02
    -11.263  0.3545E+01  0.4782E+02
    -11.116  0.1223E+01  0.4800E+02
    -10.970  0.2885E-02  0.4800E+02
    -10.823  0.6799E-11  0.4800E+02
    -10.677  0.0000E+00  0.4800E+02
    -10.530  0.0000E+00  0.4800E+02
    -10.384  0.0000E+00  0.4800E+02
    -10.238  0.0000E+00  0.4800E+02
    -10.091  0.0000E+00  0.4800E+02
     -9.945  0.0000E+00  0.4800E+02
     -9.798  0.0000E+00  0.4800E+02
     -9.652  0.0000E+00  0.4800E+02
     -9.505  0.0000E+00  0.4800E+02
     -9.359  0.0000E+00  0.4800E+02
     -9.212  0.0000E+00  0.4800E+02
     -9.066  0.0000E+00  0.4800E+02
     -8.920  0.0000E+00  0.4800E+02
     -8.773  0.0000E+00  0.4800E+02
     -8.627  0.0000E+00  0.4800E+02
     -8.480  0.0000E+00  0.4800E+02
     -8.334  0.0000E+00  0.4800E+02
     -8.187  0.0000E+00  0.4800E+02
     -8.041  0.0000E+00  0.4800E+02
     -7.894  0.0000E+00  0.4800E+02
     -7.748  0.0000E+00  0.4800E+02
     -7.602  0.0000E+00  0.4800E+02
     -7.455  0.0000E+00  0.4800E+02
     -7.309  0.0000E+00  0.4800E+02
     -7.162  0.0000E+00  0.4800E+02
     -7.016  0.0000E+00  0.4800E+02
     -6.869  0.0000E+00  0.4800E+02
     -6.723  0.0000E+00  0.4800E+02
     -6.576  0.0000E+00  0.4800E+02
     -6.430  0.0000E+00  0.4800E+02
     -6.284  0.0000E+00  0.4800E+02
     -6.137  0.0000E+00  0.4800E+02
     -5.991  0.0000E+00  0.4800E+02
     -5.844  0.0000E+00  0.4800E+02
     -5.698  0.0000E+00  0.4800E+02
     -5.551  0.0000E+00  0.4800E+02
     -5.405  0.0000E+00  0.4800E+02
     -5.258  0.0000E+00  0.4800E+02
     -5.112  0.0000E+00  0.4800E+02
     -4.966  0.0000E+00  0.4800E+02
     -4.819  0.0000E+00  0.4800E+02
     -4.673  0.0000E+00  0.4800E+02
     -4.526  0.0000E+00  0.4800E+02
     -4.380  0.0000E+00  0.4800E+02
     -4.233  0.1745E-06  0.4800E+02
     -4.087  0.8808E-01  0.4801E+02
     -3.940  0.1625E+01  0.4825E+02
     -3.794  0.2762E+01  0.4866E+02
     -3.648  0.6093E+01  0.4955E+02
     -3.501  0.6443E+01  0.5049E+02
     -3.355  0.6920E+01  0.5150E+02
     -3.208  0.4204E+01  0.5212E+02
     -3.062  0.1715E+02  0.5463E+02
     -2.915  0.5679E+01  0.5546E+02
     -2.769  0.3986E+01  0.5605E+02
     -2.622  0.2256E+01  0.5638E+02
     -2.476  0.2924E+01  0.5681E+02
     -2.330  0.7485E+01  0.5790E+02
     -2.183  0.1145E+02  0.5958E+02
     -2.037  0.7253E+01  0.6064E+02
     -1.890  0.1788E+02  0.6326E+02
     -1.744  0.2190E+02  0.6647E+02
     -1.597  0.1676E+02  0.6892E+02
     -1.451  0.1251E+02  0.7075E+02
     -1.304  0.3199E+01  0.7122E+02
     -1.158  0.4233E+01  0.7184E+02
     -1.012  0.1092E+01  0.7200E+02
     -0.865  0.8438E-03  0.7200E+02
     -0.719  0.9641E-12  0.7200E+02
     -0.572  0.0000E+00  0.7200E+02
     -0.426  0.0000E+00  0.7200E+02
     -0.279  0.0000E+00  0.7200E+02
     -0.133  0.0000E+00  0.7200E+02
      0.014  0.0000E+00  0.7200E+02
      0.160  0.0000E+00  0.7200E+02
      0.306  0.1518E-10  0.7200E+02
      0.453  0.2203E-02  0.7200E+02
      0.599  0.1050E+01  0.7215E+02
      0.746  0.3344E+01  0.7264E+02
      0.892  0.5994E+01  0.7352E+02
      1.039  0.6683E+01  0.7450E+02
      1.185  0.5010E+01  0.7523E+02
      1.331  0.1196E+02  0.7699E+02
      1.478  0.1634E+02  0.7938E+02
      1.624  0.1887E+02  0.8214E+02
      1.771  0.1534E+02  0.8439E+02
      1.917  0.1382E+02  0.8641E+02
      2.064  0.8754E+01  0.8769E+02
      2.210  0.1979E+01  0.8798E+02
      2.357  0.1142E+00  0.8800E+02
      2.503  0.1507E-06  0.8800E+02
      2.649  0.0000E+00  0.8800E+02
      2.796  0.0000E+00  0.8800E+02
      2.942  0.0000E+00  0.8800E+02
      3.089  0.0000E+00  0.8800E+02
      3.235  0.0000E+00  0.8800E+02
      3.382  0.0000E+00  0.8800E+02
      3.528  0.0000E+00  0.8800E+02
      3.675  0.0000E+00  0.8800E+02
      3.821  0.0000E+00  0.8800E+02
      3.967  0.0000E+00  0.8800E+02
      4.114  0.2527E-16  0.8800E+02
      4.260  0.4966E-05  0.8800E+02
      4.407  0.2106E+00  0.8803E+02
      4.553  0.1253E+01  0.8821E+02
      4.700  0.1066E+01  0.8837E+02
      4.846  0.2022E+01  0.8867E+02
      4.993  0.1234E+01  0.8885E+02
      5.139  0.3272E+01  0.8933E+02
      5.285  0.6687E+01  0.9031E+02
      5.432  0.9914E+00  0.9045E+02
      5.578  0.3659E+01  0.9099E+02
      5.725  0.3810E+01  0.9154E+02
      5.871  0.2840E+01  0.9196E+02
      6.018  0.2490E+01  0.9233E+02
      6.164  0.2546E+01  0.9270E+02
      6.311  0.6638E+01  0.9367E+02
      6.457  0.7371E+01  0.9475E+02
      6.603  0.3530E+01  0.9527E+02
      6.750  0.1083E+01  0.9542E+02
      6.896  0.6067E+01  0.9631E+02
      7.043  0.9287E+01  0.9767E+02
      7.189  0.3744E+01  0.9822E+02
      7.336  0.5603E+01  0.9904E+02
      7.482  0.5109E+01  0.9979E+02
      7.629  0.3519E+01  0.1003E+03
      7.775  0.2987E+01  0.1007E+03
      7.921  0.4472E+01  0.1014E+03
      8.068  0.7798E+01  0.1025E+03
      8.214  0.4736E+01  0.1032E+03
      8.361  0.1111E+01  0.1034E+03
      8.507  0.1281E+01  0.1036E+03
      8.654  0.1352E+01  0.1038E+03
      8.800  0.9139E+00  0.1039E+03
      8.947  0.5722E+00  0.1040E+03
      9.093  0.1652E-02  0.1040E+03
      9.239  0.1760E-11  0.1040E+03
      9.386  0.0000E+00  0.1040E+03
      9.532  0.0000E+00  0.1040E+03
      9.679  0.0000E+00  0.1040E+03
      9.825  0.0000E+00  0.1040E+03
      9.972  0.0000E+00  0.1040E+03
     10.118  0.0000E+00  0.1040E+03
     10.265  0.0000E+00  0.1040E+03
     10.411  0.0000E+00  0.1040E+03
     10.557  0.0000E+00  0.1040E+03
     10.704  0.0000E+00  0.1040E+03
     10.850  0.0000E+00  0.1040E+03
