       N       E                     dE             d eps       ncg     rms          rms(c)
DAV:   1     0.697365084364E+03    0.69737E+03   -0.51581E+04  9360   0.182E+03
DAV:   2    -0.184730841122E+02   -0.71584E+03   -0.70051E+03 12072   0.398E+02
DAV:   3    -0.732788962326E+02   -0.54806E+02   -0.54508E+02 12688   0.106E+02
DAV:   4    -0.754267284109E+02   -0.21478E+01   -0.21444E+01 14096   0.181E+01
DAV:   5    -0.755157419790E+02   -0.89014E-01   -0.89001E-01 12944   0.267E+00    0.351E+01
DAV:   6    -0.693708369889E+02    0.61449E+01   -0.22277E+01 10732   0.181E+01    0.292E+01
DAV:   7    -0.690903183664E+02    0.28052E+00   -0.21934E+00 12524   0.654E+00    0.124E+01
DAV:   8    -0.691087473133E+02   -0.18429E-01   -0.32455E-01 10936   0.325E+00    0.129E+00
DAV:   9    -0.691295652885E+02   -0.20818E-01   -0.93496E-02 11284   0.129E+00    0.512E-01
DAV:  10    -0.691310722146E+02   -0.15069E-02   -0.13050E-02 11804   0.523E-01    0.205E-01
DAV:  11    -0.691321409033E+02   -0.10687E-02   -0.16321E-03 11836   0.180E-01    0.610E-02
DAV:  12    -0.691322968984E+02   -0.15600E-03   -0.24644E-04 12528   0.734E-02    0.157E-02
DAV:  13    -0.691323193880E+02   -0.22490E-04   -0.39336E-05 10788   0.282E-02    0.841E-03
DAV:  14    -0.691323237280E+02   -0.43400E-05   -0.51497E-06 10016   0.102E-02    0.438E-03
DAV:  15    -0.691323240190E+02   -0.29094E-06   -0.61213E-07  6664   0.397E-03
   1 F= -.69132324E+02 E0= -.69132324E+02  d E =-.130474E-10
