unknown system                          
           1
     4.206076    0.000000    0.000000
     0.000000    4.911955    0.000000
     0.000000    0.000000    8.823023
   Sr   O 
     4     8
Direct configuration=     1
   0.77324306  0.75000000  0.12464389
   0.72675694  0.75000000  0.62464389
   0.22675694  0.25000000  0.87535611
   0.27324306  0.25000000  0.37535611
   0.29232779  0.75000000  0.29111694
   0.20767221  0.75000000  0.79111694
   0.70767221  0.25000000  0.70888306
   0.79232779  0.25000000  0.20888306
   0.22738718  0.75000000  0.45860184
   0.27261282  0.75000000  0.95860184
   0.77261282  0.25000000  0.54139816
   0.72738718  0.25000000  0.04139816
