   2   2   0   0
  0.5643294E+01  0.2517827E-09  0.2517827E-09  0.2517827E-09  0.5000000E-15
  1.000000000000000E-004
  CAR 
 unknown system                          
     28.45816299    -13.65710306  301     10.07221715      1.00000000
    -13.657  0.0000E+00  0.0000E+00
    -13.517  0.0000E+00  0.0000E+00
    -13.376  0.0000E+00  0.0000E+00
    -13.236  0.0000E+00  0.0000E+00
    -13.096  0.0000E+00  0.0000E+00
    -12.955  0.0000E+00  0.0000E+00
    -12.815  0.0000E+00  0.0000E+00
    -12.674  0.0000E+00  0.0000E+00
    -12.534  0.0000E+00  0.0000E+00
    -12.394  0.0000E+00  0.0000E+00
    -12.253  0.0000E+00  0.0000E+00
    -12.113  0.0000E+00  0.0000E+00
    -11.972  0.2649E-12  0.3718E-13
    -11.832  0.3732E-04  0.5239E-05
    -11.692  0.6000E-02  0.8476E-03
    -11.551  0.4928E-01  0.7766E-02
    -11.411  0.4203E-01  0.1367E-01
    -11.271  0.6491E-01  0.2278E-01
    -11.130  0.1153E+00  0.3897E-01
    -10.990  0.1048E+00  0.5369E-01
    -10.849  0.2762E-01  0.5757E-01
    -10.709  0.9229E-01  0.7052E-01
    -10.569  0.2289E+00  0.1027E+00
    -10.428  0.9147E-01  0.1155E+00
    -10.288  0.1343E+00  0.1344E+00
    -10.147  0.1388E+00  0.1538E+00
    -10.007  0.3634E-01  0.1589E+00
     -9.867  0.1214E+00  0.1760E+00
     -9.726  0.4185E+00  0.2347E+00
     -9.586  0.6248E-01  0.2435E+00
     -9.446  0.1340E+00  0.2623E+00
     -9.305  0.2685E+00  0.3000E+00
     -9.165  0.2856E-01  0.3040E+00
     -9.024  0.8098E-01  0.3154E+00
     -8.884  0.4077E+00  0.3726E+00
     -8.744  0.1149E+00  0.3887E+00
     -8.603  0.2843E+00  0.4286E+00
     -8.463  0.3892E+00  0.4833E+00
     -8.323  0.8479E-02  0.4845E+00
     -8.182  0.6682E-01  0.4939E+00
     -8.042  0.4111E+00  0.5516E+00
     -7.901  0.9899E-01  0.5655E+00
     -7.761  0.2735E+00  0.6039E+00
     -7.621  0.3974E+00  0.6596E+00
     -7.480  0.6979E-01  0.6694E+00
     -7.340  0.3068E+00  0.7125E+00
     -7.199  0.5573E+00  0.7907E+00
     -7.059  0.1521E+00  0.8121E+00
     -6.919  0.1043E+00  0.8267E+00
     -6.778  0.2173E+00  0.8572E+00
     -6.638  0.1977E+00  0.8850E+00
     -6.498  0.4229E+00  0.9444E+00
     -6.357  0.2296E+00  0.9766E+00
     -6.217  0.5070E+00  0.1048E+01
     -6.076  0.4427E+00  0.1110E+01
     -5.936  0.2081E+00  0.1139E+01
     -5.796  0.6357E+00  0.1228E+01
     -5.655  0.1742E+00  0.1253E+01
     -5.515  0.1833E+00  0.1279E+01
     -5.374  0.3528E+00  0.1328E+01
     -5.234  0.1276E+00  0.1346E+01
     -5.094  0.5686E+00  0.1426E+01
     -4.953  0.5004E+00  0.1496E+01
     -4.813  0.3243E+00  0.1542E+01
     -4.673  0.4281E+00  0.1602E+01
     -4.532  0.1516E+00  0.1623E+01
     -4.392  0.9527E-02  0.1624E+01
     -4.251  0.5198E+00  0.1697E+01
     -4.111  0.1371E+00  0.1717E+01
     -3.971  0.2761E+00  0.1755E+01
     -3.830  0.1996E+00  0.1783E+01
     -3.690  0.1504E+00  0.1804E+01
     -3.549  0.6808E+00  0.1900E+01
     -3.409  0.2156E+00  0.1930E+01
     -3.269  0.3140E-01  0.1935E+01
     -3.128  0.5542E-01  0.1942E+01
     -2.988  0.3492E+00  0.1991E+01
     -2.848  0.2541E+00  0.2027E+01
     -2.707  0.4937E+00  0.2096E+01
     -2.567  0.4599E+00  0.2161E+01
     -2.426  0.2244E+00  0.2193E+01
     -2.286  0.3336E-02  0.2193E+01
     -2.146  0.9790E-01  0.2207E+01
     -2.005  0.8233E+00  0.2322E+01
     -1.865  0.1134E+00  0.2338E+01
     -1.724  0.8968E+00  0.2464E+01
     -1.584  0.8121E+00  0.2578E+01
     -1.444  0.5999E+00  0.2662E+01
     -1.303  0.1971E+00  0.2690E+01
     -1.163  0.2393E+00  0.2724E+01
     -1.023  0.6131E+00  0.2810E+01
     -0.882  0.3575E+00  0.2860E+01
     -0.742  0.2597E+00  0.2896E+01
     -0.601  0.3060E+00  0.2939E+01
     -0.461  0.5252E+00  0.3013E+01
     -0.321  0.2893E+00  0.3054E+01
     -0.180  0.2923E+00  0.3095E+01
     -0.040  0.1557E+00  0.3117E+01
      0.101  0.3566E+00  0.3167E+01
      0.241  0.6474E-01  0.3176E+01
      0.381  0.5345E+00  0.3251E+01
      0.522  0.3954E+00  0.3306E+01
      0.662  0.1728E+00  0.3330E+01
      0.802  0.3447E+00  0.3379E+01
      0.943  0.3480E+00  0.3428E+01
      1.083  0.9621E+00  0.3563E+01
      1.224  0.6305E+00  0.3651E+01
      1.364  0.6547E-01  0.3660E+01
      1.504  0.4103E+00  0.3718E+01
      1.645  0.6232E+00  0.3806E+01
      1.785  0.5220E+00  0.3879E+01
      1.926  0.6368E+00  0.3968E+01
      2.066  0.4015E+00  0.4025E+01
      2.206  0.4158E+00  0.4083E+01
      2.347  0.4992E+00  0.4153E+01
      2.487  0.9340E+00  0.4284E+01
      2.627  0.8840E+00  0.4408E+01
      2.768  0.1434E+00  0.4428E+01
      2.908  0.3030E+00  0.4471E+01
      3.049  0.4617E+00  0.4536E+01
      3.189  0.9733E+00  0.4672E+01
      3.329  0.6075E+00  0.4758E+01
      3.470  0.1010E+01  0.4899E+01
      3.610  0.7413E+00  0.5004E+01
      3.751  0.4497E+00  0.5067E+01
      3.891  0.8380E+00  0.5184E+01
      4.031  0.1159E+01  0.5347E+01
      4.172  0.2432E+00  0.5381E+01
      4.312  0.8330E+00  0.5498E+01
      4.452  0.8862E+00  0.5623E+01
      4.593  0.1068E+01  0.5772E+01
      4.733  0.7159E+00  0.5873E+01
      4.874  0.7419E+00  0.5977E+01
      5.014  0.2165E+00  0.6007E+01
      5.154  0.6494E+00  0.6099E+01
      5.295  0.4170E+00  0.6157E+01
      5.435  0.1223E+01  0.6329E+01
      5.576  0.9089E+00  0.6456E+01
      5.716  0.8676E+00  0.6578E+01
      5.856  0.1868E+00  0.6604E+01
      5.997  0.8423E+00  0.6723E+01
      6.137  0.5638E+00  0.6802E+01
      6.277  0.6184E+00  0.6889E+01
      6.418  0.8784E+00  0.7012E+01
      6.558  0.2414E+00  0.7046E+01
      6.699  0.6281E+00  0.7134E+01
      6.839  0.1165E+01  0.7298E+01
      6.979  0.2346E+00  0.7330E+01
      7.120  0.4701E+00  0.7396E+01
      7.260  0.5810E+00  0.7478E+01
      7.401  0.4323E+00  0.7539E+01
      7.541  0.4813E+00  0.7606E+01
      7.681  0.3478E+00  0.7655E+01
      7.822  0.2592E+00  0.7691E+01
      7.962  0.1970E+00  0.7719E+01
      8.102  0.2807E+00  0.7759E+01
      8.243  0.2018E+00  0.7787E+01
      8.383  0.3669E+00  0.7838E+01
      8.524  0.1334E+00  0.7857E+01
      8.664  0.1736E+00  0.7881E+01
      8.804  0.1114E+00  0.7897E+01
      8.945  0.1186E+00  0.7914E+01
      9.085  0.3610E+00  0.7964E+01
      9.226  0.1655E-01  0.7967E+01
      9.366  0.3562E-01  0.7972E+01
      9.506  0.5874E-01  0.7980E+01
      9.647  0.1230E+00  0.7997E+01
      9.787  0.6658E-02  0.7998E+01
      9.927  0.1283E-01  0.8000E+01
     10.068  0.3627E-05  0.8000E+01
     10.208  0.0000E+00  0.8000E+01
     10.349  0.0000E+00  0.8000E+01
     10.489  0.0000E+00  0.8000E+01
     10.629  0.0000E+00  0.8000E+01
     10.770  0.0000E+00  0.8000E+01
     10.910  0.0000E+00  0.8000E+01
     11.051  0.0000E+00  0.8000E+01
     11.191  0.0000E+00  0.8000E+01
     11.331  0.0000E+00  0.8000E+01
     11.472  0.0000E+00  0.8000E+01
     11.612  0.0000E+00  0.8000E+01
     11.752  0.0000E+00  0.8000E+01
     11.893  0.0000E+00  0.8000E+01
     12.033  0.0000E+00  0.8000E+01
     12.174  0.0000E+00  0.8000E+01
     12.314  0.0000E+00  0.8000E+01
     12.454  0.0000E+00  0.8000E+01
     12.595  0.0000E+00  0.8000E+01
     12.735  0.0000E+00  0.8000E+01
     12.876  0.0000E+00  0.8000E+01
     13.016  0.0000E+00  0.8000E+01
     13.156  0.0000E+00  0.8000E+01
     13.297  0.0000E+00  0.8000E+01
     13.437  0.0000E+00  0.8000E+01
     13.577  0.0000E+00  0.8000E+01
     13.718  0.3834E-12  0.8000E+01
     13.858  0.1205E-03  0.8000E+01
     13.999  0.4346E-01  0.8006E+01
     14.139  0.3424E-01  0.8011E+01
     14.279  0.3060E-01  0.8015E+01
     14.420  0.2422E+00  0.8049E+01
     14.560  0.1282E+00  0.8067E+01
     14.701  0.2106E+00  0.8097E+01
     14.841  0.8221E-01  0.8108E+01
     14.981  0.4208E+00  0.8167E+01
     15.122  0.4037E+00  0.8224E+01
     15.262  0.2343E+00  0.8257E+01
     15.402  0.3709E+00  0.8309E+01
     15.543  0.3121E+00  0.8353E+01
     15.683  0.3340E+00  0.8400E+01
     15.824  0.8633E+00  0.8521E+01
     15.964  0.4464E+00  0.8584E+01
     16.104  0.6209E+00  0.8671E+01
     16.245  0.3909E+00  0.8726E+01
     16.385  0.5333E+00  0.8801E+01
     16.526  0.6854E+00  0.8897E+01
     16.666  0.4150E+00  0.8955E+01
     16.806  0.5260E+00  0.9029E+01
     16.947  0.5453E+00  0.9105E+01
     17.087  0.3280E+00  0.9151E+01
     17.227  0.7437E+00  0.9256E+01
     17.368  0.1175E+01  0.9421E+01
     17.508  0.1003E+01  0.9561E+01
     17.649  0.6599E+00  0.9654E+01
     17.789  0.5581E+00  0.9732E+01
     17.929  0.7393E+00  0.9836E+01
     18.070  0.1554E+01  0.1005E+02
     18.210  0.9595E+00  0.1019E+02
     18.350  0.1383E+01  0.1038E+02
     18.491  0.1540E+01  0.1060E+02
     18.631  0.1639E+00  0.1062E+02
     18.772  0.4544E+00  0.1069E+02
     18.912  0.1076E+01  0.1084E+02
     19.052  0.1487E+01  0.1105E+02
     19.193  0.9835E+00  0.1118E+02
     19.333  0.7106E+00  0.1128E+02
     19.474  0.2300E+00  0.1132E+02
     19.614  0.5553E+00  0.1139E+02
     19.754  0.8163E+00  0.1151E+02
     19.895  0.7985E+00  0.1162E+02
     20.035  0.7304E+00  0.1172E+02
     20.175  0.1193E+01  0.1189E+02
     20.316  0.9053E+00  0.1202E+02
     20.456  0.8178E+00  0.1213E+02
     20.597  0.1134E+01  0.1229E+02
     20.737  0.5698E+00  0.1237E+02
     20.877  0.6802E+00  0.1247E+02
     21.018  0.6338E+00  0.1256E+02
     21.158  0.4527E+00  0.1262E+02
     21.299  0.4035E+00  0.1268E+02
     21.439  0.1044E+00  0.1269E+02
     21.579  0.1117E+00  0.1271E+02
     21.720  0.2685E+00  0.1274E+02
     21.860  0.1197E+01  0.1291E+02
     22.000  0.9484E+00  0.1305E+02
     22.141  0.2805E+00  0.1309E+02
     22.281  0.8844E+00  0.1321E+02
     22.422  0.1119E+01  0.1337E+02
     22.562  0.1203E+01  0.1354E+02
     22.702  0.8757E+00  0.1366E+02
     22.843  0.1884E+00  0.1368E+02
     22.983  0.5829E+00  0.1377E+02
     23.124  0.9601E+00  0.1390E+02
     23.264  0.1138E+01  0.1406E+02
     23.404  0.5097E+00  0.1413E+02
     23.545  0.8369E+00  0.1425E+02
     23.685  0.8362E+00  0.1437E+02
     23.825  0.9139E+00  0.1450E+02
     23.966  0.5045E+00  0.1457E+02
     24.106  0.8064E+00  0.1468E+02
     24.247  0.9785E+00  0.1482E+02
     24.387  0.1630E+01  0.1505E+02
     24.527  0.1178E+01  0.1521E+02
     24.668  0.5849E+00  0.1529E+02
     24.808  0.3057E+00  0.1534E+02
     24.949  0.7489E+00  0.1544E+02
     25.089  0.2122E+00  0.1547E+02
     25.229  0.7243E+00  0.1557E+02
     25.370  0.9653E+00  0.1571E+02
     25.510  0.3414E+00  0.1576E+02
     25.650  0.5053E+00  0.1583E+02
     25.791  0.3665E+00  0.1588E+02
     25.931  0.3846E+00  0.1593E+02
     26.072  0.8959E-01  0.1595E+02
     26.212  0.9961E-02  0.1595E+02
     26.352  0.1484E+00  0.1597E+02
     26.493  0.1115E+00  0.1598E+02
     26.633  0.1187E+00  0.1600E+02
     26.774  0.4554E-03  0.1600E+02
     26.914  0.3178E-11  0.1600E+02
     27.054  0.0000E+00  0.1600E+02
     27.195  0.0000E+00  0.1600E+02
     27.335  0.0000E+00  0.1600E+02
     27.475  0.0000E+00  0.1600E+02
     27.616  0.0000E+00  0.1600E+02
     27.756  0.0000E+00  0.1600E+02
     27.897  0.0000E+00  0.1600E+02
     28.037  0.0000E+00  0.1600E+02
     28.177  0.0000E+00  0.1600E+02
     28.318  0.0000E+00  0.1600E+02
     28.458  0.0000E+00  0.1600E+02
