Al4 Si1                                 
   1.00000000000000     
    11.3916930000000001   -1.4226350000000001    0.0000000000000000
    11.3916930000000001    1.4226350000000001    0.0000000000000000
    11.2140290000000000    0.0000000000000000    2.4576630000000002
   Al   Si
     4     1
Direct
     0.6027229999999975    0.6027229999999975    0.6027229999999975
     0.2013699999999972    0.2013699999999972    0.2013699999999972
     0.7986300000000028    0.7986300000000028    0.7986300000000028
     0.3972770000000025    0.3972770000000025    0.3972770000000025
     0.0000000000000000    0.0000000000000000    0.0000000000000000
 
  0.00000000E+00  0.00000000E+00  0.00000000E+00
  0.00000000E+00  0.00000000E+00  0.00000000E+00
  0.00000000E+00  0.00000000E+00  0.00000000E+00
  0.00000000E+00  0.00000000E+00  0.00000000E+00
  0.00000000E+00  0.00000000E+00  0.00000000E+00
