       N       E                     dE             d eps       ncg     rms          rms(c)
DAV:   1     0.132384205319E+02    0.13238E+02   -0.60124E+03  8640   0.715E+02
DAV:   2    -0.186913781220E+02   -0.31930E+02   -0.29984E+02 10832   0.102E+02
DAV:   3    -0.199669436507E+02   -0.12756E+01   -0.12496E+01 11168   0.149E+01
DAV:   4    -0.199771144899E+02   -0.10171E-01   -0.10162E-01 10244   0.161E+00
DAV:   5    -0.199772187023E+02   -0.10421E-03   -0.10421E-03 10672   0.176E-01    0.370E+00
DAV:   6    -0.199055636398E+02    0.71655E-01   -0.11574E-02 10316   0.487E-01    0.212E+00
DAV:   7    -0.198581809475E+02    0.47383E-01   -0.24730E-02  9668   0.684E-01    0.257E-01
DAV:   8    -0.198575179276E+02    0.66302E-03   -0.13335E-03 10440   0.170E-01    0.179E-01
DAV:   9    -0.198570991600E+02    0.41877E-03   -0.45619E-04  9960   0.913E-02    0.341E-02
DAV:  10    -0.198570851644E+02    0.13996E-04   -0.46298E-05 10076   0.308E-02    0.157E-02
DAV:  11    -0.198570851189E+02    0.45444E-07   -0.43039E-06 10604   0.894E-03
   1 F= -.19857085E+02 E0= -.19855364E+02  d E =-.344134E-02
