       N       E                     dE             d eps       ncg     rms          rms(c)
DAV:   1     0.150640190699E+03    0.15064E+03   -0.11505E+04 32144   0.154E+03
DAV:   2    -0.161540536232E+02   -0.16679E+03   -0.15762E+03 36568   0.386E+02
DAV:   3    -0.224938515008E+02   -0.63398E+01   -0.62999E+01 34272   0.833E+01
DAV:   4    -0.225424374490E+02   -0.48586E-01   -0.48582E-01 37328   0.772E+00
DAV:   5    -0.225430136770E+02   -0.57623E-03   -0.57623E-03 34632   0.793E-01    0.267E+01
DAV:   6    -0.218338383594E+02    0.70918E+00   -0.26878E+01 34360   0.824E+01    0.189E+01
DAV:   7    -0.180696760331E+02    0.37642E+01   -0.11231E+01 32000   0.560E+01    0.799E+00
DAV:   8    -0.179488661610E+02    0.12081E+00   -0.55697E-01 33152   0.101E+01    0.196E+00
DAV:   9    -0.179534037592E+02   -0.45376E-02   -0.50455E-02 32384   0.200E+00    0.694E-01
DAV:  10    -0.179527850901E+02    0.61867E-03   -0.15058E-03 40152   0.597E-01    0.129E-01
DAV:  11    -0.179527973322E+02   -0.12242E-04   -0.31050E-04 33016   0.159E-01    0.707E-02
DAV:  12    -0.179527789573E+02    0.18375E-04   -0.20915E-05 33736   0.429E-02    0.134E-02
DAV:  13    -0.179527793905E+02   -0.43317E-06   -0.11911E-06 18584   0.175E-02
   1 F= -.17952779E+02 E0= -.17952621E+02  d E =-.317164E-03
