       N       E                     dE             d eps       ncg     rms          rms(c)
DAV:   1     0.145558378692E+04    0.14556E+04   -0.63533E+04 11536   0.159E+03
DAV:   2     0.214997767084E+02   -0.14341E+04   -0.13923E+04 11520   0.527E+02
DAV:   3    -0.594420519365E+02   -0.80942E+02   -0.73643E+02 13296   0.141E+02
DAV:   4    -0.626251355023E+02   -0.31831E+01   -0.31142E+01 14032   0.261E+01
DAV:   5    -0.627023338243E+02   -0.77198E-01   -0.77013E-01 14024   0.466E+00    0.255E+01
DAV:   6    -0.586165225390E+02    0.40858E+01   -0.32340E+01 14488   0.273E+01    0.205E+01
DAV:   7    -0.600617130066E+02   -0.14452E+01   -0.60353E+01 14768   0.285E+01    0.163E+01
DAV:   8    -0.561312472650E+02    0.39305E+01   -0.11404E+01 15344   0.138E+01    0.934E+00
DAV:   9    -0.552303118319E+02    0.90094E+00   -0.25728E+00 14880   0.867E+00    0.677E+00
DAV:  10    -0.547345096292E+02    0.49580E+00   -0.62323E-01 15152   0.366E+00    0.345E+00
DAV:  11    -0.546144235579E+02    0.12009E+00   -0.10593E+00 14960   0.505E+00    0.233E+00
DAV:  12    -0.545666782265E+02    0.47745E-01   -0.15883E-01 14352   0.191E+00    0.564E-01
DAV:  13    -0.545653709297E+02    0.13073E-02   -0.10555E-02 14040   0.646E-01    0.324E-01
DAV:  14    -0.545648356787E+02    0.53525E-03   -0.27839E-03 14480   0.375E-01    0.218E-01
DAV:  15    -0.545646723224E+02    0.16336E-03   -0.12673E-03 14992   0.238E-01    0.168E-01
DAV:  16    -0.545644247638E+02    0.24756E-03   -0.57421E-04 14296   0.188E-01    0.809E-02
DAV:  17    -0.545643562588E+02    0.68505E-04   -0.31833E-04 13216   0.897E-02    0.373E-02
DAV:  18    -0.545643429063E+02    0.13353E-04   -0.53373E-05 13768   0.518E-02    0.881E-03
DAV:  19    -0.545643424428E+02    0.46350E-06   -0.87592E-06 13400   0.173E-02
   1 F= -.54564342E+02 E0= -.54557602E+02  d E =-.134802E-01
