unknown system                          
           1
     4.777783    0.000000    0.000000
     0.000000    6.015512    0.000000
     0.000000    1.503981    8.186333
   Mg   Ti
     6     6
Direct configuration=     1
   0.25000000  0.46819100  0.61210100
   0.25000000  0.97659000  0.60892300
   0.75000000  0.53180900  0.38789900
   0.75000000  0.02341000  0.39107700
   0.25000000  0.31117100  0.26718200
   0.75000000  0.68882900  0.73281800
   0.25000000  0.81601000  0.24127100
   0.75000000  0.86904500  0.04752600
   0.75000000  0.34972000  0.04836300
   0.25000000  0.65028000  0.95163700
   0.25000000  0.13095500  0.95247400
   0.75000000  0.18399000  0.75872900
