Sr4 F8
1.0
   0.0000000000000000    0.0000000000000000    4.0690939999999998
   4.4261020000000002    0.0000000000000000    0.0000000000000000
   0.0000000000000000   12.2579100000000007    0.0000000000000000
Sr F
4 8
direct
   0.2500000000000000    0.4327510000000000    0.6367230000000000 Sr
   0.2500000000000000    0.0672490000000000    0.1367230000000000 Sr
   0.7500000000000000    0.5672490000000000    0.3632770000000000 Sr
   0.7500000000000000    0.9327510000000000    0.8632770000000000 Sr
   0.2500000000000000    0.7958970000000000    0.9618170000000000 F
   0.2500000000000000    0.7041030000000000    0.4618170000000000 F
   0.7500000000000000    0.2041030000000000    0.0381830000000000 F
   0.7500000000000000    0.2958970000000000    0.5381830000000000 F
   0.2500000000000000    0.5636350000000000    0.2286600000000000 F
   0.2500000000000000    0.9363650000000000    0.7286600000000000 F
   0.7500000000000000    0.4363650000000000    0.7713400000000000 F
   0.7500000000000000    0.0636350000000000    0.2713400000000000 F
