Si12 O24                                
   1.00000000000000     
     0.0000000000000000    5.7832960000000000    5.7832960000000000
     5.7832960000000000    0.0000000000000000    5.7832960000000000
     5.7832960000000000    5.7832960000000000    0.0000000000000000
   Si   O 
    12    24
Direct
     0.3666139999999984    0.1250000000000000    0.6250000000000000
     0.8833860000000016    0.1250000000000000    0.3666139999999984
     0.1250000000000000    0.6250000000000000    0.3666139999999984
     0.3666139999999984    0.8833860000000016    0.1250000000000000
     0.1250000000000000    0.8833860000000016    0.6250000000000000
     0.1250000000000000    0.3666139999999984    0.8833860000000016
     0.6250000000000000    0.8833860000000016    0.3666139999999984
     0.6250000000000000    0.1250000000000000    0.8833860000000016
     0.8833860000000016    0.6250000000000000    0.1250000000000000
     0.6250000000000000    0.3666139999999984    0.1250000000000000
     0.8833860000000016    0.3666139999999984    0.6250000000000000
     0.3666139999999984    0.6250000000000000    0.8833860000000016
     0.2879730000000009    0.9620269999999991    0.6250000000000000
     0.2879730000000009    0.6250000000000000    0.1250000000000000
     0.9620269999999991    0.2879730000000009    0.1250000000000000
     0.6581430000000026    0.3418569999999974    0.3418569999999974
     0.9081430000000026    0.5918569999999974    0.9081430000000026
     0.5918569999999974    0.9081430000000026    0.5918569999999974
     0.9620269999999991    0.1250000000000000    0.6250000000000000
     0.3418569999999974    0.6581430000000026    0.6581430000000026
     0.2879730000000009    0.1250000000000000    0.9620269999999991
     0.1250000000000000    0.2879730000000009    0.6250000000000000
     0.6581430000000026    0.6581430000000026    0.3418569999999974
     0.5918569999999974    0.9081430000000026    0.9081430000000026
     0.1250000000000000    0.6250000000000000    0.9620269999999991
     0.3418569999999974    0.3418569999999974    0.6581430000000026
     0.9081430000000026    0.9081430000000026    0.5918569999999974
     0.3418569999999974    0.6581430000000026    0.3418569999999974
     0.6581430000000026    0.3418569999999974    0.6581430000000026
     0.6250000000000000    0.1250000000000000    0.2879730000000009
     0.1250000000000000    0.9620269999999991    0.2879730000000009
     0.5918569999999974    0.5918569999999974    0.9081430000000026
     0.6250000000000000    0.9620269999999991    0.1250000000000000
     0.9620269999999991    0.6250000000000000    0.2879730000000009
     0.9081430000000026    0.5918569999999974    0.5918569999999974
     0.6250000000000000    0.2879730000000009    0.9620269999999991
 
  0.00000000E+00  0.00000000E+00  0.00000000E+00
  0.00000000E+00  0.00000000E+00  0.00000000E+00
  0.00000000E+00  0.00000000E+00  0.00000000E+00
  0.00000000E+00  0.00000000E+00  0.00000000E+00
  0.00000000E+00  0.00000000E+00  0.00000000E+00
  0.00000000E+00  0.00000000E+00  0.00000000E+00
  0.00000000E+00  0.00000000E+00  0.00000000E+00
  0.00000000E+00  0.00000000E+00  0.00000000E+00
  0.00000000E+00  0.00000000E+00  0.00000000E+00
  0.00000000E+00  0.00000000E+00  0.00000000E+00
  0.00000000E+00  0.00000000E+00  0.00000000E+00
  0.00000000E+00  0.00000000E+00  0.00000000E+00
  0.00000000E+00  0.00000000E+00  0.00000000E+00
  0.00000000E+00  0.00000000E+00  0.00000000E+00
  0.00000000E+00  0.00000000E+00  0.00000000E+00
  0.00000000E+00  0.00000000E+00  0.00000000E+00
  0.00000000E+00  0.00000000E+00  0.00000000E+00
  0.00000000E+00  0.00000000E+00  0.00000000E+00
  0.00000000E+00  0.00000000E+00  0.00000000E+00
  0.00000000E+00  0.00000000E+00  0.00000000E+00
  0.00000000E+00  0.00000000E+00  0.00000000E+00
  0.00000000E+00  0.00000000E+00  0.00000000E+00
  0.00000000E+00  0.00000000E+00  0.00000000E+00
  0.00000000E+00  0.00000000E+00  0.00000000E+00
  0.00000000E+00  0.00000000E+00  0.00000000E+00
  0.00000000E+00  0.00000000E+00  0.00000000E+00
  0.00000000E+00  0.00000000E+00  0.00000000E+00
  0.00000000E+00  0.00000000E+00  0.00000000E+00
  0.00000000E+00  0.00000000E+00  0.00000000E+00
  0.00000000E+00  0.00000000E+00  0.00000000E+00
  0.00000000E+00  0.00000000E+00  0.00000000E+00
  0.00000000E+00  0.00000000E+00  0.00000000E+00
  0.00000000E+00  0.00000000E+00  0.00000000E+00
  0.00000000E+00  0.00000000E+00  0.00000000E+00
  0.00000000E+00  0.00000000E+00  0.00000000E+00
  0.00000000E+00  0.00000000E+00  0.00000000E+00
