   3   3   0   0
  0.9682024E+01  0.2815536E-09  0.2815536E-09  0.4230916E-09  0.5000000E-15
  1.000000000000000E-004
  CAR 
 unknown system                          
     26.11637572    -35.85297486  301     10.71378894      1.00000000
    -35.853  0.0000E+00  0.0000E+00
    -35.646  0.0000E+00  0.0000E+00
    -35.440  0.0000E+00  0.0000E+00
    -35.233  0.0000E+00  0.0000E+00
    -35.027  0.0000E+00  0.0000E+00
    -34.820  0.0000E+00  0.0000E+00
    -34.614  0.0000E+00  0.0000E+00
    -34.407  0.0000E+00  0.0000E+00
    -34.200  0.0000E+00  0.0000E+00
    -33.994  0.0000E+00  0.0000E+00
    -33.787  0.0000E+00  0.0000E+00
    -33.581  0.0000E+00  0.0000E+00
    -33.374  0.0000E+00  0.0000E+00
    -33.168  0.3322E-05  0.6862E-06
    -32.961  0.3751E+01  0.7749E+00
    -32.755  0.1928E+02  0.4758E+01
    -32.548  0.3061E+02  0.1108E+02
    -32.341  0.4453E+01  0.1200E+02
    -32.135  0.2904E-04  0.1200E+02
    -31.928  0.0000E+00  0.1200E+02
    -31.722  0.0000E+00  0.1200E+02
    -31.515  0.0000E+00  0.1200E+02
    -31.309  0.0000E+00  0.1200E+02
    -31.102  0.0000E+00  0.1200E+02
    -30.895  0.0000E+00  0.1200E+02
    -30.689  0.0000E+00  0.1200E+02
    -30.482  0.0000E+00  0.1200E+02
    -30.276  0.0000E+00  0.1200E+02
    -30.069  0.0000E+00  0.1200E+02
    -29.863  0.0000E+00  0.1200E+02
    -29.656  0.0000E+00  0.1200E+02
    -29.449  0.0000E+00  0.1200E+02
    -29.243  0.0000E+00  0.1200E+02
    -29.036  0.0000E+00  0.1200E+02
    -28.830  0.0000E+00  0.1200E+02
    -28.623  0.0000E+00  0.1200E+02
    -28.417  0.0000E+00  0.1200E+02
    -28.210  0.0000E+00  0.1200E+02
    -28.004  0.0000E+00  0.1200E+02
    -27.797  0.0000E+00  0.1200E+02
    -27.590  0.0000E+00  0.1200E+02
    -27.384  0.0000E+00  0.1200E+02
    -27.177  0.0000E+00  0.1200E+02
    -26.971  0.0000E+00  0.1200E+02
    -26.764  0.0000E+00  0.1200E+02
    -26.558  0.0000E+00  0.1200E+02
    -26.351  0.0000E+00  0.1200E+02
    -26.144  0.0000E+00  0.1200E+02
    -25.938  0.0000E+00  0.1200E+02
    -25.731  0.0000E+00  0.1200E+02
    -25.525  0.0000E+00  0.1200E+02
    -25.318  0.0000E+00  0.1200E+02
    -25.112  0.0000E+00  0.1200E+02
    -24.905  0.0000E+00  0.1200E+02
    -24.698  0.0000E+00  0.1200E+02
    -24.492  0.0000E+00  0.1200E+02
    -24.285  0.0000E+00  0.1200E+02
    -24.079  0.0000E+00  0.1200E+02
    -23.872  0.0000E+00  0.1200E+02
    -23.666  0.0000E+00  0.1200E+02
    -23.459  0.0000E+00  0.1200E+02
    -23.253  0.0000E+00  0.1200E+02
    -23.046  0.0000E+00  0.1200E+02
    -22.839  0.0000E+00  0.1200E+02
    -22.633  0.0000E+00  0.1200E+02
    -22.426  0.0000E+00  0.1200E+02
    -22.220  0.0000E+00  0.1200E+02
    -22.013  0.0000E+00  0.1200E+02
    -21.807  0.0000E+00  0.1200E+02
    -21.600  0.0000E+00  0.1200E+02
    -21.393  0.0000E+00  0.1200E+02
    -21.187  0.0000E+00  0.1200E+02
    -20.980  0.0000E+00  0.1200E+02
    -20.774  0.0000E+00  0.1200E+02
    -20.567  0.0000E+00  0.1200E+02
    -20.361  0.0000E+00  0.1200E+02
    -20.154  0.0000E+00  0.1200E+02
    -19.948  0.0000E+00  0.1200E+02
    -19.741  0.0000E+00  0.1200E+02
    -19.534  0.0000E+00  0.1200E+02
    -19.328  0.0000E+00  0.1200E+02
    -19.121  0.0000E+00  0.1200E+02
    -18.915  0.0000E+00  0.1200E+02
    -18.708  0.0000E+00  0.1200E+02
    -18.502  0.0000E+00  0.1200E+02
    -18.295  0.0000E+00  0.1200E+02
    -18.088  0.0000E+00  0.1200E+02
    -17.882  0.0000E+00  0.1200E+02
    -17.675  0.0000E+00  0.1200E+02
    -17.469  0.0000E+00  0.1200E+02
    -17.262  0.0000E+00  0.1200E+02
    -17.056  0.0000E+00  0.1200E+02
    -16.849  0.0000E+00  0.1200E+02
    -16.642  0.0000E+00  0.1200E+02
    -16.436  0.0000E+00  0.1200E+02
    -16.229  0.0000E+00  0.1200E+02
    -16.023  0.0000E+00  0.1200E+02
    -15.816  0.0000E+00  0.1200E+02
    -15.610  0.0000E+00  0.1200E+02
    -15.403  0.0000E+00  0.1200E+02
    -15.197  0.0000E+00  0.1200E+02
    -14.990  0.0000E+00  0.1200E+02
    -14.783  0.0000E+00  0.1200E+02
    -14.577  0.0000E+00  0.1200E+02
    -14.370  0.0000E+00  0.1200E+02
    -14.164  0.0000E+00  0.1200E+02
    -13.957  0.0000E+00  0.1200E+02
    -13.751  0.0000E+00  0.1200E+02
    -13.544  0.0000E+00  0.1200E+02
    -13.337  0.0000E+00  0.1200E+02
    -13.131  0.0000E+00  0.1200E+02
    -12.924  0.0000E+00  0.1200E+02
    -12.718  0.0000E+00  0.1200E+02
    -12.511  0.0000E+00  0.1200E+02
    -12.305  0.0000E+00  0.1200E+02
    -12.098  0.0000E+00  0.1200E+02
    -11.891  0.0000E+00  0.1200E+02
    -11.685  0.0000E+00  0.1200E+02
    -11.478  0.0000E+00  0.1200E+02
    -11.272  0.0000E+00  0.1200E+02
    -11.065  0.0000E+00  0.1200E+02
    -10.859  0.0000E+00  0.1200E+02
    -10.652  0.0000E+00  0.1200E+02
    -10.446  0.0000E+00  0.1200E+02
    -10.239  0.0000E+00  0.1200E+02
    -10.032  0.0000E+00  0.1200E+02
     -9.826  0.0000E+00  0.1200E+02
     -9.619  0.0000E+00  0.1200E+02
     -9.413  0.0000E+00  0.1200E+02
     -9.206  0.0000E+00  0.1200E+02
     -9.000  0.0000E+00  0.1200E+02
     -8.793  0.0000E+00  0.1200E+02
     -8.586  0.0000E+00  0.1200E+02
     -8.380  0.0000E+00  0.1200E+02
     -8.173  0.0000E+00  0.1200E+02
     -7.967  0.0000E+00  0.1200E+02
     -7.760  0.0000E+00  0.1200E+02
     -7.554  0.0000E+00  0.1200E+02
     -7.347  0.0000E+00  0.1200E+02
     -7.141  0.0000E+00  0.1200E+02
     -6.934  0.0000E+00  0.1200E+02
     -6.727  0.0000E+00  0.1200E+02
     -6.521  0.0000E+00  0.1200E+02
     -6.314  0.0000E+00  0.1200E+02
     -6.108  0.0000E+00  0.1200E+02
     -5.901  0.0000E+00  0.1200E+02
     -5.695  0.0000E+00  0.1200E+02
     -5.488  0.0000E+00  0.1200E+02
     -5.281  0.0000E+00  0.1200E+02
     -5.075  0.0000E+00  0.1200E+02
     -4.868  0.0000E+00  0.1200E+02
     -4.662  0.0000E+00  0.1200E+02
     -4.455  0.0000E+00  0.1200E+02
     -4.249  0.0000E+00  0.1200E+02
     -4.042  0.0000E+00  0.1200E+02
     -3.835  0.0000E+00  0.1200E+02
     -3.629  0.0000E+00  0.1200E+02
     -3.422  0.0000E+00  0.1200E+02
     -3.216  0.7355E-10  0.1200E+02
     -3.009  0.8207E-02  0.1200E+02
     -2.803  0.1198E+00  0.1203E+02
     -2.596  0.2888E+00  0.1209E+02
     -2.390  0.4853E+00  0.1219E+02
     -2.183  0.5589E+00  0.1230E+02
     -1.976  0.3782E+00  0.1238E+02
     -1.770  0.7088E+00  0.1253E+02
     -1.563  0.7955E+00  0.1269E+02
     -1.357  0.2780E+00  0.1275E+02
     -1.150  0.1609E+01  0.1308E+02
     -0.944  0.6664E+00  0.1322E+02
     -0.737  0.2587E+01  0.1375E+02
     -0.530  0.1171E+01  0.1399E+02
     -0.324  0.2805E-01  0.1400E+02
     -0.117  0.0000E+00  0.1400E+02
      0.089  0.0000E+00  0.1400E+02
      0.296  0.0000E+00  0.1400E+02
      0.502  0.0000E+00  0.1400E+02
      0.709  0.0000E+00  0.1400E+02
      0.916  0.0000E+00  0.1400E+02
      1.122  0.0000E+00  0.1400E+02
      1.329  0.0000E+00  0.1400E+02
      1.535  0.0000E+00  0.1400E+02
      1.742  0.0000E+00  0.1400E+02
      1.948  0.0000E+00  0.1400E+02
      2.155  0.0000E+00  0.1400E+02
      2.361  0.0000E+00  0.1400E+02
      2.568  0.0000E+00  0.1400E+02
      2.775  0.0000E+00  0.1400E+02
      2.981  0.6627E-06  0.1400E+02
      3.188  0.2662E-01  0.1401E+02
      3.394  0.1159E+00  0.1403E+02
      3.601  0.1051E+00  0.1405E+02
      3.807  0.9912E+00  0.1426E+02
      4.014  0.1255E+01  0.1452E+02
      4.221  0.2121E+01  0.1495E+02
      4.427  0.1706E+01  0.1531E+02
      4.634  0.1983E+01  0.1572E+02
      4.840  0.9472E+00  0.1591E+02
      5.047  0.6728E+00  0.1605E+02
      5.253  0.9625E+00  0.1625E+02
      5.460  0.1432E+01  0.1654E+02
      5.666  0.2619E+01  0.1709E+02
      5.873  0.2572E+01  0.1762E+02
      6.080  0.2629E+01  0.1816E+02
      6.286  0.3171E+01  0.1881E+02
      6.493  0.2699E+01  0.1937E+02
      6.699  0.2214E+01  0.1983E+02
      6.906  0.8244E+00  0.2000E+02
      7.112  0.6030E-01  0.2001E+02
      7.319  0.4287E+00  0.2010E+02
      7.526  0.8380E+00  0.2027E+02
      7.732  0.8435E+00  0.2045E+02
      7.939  0.1963E+01  0.2085E+02
      8.145  0.2618E+01  0.2139E+02
      8.352  0.4444E+01  0.2231E+02
      8.558  0.4182E+01  0.2318E+02
      8.765  0.2507E+01  0.2369E+02
      8.972  0.2240E+01  0.2416E+02
      9.178  0.2355E+01  0.2464E+02
      9.385  0.3200E+01  0.2530E+02
      9.591  0.3039E+01  0.2593E+02
      9.798  0.1911E+01  0.2633E+02
     10.004  0.1772E+01  0.2669E+02
     10.211  0.1566E+01  0.2702E+02
     10.417  0.2180E+01  0.2747E+02
     10.624  0.1611E+01  0.2780E+02
     10.831  0.2385E+01  0.2829E+02
     11.037  0.3041E+01  0.2892E+02
     11.244  0.4031E+01  0.2975E+02
     11.450  0.4832E+01  0.3075E+02
     11.657  0.6666E+01  0.3213E+02
     11.863  0.6081E+01  0.3338E+02
     12.070  0.2708E+01  0.3394E+02
     12.277  0.2664E+01  0.3449E+02
     12.483  0.2365E+01  0.3498E+02
     12.690  0.1905E+01  0.3538E+02
     12.896  0.1017E+01  0.3559E+02
     13.103  0.1201E+01  0.3583E+02
     13.309  0.1200E+01  0.3608E+02
     13.516  0.1058E+01  0.3630E+02
     13.723  0.1249E+01  0.3656E+02
     13.929  0.1566E+01  0.3688E+02
     14.136  0.1171E+01  0.3712E+02
     14.342  0.2036E+01  0.3755E+02
     14.549  0.1089E+01  0.3777E+02
     14.755  0.2344E+01  0.3825E+02
     14.962  0.1620E+01  0.3859E+02
     15.168  0.1509E+01  0.3890E+02
     15.375  0.1289E+01  0.3917E+02
     15.582  0.1105E+01  0.3940E+02
     15.788  0.1513E+01  0.3971E+02
     15.995  0.1330E+01  0.3998E+02
     16.201  0.1087E+01  0.4021E+02
     16.408  0.8978E+00  0.4039E+02
     16.614  0.1276E+01  0.4066E+02
     16.821  0.1010E+01  0.4086E+02
     17.028  0.7360E+00  0.4102E+02
     17.234  0.1170E+01  0.4126E+02
     17.441  0.9721E+00  0.4146E+02
     17.647  0.1780E+02  0.4514E+02
     17.854  0.2962E+01  0.4575E+02
     18.060  0.5158E+00  0.4585E+02
     18.267  0.4713E+00  0.4595E+02
     18.473  0.2042E+00  0.4599E+02
     18.680  0.7563E-01  0.4601E+02
     18.887  0.1708E+00  0.4605E+02
     19.093  0.4346E+00  0.4614E+02
     19.300  0.5142E-01  0.4615E+02
     19.506  0.5711E+00  0.4626E+02
     19.713  0.7292E+00  0.4641E+02
     19.919  0.3483E+00  0.4649E+02
     20.126  0.5914E+00  0.4661E+02
     20.333  0.5950E+00  0.4673E+02
     20.539  0.6978E+00  0.4688E+02
     20.746  0.4852E+00  0.4698E+02
     20.952  0.8230E+00  0.4715E+02
     21.159  0.7030E+00  0.4729E+02
     21.365  0.5685E+00  0.4741E+02
     21.572  0.5359E+00  0.4752E+02
     21.779  0.5612E+00  0.4764E+02
     21.985  0.1995E+00  0.4768E+02
     22.192  0.2361E+00  0.4773E+02
     22.398  0.4034E+00  0.4781E+02
     22.605  0.2639E+00  0.4786E+02
     22.811  0.7716E-01  0.4788E+02
     23.018  0.2260E+00  0.4793E+02
     23.224  0.2738E+00  0.4798E+02
     23.431  0.8695E-01  0.4800E+02
     23.638  0.8299E-05  0.4800E+02
     23.844  0.0000E+00  0.4800E+02
     24.051  0.0000E+00  0.4800E+02
     24.257  0.0000E+00  0.4800E+02
     24.464  0.0000E+00  0.4800E+02
     24.670  0.0000E+00  0.4800E+02
     24.877  0.0000E+00  0.4800E+02
     25.084  0.0000E+00  0.4800E+02
     25.290  0.0000E+00  0.4800E+02
     25.497  0.0000E+00  0.4800E+02
     25.703  0.0000E+00  0.4800E+02
     25.910  0.0000E+00  0.4800E+02
     26.116  0.0000E+00  0.4800E+02
