Li8 O4                                  
   1.00000000000000     
     5.0445716999999997    0.0000000000000000    0.0000000000000000
     0.0000000000000000    3.0808823400000001    0.0000000000000000
     0.0000000000000000    0.0000000000000000    5.8165189599999998
   Li   O 
     8     4
Direct
     0.0115452699999992    0.2500000000000000    0.1593165700000014
     0.1411399599999967    0.2500000000000000    0.5797902899999983
     0.3588600400000033    0.7500000000000000    0.0797902899999983
     0.4884547300000008    0.7500000000000000    0.6593165700000014
     0.5115452699999992    0.2500000000000000    0.3406834299999986
     0.6411399599999967    0.2500000000000000    0.9202097100000017
     0.8588600400000033    0.7500000000000000    0.4202097100000017
     0.9884547300000008    0.7500000000000000    0.8406834299999986
     0.2464616399999997    0.7500000000000000    0.3996299000000008
     0.2535383600000003    0.2500000000000000    0.8996299000000008
     0.7464616399999997    0.7500000000000000    0.1003700999999992
     0.7535383600000003    0.2500000000000000    0.6003700999999992
 
  0.00000000E+00  0.00000000E+00  0.00000000E+00
  0.00000000E+00  0.00000000E+00  0.00000000E+00
  0.00000000E+00  0.00000000E+00  0.00000000E+00
  0.00000000E+00  0.00000000E+00  0.00000000E+00
  0.00000000E+00  0.00000000E+00  0.00000000E+00
  0.00000000E+00  0.00000000E+00  0.00000000E+00
  0.00000000E+00  0.00000000E+00  0.00000000E+00
  0.00000000E+00  0.00000000E+00  0.00000000E+00
  0.00000000E+00  0.00000000E+00  0.00000000E+00
  0.00000000E+00  0.00000000E+00  0.00000000E+00
  0.00000000E+00  0.00000000E+00  0.00000000E+00
  0.00000000E+00  0.00000000E+00  0.00000000E+00
