  12  12   0   0
  0.7533232E+01  0.5044572E-09  0.3080882E-09  0.5816519E-09  0.5000000E-15
  1.000000000000000E-004
  CAR 
 unknown system                          
     31.84757294    -44.93193507  301      2.47941113      1.00000000
    -44.932  0.0000E+00  0.0000E+00
    -44.676  0.0000E+00  0.0000E+00
    -44.420  0.0000E+00  0.0000E+00
    -44.164  0.0000E+00  0.0000E+00
    -43.908  0.0000E+00  0.0000E+00
    -43.652  0.0000E+00  0.0000E+00
    -43.396  0.0000E+00  0.0000E+00
    -43.140  0.0000E+00  0.0000E+00
    -42.884  0.0000E+00  0.0000E+00
    -42.629  0.0000E+00  0.0000E+00
    -42.373  0.0000E+00  0.0000E+00
    -42.117  0.0000E+00  0.0000E+00
    -41.861  0.0000E+00  0.0000E+00
    -41.605  0.7739E-06  0.1981E-06
    -41.349  0.1985E+02  0.5081E+01
    -41.093  0.1141E+02  0.8000E+01
    -40.837  0.4309E-04  0.8000E+01
    -40.581  0.2415E+02  0.1418E+02
    -40.325  0.7106E+01  0.1600E+02
    -40.069  0.0000E+00  0.1600E+02
    -39.813  0.0000E+00  0.1600E+02
    -39.557  0.0000E+00  0.1600E+02
    -39.301  0.0000E+00  0.1600E+02
    -39.046  0.0000E+00  0.1600E+02
    -38.790  0.0000E+00  0.1600E+02
    -38.534  0.0000E+00  0.1600E+02
    -38.278  0.0000E+00  0.1600E+02
    -38.022  0.0000E+00  0.1600E+02
    -37.766  0.0000E+00  0.1600E+02
    -37.510  0.0000E+00  0.1600E+02
    -37.254  0.0000E+00  0.1600E+02
    -36.998  0.0000E+00  0.1600E+02
    -36.742  0.0000E+00  0.1600E+02
    -36.486  0.0000E+00  0.1600E+02
    -36.230  0.0000E+00  0.1600E+02
    -35.974  0.0000E+00  0.1600E+02
    -35.718  0.0000E+00  0.1600E+02
    -35.462  0.0000E+00  0.1600E+02
    -35.207  0.0000E+00  0.1600E+02
    -34.951  0.0000E+00  0.1600E+02
    -34.695  0.0000E+00  0.1600E+02
    -34.439  0.0000E+00  0.1600E+02
    -34.183  0.0000E+00  0.1600E+02
    -33.927  0.0000E+00  0.1600E+02
    -33.671  0.0000E+00  0.1600E+02
    -33.415  0.0000E+00  0.1600E+02
    -33.159  0.0000E+00  0.1600E+02
    -32.903  0.0000E+00  0.1600E+02
    -32.647  0.0000E+00  0.1600E+02
    -32.391  0.0000E+00  0.1600E+02
    -32.135  0.0000E+00  0.1600E+02
    -31.879  0.0000E+00  0.1600E+02
    -31.623  0.0000E+00  0.1600E+02
    -31.368  0.0000E+00  0.1600E+02
    -31.112  0.0000E+00  0.1600E+02
    -30.856  0.0000E+00  0.1600E+02
    -30.600  0.0000E+00  0.1600E+02
    -30.344  0.0000E+00  0.1600E+02
    -30.088  0.0000E+00  0.1600E+02
    -29.832  0.0000E+00  0.1600E+02
    -29.576  0.0000E+00  0.1600E+02
    -29.320  0.0000E+00  0.1600E+02
    -29.064  0.0000E+00  0.1600E+02
    -28.808  0.0000E+00  0.1600E+02
    -28.552  0.0000E+00  0.1600E+02
    -28.296  0.0000E+00  0.1600E+02
    -28.040  0.0000E+00  0.1600E+02
    -27.785  0.0000E+00  0.1600E+02
    -27.529  0.0000E+00  0.1600E+02
    -27.273  0.0000E+00  0.1600E+02
    -27.017  0.0000E+00  0.1600E+02
    -26.761  0.0000E+00  0.1600E+02
    -26.505  0.0000E+00  0.1600E+02
    -26.249  0.0000E+00  0.1600E+02
    -25.993  0.0000E+00  0.1600E+02
    -25.737  0.0000E+00  0.1600E+02
    -25.481  0.0000E+00  0.1600E+02
    -25.225  0.0000E+00  0.1600E+02
    -24.969  0.0000E+00  0.1600E+02
    -24.713  0.0000E+00  0.1600E+02
    -24.457  0.0000E+00  0.1600E+02
    -24.201  0.0000E+00  0.1600E+02
    -23.946  0.0000E+00  0.1600E+02
    -23.690  0.0000E+00  0.1600E+02
    -23.434  0.0000E+00  0.1600E+02
    -23.178  0.0000E+00  0.1600E+02
    -22.922  0.0000E+00  0.1600E+02
    -22.666  0.0000E+00  0.1600E+02
    -22.410  0.0000E+00  0.1600E+02
    -22.154  0.0000E+00  0.1600E+02
    -21.898  0.0000E+00  0.1600E+02
    -21.642  0.0000E+00  0.1600E+02
    -21.386  0.0000E+00  0.1600E+02
    -21.130  0.0000E+00  0.1600E+02
    -20.874  0.0000E+00  0.1600E+02
    -20.618  0.0000E+00  0.1600E+02
    -20.362  0.0000E+00  0.1600E+02
    -20.107  0.0000E+00  0.1600E+02
    -19.851  0.0000E+00  0.1600E+02
    -19.595  0.0000E+00  0.1600E+02
    -19.339  0.0000E+00  0.1600E+02
    -19.083  0.0000E+00  0.1600E+02
    -18.827  0.0000E+00  0.1600E+02
    -18.571  0.0000E+00  0.1600E+02
    -18.315  0.0000E+00  0.1600E+02
    -18.059  0.0000E+00  0.1600E+02
    -17.803  0.0000E+00  0.1600E+02
    -17.547  0.0000E+00  0.1600E+02
    -17.291  0.0000E+00  0.1600E+02
    -17.035  0.0000E+00  0.1600E+02
    -16.779  0.0000E+00  0.1600E+02
    -16.524  0.0000E+00  0.1600E+02
    -16.268  0.0000E+00  0.1600E+02
    -16.012  0.0000E+00  0.1600E+02
    -15.756  0.0000E+00  0.1600E+02
    -15.500  0.0000E+00  0.1600E+02
    -15.244  0.0000E+00  0.1600E+02
    -14.988  0.0000E+00  0.1600E+02
    -14.732  0.0000E+00  0.1600E+02
    -14.476  0.0000E+00  0.1600E+02
    -14.220  0.0000E+00  0.1600E+02
    -13.964  0.0000E+00  0.1600E+02
    -13.708  0.1269E-02  0.1600E+02
    -13.452  0.3672E+01  0.1694E+02
    -13.196  0.2075E+02  0.2225E+02
    -12.940  0.6835E+01  0.2400E+02
    -12.685  0.2562E-04  0.2400E+02
    -12.429  0.0000E+00  0.2400E+02
    -12.173  0.0000E+00  0.2400E+02
    -11.917  0.0000E+00  0.2400E+02
    -11.661  0.0000E+00  0.2400E+02
    -11.405  0.0000E+00  0.2400E+02
    -11.149  0.0000E+00  0.2400E+02
    -10.893  0.0000E+00  0.2400E+02
    -10.637  0.0000E+00  0.2400E+02
    -10.381  0.0000E+00  0.2400E+02
    -10.125  0.0000E+00  0.2400E+02
     -9.869  0.0000E+00  0.2400E+02
     -9.613  0.0000E+00  0.2400E+02
     -9.357  0.0000E+00  0.2400E+02
     -9.101  0.0000E+00  0.2400E+02
     -8.846  0.0000E+00  0.2400E+02
     -8.590  0.0000E+00  0.2400E+02
     -8.334  0.0000E+00  0.2400E+02
     -8.078  0.0000E+00  0.2400E+02
     -7.822  0.0000E+00  0.2400E+02
     -7.566  0.0000E+00  0.2400E+02
     -7.310  0.0000E+00  0.2400E+02
     -7.054  0.0000E+00  0.2400E+02
     -6.798  0.0000E+00  0.2400E+02
     -6.542  0.0000E+00  0.2400E+02
     -6.286  0.0000E+00  0.2400E+02
     -6.030  0.0000E+00  0.2400E+02
     -5.774  0.0000E+00  0.2400E+02
     -5.518  0.0000E+00  0.2400E+02
     -5.263  0.0000E+00  0.2400E+02
     -5.007  0.0000E+00  0.2400E+02
     -4.751  0.0000E+00  0.2400E+02
     -4.495  0.0000E+00  0.2400E+02
     -4.239  0.0000E+00  0.2400E+02
     -3.983  0.0000E+00  0.2400E+02
     -3.727  0.0000E+00  0.2400E+02
     -3.471  0.0000E+00  0.2400E+02
     -3.215  0.0000E+00  0.2400E+02
     -2.959  0.0000E+00  0.2400E+02
     -2.703  0.0000E+00  0.2400E+02
     -2.447  0.0000E+00  0.2400E+02
     -2.191  0.0000E+00  0.2400E+02
     -1.935  0.0000E+00  0.2400E+02
     -1.679  0.0000E+00  0.2400E+02
     -1.424  0.0000E+00  0.2400E+02
     -1.168  0.1928E-17  0.2400E+02
     -0.912  0.5896E-02  0.2400E+02
     -0.656  0.1934E+01  0.2450E+02
     -0.400  0.1118E+02  0.2736E+02
     -0.144  0.7715E+01  0.2933E+02
      0.112  0.5207E+01  0.3066E+02
      0.368  0.6729E+01  0.3239E+02
      0.624  0.8500E+01  0.3456E+02
      0.880  0.7847E+01  0.3657E+02
      1.136  0.9182E+01  0.3892E+02
      1.392  0.9769E+01  0.4142E+02
      1.648  0.1088E+02  0.4421E+02
      1.904  0.1134E+02  0.4711E+02
      2.159  0.3302E+01  0.4795E+02
      2.415  0.1784E+00  0.4800E+02
      2.671  0.0000E+00  0.4800E+02
      2.927  0.0000E+00  0.4800E+02
      3.183  0.0000E+00  0.4800E+02
      3.439  0.0000E+00  0.4800E+02
      3.695  0.0000E+00  0.4800E+02
      3.951  0.0000E+00  0.4800E+02
      4.207  0.0000E+00  0.4800E+02
      4.463  0.0000E+00  0.4800E+02
      4.719  0.0000E+00  0.4800E+02
      4.975  0.0000E+00  0.4800E+02
      5.231  0.0000E+00  0.4800E+02
      5.487  0.0000E+00  0.4800E+02
      5.743  0.0000E+00  0.4800E+02
      5.998  0.0000E+00  0.4800E+02
      6.254  0.0000E+00  0.4800E+02
      6.510  0.0000E+00  0.4800E+02
      6.766  0.0000E+00  0.4800E+02
      7.022  0.0000E+00  0.4800E+02
      7.278  0.0000E+00  0.4800E+02
      7.534  0.0000E+00  0.4800E+02
      7.790  0.1836E-12  0.4800E+02
      8.046  0.2328E-01  0.4801E+02
      8.302  0.1961E+00  0.4806E+02
      8.558  0.4451E+00  0.4817E+02
      8.814  0.4813E+00  0.4829E+02
      9.070  0.2281E+01  0.4888E+02
      9.326  0.5308E+01  0.5024E+02
      9.582  0.6821E+01  0.5198E+02
      9.837  0.4655E+01  0.5317E+02
     10.093  0.3774E+01  0.5414E+02
     10.349  0.3730E+01  0.5509E+02
     10.605  0.1738E+01  0.5554E+02
     10.861  0.1143E+01  0.5583E+02
     11.117  0.2598E+01  0.5650E+02
     11.373  0.3053E+01  0.5728E+02
     11.629  0.4611E+01  0.5846E+02
     11.885  0.3962E+01  0.5947E+02
     12.141  0.5701E+01  0.6093E+02
     12.397  0.4642E+01  0.6212E+02
     12.653  0.3948E+01  0.6313E+02
     12.909  0.2395E+01  0.6374E+02
     13.165  0.7890E+00  0.6394E+02
     13.420  0.1264E+01  0.6427E+02
     13.676  0.1700E+01  0.6470E+02
     13.932  0.1975E+01  0.6521E+02
     14.188  0.2292E+01  0.6579E+02
     14.444  0.2143E+01  0.6634E+02
     14.700  0.1378E+01  0.6670E+02
     14.956  0.3918E+01  0.6770E+02
     15.212  0.3001E+01  0.6847E+02
     15.468  0.3544E+01  0.6937E+02
     15.724  0.5168E+01  0.7070E+02
     15.980  0.5094E+01  0.7200E+02
     16.236  0.4162E+01  0.7306E+02
     16.492  0.3909E+01  0.7406E+02
     16.748  0.3798E+01  0.7504E+02
     17.004  0.3673E+01  0.7598E+02
     17.259  0.5470E+01  0.7738E+02
     17.515  0.4271E+01  0.7847E+02
     17.771  0.3030E+01  0.7925E+02
     18.027  0.2657E+01  0.7993E+02
     18.283  0.1254E+01  0.8025E+02
     18.539  0.1188E+01  0.8055E+02
     18.795  0.1873E+01  0.8103E+02
     19.051  0.1501E+01  0.8141E+02
     19.307  0.2249E+01  0.8199E+02
     19.563  0.3128E+01  0.8279E+02
     19.819  0.2854E+01  0.8352E+02
     20.075  0.2516E+01  0.8416E+02
     20.331  0.3876E+01  0.8516E+02
     20.587  0.3959E+01  0.8617E+02
     20.843  0.4327E+01  0.8728E+02
     21.098  0.4135E+01  0.8834E+02
     21.354  0.4669E+01  0.8953E+02
     21.610  0.4842E+01  0.9077E+02
     21.866  0.3987E+01  0.9179E+02
     22.122  0.3790E+01  0.9276E+02
     22.378  0.4157E+01  0.9382E+02
     22.634  0.4421E+01  0.9496E+02
     22.890  0.4457E+01  0.9610E+02
     23.146  0.4994E+01  0.9737E+02
     23.402  0.4145E+01  0.9843E+02
     23.658  0.3360E+01  0.9929E+02
     23.914  0.2663E+01  0.9998E+02
     24.170  0.3055E+01  0.1008E+03
     24.426  0.3203E+01  0.1016E+03
     24.681  0.2028E+01  0.1021E+03
     24.937  0.2737E+01  0.1028E+03
     25.193  0.2756E+01  0.1035E+03
     25.449  0.1543E+01  0.1039E+03
     25.705  0.2287E+01  0.1045E+03
     25.961  0.2695E+01  0.1052E+03
     26.217  0.3562E+01  0.1061E+03
     26.473  0.4288E+01  0.1072E+03
     26.729  0.3142E+01  0.1080E+03
     26.985  0.5226E+01  0.1093E+03
     27.241  0.3953E+01  0.1103E+03
     27.497  0.2945E+01  0.1111E+03
     27.753  0.1918E+01  0.1116E+03
     28.009  0.1498E+01  0.1120E+03
     28.265  0.1785E-01  0.1120E+03
     28.520  0.1256E+00  0.1120E+03
     28.776  0.0000E+00  0.1120E+03
     29.032  0.0000E+00  0.1120E+03
     29.288  0.0000E+00  0.1120E+03
     29.544  0.0000E+00  0.1120E+03
     29.800  0.0000E+00  0.1120E+03
     30.056  0.0000E+00  0.1120E+03
     30.312  0.0000E+00  0.1120E+03
     30.568  0.0000E+00  0.1120E+03
     30.824  0.0000E+00  0.1120E+03
     31.080  0.0000E+00  0.1120E+03
     31.336  0.0000E+00  0.1120E+03
     31.592  0.0000E+00  0.1120E+03
     31.848  0.0000E+00  0.1120E+03
