Li8O4
1.0
      5.0445717       0.0000000       0.0000000
      0.0000000       3.0808823       0.0000000
      0.0000000       0.0000000       5.8165190
  Li    O   
  8     4   
Direct
      0.0115453       0.2500000       0.1593166
      0.1411400       0.2500000       0.5797903
      0.3588600       0.7500000       0.0797903
      0.4884547       0.7500000       0.6593166
      0.5115453       0.2500000       0.3406834
      0.6411400       0.2500000       0.9202097
      0.8588600       0.7500000       0.4202097
      0.9884547       0.7500000       0.8406834
      0.2464616       0.7500000       0.3996299
      0.2535384       0.2500000       0.8996299
      0.7464616       0.7500000       0.1003701
      0.7535384       0.2500000       0.6003701
