unknown system                          
           1
     5.044572    0.000000    0.000000
     0.000000    3.080882    0.000000
     0.000000    0.000000    5.816519
   Li   O 
     8     4
Direct configuration=     1
   0.01154527  0.25000000  0.15931657
   0.14113996  0.25000000  0.57979029
   0.35886004  0.75000000  0.07979029
   0.48845473  0.75000000  0.65931657
   0.51154527  0.25000000  0.34068343
   0.64113996  0.25000000  0.92020971
   0.85886004  0.75000000  0.42020971
   0.98845473  0.75000000  0.84068343
   0.24646164  0.75000000  0.39962990
   0.25353836  0.25000000  0.89962990
   0.74646164  0.75000000  0.10037010
   0.75353836  0.25000000  0.60037010
