Re6 Pd2                                 
   1.00000000000000     
     5.5403349899999998   -0.0000031600000000    0.0000000000000000
    -2.7701692200000001    4.7980771400000002    0.0000000000000000
     0.0000000000000000    0.0000000000000000    4.4159674000000004
   Re   Pd
     6     2
Direct
     0.8403477100000032    0.1596375900000027    0.7500009999999975
     0.3192895800000031    0.1596372599999967    0.7500009999999975
     0.8403579100000016    0.6807155600000030    0.7500009999999975
     0.1596368800000008    0.8403521299999994    0.2500009999999975
     0.6807136899999975    0.8403492500000027    0.2500009999999975
     0.1596464699999984    0.3192890799999972    0.2500009999999975
     0.6666687199999970    0.3333399099999994    0.2500009999999975
     0.3333360399999989    0.6666732300000007    0.7500009999999975
 
  0.00000000E+00  0.00000000E+00  0.00000000E+00
  0.00000000E+00  0.00000000E+00  0.00000000E+00
  0.00000000E+00  0.00000000E+00  0.00000000E+00
  0.00000000E+00  0.00000000E+00  0.00000000E+00
  0.00000000E+00  0.00000000E+00  0.00000000E+00
  0.00000000E+00  0.00000000E+00  0.00000000E+00
  0.00000000E+00  0.00000000E+00  0.00000000E+00
  0.00000000E+00  0.00000000E+00  0.00000000E+00
