Ca3 Zn1                                 
   1.00000000000000     
    -2.5090569999999999    2.5090569999999999    5.2616019999999999
     2.5090569999999999   -2.5090569999999999    5.2616019999999999
     2.5090569999999999    2.5090569999999999   -5.2616019999999999
   Ca   Zn
     3     1
Direct
     0.5000000000000000    0.5000000000000000    0.0000000000000000
     0.2500000000000000    0.7500000000000000    0.5000000000000000
     0.7500000000000000    0.2500000000000000    0.5000000000000000
     0.0000000000000000    0.0000000000000000    0.0000000000000000
 
  0.00000000E+00  0.00000000E+00  0.00000000E+00
  0.00000000E+00  0.00000000E+00  0.00000000E+00
  0.00000000E+00  0.00000000E+00  0.00000000E+00
  0.00000000E+00  0.00000000E+00  0.00000000E+00
