       N       E                     dE             d eps       ncg     rms          rms(c)
DAV:   1     0.710148473509E+03    0.71015E+03   -0.50846E+04  9360   0.180E+03
DAV:   2    -0.153085958107E+02   -0.72546E+03   -0.71094E+03 12148   0.396E+02
DAV:   3    -0.733266544489E+02   -0.58018E+02   -0.57697E+02 12856   0.108E+02
DAV:   4    -0.754983597684E+02   -0.21717E+01   -0.21680E+01 13720   0.188E+01
DAV:   5    -0.756328924322E+02   -0.13453E+00   -0.13451E+00 13552   0.299E+00    0.337E+01
DAV:   6    -0.690299114748E+02    0.66030E+01   -0.25019E+01 10980   0.192E+01    0.278E+01
DAV:   7    -0.687641257934E+02    0.26579E+00   -0.22039E+00 12544   0.661E+00    0.125E+01
DAV:   8    -0.687603980319E+02    0.37278E-02   -0.41590E-01 10784   0.360E+00    0.130E+00
DAV:   9    -0.687774897908E+02   -0.17092E-01   -0.11547E-01 11456   0.168E+00    0.543E-01
DAV:  10    -0.687788990253E+02   -0.14092E-02   -0.13522E-02 11916   0.672E-01    0.314E-01
DAV:  11    -0.687814281143E+02   -0.25291E-02   -0.55121E-03 11484   0.342E-01    0.921E-02
DAV:  12    -0.687815697784E+02   -0.14166E-03   -0.68380E-04 12600   0.140E-01    0.507E-02
DAV:  13    -0.687817629245E+02   -0.19315E-03   -0.29399E-04 10088   0.783E-02    0.286E-02
DAV:  14    -0.687817726114E+02   -0.96868E-05   -0.31293E-05 13576   0.267E-02    0.641E-03
DAV:  15    -0.687817763585E+02   -0.37471E-05   -0.52238E-06  8904   0.114E-02    0.290E-03
DAV:  16    -0.687817770619E+02   -0.70342E-06   -0.11511E-06  8240   0.512E-03
   1 F= -.68781777E+02 E0= -.68781777E+02  d E =-.445178E-11
