   1   1   0   0
  0.4271059E+02  0.3814047E-09  0.3814047E-09  0.3814047E-09  0.5000000E-15
  1.000000000000000E-004
  CAR 
 unknown system                          
      7.84820664    -42.44124464  301      1.98124378      1.00000000
    -42.441  0.0000E+00  0.0000E+00
    -42.274  0.0000E+00  0.0000E+00
    -42.106  0.0000E+00  0.0000E+00
    -41.938  0.0000E+00  0.0000E+00
    -41.771  0.0000E+00  0.0000E+00
    -41.603  0.0000E+00  0.0000E+00
    -41.435  0.0000E+00  0.0000E+00
    -41.268  0.0000E+00  0.0000E+00
    -41.100  0.0000E+00  0.0000E+00
    -40.933  0.0000E+00  0.0000E+00
    -40.765  0.0000E+00  0.0000E+00
    -40.597  0.0000E+00  0.0000E+00
    -40.430  0.5236E-14  0.8778E-15
    -40.262  0.4920E-02  0.8248E-03
    -40.094  0.1089E+02  0.1826E+01
    -39.927  0.1038E+01  0.2000E+01
    -39.759  0.7727E-08  0.2000E+01
    -39.592  0.0000E+00  0.2000E+01
    -39.424  0.0000E+00  0.2000E+01
    -39.256  0.0000E+00  0.2000E+01
    -39.089  0.0000E+00  0.2000E+01
    -38.921  0.0000E+00  0.2000E+01
    -38.753  0.0000E+00  0.2000E+01
    -38.586  0.0000E+00  0.2000E+01
    -38.418  0.0000E+00  0.2000E+01
    -38.250  0.0000E+00  0.2000E+01
    -38.083  0.0000E+00  0.2000E+01
    -37.915  0.0000E+00  0.2000E+01
    -37.748  0.0000E+00  0.2000E+01
    -37.580  0.0000E+00  0.2000E+01
    -37.412  0.0000E+00  0.2000E+01
    -37.245  0.0000E+00  0.2000E+01
    -37.077  0.0000E+00  0.2000E+01
    -36.909  0.0000E+00  0.2000E+01
    -36.742  0.0000E+00  0.2000E+01
    -36.574  0.0000E+00  0.2000E+01
    -36.407  0.0000E+00  0.2000E+01
    -36.239  0.0000E+00  0.2000E+01
    -36.071  0.0000E+00  0.2000E+01
    -35.904  0.0000E+00  0.2000E+01
    -35.736  0.0000E+00  0.2000E+01
    -35.568  0.0000E+00  0.2000E+01
    -35.401  0.0000E+00  0.2000E+01
    -35.233  0.0000E+00  0.2000E+01
    -35.065  0.0000E+00  0.2000E+01
    -34.898  0.0000E+00  0.2000E+01
    -34.730  0.0000E+00  0.2000E+01
    -34.563  0.0000E+00  0.2000E+01
    -34.395  0.0000E+00  0.2000E+01
    -34.227  0.0000E+00  0.2000E+01
    -34.060  0.0000E+00  0.2000E+01
    -33.892  0.0000E+00  0.2000E+01
    -33.724  0.0000E+00  0.2000E+01
    -33.557  0.0000E+00  0.2000E+01
    -33.389  0.0000E+00  0.2000E+01
    -33.222  0.0000E+00  0.2000E+01
    -33.054  0.0000E+00  0.2000E+01
    -32.886  0.0000E+00  0.2000E+01
    -32.719  0.0000E+00  0.2000E+01
    -32.551  0.0000E+00  0.2000E+01
    -32.383  0.0000E+00  0.2000E+01
    -32.216  0.0000E+00  0.2000E+01
    -32.048  0.0000E+00  0.2000E+01
    -31.880  0.0000E+00  0.2000E+01
    -31.713  0.0000E+00  0.2000E+01
    -31.545  0.0000E+00  0.2000E+01
    -31.378  0.0000E+00  0.2000E+01
    -31.210  0.0000E+00  0.2000E+01
    -31.042  0.0000E+00  0.2000E+01
    -30.875  0.0000E+00  0.2000E+01
    -30.707  0.0000E+00  0.2000E+01
    -30.539  0.0000E+00  0.2000E+01
    -30.372  0.0000E+00  0.2000E+01
    -30.204  0.0000E+00  0.2000E+01
    -30.037  0.0000E+00  0.2000E+01
    -29.869  0.0000E+00  0.2000E+01
    -29.701  0.0000E+00  0.2000E+01
    -29.534  0.0000E+00  0.2000E+01
    -29.366  0.0000E+00  0.2000E+01
    -29.198  0.0000E+00  0.2000E+01
    -29.031  0.0000E+00  0.2000E+01
    -28.863  0.0000E+00  0.2000E+01
    -28.695  0.0000E+00  0.2000E+01
    -28.528  0.0000E+00  0.2000E+01
    -28.360  0.0000E+00  0.2000E+01
    -28.193  0.0000E+00  0.2000E+01
    -28.025  0.0000E+00  0.2000E+01
    -27.857  0.0000E+00  0.2000E+01
    -27.690  0.0000E+00  0.2000E+01
    -27.522  0.0000E+00  0.2000E+01
    -27.354  0.0000E+00  0.2000E+01
    -27.187  0.0000E+00  0.2000E+01
    -27.019  0.0000E+00  0.2000E+01
    -26.852  0.0000E+00  0.2000E+01
    -26.684  0.0000E+00  0.2000E+01
    -26.516  0.0000E+00  0.2000E+01
    -26.349  0.0000E+00  0.2000E+01
    -26.181  0.0000E+00  0.2000E+01
    -26.013  0.0000E+00  0.2000E+01
    -25.846  0.0000E+00  0.2000E+01
    -25.678  0.0000E+00  0.2000E+01
    -25.510  0.0000E+00  0.2000E+01
    -25.343  0.0000E+00  0.2000E+01
    -25.175  0.0000E+00  0.2000E+01
    -25.008  0.0000E+00  0.2000E+01
    -24.840  0.0000E+00  0.2000E+01
    -24.672  0.0000E+00  0.2000E+01
    -24.505  0.0000E+00  0.2000E+01
    -24.337  0.0000E+00  0.2000E+01
    -24.169  0.0000E+00  0.2000E+01
    -24.002  0.0000E+00  0.2000E+01
    -23.834  0.0000E+00  0.2000E+01
    -23.667  0.0000E+00  0.2000E+01
    -23.499  0.0000E+00  0.2000E+01
    -23.331  0.0000E+00  0.2000E+01
    -23.164  0.0000E+00  0.2000E+01
    -22.996  0.0000E+00  0.2000E+01
    -22.828  0.0000E+00  0.2000E+01
    -22.661  0.0000E+00  0.2000E+01
    -22.493  0.0000E+00  0.2000E+01
    -22.325  0.0000E+00  0.2000E+01
    -22.158  0.0000E+00  0.2000E+01
    -21.990  0.0000E+00  0.2000E+01
    -21.823  0.0000E+00  0.2000E+01
    -21.655  0.0000E+00  0.2000E+01
    -21.487  0.1863E-15  0.2000E+01
    -21.320  0.7284E-03  0.2000E+01
    -21.152  0.1190E+02  0.3996E+01
    -20.984  0.2386E+02  0.7995E+01
    -20.817  0.3129E-01  0.8000E+01
    -20.649  0.0000E+00  0.8000E+01
    -20.482  0.0000E+00  0.8000E+01
    -20.314  0.0000E+00  0.8000E+01
    -20.146  0.0000E+00  0.8000E+01
    -19.979  0.0000E+00  0.8000E+01
    -19.811  0.0000E+00  0.8000E+01
    -19.643  0.0000E+00  0.8000E+01
    -19.476  0.0000E+00  0.8000E+01
    -19.308  0.0000E+00  0.8000E+01
    -19.140  0.0000E+00  0.8000E+01
    -18.973  0.0000E+00  0.8000E+01
    -18.805  0.0000E+00  0.8000E+01
    -18.638  0.0000E+00  0.8000E+01
    -18.470  0.0000E+00  0.8000E+01
    -18.302  0.0000E+00  0.8000E+01
    -18.135  0.0000E+00  0.8000E+01
    -17.967  0.0000E+00  0.8000E+01
    -17.799  0.0000E+00  0.8000E+01
    -17.632  0.0000E+00  0.8000E+01
    -17.464  0.0000E+00  0.8000E+01
    -17.297  0.0000E+00  0.8000E+01
    -17.129  0.0000E+00  0.8000E+01
    -16.961  0.0000E+00  0.8000E+01
    -16.794  0.0000E+00  0.8000E+01
    -16.626  0.0000E+00  0.8000E+01
    -16.458  0.0000E+00  0.8000E+01
    -16.291  0.0000E+00  0.8000E+01
    -16.123  0.0000E+00  0.8000E+01
    -15.955  0.0000E+00  0.8000E+01
    -15.788  0.0000E+00  0.8000E+01
    -15.620  0.0000E+00  0.8000E+01
    -15.453  0.0000E+00  0.8000E+01
    -15.285  0.0000E+00  0.8000E+01
    -15.117  0.0000E+00  0.8000E+01
    -14.950  0.0000E+00  0.8000E+01
    -14.782  0.0000E+00  0.8000E+01
    -14.614  0.0000E+00  0.8000E+01
    -14.447  0.0000E+00  0.8000E+01
    -14.279  0.0000E+00  0.8000E+01
    -14.112  0.0000E+00  0.8000E+01
    -13.944  0.0000E+00  0.8000E+01
    -13.776  0.0000E+00  0.8000E+01
    -13.609  0.0000E+00  0.8000E+01
    -13.441  0.0000E+00  0.8000E+01
    -13.273  0.0000E+00  0.8000E+01
    -13.106  0.0000E+00  0.8000E+01
    -12.938  0.0000E+00  0.8000E+01
    -12.770  0.0000E+00  0.8000E+01
    -12.603  0.0000E+00  0.8000E+01
    -12.435  0.0000E+00  0.8000E+01
    -12.268  0.0000E+00  0.8000E+01
    -12.100  0.0000E+00  0.8000E+01
    -11.932  0.0000E+00  0.8000E+01
    -11.765  0.0000E+00  0.8000E+01
    -11.597  0.0000E+00  0.8000E+01
    -11.429  0.0000E+00  0.8000E+01
    -11.262  0.0000E+00  0.8000E+01
    -11.094  0.0000E+00  0.8000E+01
    -10.927  0.0000E+00  0.8000E+01
    -10.759  0.0000E+00  0.8000E+01
    -10.591  0.0000E+00  0.8000E+01
    -10.424  0.0000E+00  0.8000E+01
    -10.256  0.0000E+00  0.8000E+01
    -10.088  0.0000E+00  0.8000E+01
     -9.921  0.0000E+00  0.8000E+01
     -9.753  0.0000E+00  0.8000E+01
     -9.585  0.0000E+00  0.8000E+01
     -9.418  0.0000E+00  0.8000E+01
     -9.250  0.0000E+00  0.8000E+01
     -9.083  0.0000E+00  0.8000E+01
     -8.915  0.0000E+00  0.8000E+01
     -8.747  0.0000E+00  0.8000E+01
     -8.580  0.0000E+00  0.8000E+01
     -8.412  0.0000E+00  0.8000E+01
     -8.244  0.0000E+00  0.8000E+01
     -8.077  0.0000E+00  0.8000E+01
     -7.909  0.0000E+00  0.8000E+01
     -7.742  0.0000E+00  0.8000E+01
     -7.574  0.0000E+00  0.8000E+01
     -7.406  0.0000E+00  0.8000E+01
     -7.239  0.0000E+00  0.8000E+01
     -7.071  0.0000E+00  0.8000E+01
     -6.903  0.0000E+00  0.8000E+01
     -6.736  0.0000E+00  0.8000E+01
     -6.568  0.0000E+00  0.8000E+01
     -6.400  0.0000E+00  0.8000E+01
     -6.233  0.0000E+00  0.8000E+01
     -6.065  0.0000E+00  0.8000E+01
     -5.898  0.0000E+00  0.8000E+01
     -5.730  0.0000E+00  0.8000E+01
     -5.562  0.0000E+00  0.8000E+01
     -5.395  0.0000E+00  0.8000E+01
     -5.227  0.0000E+00  0.8000E+01
     -5.059  0.0000E+00  0.8000E+01
     -4.892  0.0000E+00  0.8000E+01
     -4.724  0.0000E+00  0.8000E+01
     -4.557  0.0000E+00  0.8000E+01
     -4.389  0.0000E+00  0.8000E+01
     -4.221  0.0000E+00  0.8000E+01
     -4.054  0.0000E+00  0.8000E+01
     -3.886  0.0000E+00  0.8000E+01
     -3.718  0.0000E+00  0.8000E+01
     -3.551  0.0000E+00  0.8000E+01
     -3.383  0.0000E+00  0.8000E+01
     -3.215  0.0000E+00  0.8000E+01
     -3.048  0.0000E+00  0.8000E+01
     -2.880  0.0000E+00  0.8000E+01
     -2.713  0.0000E+00  0.8000E+01
     -2.545  0.0000E+00  0.8000E+01
     -2.377  0.0000E+00  0.8000E+01
     -2.210  0.1088E-13  0.8000E+01
     -2.042  0.5778E-03  0.8000E+01
     -1.874  0.1367E+00  0.8023E+01
     -1.707  0.3589E-01  0.8029E+01
     -1.539  0.1531E+00  0.8055E+01
     -1.372  0.4698E+00  0.8133E+01
     -1.204  0.8938E-01  0.8148E+01
     -1.036  0.1706E-04  0.8148E+01
     -0.869  0.5246E+00  0.8236E+01
     -0.701  0.2074E+00  0.8271E+01
     -0.533  0.5261E+00  0.8359E+01
     -0.366  0.5141E+00  0.8446E+01
     -0.198  0.4539E-01  0.8453E+01
     -0.030  0.1122E-01  0.8455E+01
      0.137  0.1098E+01  0.8639E+01
      0.305  0.5413E+00  0.8730E+01
      0.472  0.6760E+00  0.8843E+01
      0.640  0.4696E+00  0.8922E+01
      0.808  0.4810E+00  0.9003E+01
      0.975  0.2492E+00  0.9044E+01
      1.143  0.8069E+00  0.9180E+01
      1.311  0.1859E+01  0.9491E+01
      1.478  0.4743E+00  0.9571E+01
      1.646  0.7634E+00  0.9699E+01
      1.813  0.4463E+00  0.9773E+01
      1.981  0.1349E+01  0.1000E+02
      2.149  0.1988E+01  0.1033E+02
      2.316  0.2760E+01  0.1080E+02
      2.484  0.9883E+00  0.1096E+02
      2.652  0.1570E+01  0.1122E+02
      2.819  0.1605E+01  0.1149E+02
      2.987  0.2058E+01  0.1184E+02
      3.155  0.1342E+01  0.1206E+02
      3.322  0.2003E+01  0.1240E+02
      3.490  0.3106E+01  0.1292E+02
      3.657  0.1519E+01  0.1317E+02
      3.825  0.1364E+01  0.1340E+02
      3.993  0.1941E+01  0.1373E+02
      4.160  0.7119E+00  0.1385E+02
      4.328  0.1476E+01  0.1410E+02
      4.496  0.1386E+01  0.1433E+02
      4.663  0.1085E+01  0.1451E+02
      4.831  0.1575E+01  0.1477E+02
      4.998  0.2042E+01  0.1512E+02
      5.166  0.1634E+01  0.1539E+02
      5.334  0.2715E+01  0.1584E+02
      5.501  0.6729E+00  0.1596E+02
      5.669  0.2526E+00  0.1600E+02
      5.837  0.3002E-04  0.1600E+02
      6.004  0.0000E+00  0.1600E+02
      6.172  0.0000E+00  0.1600E+02
      6.340  0.0000E+00  0.1600E+02
      6.507  0.0000E+00  0.1600E+02
      6.675  0.0000E+00  0.1600E+02
      6.842  0.0000E+00  0.1600E+02
      7.010  0.0000E+00  0.1600E+02
      7.178  0.0000E+00  0.1600E+02
      7.345  0.0000E+00  0.1600E+02
      7.513  0.0000E+00  0.1600E+02
      7.681  0.0000E+00  0.1600E+02
      7.848  0.0000E+00  0.1600E+02
