       N       E                     dE             d eps       ncg     rms          rms(c)
DAV:   1     0.251214942859E+03    0.25121E+03   -0.18294E+04 17488   0.203E+03
DAV:   2    -0.202705078687E+00   -0.25142E+03   -0.25017E+03 16752   0.531E+02
DAV:   3    -0.858833331240E+01   -0.83856E+01   -0.82360E+01 23720   0.101E+02
DAV:   4    -0.889889722211E+01   -0.31056E+00   -0.31051E+00 23824   0.156E+01
DAV:   5    -0.890409132359E+01   -0.51941E-02   -0.51939E-02 23760   0.157E+00    0.174E+01
DAV:   6    -0.213355559837E+02   -0.12431E+02   -0.27645E+02 18016   0.141E+02    0.446E+01
DAV:   7    -0.952145844187E+01    0.11814E+02   -0.23671E+01 16960   0.608E+01    0.133E+01
DAV:   8    -0.754431169568E+01    0.19771E+01   -0.69355E+00 22600   0.253E+01    0.494E+00
DAV:   9    -0.736893240004E+01    0.17538E+00   -0.17322E+00 25304   0.848E+00    0.908E-01
DAV:  10    -0.737000436330E+01   -0.10720E-02   -0.37425E-02 19096   0.158E+00    0.300E-01
DAV:  11    -0.736950596915E+01    0.49839E-03   -0.61040E-03 24216   0.487E-01    0.114E-01
DAV:  12    -0.736980854139E+01   -0.30257E-03   -0.53399E-03 22824   0.434E-01    0.192E-01
DAV:  13    -0.736951288477E+01    0.29566E-03   -0.31081E-03 23584   0.320E-01    0.241E-02
DAV:  14    -0.736951081403E+01    0.20707E-05   -0.33636E-05 17592   0.477E-02    0.700E-03
DAV:  15    -0.736951117593E+01   -0.36190E-06   -0.14075E-05 22832   0.226E-02    0.750E-03
DAV:  16    -0.736951059081E+01    0.58512E-06   -0.63289E-06 12360   0.160E-02
   1 F= -.73695106E+01 E0= -.73694976E+01  d E =-.259270E-04
