   3   3   0   0
  0.1375132E+02  0.3878468E-09  0.3878468E-09  0.3878468E-09  0.5000000E-15
  1.000000000000000E-004
  CAR 
 unknown system                          
     15.58765974    -23.21352884  301      0.85937524      1.00000000
    -23.214  0.0000E+00  0.0000E+00
    -23.084  0.0000E+00  0.0000E+00
    -22.955  0.0000E+00  0.0000E+00
    -22.826  0.0000E+00  0.0000E+00
    -22.696  0.0000E+00  0.0000E+00
    -22.567  0.0000E+00  0.0000E+00
    -22.438  0.0000E+00  0.0000E+00
    -22.308  0.0000E+00  0.0000E+00
    -22.179  0.0000E+00  0.0000E+00
    -22.049  0.0000E+00  0.0000E+00
    -21.920  0.0000E+00  0.0000E+00
    -21.791  0.0000E+00  0.0000E+00
    -21.661  0.1706E-09  0.2206E-10
    -21.532  0.4736E-02  0.6125E-03
    -21.403  0.3786E+01  0.4903E+00
    -21.273  0.2593E+02  0.3845E+01
    -21.144  0.2603E+02  0.7211E+01
    -21.015  0.3172E+02  0.1131E+02
    -20.885  0.5309E+01  0.1200E+02
    -20.756  0.6051E-03  0.1200E+02
    -20.627  0.8022E-12  0.1200E+02
    -20.497  0.0000E+00  0.1200E+02
    -20.368  0.0000E+00  0.1200E+02
    -20.239  0.0000E+00  0.1200E+02
    -20.109  0.0000E+00  0.1200E+02
    -19.980  0.0000E+00  0.1200E+02
    -19.851  0.0000E+00  0.1200E+02
    -19.721  0.0000E+00  0.1200E+02
    -19.592  0.0000E+00  0.1200E+02
    -19.463  0.0000E+00  0.1200E+02
    -19.333  0.0000E+00  0.1200E+02
    -19.204  0.0000E+00  0.1200E+02
    -19.075  0.0000E+00  0.1200E+02
    -18.945  0.0000E+00  0.1200E+02
    -18.816  0.0000E+00  0.1200E+02
    -18.687  0.0000E+00  0.1200E+02
    -18.557  0.0000E+00  0.1200E+02
    -18.428  0.0000E+00  0.1200E+02
    -18.299  0.0000E+00  0.1200E+02
    -18.169  0.0000E+00  0.1200E+02
    -18.040  0.0000E+00  0.1200E+02
    -17.911  0.0000E+00  0.1200E+02
    -17.781  0.0000E+00  0.1200E+02
    -17.652  0.0000E+00  0.1200E+02
    -17.523  0.0000E+00  0.1200E+02
    -17.393  0.0000E+00  0.1200E+02
    -17.264  0.0000E+00  0.1200E+02
    -17.135  0.0000E+00  0.1200E+02
    -17.005  0.0000E+00  0.1200E+02
    -16.876  0.0000E+00  0.1200E+02
    -16.747  0.0000E+00  0.1200E+02
    -16.617  0.0000E+00  0.1200E+02
    -16.488  0.0000E+00  0.1200E+02
    -16.359  0.0000E+00  0.1200E+02
    -16.229  0.0000E+00  0.1200E+02
    -16.100  0.0000E+00  0.1200E+02
    -15.971  0.0000E+00  0.1200E+02
    -15.841  0.0000E+00  0.1200E+02
    -15.712  0.0000E+00  0.1200E+02
    -15.583  0.0000E+00  0.1200E+02
    -15.453  0.0000E+00  0.1200E+02
    -15.324  0.0000E+00  0.1200E+02
    -15.195  0.0000E+00  0.1200E+02
    -15.065  0.0000E+00  0.1200E+02
    -14.936  0.0000E+00  0.1200E+02
    -14.807  0.0000E+00  0.1200E+02
    -14.677  0.0000E+00  0.1200E+02
    -14.548  0.0000E+00  0.1200E+02
    -14.419  0.0000E+00  0.1200E+02
    -14.289  0.1751E-10  0.1200E+02
    -14.160  0.3050E-03  0.1200E+02
    -14.031  0.2945E+00  0.1204E+02
    -13.901  0.2386E+01  0.1235E+02
    -13.772  0.9616E+01  0.1359E+02
    -13.643  0.3165E+01  0.1400E+02
    -13.513  0.8725E-03  0.1400E+02
    -13.384  0.1962E-11  0.1400E+02
    -13.255  0.0000E+00  0.1400E+02
    -13.125  0.0000E+00  0.1400E+02
    -12.996  0.0000E+00  0.1400E+02
    -12.867  0.0000E+00  0.1400E+02
    -12.737  0.0000E+00  0.1400E+02
    -12.608  0.0000E+00  0.1400E+02
    -12.479  0.0000E+00  0.1400E+02
    -12.349  0.0000E+00  0.1400E+02
    -12.220  0.0000E+00  0.1400E+02
    -12.091  0.0000E+00  0.1400E+02
    -11.961  0.0000E+00  0.1400E+02
    -11.832  0.0000E+00  0.1400E+02
    -11.703  0.0000E+00  0.1400E+02
    -11.573  0.0000E+00  0.1400E+02
    -11.444  0.0000E+00  0.1400E+02
    -11.314  0.0000E+00  0.1400E+02
    -11.185  0.0000E+00  0.1400E+02
    -11.056  0.0000E+00  0.1400E+02
    -10.926  0.0000E+00  0.1400E+02
    -10.797  0.0000E+00  0.1400E+02
    -10.668  0.0000E+00  0.1400E+02
    -10.538  0.0000E+00  0.1400E+02
    -10.409  0.0000E+00  0.1400E+02
    -10.280  0.0000E+00  0.1400E+02
    -10.150  0.0000E+00  0.1400E+02
    -10.021  0.0000E+00  0.1400E+02
     -9.892  0.0000E+00  0.1400E+02
     -9.762  0.0000E+00  0.1400E+02
     -9.633  0.0000E+00  0.1400E+02
     -9.504  0.0000E+00  0.1400E+02
     -9.374  0.0000E+00  0.1400E+02
     -9.245  0.0000E+00  0.1400E+02
     -9.116  0.0000E+00  0.1400E+02
     -8.986  0.0000E+00  0.1400E+02
     -8.857  0.0000E+00  0.1400E+02
     -8.728  0.0000E+00  0.1400E+02
     -8.598  0.0000E+00  0.1400E+02
     -8.469  0.0000E+00  0.1400E+02
     -8.340  0.0000E+00  0.1400E+02
     -8.210  0.0000E+00  0.1400E+02
     -8.081  0.0000E+00  0.1400E+02
     -7.952  0.0000E+00  0.1400E+02
     -7.822  0.0000E+00  0.1400E+02
     -7.693  0.0000E+00  0.1400E+02
     -7.564  0.0000E+00  0.1400E+02
     -7.434  0.0000E+00  0.1400E+02
     -7.305  0.0000E+00  0.1400E+02
     -7.176  0.0000E+00  0.1400E+02
     -7.046  0.0000E+00  0.1400E+02
     -6.917  0.0000E+00  0.1400E+02
     -6.788  0.0000E+00  0.1400E+02
     -6.658  0.0000E+00  0.1400E+02
     -6.529  0.0000E+00  0.1400E+02
     -6.400  0.0000E+00  0.1400E+02
     -6.270  0.0000E+00  0.1400E+02
     -6.141  0.0000E+00  0.1400E+02
     -6.012  0.0000E+00  0.1400E+02
     -5.882  0.0000E+00  0.1400E+02
     -5.753  0.0000E+00  0.1400E+02
     -5.624  0.0000E+00  0.1400E+02
     -5.494  0.0000E+00  0.1400E+02
     -5.365  0.0000E+00  0.1400E+02
     -5.236  0.0000E+00  0.1400E+02
     -5.106  0.0000E+00  0.1400E+02
     -4.977  0.0000E+00  0.1400E+02
     -4.848  0.0000E+00  0.1400E+02
     -4.718  0.0000E+00  0.1400E+02
     -4.589  0.0000E+00  0.1400E+02
     -4.460  0.0000E+00  0.1400E+02
     -4.330  0.0000E+00  0.1400E+02
     -4.201  0.0000E+00  0.1400E+02
     -4.072  0.0000E+00  0.1400E+02
     -3.942  0.0000E+00  0.1400E+02
     -3.813  0.0000E+00  0.1400E+02
     -3.684  0.0000E+00  0.1400E+02
     -3.554  0.0000E+00  0.1400E+02
     -3.425  0.0000E+00  0.1400E+02
     -3.296  0.0000E+00  0.1400E+02
     -3.166  0.0000E+00  0.1400E+02
     -3.037  0.0000E+00  0.1400E+02
     -2.908  0.0000E+00  0.1400E+02
     -2.778  0.0000E+00  0.1400E+02
     -2.649  0.0000E+00  0.1400E+02
     -2.520  0.0000E+00  0.1400E+02
     -2.390  0.0000E+00  0.1400E+02
     -2.261  0.0000E+00  0.1400E+02
     -2.132  0.0000E+00  0.1400E+02
     -2.002  0.0000E+00  0.1400E+02
     -1.873  0.0000E+00  0.1400E+02
     -1.744  0.0000E+00  0.1400E+02
     -1.614  0.0000E+00  0.1400E+02
     -1.485  0.0000E+00  0.1400E+02
     -1.356  0.0000E+00  0.1400E+02
     -1.226  0.0000E+00  0.1400E+02
     -1.097  0.7585E-14  0.1400E+02
     -0.968  0.1057E-04  0.1400E+02
     -0.838  0.5672E-01  0.1401E+02
     -0.709  0.9545E+00  0.1413E+02
     -0.580  0.1757E+01  0.1436E+02
     -0.450  0.6678E+01  0.1522E+02
     -0.321  0.3605E+01  0.1569E+02
     -0.191  0.1285E+01  0.1585E+02
     -0.062  0.1166E+01  0.1601E+02
      0.067  0.2505E+01  0.1633E+02
      0.197  0.1684E+01  0.1655E+02
      0.326  0.4773E+01  0.1716E+02
      0.455  0.8101E+01  0.1821E+02
      0.585  0.1093E+02  0.1963E+02
      0.714  0.2892E+01  0.2000E+02
      0.843  0.2746E-02  0.2000E+02
      0.973  0.4210E-10  0.2000E+02
      1.102  0.0000E+00  0.2000E+02
      1.231  0.0000E+00  0.2000E+02
      1.361  0.0000E+00  0.2000E+02
      1.490  0.0000E+00  0.2000E+02
      1.619  0.0000E+00  0.2000E+02
      1.749  0.0000E+00  0.2000E+02
      1.878  0.0000E+00  0.2000E+02
      2.007  0.0000E+00  0.2000E+02
      2.137  0.0000E+00  0.2000E+02
      2.266  0.0000E+00  0.2000E+02
      2.395  0.0000E+00  0.2000E+02
      2.525  0.5277E-09  0.2000E+02
      2.654  0.9572E-03  0.2000E+02
      2.783  0.2816E-01  0.2000E+02
      2.913  0.1081E-02  0.2000E+02
      3.042  0.7192E-09  0.2000E+02
      3.171  0.1888E-04  0.2000E+02
      3.301  0.1090E+00  0.2002E+02
      3.430  0.1595E+00  0.2004E+02
      3.559  0.1535E+00  0.2006E+02
      3.689  0.8044E-03  0.2006E+02
      3.818  0.6327E-08  0.2006E+02
      3.947  0.1146E-01  0.2006E+02
      4.077  0.3380E+00  0.2010E+02
      4.206  0.1305E-01  0.2011E+02
      4.335  0.3169E+00  0.2015E+02
      4.465  0.5516E+00  0.2022E+02
      4.594  0.9787E-01  0.2023E+02
      4.723  0.6374E-01  0.2024E+02
      4.853  0.1174E+00  0.2025E+02
      4.982  0.1559E-03  0.2025E+02
      5.111  0.5413E+00  0.2032E+02
      5.241  0.9076E+00  0.2044E+02
      5.370  0.1694E+00  0.2046E+02
      5.499  0.1395E+01  0.2064E+02
      5.629  0.4598E+00  0.2070E+02
      5.758  0.8513E+00  0.2081E+02
      5.887  0.8992E+00  0.2093E+02
      6.017  0.5931E+00  0.2101E+02
      6.146  0.2521E+01  0.2133E+02
      6.275  0.1552E+01  0.2153E+02
      6.405  0.1255E+01  0.2170E+02
      6.534  0.5526E+00  0.2177E+02
      6.663  0.1586E+01  0.2197E+02
      6.793  0.9617E-01  0.2198E+02
      6.922  0.1019E-01  0.2199E+02
      7.051  0.1093E+00  0.2200E+02
      7.181  0.1359E-02  0.2200E+02
      7.310  0.1989E-02  0.2200E+02
      7.439  0.1111E+00  0.2201E+02
      7.569  0.7684E-02  0.2202E+02
      7.698  0.1316E-07  0.2202E+02
      7.827  0.7018E-04  0.2202E+02
      7.957  0.3424E+00  0.2206E+02
      8.086  0.3822E+00  0.2211E+02
      8.215  0.3960E-03  0.2211E+02
      8.345  0.7668E+00  0.2221E+02
      8.474  0.6874E+00  0.2230E+02
      8.603  0.6350E+00  0.2238E+02
      8.733  0.9565E-01  0.2239E+02
      8.862  0.2258E+00  0.2242E+02
      8.991  0.1370E+01  0.2260E+02
      9.121  0.1738E+01  0.2282E+02
      9.250  0.1600E+00  0.2284E+02
      9.379  0.7122E+00  0.2294E+02
      9.509  0.1927E+01  0.2319E+02
      9.638  0.8211E+00  0.2329E+02
      9.767  0.1191E+01  0.2345E+02
      9.897  0.5591E+00  0.2352E+02
     10.026  0.1112E+01  0.2366E+02
     10.155  0.5903E+00  0.2374E+02
     10.285  0.6499E-01  0.2375E+02
     10.414  0.1636E+00  0.2377E+02
     10.544  0.2070E-01  0.2377E+02
     10.673  0.2239E+00  0.2380E+02
     10.802  0.1263E-01  0.2380E+02
     10.932  0.5030E-01  0.2381E+02
     11.061  0.6639E+00  0.2389E+02
     11.190  0.1066E-01  0.2389E+02
     11.320  0.1936E-08  0.2389E+02
     11.449  0.1368E-06  0.2389E+02
     11.578  0.3581E-01  0.2390E+02
     11.708  0.3234E+00  0.2394E+02
     11.837  0.3225E-02  0.2394E+02
     11.966  0.3008E-09  0.2394E+02
     12.096  0.0000E+00  0.2394E+02
     12.225  0.4678E-10  0.2394E+02
     12.354  0.9598E-03  0.2394E+02
     12.484  0.1639E+00  0.2396E+02
     12.613  0.2498E+00  0.2400E+02
     12.742  0.8178E-02  0.2400E+02
     12.872  0.4988E-08  0.2400E+02
     13.001  0.0000E+00  0.2400E+02
     13.130  0.0000E+00  0.2400E+02
     13.260  0.0000E+00  0.2400E+02
     13.389  0.0000E+00  0.2400E+02
     13.518  0.0000E+00  0.2400E+02
     13.648  0.9190E-08  0.2400E+02
     13.777  0.2770E-02  0.2400E+02
     13.906  0.2713E-01  0.2400E+02
     14.036  0.3007E-03  0.2400E+02
     14.165  0.3244E-10  0.2400E+02
     14.294  0.0000E+00  0.2400E+02
     14.424  0.0000E+00  0.2400E+02
     14.553  0.0000E+00  0.2400E+02
     14.682  0.0000E+00  0.2400E+02
     14.812  0.0000E+00  0.2400E+02
     14.941  0.0000E+00  0.2400E+02
     15.070  0.0000E+00  0.2400E+02
     15.200  0.0000E+00  0.2400E+02
     15.329  0.0000E+00  0.2400E+02
     15.458  0.0000E+00  0.2400E+02
     15.588  0.0000E+00  0.2400E+02
