  24  24   0   0
  0.2022891E+02  0.1125000E-08  0.1125000E-08  0.3836000E-09  0.5000000E-15
  1.000000000000000E-004
  CAR 
 unknown system                          
     11.13290979    -18.94545470  301      2.72350038      1.00000000
    -18.945  0.0000E+00  0.0000E+00
    -18.845  0.0000E+00  0.0000E+00
    -18.745  0.0000E+00  0.0000E+00
    -18.645  0.0000E+00  0.0000E+00
    -18.544  0.0000E+00  0.0000E+00
    -18.444  0.0000E+00  0.0000E+00
    -18.344  0.0000E+00  0.0000E+00
    -18.244  0.0000E+00  0.0000E+00
    -18.143  0.0000E+00  0.0000E+00
    -18.043  0.0000E+00  0.0000E+00
    -17.943  0.0000E+00  0.0000E+00
    -17.843  0.2923E-13  0.2930E-14
    -17.742  0.1718E-05  0.1723E-06
    -17.642  0.8953E-01  0.8977E-02
    -17.542  0.1497E+02  0.1510E+01
    -17.442  0.5471E+02  0.6995E+01
    -17.341  0.1001E+02  0.7999E+01
    -17.241  0.1398E-01  0.8000E+01
    -17.141  0.1709E-07  0.8000E+01
    -17.040  0.0000E+00  0.8000E+01
    -16.940  0.0000E+00  0.8000E+01
    -16.840  0.0000E+00  0.8000E+01
    -16.740  0.0000E+00  0.8000E+01
    -16.639  0.0000E+00  0.8000E+01
    -16.539  0.0000E+00  0.8000E+01
    -16.439  0.0000E+00  0.8000E+01
    -16.339  0.0000E+00  0.8000E+01
    -16.238  0.0000E+00  0.8000E+01
    -16.138  0.0000E+00  0.8000E+01
    -16.038  0.0000E+00  0.8000E+01
    -15.938  0.0000E+00  0.8000E+01
    -15.837  0.0000E+00  0.8000E+01
    -15.737  0.0000E+00  0.8000E+01
    -15.637  0.1810E-08  0.8000E+01
    -15.537  0.1313E-02  0.8000E+01
    -15.436  0.1647E+01  0.8165E+01
    -15.336  0.3154E+02  0.1133E+02
    -15.236  0.4412E+02  0.1575E+02
    -15.136  0.2491E+01  0.1600E+02
    -15.035  0.5720E-03  0.1600E+02
    -14.935  0.1127E-09  0.1600E+02
    -14.835  0.0000E+00  0.1600E+02
    -14.734  0.0000E+00  0.1600E+02
    -14.634  0.0000E+00  0.1600E+02
    -14.534  0.0000E+00  0.1600E+02
    -14.434  0.0000E+00  0.1600E+02
    -14.333  0.0000E+00  0.1600E+02
    -14.233  0.0000E+00  0.1600E+02
    -14.133  0.0000E+00  0.1600E+02
    -14.033  0.0000E+00  0.1600E+02
    -13.932  0.0000E+00  0.1600E+02
    -13.832  0.5766E-12  0.1600E+02
    -13.732  0.9632E-05  0.1600E+02
    -13.632  0.1567E+00  0.1602E+02
    -13.531  0.1420E+02  0.1744E+02
    -13.431  0.4457E+02  0.2191E+02
    -13.331  0.2051E+02  0.2396E+02
    -13.231  0.3531E+00  0.2400E+02
    -13.130  0.1334E-04  0.2400E+02
    -13.030  0.3025E-12  0.2400E+02
    -12.930  0.0000E+00  0.2400E+02
    -12.830  0.0000E+00  0.2400E+02
    -12.729  0.0000E+00  0.2400E+02
    -12.629  0.0000E+00  0.2400E+02
    -12.529  0.0000E+00  0.2400E+02
    -12.428  0.0000E+00  0.2400E+02
    -12.328  0.0000E+00  0.2400E+02
    -12.228  0.0000E+00  0.2400E+02
    -12.128  0.0000E+00  0.2400E+02
    -12.027  0.0000E+00  0.2400E+02
    -11.927  0.0000E+00  0.2400E+02
    -11.827  0.0000E+00  0.2400E+02
    -11.727  0.0000E+00  0.2400E+02
    -11.626  0.0000E+00  0.2400E+02
    -11.526  0.0000E+00  0.2400E+02
    -11.426  0.0000E+00  0.2400E+02
    -11.326  0.0000E+00  0.2400E+02
    -11.225  0.0000E+00  0.2400E+02
    -11.125  0.0000E+00  0.2400E+02
    -11.025  0.0000E+00  0.2400E+02
    -10.925  0.0000E+00  0.2400E+02
    -10.824  0.0000E+00  0.2400E+02
    -10.724  0.2417E-12  0.2400E+02
    -10.624  0.7385E-05  0.2400E+02
    -10.524  0.1754E+00  0.2402E+02
    -10.423  0.1520E+02  0.2554E+02
    -10.323  0.4542E+02  0.3009E+02
    -10.223  0.2099E+02  0.3220E+02
    -10.122  0.3562E+02  0.3577E+02
    -10.022  0.3998E+02  0.3978E+02
     -9.922  0.2211E+01  0.4000E+02
     -9.822  0.4722E-03  0.4000E+02
     -9.721  0.8524E-10  0.4000E+02
     -9.621  0.0000E+00  0.4000E+02
     -9.521  0.0000E+00  0.4000E+02
     -9.421  0.0000E+00  0.4000E+02
     -9.320  0.0000E+00  0.4000E+02
     -9.220  0.0000E+00  0.4000E+02
     -9.120  0.0000E+00  0.4000E+02
     -9.020  0.0000E+00  0.4000E+02
     -8.919  0.0000E+00  0.4000E+02
     -8.819  0.0000E+00  0.4000E+02
     -8.719  0.0000E+00  0.4000E+02
     -8.619  0.0000E+00  0.4000E+02
     -8.518  0.0000E+00  0.4000E+02
     -8.418  0.0000E+00  0.4000E+02
     -8.318  0.0000E+00  0.4000E+02
     -8.218  0.0000E+00  0.4000E+02
     -8.117  0.0000E+00  0.4000E+02
     -8.017  0.0000E+00  0.4000E+02
     -7.917  0.0000E+00  0.4000E+02
     -7.816  0.0000E+00  0.4000E+02
     -7.716  0.0000E+00  0.4000E+02
     -7.616  0.0000E+00  0.4000E+02
     -7.516  0.0000E+00  0.4000E+02
     -7.415  0.0000E+00  0.4000E+02
     -7.315  0.0000E+00  0.4000E+02
     -7.215  0.0000E+00  0.4000E+02
     -7.115  0.0000E+00  0.4000E+02
     -7.014  0.0000E+00  0.4000E+02
     -6.914  0.0000E+00  0.4000E+02
     -6.814  0.0000E+00  0.4000E+02
     -6.714  0.0000E+00  0.4000E+02
     -6.613  0.0000E+00  0.4000E+02
     -6.513  0.0000E+00  0.4000E+02
     -6.413  0.0000E+00  0.4000E+02
     -6.313  0.0000E+00  0.4000E+02
     -6.212  0.0000E+00  0.4000E+02
     -6.112  0.0000E+00  0.4000E+02
     -6.012  0.8537E-12  0.4000E+02
     -5.911  0.2506E-04  0.4000E+02
     -5.811  0.4455E+00  0.4004E+02
     -5.711  0.2089E+02  0.4214E+02
     -5.611  0.4919E+02  0.4707E+02
     -5.510  0.1612E+02  0.4869E+02
     -5.410  0.1218E+02  0.4991E+02
     -5.310  0.1700E+02  0.5161E+02
     -5.210  0.2232E+02  0.5385E+02
     -5.109  0.1486E+02  0.5534E+02
     -5.009  0.6533E+01  0.5599E+02
     -4.909  0.5285E-01  0.5600E+02
     -4.809  0.6616E-06  0.5600E+02
     -4.708  0.4588E-14  0.5600E+02
     -4.608  0.0000E+00  0.5600E+02
     -4.508  0.0000E+00  0.5600E+02
     -4.408  0.6031E-10  0.5600E+02
     -4.307  0.1438E-03  0.5600E+02
     -4.207  0.2520E+00  0.5603E+02
     -4.107  0.2092E+01  0.5624E+02
     -4.007  0.9322E+01  0.5717E+02
     -3.906  0.1758E+02  0.5893E+02
     -3.806  0.9215E+01  0.5986E+02
     -3.706  0.1431E+02  0.6129E+02
     -3.605  0.1518E+02  0.6281E+02
     -3.505  0.1529E+02  0.6435E+02
     -3.405  0.2671E+02  0.6702E+02
     -3.305  0.1373E+02  0.6840E+02
     -3.204  0.1704E+01  0.6857E+02
     -3.104  0.2950E+01  0.6887E+02
     -3.004  0.1816E+02  0.7069E+02
     -2.904  0.3229E+01  0.7101E+02
     -2.803  0.9111E+01  0.7193E+02
     -2.703  0.3979E+01  0.7232E+02
     -2.603  0.9127E+01  0.7324E+02
     -2.503  0.1081E+02  0.7432E+02
     -2.402  0.1193E+02  0.7552E+02
     -2.302  0.1550E+02  0.7707E+02
     -2.202  0.6145E+01  0.7769E+02
     -2.102  0.5030E+01  0.7819E+02
     -2.001  0.1188E+02  0.7939E+02
     -1.901  0.1253E+02  0.8064E+02
     -1.801  0.1285E+02  0.8193E+02
     -1.701  0.1271E+02  0.8320E+02
     -1.600  0.1116E+02  0.8432E+02
     -1.500  0.1632E+02  0.8596E+02
     -1.400  0.1576E+02  0.8754E+02
     -1.299  0.1202E+02  0.8874E+02
     -1.199  0.1507E+02  0.9025E+02
     -1.099  0.1762E+02  0.9202E+02
     -0.999  0.2163E+02  0.9419E+02
     -0.898  0.2292E+02  0.9649E+02
     -0.798  0.3358E+02  0.9985E+02
     -0.698  0.2553E+02  0.1024E+03
     -0.598  0.1409E+02  0.1038E+03
     -0.497  0.2106E+01  0.1040E+03
     -0.397  0.1033E+01  0.1041E+03
     -0.297  0.3030E+01  0.1044E+03
     -0.197  0.5527E+01  0.1050E+03
     -0.096  0.1174E+02  0.1062E+03
      0.004  0.1768E+02  0.1079E+03
      0.104  0.2003E+02  0.1100E+03
      0.204  0.3009E+02  0.1130E+03
      0.305  0.2209E+02  0.1152E+03
      0.405  0.1960E+02  0.1172E+03
      0.505  0.2458E+02  0.1196E+03
      0.605  0.3168E+01  0.1199E+03
      0.706  0.6326E+00  0.1200E+03
      0.806  0.1907E-02  0.1200E+03
      0.906  0.3754E-08  0.1200E+03
      1.007  0.0000E+00  0.1200E+03
      1.107  0.4682E-12  0.1200E+03
      1.207  0.1245E-04  0.1200E+03
      1.307  0.1545E+00  0.1200E+03
      1.408  0.4415E+01  0.1205E+03
      1.508  0.1400E+02  0.1219E+03
      1.608  0.2767E+02  0.1246E+03
      1.708  0.1894E+02  0.1265E+03
      1.809  0.1247E+02  0.1278E+03
      1.909  0.2063E+01  0.1280E+03
      2.009  0.8629E-01  0.1280E+03
      2.109  0.5893E+00  0.1281E+03
      2.210  0.4479E+01  0.1285E+03
      2.310  0.1932E+02  0.1304E+03
      2.410  0.3134E+02  0.1336E+03
      2.510  0.2266E+02  0.1359E+03
      2.611  0.1400E+01  0.1360E+03
      2.711  0.7580E-03  0.1360E+03
      2.811  0.5035E-09  0.1360E+03
      2.911  0.0000E+00  0.1360E+03
      3.012  0.0000E+00  0.1360E+03
      3.112  0.0000E+00  0.1360E+03
      3.212  0.0000E+00  0.1360E+03
      3.313  0.0000E+00  0.1360E+03
      3.413  0.0000E+00  0.1360E+03
      3.513  0.0000E+00  0.1360E+03
      3.613  0.0000E+00  0.1360E+03
      3.714  0.2354E-12  0.1360E+03
      3.814  0.6245E-05  0.1360E+03
      3.914  0.7656E-01  0.1360E+03
      4.014  0.1307E+01  0.1361E+03
      4.115  0.2416E+01  0.1364E+03
      4.215  0.1419E+02  0.1378E+03
      4.315  0.1610E+02  0.1394E+03
      4.415  0.4578E+01  0.1399E+03
      4.516  0.2761E+02  0.1426E+03
      4.616  0.1346E+02  0.1440E+03
      4.716  0.6567E-01  0.1440E+03
      4.816  0.1266E+01  0.1441E+03
      4.917  0.1989E+01  0.1443E+03
      5.017  0.9794E+01  0.1453E+03
      5.117  0.2370E+02  0.1477E+03
      5.217  0.6563E+01  0.1483E+03
      5.318  0.2567E+02  0.1509E+03
      5.418  0.1233E+02  0.1522E+03
      5.518  0.1671E+02  0.1538E+03
      5.619  0.1612E+02  0.1554E+03
      5.719  0.8837E+01  0.1563E+03
      5.819  0.7951E+01  0.1571E+03
      5.919  0.1368E+02  0.1585E+03
      6.020  0.1110E+02  0.1596E+03
      6.120  0.8337E+00  0.1597E+03
      6.220  0.1571E+01  0.1599E+03
      6.320  0.6099E+01  0.1605E+03
      6.421  0.1323E+02  0.1618E+03
      6.521  0.2220E+02  0.1640E+03
      6.621  0.8518E+01  0.1649E+03
      6.721  0.2037E+02  0.1669E+03
      6.822  0.6688E+01  0.1676E+03
      6.922  0.1334E+01  0.1677E+03
      7.022  0.2695E+01  0.1680E+03
      7.122  0.3888E+01  0.1684E+03
      7.223  0.7922E+01  0.1692E+03
      7.323  0.1272E+02  0.1704E+03
      7.423  0.1167E+02  0.1716E+03
      7.524  0.6076E+01  0.1722E+03
      7.624  0.5883E+01  0.1728E+03
      7.724  0.1836E+02  0.1747E+03
      7.824  0.1718E+02  0.1764E+03
      7.925  0.1099E+02  0.1775E+03
      8.025  0.4058E+01  0.1779E+03
      8.125  0.4902E+01  0.1784E+03
      8.225  0.1103E+02  0.1795E+03
      8.326  0.1021E+02  0.1805E+03
      8.426  0.1051E+02  0.1816E+03
      8.526  0.5490E+01  0.1821E+03
      8.626  0.8675E+01  0.1830E+03
      8.727  0.5376E+01  0.1835E+03
      8.827  0.5564E+01  0.1841E+03
      8.927  0.4730E+01  0.1846E+03
      9.027  0.5914E+01  0.1851E+03
      9.128  0.6975E+01  0.1858E+03
      9.228  0.1734E+02  0.1876E+03
      9.328  0.2345E+02  0.1899E+03
      9.428  0.1221E+02  0.1912E+03
      9.529  0.4806E+01  0.1916E+03
      9.629  0.1485E+01  0.1918E+03
      9.729  0.1019E+01  0.1919E+03
      9.830  0.1009E+01  0.1920E+03
      9.930  0.2896E-01  0.1920E+03
     10.030  0.1262E-05  0.1920E+03
     10.130  0.2729E-13  0.1920E+03
     10.231  0.0000E+00  0.1920E+03
     10.331  0.0000E+00  0.1920E+03
     10.431  0.0000E+00  0.1920E+03
     10.531  0.0000E+00  0.1920E+03
     10.632  0.0000E+00  0.1920E+03
     10.732  0.0000E+00  0.1920E+03
     10.832  0.0000E+00  0.1920E+03
     10.932  0.0000E+00  0.1920E+03
     11.033  0.0000E+00  0.1920E+03
     11.133  0.0000E+00  0.1920E+03
