S16 N8
1.0
  11.2500000000000000    0.0000000000000000    0.0000000000000007
   0.0000000000000018   11.2500000000000000    0.0000000000000007
   0.0000000000000000    0.0000000000000000    3.8359999999999999
S N
16 8
direct
   0.3200000000000000    0.3200000000000000    0.1525000000000000 S
   0.1800000000000000    0.8200000000000001    0.6525000000000000 S
   0.6799999999999999    0.6799999999999999    0.1525000000000000 S
   0.8200000000000001    0.1800000000000000    0.6525000000000000 S
   0.1115000000000000    0.1115000000000000    0.1000000000000000 S
   0.3885000000000000    0.6115000000000000    0.6000000000000000 S
   0.8885000000000000    0.8885000000000000    0.1000000000000000 S
   0.6115000000000000    0.3885000000000000    0.6000000000000000 S
   0.3530000000000000    0.1505000000000000    0.3278000000000000 S
   0.3495000000000000    0.8530000000000000    0.8278000000000000 S
   0.6470000000000000    0.8495000000000000    0.3278000000000000 S
   0.6505000000000000    0.1470000000000000    0.8278000000000000 S
   0.1470000000000000    0.6505000000000000    0.8278000000000000 S
   0.8495000000000000    0.6470000000000000    0.3278000000000000 S
   0.8530000000000000    0.3495000000000000    0.8278000000000000 S
   0.1505000000000000    0.3530000000000000    0.3278000000000000 S
   0.2425000000000000    0.0707000000000000    0.1616000000000000 N
   0.4293000000000000    0.7424999999999999    0.6616000000000000 N
   0.7575000000000001    0.9293000000000000    0.1616000000000000 N
   0.5707000000000000    0.2575000000000000    0.6616000000000000 N
   0.2575000000000000    0.5707000000000000    0.6616000000000000 N
   0.9293000000000000    0.7575000000000001    0.1616000000000000 N
   0.7424999999999999    0.4293000000000000    0.6616000000000000 N
   0.0707000000000000    0.2425000000000000    0.1616000000000000 N
