K8 F24                                  
   1.00000000000000     
     7.2444364500000002    0.0004796400000000   -0.0003101900000000
     0.0000990500000000    7.4015038300000002    0.1728961000000000
    -0.0003269800000000    0.2216218500000000    9.4435318699999993
   K    F 
     8    24
Direct
     0.4177911299999977    0.8060319000000007    0.6187632099999973
     0.9178150099999982    0.6939606500000011    0.3813854799999987
     0.5834397100000004    0.3026970700000007    0.8659991500000004
     0.0835015400000003    0.1972240200000002    0.1339646099999996
     0.4518040700000014    0.8213218300000023    0.0981537799999970
     0.9518941600000019    0.6787530000000004    0.9019495699999993
     0.5484428299999990    0.3272415599999974    0.3851545999999999
     0.0484489700000026    0.1729399199999975    0.6146709000000001
     0.7829492299999998    0.7111132900000001    0.6470275100000009
     0.2829394099999973    0.7886443399999976    0.3529889699999984
     0.2195781900000000    0.2135943899999972    0.8690209499999995
     0.7195814800000022    0.2865292099999976    0.1309372899999985
     0.0357084099999980    0.7957253100000017    0.6329804900000013
     0.5357493200000008    0.7041616500000032    0.3672575000000009
     0.9678149000000005    0.3029359100000022    0.8701956399999986
     0.4678852799999973    0.1970156499999973    0.1297694800000002
     0.2265847399999998    0.9523392400000006    0.8608187099999967
     0.7262907100000007    0.5478022200000012    0.1392726400000015
     0.7679277800000008    0.4540897799999968    0.6179831299999989
     0.2682491099999993    0.0456043000000008    0.3819950099999971
     0.8065987100000029    0.9359041200000036    0.1540754199999981
     0.3068416200000001    0.5643781799999985    0.8460272100000026
     0.1903680599999973    0.4411545500000003    0.3411237299999996
     0.6904846199999994    0.0587247200000007    0.6587032300000004
     0.2540770199999969    0.4675943800000013    0.5399783200000030
     0.7542854300000030    0.0324009899999993    0.4598008199999981
     0.7452211499999990    0.9699367300000006    0.9534734000000000
     0.2452613800000023    0.5300307999999987    0.0465406799999997
     0.5514817600000015    0.6652545199999977    0.8627901400000013
     0.0511315400000001    0.8348124299999995    0.1373624499999977
     0.4500099099999986    0.1697373200000030    0.6323826200000013
     0.9498438299999989    0.3303450000000012    0.3674523399999998
 
  0.00000000E+00  0.00000000E+00  0.00000000E+00
  0.00000000E+00  0.00000000E+00  0.00000000E+00
  0.00000000E+00  0.00000000E+00  0.00000000E+00
  0.00000000E+00  0.00000000E+00  0.00000000E+00
  0.00000000E+00  0.00000000E+00  0.00000000E+00
  0.00000000E+00  0.00000000E+00  0.00000000E+00
  0.00000000E+00  0.00000000E+00  0.00000000E+00
  0.00000000E+00  0.00000000E+00  0.00000000E+00
  0.00000000E+00  0.00000000E+00  0.00000000E+00
  0.00000000E+00  0.00000000E+00  0.00000000E+00
  0.00000000E+00  0.00000000E+00  0.00000000E+00
  0.00000000E+00  0.00000000E+00  0.00000000E+00
  0.00000000E+00  0.00000000E+00  0.00000000E+00
  0.00000000E+00  0.00000000E+00  0.00000000E+00
  0.00000000E+00  0.00000000E+00  0.00000000E+00
  0.00000000E+00  0.00000000E+00  0.00000000E+00
  0.00000000E+00  0.00000000E+00  0.00000000E+00
  0.00000000E+00  0.00000000E+00  0.00000000E+00
  0.00000000E+00  0.00000000E+00  0.00000000E+00
  0.00000000E+00  0.00000000E+00  0.00000000E+00
  0.00000000E+00  0.00000000E+00  0.00000000E+00
  0.00000000E+00  0.00000000E+00  0.00000000E+00
  0.00000000E+00  0.00000000E+00  0.00000000E+00
  0.00000000E+00  0.00000000E+00  0.00000000E+00
  0.00000000E+00  0.00000000E+00  0.00000000E+00
  0.00000000E+00  0.00000000E+00  0.00000000E+00
  0.00000000E+00  0.00000000E+00  0.00000000E+00
  0.00000000E+00  0.00000000E+00  0.00000000E+00
  0.00000000E+00  0.00000000E+00  0.00000000E+00
  0.00000000E+00  0.00000000E+00  0.00000000E+00
  0.00000000E+00  0.00000000E+00  0.00000000E+00
  0.00000000E+00  0.00000000E+00  0.00000000E+00
