K8F24
1.0
      7.2444365       0.0004796      -0.0003102
      0.0000990       7.4015038       0.1728961
     -0.0003270       0.2216219       9.4435319
  K     F   
  8     24  
Direct
      0.4177911       0.8060319       0.6187632
      0.9178150       0.6939607       0.3813855
      0.5834397       0.3026971       0.8659992
      0.0835015       0.1972240       0.1339646
      0.4518041       0.8213218       0.0981538
      0.9518942       0.6787530       0.9019496
      0.5484428       0.3272416       0.3851546
      0.0484490       0.1729399       0.6146709
      0.7829492       0.7111133       0.6470275
      0.2829394       0.7886443       0.3529890
      0.2195782       0.2135944       0.8690209
      0.7195815       0.2865292       0.1309373
      0.0357084       0.7957253       0.6329805
      0.5357493       0.7041617       0.3672575
      0.9678149       0.3029359       0.8701956
      0.4678853       0.1970156       0.1297695
      0.2265847       0.9523392       0.8608187
      0.7262907       0.5478022       0.1392726
      0.7679278       0.4540898       0.6179831
      0.2682491       0.0456043       0.3819950
      0.8065987       0.9359041       0.1540754
      0.3068416       0.5643782       0.8460272
      0.1903681       0.4411546       0.3411237
      0.6904846       0.0587247       0.6587032
      0.2540770       0.4675944       0.5399783
      0.7542854       0.0324010       0.4598008
      0.7452211       0.9699367       0.9534734
      0.2452614       0.5300308       0.0465407
      0.5514818       0.6652545       0.8627901
      0.0511315       0.8348124       0.1373624
      0.4500099       0.1697373       0.6323826
      0.9498438       0.3303450       0.3674523
