       N       E                     dE             d eps       ncg     rms          rms(c)
DAV:   1     0.460856878867E+03    0.46086E+03   -0.28505E+04 17304   0.150E+03
DAV:   2    -0.336607903350E+02   -0.49452E+03   -0.46883E+03 20836   0.404E+02
DAV:   3    -0.672244414163E+02   -0.33564E+02   -0.33309E+02 25560   0.979E+01
DAV:   4    -0.692982617373E+02   -0.20738E+01   -0.20693E+01 25164   0.186E+01
DAV:   5    -0.693618195146E+02   -0.63558E-01   -0.63555E-01 22840   0.261E+00    0.369E+01
DAV:   6    -0.573595043321E+02    0.12002E+02   -0.39053E+01 20000   0.423E+01    0.123E+01
DAV:   7    -0.573329457956E+02    0.26559E-01   -0.31643E+00 22780   0.965E+00    0.108E+01
DAV:   8    -0.573511998564E+02   -0.18254E-01   -0.93615E-01 19640   0.661E+00    0.561E+00
DAV:   9    -0.572861720811E+02    0.65028E-01   -0.24850E-01 18996   0.305E+00    0.761E-01
DAV:  10    -0.572900374524E+02   -0.38654E-02   -0.16466E-02 20812   0.108E+00    0.906E-01
DAV:  11    -0.572887362111E+02    0.13012E-02   -0.35610E-03 18876   0.525E-01    0.532E-02
DAV:  12    -0.572887756992E+02   -0.39488E-04   -0.20531E-04 24296   0.746E-02    0.570E-02
DAV:  13    -0.572887846912E+02   -0.89921E-05   -0.19043E-05 20608   0.293E-02    0.508E-03
DAV:  14    -0.572887851583E+02   -0.46706E-06   -0.70356E-07 13792   0.577E-03
   1 F= -.57288785E+02 E0= -.57288785E+02  d E =-.124235E-15
