Zr2 O4
1.0
   3.4406522300000000    3.4428411799999998   -0.0022950200000000
  -0.0003195900000000   -6.8783726200000004    3.2702347999999999
   6.8842905800000000    6.8800836600000004   -3.2633836800000000
Zr O
2 4
direct
   0.5036742000000000    0.5011011100000000    0.9987669600000000 Zr
   0.5019321200000000    0.0010840700000000    0.9996281299999999 Zr
   0.1133730700000000    0.1952547500000000    0.6936756700000000 O
   0.5027998400000000    0.6954445100000000    0.6934802600000000 O
   0.5027441100000000    0.3068881500000000    0.3048154500000000 O
   0.8905826600000000    0.8066824100000000    0.3051915200000000 O
