Bi2 O3                                  
   1.00000000000000     
     3.7413740000000000    0.0000000000000000    0.0000000000000000
    -1.7713319999999999    3.5733880000000000    0.0000000000000000
    -0.0254460000000000   -2.2348720000000002    6.9355700000000002
   Bi   O 
     2     3
Direct
     0.9875570000000025    0.9726440000000025    0.9866919999999979
     0.5656930000000031    0.0638110000000012    0.5076060000000027
     0.6846949999999978    0.6204279999999969    0.8427050000000023
     0.9006070000000008    0.6836059999999975    0.5283739999999995
     0.4674479999999974    0.5555110000000028    0.1606230000000011
 
  0.00000000E+00  0.00000000E+00  0.00000000E+00
  0.00000000E+00  0.00000000E+00  0.00000000E+00
  0.00000000E+00  0.00000000E+00  0.00000000E+00
  0.00000000E+00  0.00000000E+00  0.00000000E+00
  0.00000000E+00  0.00000000E+00  0.00000000E+00
