   5   5   0   0
  0.1854486E+02  0.3741374E-09  0.3988323E-09  0.7286799E-09  0.5000000E-15
  1.000000000000000E-004
  CAR 
 unknown system                          
     13.88385716    -17.45368857  301      5.26413511      1.00000000
    -17.454  0.0000E+00  0.0000E+00
    -17.349  0.0000E+00  0.0000E+00
    -17.245  0.0000E+00  0.0000E+00
    -17.140  0.0000E+00  0.0000E+00
    -17.036  0.0000E+00  0.0000E+00
    -16.931  0.0000E+00  0.0000E+00
    -16.827  0.0000E+00  0.0000E+00
    -16.722  0.0000E+00  0.0000E+00
    -16.618  0.0000E+00  0.0000E+00
    -16.514  0.0000E+00  0.0000E+00
    -16.409  0.0000E+00  0.0000E+00
    -16.305  0.5599E-15  0.5848E-16
    -16.200  0.1403E-06  0.1466E-07
    -16.096  0.1102E-01  0.1151E-02
    -15.991  0.1394E+01  0.1467E+00
    -15.887  0.5181E+01  0.6879E+00
    -15.782  0.9873E+01  0.1719E+01
    -15.678  0.2684E+01  0.1999E+01
    -15.573  0.4888E-02  0.2000E+01
    -15.469  0.4720E-08  0.2000E+01
    -15.365  0.0000E+00  0.2000E+01
    -15.260  0.0000E+00  0.2000E+01
    -15.156  0.0000E+00  0.2000E+01
    -15.051  0.0000E+00  0.2000E+01
    -14.947  0.0000E+00  0.2000E+01
    -14.842  0.0000E+00  0.2000E+01
    -14.738  0.0000E+00  0.2000E+01
    -14.633  0.0000E+00  0.2000E+01
    -14.529  0.0000E+00  0.2000E+01
    -14.424  0.0000E+00  0.2000E+01
    -14.320  0.0000E+00  0.2000E+01
    -14.215  0.0000E+00  0.2000E+01
    -14.111  0.0000E+00  0.2000E+01
    -14.007  0.3722E-13  0.2000E+01
    -13.902  0.1315E-05  0.2000E+01
    -13.798  0.1605E-01  0.2002E+01
    -13.693  0.5670E+00  0.2061E+01
    -13.589  0.1756E+01  0.2244E+01
    -13.484  0.1903E+01  0.2443E+01
    -13.380  0.2250E+01  0.2678E+01
    -13.275  0.3177E+01  0.3010E+01
    -13.171  0.5121E+01  0.3545E+01
    -13.066  0.4184E+01  0.3982E+01
    -12.962  0.1719E+00  0.4000E+01
    -12.858  0.2618E-04  0.4000E+01
    -12.753  0.1651E-11  0.4000E+01
    -12.649  0.0000E+00  0.4000E+01
    -12.544  0.0000E+00  0.4000E+01
    -12.440  0.0000E+00  0.4000E+01
    -12.335  0.4916E-10  0.4000E+01
    -12.231  0.1187E-03  0.4000E+01
    -12.126  0.2639E+00  0.4028E+01
    -12.022  0.4633E+01  0.4512E+01
    -11.917  0.1004E+02  0.5560E+01
    -11.813  0.4185E+01  0.5997E+01
    -11.708  0.2607E-01  0.6000E+01
    -11.604  0.1429E-06  0.6000E+01
    -11.500  0.1898E-15  0.6000E+01
    -11.395  0.0000E+00  0.6000E+01
    -11.291  0.0000E+00  0.6000E+01
    -11.186  0.0000E+00  0.6000E+01
    -11.082  0.0000E+00  0.6000E+01
    -10.977  0.0000E+00  0.6000E+01
    -10.873  0.0000E+00  0.6000E+01
    -10.768  0.0000E+00  0.6000E+01
    -10.664  0.0000E+00  0.6000E+01
    -10.559  0.0000E+00  0.6000E+01
    -10.455  0.0000E+00  0.6000E+01
    -10.351  0.0000E+00  0.6000E+01
    -10.246  0.0000E+00  0.6000E+01
    -10.142  0.0000E+00  0.6000E+01
    -10.037  0.0000E+00  0.6000E+01
     -9.933  0.0000E+00  0.6000E+01
     -9.828  0.0000E+00  0.6000E+01
     -9.724  0.0000E+00  0.6000E+01
     -9.619  0.0000E+00  0.6000E+01
     -9.515  0.0000E+00  0.6000E+01
     -9.410  0.0000E+00  0.6000E+01
     -9.306  0.0000E+00  0.6000E+01
     -9.201  0.0000E+00  0.6000E+01
     -9.097  0.0000E+00  0.6000E+01
     -8.993  0.0000E+00  0.6000E+01
     -8.888  0.0000E+00  0.6000E+01
     -8.784  0.0000E+00  0.6000E+01
     -8.679  0.0000E+00  0.6000E+01
     -8.575  0.0000E+00  0.6000E+01
     -8.470  0.0000E+00  0.6000E+01
     -8.366  0.0000E+00  0.6000E+01
     -8.261  0.0000E+00  0.6000E+01
     -8.157  0.0000E+00  0.6000E+01
     -8.052  0.0000E+00  0.6000E+01
     -7.948  0.0000E+00  0.6000E+01
     -7.844  0.0000E+00  0.6000E+01
     -7.739  0.0000E+00  0.6000E+01
     -7.635  0.0000E+00  0.6000E+01
     -7.530  0.0000E+00  0.6000E+01
     -7.426  0.0000E+00  0.6000E+01
     -7.321  0.0000E+00  0.6000E+01
     -7.217  0.0000E+00  0.6000E+01
     -7.112  0.4473E-13  0.6000E+01
     -7.008  0.1719E-05  0.6000E+01
     -6.903  0.1827E-01  0.6002E+01
     -6.799  0.5151E+00  0.6056E+01
     -6.694  0.6965E+00  0.6128E+01
     -6.590  0.4331E+00  0.6174E+01
     -6.486  0.1196E+01  0.6299E+01
     -6.381  0.1188E+01  0.6423E+01
     -6.277  0.1148E+01  0.6543E+01
     -6.172  0.7273E+00  0.6619E+01
     -6.068  0.1847E+01  0.6812E+01
     -5.963  0.1745E+01  0.6994E+01
     -5.859  0.8672E+00  0.7084E+01
     -5.754  0.8886E+00  0.7177E+01
     -5.650  0.9842E+00  0.7280E+01
     -5.545  0.1179E+01  0.7403E+01
     -5.441  0.1049E+01  0.7513E+01
     -5.337  0.9319E+00  0.7610E+01
     -5.232  0.5308E+00  0.7666E+01
     -5.128  0.2417E+00  0.7691E+01
     -5.023  0.4830E+00  0.7741E+01
     -4.919  0.6581E+00  0.7810E+01
     -4.814  0.5485E+00  0.7867E+01
     -4.710  0.1234E+01  0.7996E+01
     -4.605  0.8629E+00  0.8086E+01
     -4.501  0.1362E+01  0.8228E+01
     -4.396  0.2301E+01  0.8469E+01
     -4.292  0.1986E+01  0.8676E+01
     -4.187  0.1733E+01  0.8857E+01
     -4.083  0.1101E+01  0.8972E+01
     -3.979  0.1557E+01  0.9135E+01
     -3.874  0.1756E+01  0.9318E+01
     -3.770  0.1360E+01  0.9460E+01
     -3.665  0.1920E+01  0.9661E+01
     -3.561  0.2163E+01  0.9887E+01
     -3.456  0.9830E+00  0.9990E+01
     -3.352  0.9844E-01  0.1000E+02
     -3.247  0.9497E-03  0.1000E+02
     -3.143  0.6751E-08  0.1000E+02
     -3.038  0.9490E-17  0.1000E+02
     -2.934  0.0000E+00  0.1000E+02
     -2.830  0.0000E+00  0.1000E+02
     -2.725  0.0000E+00  0.1000E+02
     -2.621  0.0000E+00  0.1000E+02
     -2.516  0.0000E+00  0.1000E+02
     -2.412  0.0000E+00  0.1000E+02
     -2.307  0.0000E+00  0.1000E+02
     -2.203  0.0000E+00  0.1000E+02
     -2.098  0.1898E-16  0.1000E+02
     -1.994  0.1155E-07  0.1000E+02
     -1.889  0.1780E-02  0.1000E+02
     -1.785  0.1739E+00  0.1002E+02
     -1.680  0.5929E+00  0.1008E+02
     -1.576  0.1253E+01  0.1021E+02
     -1.472  0.1270E+01  0.1034E+02
     -1.367  0.1958E+01  0.1055E+02
     -1.263  0.3576E+01  0.1092E+02
     -1.158  0.3783E+01  0.1132E+02
     -1.054  0.3371E+01  0.1167E+02
     -0.949  0.3264E+01  0.1201E+02
     -0.845  0.3281E+01  0.1235E+02
     -0.740  0.3025E+01  0.1267E+02
     -0.636  0.3216E+01  0.1300E+02
     -0.531  0.4710E+01  0.1350E+02
     -0.427  0.4371E+01  0.1395E+02
     -0.322  0.5423E+01  0.1452E+02
     -0.218  0.4049E+01  0.1494E+02
     -0.114  0.2334E+01  0.1519E+02
     -0.009  0.1874E+01  0.1538E+02
      0.095  0.3934E+01  0.1579E+02
      0.200  0.5473E+01  0.1637E+02
      0.304  0.6808E+01  0.1708E+02
      0.409  0.5018E+01  0.1760E+02
      0.513  0.1041E+01  0.1771E+02
      0.618  0.7471E+00  0.1779E+02
      0.722  0.9132E+00  0.1788E+02
      0.827  0.5075E+00  0.1794E+02
      0.931  0.5661E+00  0.1799E+02
      1.035  0.5089E-01  0.1800E+02
      1.140  0.1999E+00  0.1802E+02
      1.244  0.1203E+01  0.1815E+02
      1.349  0.2526E+01  0.1841E+02
      1.453  0.2966E+01  0.1872E+02
      1.558  0.2321E+01  0.1896E+02
      1.662  0.1985E+01  0.1917E+02
      1.767  0.2604E+01  0.1944E+02
      1.871  0.2462E+01  0.1970E+02
      1.976  0.2611E+01  0.1997E+02
      2.080  0.3061E+01  0.2029E+02
      2.185  0.3742E+01  0.2068E+02
      2.289  0.2162E+01  0.2091E+02
      2.393  0.2071E+01  0.2112E+02
      2.498  0.2714E+01  0.2141E+02
      2.602  0.2585E+01  0.2168E+02
      2.707  0.3305E+01  0.2202E+02
      2.811  0.3889E+01  0.2243E+02
      2.916  0.3914E+01  0.2284E+02
      3.020  0.4183E+01  0.2328E+02
      3.125  0.4075E+01  0.2370E+02
      3.229  0.5208E+01  0.2425E+02
      3.334  0.4982E+01  0.2477E+02
      3.438  0.4233E+01  0.2521E+02
      3.542  0.3408E+01  0.2556E+02
      3.647  0.1914E+01  0.2576E+02
      3.751  0.1727E+01  0.2594E+02
      3.856  0.5265E+00  0.2600E+02
      3.960  0.7297E+00  0.2608E+02
      4.065  0.1707E+01  0.2625E+02
      4.169  0.1412E+01  0.2640E+02
      4.274  0.1850E+01  0.2659E+02
      4.378  0.1634E+01  0.2677E+02
      4.483  0.1919E+01  0.2697E+02
      4.587  0.1521E+01  0.2712E+02
      4.692  0.1221E+01  0.2725E+02
      4.796  0.1164E+01  0.2737E+02
      4.900  0.1979E+01  0.2758E+02
      5.005  0.1790E+01  0.2777E+02
      5.109  0.1119E+01  0.2788E+02
      5.214  0.7780E+00  0.2797E+02
      5.318  0.4615E+00  0.2801E+02
      5.423  0.3695E+00  0.2805E+02
      5.527  0.1048E+01  0.2816E+02
      5.632  0.9967E+00  0.2827E+02
      5.736  0.1603E+01  0.2843E+02
      5.841  0.2031E+01  0.2865E+02
      5.945  0.2929E+01  0.2895E+02
      6.049  0.3986E+01  0.2937E+02
      6.154  0.3815E+01  0.2977E+02
      6.258  0.3211E+01  0.3010E+02
      6.363  0.2335E+01  0.3035E+02
      6.467  0.3228E+01  0.3068E+02
      6.572  0.2769E+01  0.3097E+02
      6.676  0.3056E+01  0.3129E+02
      6.781  0.1997E+01  0.3150E+02
      6.885  0.1920E+01  0.3170E+02
      6.990  0.2888E+01  0.3200E+02
      7.094  0.3087E+01  0.3232E+02
      7.199  0.3747E+01  0.3272E+02
      7.303  0.2790E+01  0.3301E+02
      7.407  0.2063E+01  0.3322E+02
      7.512  0.2315E+01  0.3347E+02
      7.616  0.2512E+01  0.3373E+02
      7.721  0.3791E+01  0.3412E+02
      7.825  0.3402E+01  0.3448E+02
      7.930  0.1754E+01  0.3466E+02
      8.034  0.1845E+01  0.3485E+02
      8.139  0.2172E+01  0.3508E+02
      8.243  0.1998E+01  0.3529E+02
      8.348  0.1348E+01  0.3543E+02
      8.452  0.2265E+01  0.3567E+02
      8.556  0.1319E+01  0.3581E+02
      8.661  0.1164E+01  0.3593E+02
      8.765  0.6451E+00  0.3599E+02
      8.870  0.7627E+00  0.3607E+02
      8.974  0.5589E+00  0.3613E+02
      9.079  0.6542E+00  0.3620E+02
      9.183  0.5357E+00  0.3626E+02
      9.288  0.1458E+01  0.3641E+02
      9.392  0.2148E+01  0.3663E+02
      9.497  0.9942E+00  0.3674E+02
      9.601  0.1020E+01  0.3684E+02
      9.706  0.1410E+01  0.3699E+02
      9.810  0.1245E+01  0.3712E+02
      9.914  0.6202E+00  0.3719E+02
     10.019  0.4359E+00  0.3723E+02
     10.123  0.7220E+00  0.3731E+02
     10.228  0.1270E+01  0.3744E+02
     10.332  0.1158E+01  0.3756E+02
     10.437  0.7351E+00  0.3764E+02
     10.541  0.1618E+01  0.3781E+02
     10.646  0.1172E+01  0.3793E+02
     10.750  0.5187E+00  0.3798E+02
     10.855  0.1596E+00  0.3800E+02
     10.959  0.1268E-01  0.3800E+02
     11.063  0.2119E+00  0.3802E+02
     11.168  0.4399E+00  0.3807E+02
     11.272  0.6443E+00  0.3814E+02
     11.377  0.2089E+01  0.3835E+02
     11.481  0.1562E+01  0.3852E+02
     11.586  0.2364E+01  0.3876E+02
     11.690  0.2140E+01  0.3899E+02
     11.795  0.2136E+01  0.3921E+02
     11.899  0.1435E+01  0.3936E+02
     12.004  0.1897E+01  0.3956E+02
     12.108  0.1241E+01  0.3969E+02
     12.213  0.1327E+01  0.3983E+02
     12.317  0.9009E+00  0.3992E+02
     12.421  0.5576E+00  0.3998E+02
     12.526  0.1835E+00  0.4000E+02
     12.630  0.5150E-02  0.4000E+02
     12.735  0.1140E-06  0.4000E+02
     12.839  0.5694E-15  0.4000E+02
     12.944  0.0000E+00  0.4000E+02
     13.048  0.0000E+00  0.4000E+02
     13.153  0.0000E+00  0.4000E+02
     13.257  0.0000E+00  0.4000E+02
     13.362  0.0000E+00  0.4000E+02
     13.466  0.0000E+00  0.4000E+02
     13.570  0.0000E+00  0.4000E+02
     13.675  0.0000E+00  0.4000E+02
     13.779  0.0000E+00  0.4000E+02
     13.884  0.0000E+00  0.4000E+02
