   4   4   0   0
  0.1699785E+02  0.3592449E-09  0.3592452E-09  0.5268323E-09  0.5000000E-15
  1.000000000000000E-004
  CAR 
 unknown system                          
     17.60565416    -50.37425663  301      5.86475131      1.00000000
    -50.374  0.0000E+00  0.0000E+00
    -50.148  0.0000E+00  0.0000E+00
    -49.921  0.0000E+00  0.0000E+00
    -49.694  0.0000E+00  0.0000E+00
    -49.468  0.0000E+00  0.0000E+00
    -49.241  0.0000E+00  0.0000E+00
    -49.015  0.0000E+00  0.0000E+00
    -48.788  0.0000E+00  0.0000E+00
    -48.561  0.0000E+00  0.0000E+00
    -48.335  0.0000E+00  0.0000E+00
    -48.108  0.0000E+00  0.0000E+00
    -47.882  0.0000E+00  0.0000E+00
    -47.655  0.0000E+00  0.0000E+00
    -47.428  0.2642E-04  0.5986E-05
    -47.202  0.1256E+02  0.2846E+01
    -46.975  0.2260E+02  0.7966E+01
    -46.749  0.1746E+02  0.1192E+02
    -46.522  0.3447E+00  0.1200E+02
    -46.295  0.0000E+00  0.1200E+02
    -46.069  0.0000E+00  0.1200E+02
    -45.842  0.0000E+00  0.1200E+02
    -45.616  0.0000E+00  0.1200E+02
    -45.389  0.0000E+00  0.1200E+02
    -45.162  0.0000E+00  0.1200E+02
    -44.936  0.0000E+00  0.1200E+02
    -44.709  0.0000E+00  0.1200E+02
    -44.483  0.0000E+00  0.1200E+02
    -44.256  0.0000E+00  0.1200E+02
    -44.029  0.0000E+00  0.1200E+02
    -43.803  0.0000E+00  0.1200E+02
    -43.576  0.0000E+00  0.1200E+02
    -43.350  0.0000E+00  0.1200E+02
    -43.123  0.0000E+00  0.1200E+02
    -42.896  0.0000E+00  0.1200E+02
    -42.670  0.0000E+00  0.1200E+02
    -42.443  0.0000E+00  0.1200E+02
    -42.217  0.0000E+00  0.1200E+02
    -41.990  0.0000E+00  0.1200E+02
    -41.763  0.0000E+00  0.1200E+02
    -41.537  0.0000E+00  0.1200E+02
    -41.310  0.0000E+00  0.1200E+02
    -41.084  0.0000E+00  0.1200E+02
    -40.857  0.0000E+00  0.1200E+02
    -40.630  0.0000E+00  0.1200E+02
    -40.404  0.0000E+00  0.1200E+02
    -40.177  0.0000E+00  0.1200E+02
    -39.951  0.0000E+00  0.1200E+02
    -39.724  0.0000E+00  0.1200E+02
    -39.497  0.0000E+00  0.1200E+02
    -39.271  0.0000E+00  0.1200E+02
    -39.044  0.0000E+00  0.1200E+02
    -38.818  0.0000E+00  0.1200E+02
    -38.591  0.0000E+00  0.1200E+02
    -38.364  0.0000E+00  0.1200E+02
    -38.138  0.0000E+00  0.1200E+02
    -37.911  0.0000E+00  0.1200E+02
    -37.685  0.0000E+00  0.1200E+02
    -37.458  0.0000E+00  0.1200E+02
    -37.231  0.0000E+00  0.1200E+02
    -37.005  0.0000E+00  0.1200E+02
    -36.778  0.0000E+00  0.1200E+02
    -36.552  0.0000E+00  0.1200E+02
    -36.325  0.0000E+00  0.1200E+02
    -36.098  0.0000E+00  0.1200E+02
    -35.872  0.0000E+00  0.1200E+02
    -35.645  0.0000E+00  0.1200E+02
    -35.419  0.0000E+00  0.1200E+02
    -35.192  0.0000E+00  0.1200E+02
    -34.965  0.0000E+00  0.1200E+02
    -34.739  0.0000E+00  0.1200E+02
    -34.512  0.0000E+00  0.1200E+02
    -34.286  0.0000E+00  0.1200E+02
    -34.059  0.0000E+00  0.1200E+02
    -33.832  0.0000E+00  0.1200E+02
    -33.606  0.0000E+00  0.1200E+02
    -33.379  0.0000E+00  0.1200E+02
    -33.153  0.0000E+00  0.1200E+02
    -32.926  0.0000E+00  0.1200E+02
    -32.699  0.0000E+00  0.1200E+02
    -32.473  0.0000E+00  0.1200E+02
    -32.246  0.0000E+00  0.1200E+02
    -32.020  0.0000E+00  0.1200E+02
    -31.793  0.0000E+00  0.1200E+02
    -31.566  0.0000E+00  0.1200E+02
    -31.340  0.0000E+00  0.1200E+02
    -31.113  0.0000E+00  0.1200E+02
    -30.887  0.0000E+00  0.1200E+02
    -30.660  0.0000E+00  0.1200E+02
    -30.433  0.0000E+00  0.1200E+02
    -30.207  0.0000E+00  0.1200E+02
    -29.980  0.0000E+00  0.1200E+02
    -29.754  0.0000E+00  0.1200E+02
    -29.527  0.0000E+00  0.1200E+02
    -29.300  0.0000E+00  0.1200E+02
    -29.074  0.0000E+00  0.1200E+02
    -28.847  0.0000E+00  0.1200E+02
    -28.621  0.0000E+00  0.1200E+02
    -28.394  0.0000E+00  0.1200E+02
    -28.167  0.0000E+00  0.1200E+02
    -27.941  0.0000E+00  0.1200E+02
    -27.714  0.0000E+00  0.1200E+02
    -27.488  0.0000E+00  0.1200E+02
    -27.261  0.0000E+00  0.1200E+02
    -27.034  0.0000E+00  0.1200E+02
    -26.808  0.0000E+00  0.1200E+02
    -26.581  0.0000E+00  0.1200E+02
    -26.355  0.0000E+00  0.1200E+02
    -26.128  0.0000E+00  0.1200E+02
    -25.901  0.0000E+00  0.1200E+02
    -25.675  0.0000E+00  0.1200E+02
    -25.448  0.0000E+00  0.1200E+02
    -25.222  0.0000E+00  0.1200E+02
    -24.995  0.0000E+00  0.1200E+02
    -24.768  0.0000E+00  0.1200E+02
    -24.542  0.0000E+00  0.1200E+02
    -24.315  0.0000E+00  0.1200E+02
    -24.089  0.0000E+00  0.1200E+02
    -23.862  0.0000E+00  0.1200E+02
    -23.635  0.0000E+00  0.1200E+02
    -23.409  0.0000E+00  0.1200E+02
    -23.182  0.0000E+00  0.1200E+02
    -22.956  0.0000E+00  0.1200E+02
    -22.729  0.0000E+00  0.1200E+02
    -22.502  0.0000E+00  0.1200E+02
    -22.276  0.0000E+00  0.1200E+02
    -22.049  0.0000E+00  0.1200E+02
    -21.823  0.0000E+00  0.1200E+02
    -21.596  0.0000E+00  0.1200E+02
    -21.369  0.0000E+00  0.1200E+02
    -21.143  0.0000E+00  0.1200E+02
    -20.916  0.0000E+00  0.1200E+02
    -20.690  0.0000E+00  0.1200E+02
    -20.463  0.0000E+00  0.1200E+02
    -20.236  0.0000E+00  0.1200E+02
    -20.010  0.0000E+00  0.1200E+02
    -19.783  0.0000E+00  0.1200E+02
    -19.557  0.0000E+00  0.1200E+02
    -19.330  0.0000E+00  0.1200E+02
    -19.103  0.0000E+00  0.1200E+02
    -18.877  0.0000E+00  0.1200E+02
    -18.650  0.0000E+00  0.1200E+02
    -18.424  0.0000E+00  0.1200E+02
    -18.197  0.0000E+00  0.1200E+02
    -17.970  0.0000E+00  0.1200E+02
    -17.744  0.0000E+00  0.1200E+02
    -17.517  0.0000E+00  0.1200E+02
    -17.291  0.0000E+00  0.1200E+02
    -17.064  0.0000E+00  0.1200E+02
    -16.838  0.0000E+00  0.1200E+02
    -16.611  0.0000E+00  0.1200E+02
    -16.384  0.0000E+00  0.1200E+02
    -16.158  0.0000E+00  0.1200E+02
    -15.931  0.0000E+00  0.1200E+02
    -15.705  0.0000E+00  0.1200E+02
    -15.478  0.0000E+00  0.1200E+02
    -15.251  0.0000E+00  0.1200E+02
    -15.025  0.0000E+00  0.1200E+02
    -14.798  0.0000E+00  0.1200E+02
    -14.572  0.0000E+00  0.1200E+02
    -14.345  0.0000E+00  0.1200E+02
    -14.118  0.0000E+00  0.1200E+02
    -13.892  0.0000E+00  0.1200E+02
    -13.665  0.0000E+00  0.1200E+02
    -13.439  0.0000E+00  0.1200E+02
    -13.212  0.0000E+00  0.1200E+02
    -12.985  0.0000E+00  0.1200E+02
    -12.759  0.0000E+00  0.1200E+02
    -12.532  0.0000E+00  0.1200E+02
    -12.306  0.0000E+00  0.1200E+02
    -12.079  0.0000E+00  0.1200E+02
    -11.852  0.0000E+00  0.1200E+02
    -11.626  0.0000E+00  0.1200E+02
    -11.399  0.0000E+00  0.1200E+02
    -11.173  0.0000E+00  0.1200E+02
    -10.946  0.0000E+00  0.1200E+02
    -10.719  0.0000E+00  0.1200E+02
    -10.493  0.0000E+00  0.1200E+02
    -10.266  0.0000E+00  0.1200E+02
    -10.040  0.0000E+00  0.1200E+02
     -9.813  0.0000E+00  0.1200E+02
     -9.586  0.0000E+00  0.1200E+02
     -9.360  0.7617E-12  0.1200E+02
     -9.133  0.1371E-01  0.1200E+02
     -8.907  0.5655E+00  0.1213E+02
     -8.680  0.1034E+01  0.1237E+02
     -8.453  0.1304E+01  0.1266E+02
     -8.227  0.1849E+01  0.1308E+02
     -8.000  0.2003E+01  0.1353E+02
     -7.774  0.5872E+01  0.1486E+02
     -7.547  0.5000E+01  0.1600E+02
     -7.320  0.1072E-01  0.1600E+02
     -7.094  0.0000E+00  0.1600E+02
     -6.867  0.0000E+00  0.1600E+02
     -6.641  0.0000E+00  0.1600E+02
     -6.414  0.0000E+00  0.1600E+02
     -6.187  0.0000E+00  0.1600E+02
     -5.961  0.0000E+00  0.1600E+02
     -5.734  0.0000E+00  0.1600E+02
     -5.508  0.0000E+00  0.1600E+02
     -5.281  0.0000E+00  0.1600E+02
     -5.054  0.0000E+00  0.1600E+02
     -4.828  0.0000E+00  0.1600E+02
     -4.601  0.0000E+00  0.1600E+02
     -4.375  0.0000E+00  0.1600E+02
     -4.148  0.0000E+00  0.1600E+02
     -3.921  0.0000E+00  0.1600E+02
     -3.695  0.0000E+00  0.1600E+02
     -3.468  0.0000E+00  0.1600E+02
     -3.242  0.0000E+00  0.1600E+02
     -3.015  0.0000E+00  0.1600E+02
     -2.788  0.0000E+00  0.1600E+02
     -2.562  0.0000E+00  0.1600E+02
     -2.335  0.0000E+00  0.1600E+02
     -2.109  0.0000E+00  0.1600E+02
     -1.882  0.0000E+00  0.1600E+02
     -1.655  0.0000E+00  0.1600E+02
     -1.429  0.0000E+00  0.1600E+02
     -1.202  0.0000E+00  0.1600E+02
     -0.976  0.1225E-16  0.1600E+02
     -0.749  0.2411E-02  0.1600E+02
     -0.522  0.6148E+00  0.1614E+02
     -0.296  0.2551E+01  0.1672E+02
     -0.069  0.4321E+01  0.1770E+02
      0.157  0.5447E+01  0.1893E+02
      0.384  0.2026E+01  0.1939E+02
      0.611  0.1939E+01  0.1983E+02
      0.837  0.1293E+01  0.2012E+02
      1.064  0.3155E+01  0.2084E+02
      1.290  0.7786E+01  0.2260E+02
      1.517  0.7492E+01  0.2430E+02
      1.744  0.6635E+01  0.2580E+02
      1.970  0.6891E+01  0.2736E+02
      2.197  0.1600E+01  0.2773E+02
      2.423  0.1083E+01  0.2797E+02
      2.650  0.1340E+00  0.2800E+02
      2.877  0.7521E+00  0.2817E+02
      3.103  0.5314E+00  0.2829E+02
      3.330  0.1804E+01  0.2870E+02
      3.556  0.5875E+00  0.2884E+02
      3.783  0.4050E+01  0.2975E+02
      4.010  0.2571E+01  0.3034E+02
      4.236  0.3090E+01  0.3104E+02
      4.463  0.2670E+01  0.3164E+02
      4.689  0.3864E+01  0.3252E+02
      4.916  0.5484E+01  0.3376E+02
      5.143  0.8410E+01  0.3566E+02
      5.369  0.9665E+01  0.3785E+02
      5.596  0.6511E+01  0.3933E+02
      5.822  0.2340E+01  0.3986E+02
      6.049  0.2277E+01  0.4038E+02
      6.276  0.8062E+00  0.4056E+02
      6.502  0.1959E+01  0.4100E+02
      6.729  0.1271E+01  0.4129E+02
      6.955  0.3138E+01  0.4200E+02
      7.182  0.8030E+01  0.4382E+02
      7.409  0.5857E+01  0.4515E+02
      7.635  0.4773E+01  0.4623E+02
      7.862  0.2889E+01  0.4689E+02
      8.088  0.2690E+01  0.4749E+02
      8.315  0.1798E+01  0.4790E+02
      8.542  0.4294E+00  0.4800E+02
      8.768  0.3892E-02  0.4800E+02
      8.995  0.0000E+00  0.4800E+02
      9.221  0.2756E-16  0.4800E+02
      9.448  0.1728E-02  0.4800E+02
      9.675  0.2585E-01  0.4801E+02
      9.901  0.2983E-05  0.4801E+02
     10.128  0.1595E+00  0.4804E+02
     10.354  0.1213E-01  0.4805E+02
     10.581  0.3247E+00  0.4812E+02
     10.808  0.1677E+00  0.4816E+02
     11.034  0.2865E+00  0.4822E+02
     11.261  0.4129E+00  0.4832E+02
     11.487  0.1683E+01  0.4870E+02
     11.714  0.2069E+01  0.4917E+02
     11.941  0.3014E+01  0.4985E+02
     12.167  0.2692E+01  0.5046E+02
     12.394  0.1360E+01  0.5077E+02
     12.620  0.3664E+01  0.5160E+02
     12.847  0.1475E+01  0.5193E+02
     13.074  0.2687E+01  0.5254E+02
     13.300  0.2770E+01  0.5317E+02
     13.527  0.3675E+01  0.5400E+02
     13.753  0.3906E+01  0.5489E+02
     13.980  0.2328E+01  0.5541E+02
     14.207  0.2019E+01  0.5587E+02
     14.433  0.4076E+00  0.5596E+02
     14.660  0.1642E+00  0.5600E+02
     14.886  0.2400E-05  0.5600E+02
     15.113  0.0000E+00  0.5600E+02
     15.340  0.0000E+00  0.5600E+02
     15.566  0.0000E+00  0.5600E+02
     15.793  0.0000E+00  0.5600E+02
     16.019  0.0000E+00  0.5600E+02
     16.246  0.0000E+00  0.5600E+02
     16.473  0.0000E+00  0.5600E+02
     16.699  0.0000E+00  0.5600E+02
     16.926  0.0000E+00  0.5600E+02
     17.152  0.0000E+00  0.5600E+02
     17.379  0.0000E+00  0.5600E+02
     17.606  0.0000E+00  0.5600E+02
