       N       E                     dE             d eps       ncg     rms          rms(c)
DAV:   1     0.463776052725E+03    0.46378E+03   -0.24672E+04 17948   0.190E+03
DAV:   2     0.102329353406E+02   -0.45354E+03   -0.43748E+03 17984   0.502E+02
DAV:   3    -0.282273135096E+02   -0.38460E+02   -0.37629E+02 19764   0.153E+02
DAV:   4    -0.294722905331E+02   -0.12450E+01   -0.12396E+01 20372   0.275E+01
DAV:   5    -0.294999943796E+02   -0.27704E-01   -0.27695E-01 20596   0.458E+00    0.223E+01
DAV:   6    -0.311122532932E+02   -0.16123E+01   -0.36113E+01 19436   0.668E+01    0.205E+01
DAV:   7    -0.269243729017E+02    0.41879E+01   -0.21902E+01 19340   0.509E+01    0.745E+00
DAV:   8    -0.268752793523E+02    0.49094E-01   -0.13688E+00 20280   0.754E+00    0.198E+00
DAV:   9    -0.268565513496E+02    0.18728E-01   -0.85347E-02 21980   0.216E+00    0.132E+00
DAV:  10    -0.268547640063E+02    0.17873E-02   -0.92411E-03 20140   0.660E-01    0.720E-01
DAV:  11    -0.268715676406E+02   -0.16804E-01   -0.12340E-01 21924   0.396E+00    0.203E+00
DAV:  12    -0.268541196012E+02    0.17448E-01   -0.10516E-01 20792   0.283E+00    0.155E-01
DAV:  13    -0.268542117564E+02   -0.92155E-04   -0.11140E-03 19888   0.242E-01    0.637E-02
DAV:  14    -0.268542354929E+02   -0.23737E-04   -0.12058E-04 19160   0.119E-01    0.426E-02
DAV:  15    -0.268542428073E+02   -0.73144E-05   -0.32679E-05 19860   0.588E-02    0.241E-02
DAV:  16    -0.268542429557E+02   -0.14835E-06   -0.11584E-06 12292   0.120E-02
   1 F= -.26854243E+02 E0= -.26852518E+02  d E =-.345037E-02
