   2   2   0   0
  0.1027359E+02  0.2947868E-09  0.2947868E-09  0.2730268E-09  0.5000000E-15
  1.000000000000000E-004
  CAR 
 unknown system                          
     35.09127983    -41.16754769  301     10.05149439      1.00000000
    -41.168  0.0000E+00  0.0000E+00
    -40.913  0.0000E+00  0.0000E+00
    -40.659  0.0000E+00  0.0000E+00
    -40.405  0.0000E+00  0.0000E+00
    -40.151  0.0000E+00  0.0000E+00
    -39.897  0.0000E+00  0.0000E+00
    -39.642  0.0000E+00  0.0000E+00
    -39.388  0.0000E+00  0.0000E+00
    -39.134  0.0000E+00  0.0000E+00
    -38.880  0.0000E+00  0.0000E+00
    -38.626  0.0000E+00  0.0000E+00
    -38.371  0.0000E+00  0.0000E+00
    -38.117  0.0000E+00  0.0000E+00
    -37.863  0.1412E-06  0.3590E-07
    -37.609  0.1431E+01  0.3637E+00
    -37.355  0.2848E+01  0.1088E+01
    -37.100  0.8160E+01  0.3162E+01
    -36.846  0.1064E+02  0.5866E+01
    -36.592  0.5266E+00  0.6000E+01
    -36.338  0.0000E+00  0.6000E+01
    -36.084  0.0000E+00  0.6000E+01
    -35.829  0.0000E+00  0.6000E+01
    -35.575  0.0000E+00  0.6000E+01
    -35.321  0.0000E+00  0.6000E+01
    -35.067  0.0000E+00  0.6000E+01
    -34.813  0.0000E+00  0.6000E+01
    -34.558  0.0000E+00  0.6000E+01
    -34.304  0.0000E+00  0.6000E+01
    -34.050  0.0000E+00  0.6000E+01
    -33.796  0.0000E+00  0.6000E+01
    -33.542  0.0000E+00  0.6000E+01
    -33.287  0.0000E+00  0.6000E+01
    -33.033  0.0000E+00  0.6000E+01
    -32.779  0.0000E+00  0.6000E+01
    -32.525  0.0000E+00  0.6000E+01
    -32.271  0.0000E+00  0.6000E+01
    -32.016  0.0000E+00  0.6000E+01
    -31.762  0.0000E+00  0.6000E+01
    -31.508  0.0000E+00  0.6000E+01
    -31.254  0.0000E+00  0.6000E+01
    -31.000  0.0000E+00  0.6000E+01
    -30.746  0.0000E+00  0.6000E+01
    -30.491  0.0000E+00  0.6000E+01
    -30.237  0.0000E+00  0.6000E+01
    -29.983  0.0000E+00  0.6000E+01
    -29.729  0.0000E+00  0.6000E+01
    -29.475  0.0000E+00  0.6000E+01
    -29.220  0.0000E+00  0.6000E+01
    -28.966  0.0000E+00  0.6000E+01
    -28.712  0.0000E+00  0.6000E+01
    -28.458  0.0000E+00  0.6000E+01
    -28.204  0.0000E+00  0.6000E+01
    -27.949  0.0000E+00  0.6000E+01
    -27.695  0.0000E+00  0.6000E+01
    -27.441  0.0000E+00  0.6000E+01
    -27.187  0.0000E+00  0.6000E+01
    -26.933  0.0000E+00  0.6000E+01
    -26.678  0.0000E+00  0.6000E+01
    -26.424  0.0000E+00  0.6000E+01
    -26.170  0.0000E+00  0.6000E+01
    -25.916  0.0000E+00  0.6000E+01
    -25.662  0.0000E+00  0.6000E+01
    -25.407  0.0000E+00  0.6000E+01
    -25.153  0.0000E+00  0.6000E+01
    -24.899  0.0000E+00  0.6000E+01
    -24.645  0.0000E+00  0.6000E+01
    -24.391  0.0000E+00  0.6000E+01
    -24.136  0.0000E+00  0.6000E+01
    -23.882  0.0000E+00  0.6000E+01
    -23.628  0.0000E+00  0.6000E+01
    -23.374  0.0000E+00  0.6000E+01
    -23.120  0.0000E+00  0.6000E+01
    -22.865  0.0000E+00  0.6000E+01
    -22.611  0.0000E+00  0.6000E+01
    -22.357  0.0000E+00  0.6000E+01
    -22.103  0.0000E+00  0.6000E+01
    -21.849  0.0000E+00  0.6000E+01
    -21.594  0.0000E+00  0.6000E+01
    -21.340  0.0000E+00  0.6000E+01
    -21.086  0.0000E+00  0.6000E+01
    -20.832  0.0000E+00  0.6000E+01
    -20.578  0.0000E+00  0.6000E+01
    -20.323  0.0000E+00  0.6000E+01
    -20.069  0.0000E+00  0.6000E+01
    -19.815  0.0000E+00  0.6000E+01
    -19.561  0.0000E+00  0.6000E+01
    -19.307  0.0000E+00  0.6000E+01
    -19.052  0.0000E+00  0.6000E+01
    -18.798  0.0000E+00  0.6000E+01
    -18.544  0.0000E+00  0.6000E+01
    -18.290  0.0000E+00  0.6000E+01
    -18.036  0.0000E+00  0.6000E+01
    -17.782  0.0000E+00  0.6000E+01
    -17.527  0.0000E+00  0.6000E+01
    -17.273  0.0000E+00  0.6000E+01
    -17.019  0.0000E+00  0.6000E+01
    -16.765  0.0000E+00  0.6000E+01
    -16.511  0.0000E+00  0.6000E+01
    -16.256  0.0000E+00  0.6000E+01
    -16.002  0.0000E+00  0.6000E+01
    -15.748  0.0000E+00  0.6000E+01
    -15.494  0.0000E+00  0.6000E+01
    -15.240  0.0000E+00  0.6000E+01
    -14.985  0.0000E+00  0.6000E+01
    -14.731  0.0000E+00  0.6000E+01
    -14.477  0.0000E+00  0.6000E+01
    -14.223  0.0000E+00  0.6000E+01
    -13.969  0.0000E+00  0.6000E+01
    -13.714  0.0000E+00  0.6000E+01
    -13.460  0.0000E+00  0.6000E+01
    -13.206  0.0000E+00  0.6000E+01
    -12.952  0.0000E+00  0.6000E+01
    -12.698  0.0000E+00  0.6000E+01
    -12.443  0.0000E+00  0.6000E+01
    -12.189  0.0000E+00  0.6000E+01
    -11.935  0.0000E+00  0.6000E+01
    -11.681  0.0000E+00  0.6000E+01
    -11.427  0.0000E+00  0.6000E+01
    -11.172  0.0000E+00  0.6000E+01
    -10.918  0.0000E+00  0.6000E+01
    -10.664  0.0000E+00  0.6000E+01
    -10.410  0.0000E+00  0.6000E+01
    -10.156  0.0000E+00  0.6000E+01
     -9.901  0.0000E+00  0.6000E+01
     -9.647  0.0000E+00  0.6000E+01
     -9.393  0.0000E+00  0.6000E+01
     -9.139  0.0000E+00  0.6000E+01
     -8.885  0.0000E+00  0.6000E+01
     -8.630  0.0000E+00  0.6000E+01
     -8.376  0.0000E+00  0.6000E+01
     -8.122  0.0000E+00  0.6000E+01
     -7.868  0.0000E+00  0.6000E+01
     -7.614  0.0000E+00  0.6000E+01
     -7.359  0.0000E+00  0.6000E+01
     -7.105  0.0000E+00  0.6000E+01
     -6.851  0.2783E-15  0.6000E+01
     -6.597  0.2776E-02  0.6001E+01
     -6.343  0.4445E-01  0.6012E+01
     -6.088  0.1014E+00  0.6038E+01
     -5.834  0.4844E-01  0.6050E+01
     -5.580  0.2156E+00  0.6105E+01
     -5.326  0.9537E-01  0.6129E+01
     -5.072  0.1844E+00  0.6176E+01
     -4.818  0.2739E+00  0.6246E+01
     -4.563  0.2640E+00  0.6313E+01
     -4.309  0.2801E+00  0.6384E+01
     -4.055  0.4028E+00  0.6486E+01
     -3.801  0.4925E+00  0.6612E+01
     -3.547  0.4839E+00  0.6735E+01
     -3.292  0.1265E+01  0.7056E+01
     -3.038  0.2233E+01  0.7624E+01
     -2.784  0.1423E+01  0.7986E+01
     -2.530  0.5698E-01  0.8000E+01
     -2.276  0.0000E+00  0.8000E+01
     -2.021  0.0000E+00  0.8000E+01
     -1.767  0.0000E+00  0.8000E+01
     -1.513  0.0000E+00  0.8000E+01
     -1.259  0.0000E+00  0.8000E+01
     -1.005  0.0000E+00  0.8000E+01
     -0.750  0.0000E+00  0.8000E+01
     -0.496  0.1140E-04  0.8000E+01
     -0.242  0.1486E-01  0.8004E+01
      0.012  0.8527E-01  0.8025E+01
      0.266  0.2817E-01  0.8033E+01
      0.521  0.1715E+00  0.8076E+01
      0.775  0.5644E+00  0.8220E+01
      1.029  0.1315E+01  0.8554E+01
      1.283  0.1264E+01  0.8875E+01
      1.537  0.2057E+01  0.9398E+01
      1.792  0.5974E+00  0.9550E+01
      2.046  0.6469E+00  0.9714E+01
      2.300  0.9854E+00  0.9965E+01
      2.554  0.8581E+00  0.1018E+02
      2.808  0.5140E+00  0.1031E+02
      3.063  0.1173E+01  0.1061E+02
      3.317  0.1105E+01  0.1089E+02
      3.571  0.1597E+01  0.1130E+02
      3.825  0.1931E+01  0.1179E+02
      4.079  0.1745E+01  0.1223E+02
      4.334  0.1393E+01  0.1259E+02
      4.588  0.2464E+01  0.1321E+02
      4.842  0.1821E+01  0.1368E+02
      5.096  0.7332E+00  0.1386E+02
      5.350  0.4486E+00  0.1398E+02
      5.605  0.7916E+00  0.1418E+02
      5.859  0.1765E+01  0.1463E+02
      6.113  0.1741E+01  0.1507E+02
      6.367  0.1501E+01  0.1545E+02
      6.621  0.9103E+00  0.1568E+02
      6.876  0.6626E+00  0.1585E+02
      7.130  0.7226E+00  0.1603E+02
      7.384  0.4501E+00  0.1615E+02
      7.638  0.2427E+00  0.1621E+02
      7.892  0.6465E+00  0.1637E+02
      8.146  0.4375E+00  0.1649E+02
      8.401  0.8641E+00  0.1671E+02
      8.655  0.1056E+01  0.1697E+02
      8.909  0.6570E+00  0.1714E+02
      9.163  0.6005E+00  0.1729E+02
      9.417  0.1068E+01  0.1757E+02
      9.672  0.6964E+00  0.1774E+02
      9.926  0.4452E+00  0.1786E+02
     10.180  0.1436E+01  0.1822E+02
     10.434  0.1734E+01  0.1866E+02
     10.688  0.2352E+01  0.1926E+02
     10.943  0.9858E+00  0.1951E+02
     11.197  0.1594E+01  0.1991E+02
     11.451  0.8798E+00  0.2014E+02
     11.705  0.7919E+00  0.2034E+02
     11.959  0.7379E+00  0.2053E+02
     12.214  0.1100E+01  0.2081E+02
     12.468  0.1908E+01  0.2129E+02
     12.722  0.1489E+01  0.2167E+02
     12.976  0.1473E+01  0.2204E+02
     13.230  0.1133E+01  0.2233E+02
     13.485  0.1080E+01  0.2261E+02
     13.739  0.8296E+00  0.2282E+02
     13.993  0.6900E+00  0.2299E+02
     14.247  0.1281E+01  0.2332E+02
     14.501  0.3005E+00  0.2340E+02
     14.756  0.5330E+00  0.2353E+02
     15.010  0.6850E+00  0.2371E+02
     15.264  0.6997E+00  0.2388E+02
     15.518  0.8063E-01  0.2390E+02
     15.772  0.3001E+00  0.2398E+02
     16.027  0.3737E+00  0.2408E+02
     16.281  0.9037E-01  0.2410E+02
     16.535  0.2914E+00  0.2417E+02
     16.789  0.3973E+00  0.2427E+02
     17.043  0.2058E-01  0.2428E+02
     17.298  0.4582E+00  0.2439E+02
     17.552  0.6211E+00  0.2455E+02
     17.806  0.4802E+00  0.2467E+02
     18.060  0.2019E+00  0.2473E+02
     18.314  0.9724E+00  0.2497E+02
     18.569  0.1019E+01  0.2523E+02
     18.823  0.9811E+00  0.2548E+02
     19.077  0.6720E+00  0.2565E+02
     19.331  0.4964E+00  0.2578E+02
     19.585  0.4206E+00  0.2589E+02
     19.840  0.4510E+00  0.2600E+02
     20.094  0.9223E-01  0.2602E+02
     20.348  0.3802E+00  0.2612E+02
     20.602  0.3323E+00  0.2620E+02
     20.856  0.7675E+00  0.2640E+02
     21.110  0.1056E+01  0.2667E+02
     21.365  0.1769E+01  0.2712E+02
     21.619  0.1064E+01  0.2739E+02
     21.873  0.1185E+01  0.2769E+02
     22.127  0.6184E+00  0.2785E+02
     22.381  0.6158E+00  0.2800E+02
     22.636  0.5615E+00  0.2815E+02
     22.890  0.4242E+00  0.2825E+02
     23.144  0.2026E+00  0.2831E+02
     23.398  0.9703E-01  0.2833E+02
     23.652  0.1153E+00  0.2836E+02
     23.907  0.8400E+00  0.2857E+02
     24.161  0.2723E+00  0.2864E+02
     24.415  0.6716E+00  0.2881E+02
     24.669  0.1426E+01  0.2918E+02
     24.923  0.1918E+01  0.2966E+02
     25.178  0.1024E+01  0.2992E+02
     25.432  0.7711E+00  0.3012E+02
     25.686  0.1032E+01  0.3038E+02
     25.940  0.9463E+00  0.3062E+02
     26.194  0.8232E+00  0.3083E+02
     26.449  0.7475E+00  0.3102E+02
     26.703  0.8690E+00  0.3124E+02
     26.957  0.4232E+00  0.3135E+02
     27.211  0.4264E+00  0.3146E+02
     27.465  0.6000E+00  0.3161E+02
     27.720  0.2198E+00  0.3167E+02
     27.974  0.4232E+00  0.3177E+02
     28.228  0.1813E+00  0.3182E+02
     28.482  0.3392E+00  0.3191E+02
     28.736  0.1291E+00  0.3194E+02
     28.991  0.1230E+00  0.3197E+02
     29.245  0.1534E-01  0.3197E+02
     29.499  0.1710E-05  0.3197E+02
     29.753  0.0000E+00  0.3197E+02
     30.007  0.0000E+00  0.3197E+02
     30.262  0.0000E+00  0.3197E+02
     30.516  0.0000E+00  0.3197E+02
     30.770  0.1252E-06  0.3197E+02
     31.024  0.8532E-01  0.3200E+02
     31.278  0.5135E-03  0.3200E+02
     31.533  0.6398E-04  0.3200E+02
     31.787  0.1424E-01  0.3200E+02
     32.041  0.0000E+00  0.3200E+02
     32.295  0.0000E+00  0.3200E+02
     32.549  0.0000E+00  0.3200E+02
     32.804  0.0000E+00  0.3200E+02
     33.058  0.0000E+00  0.3200E+02
     33.312  0.0000E+00  0.3200E+02
     33.566  0.0000E+00  0.3200E+02
     33.820  0.0000E+00  0.3200E+02
     34.074  0.0000E+00  0.3200E+02
     34.329  0.0000E+00  0.3200E+02
     34.583  0.0000E+00  0.3200E+02
     34.837  0.0000E+00  0.3200E+02
     35.091  0.0000E+00  0.3200E+02
