Ba2 P20                                 
   1.00000000000000     
     6.4798465600000004    0.0000000000000000    0.0000000000000000
    -3.2399232800000002    6.4541258299999997    0.0000000000000000
     0.0000000000000000    0.0000000000000000   12.1247359699999997
   Ba   P 
     2    20
Direct
     0.1873992000000015    0.3747984000000031    0.0057684399999971
     0.8126007999999985    0.6252015999999969    0.5057684399999971
     0.3902899699999978    0.7805799500000035    0.6055874099999983
     0.6097100300000022    0.2194200499999965    0.1055874099999983
     0.0673847600000030    0.1347715200000010    0.5584023500000015
     0.9326152399999970    0.8652284799999990    0.0584023500000015
     0.4085144000000014    0.8170288000000028    0.7820571000000029
     0.5914855999999986    0.1829711999999972    0.2820571000000029
     0.8133508399999982    0.6267026700000002    0.9292937299999977
     0.1866491600000018    0.3732973299999998    0.4292937299999977
     0.9088902599999997    0.8177825200000015    0.7810405099999969
     0.0911097400000003    0.1822174799999985    0.2810405099999969
     0.5520791699999990    0.1041613399999974    0.5661656899999983
     0.4479208300000010    0.8958386600000026    0.0661656899999983
     0.8690974699999998    0.2474060699999967    0.6653782300000017
     0.1309025300000002    0.7525939300000033    0.1653782300000017
     0.3783075999999994    0.2474060699999967    0.6653782300000017
     0.6216924000000006    0.7525939300000033    0.1653782300000017
     0.7719302799999994    0.0433643000000004    0.8151641600000019
     0.2280697200000006    0.9566356999999996    0.3151641600000019
     0.2714330200000035    0.0433643000000004    0.8151641600000019
     0.7285669799999965    0.9566356999999996    0.3151641600000019
 
  0.00000000E+00  0.00000000E+00  0.00000000E+00
  0.00000000E+00  0.00000000E+00  0.00000000E+00
  0.00000000E+00  0.00000000E+00  0.00000000E+00
  0.00000000E+00  0.00000000E+00  0.00000000E+00
  0.00000000E+00  0.00000000E+00  0.00000000E+00
  0.00000000E+00  0.00000000E+00  0.00000000E+00
  0.00000000E+00  0.00000000E+00  0.00000000E+00
  0.00000000E+00  0.00000000E+00  0.00000000E+00
  0.00000000E+00  0.00000000E+00  0.00000000E+00
  0.00000000E+00  0.00000000E+00  0.00000000E+00
  0.00000000E+00  0.00000000E+00  0.00000000E+00
  0.00000000E+00  0.00000000E+00  0.00000000E+00
  0.00000000E+00  0.00000000E+00  0.00000000E+00
  0.00000000E+00  0.00000000E+00  0.00000000E+00
  0.00000000E+00  0.00000000E+00  0.00000000E+00
  0.00000000E+00  0.00000000E+00  0.00000000E+00
  0.00000000E+00  0.00000000E+00  0.00000000E+00
  0.00000000E+00  0.00000000E+00  0.00000000E+00
  0.00000000E+00  0.00000000E+00  0.00000000E+00
  0.00000000E+00  0.00000000E+00  0.00000000E+00
  0.00000000E+00  0.00000000E+00  0.00000000E+00
  0.00000000E+00  0.00000000E+00  0.00000000E+00
