  22  22   0   0
  0.2304898E+02  0.6479847E-09  0.7221693E-09  0.1212474E-08  0.5000000E-15
  1.000000000000000E-004
  CAR 
 unknown system                          
     11.49166460    -24.93134558  301      4.46505889      1.00000000
    -24.931  0.0000E+00  0.0000E+00
    -24.810  0.0000E+00  0.0000E+00
    -24.689  0.0000E+00  0.0000E+00
    -24.567  0.0000E+00  0.0000E+00
    -24.446  0.0000E+00  0.0000E+00
    -24.324  0.0000E+00  0.0000E+00
    -24.203  0.0000E+00  0.0000E+00
    -24.081  0.0000E+00  0.0000E+00
    -23.960  0.0000E+00  0.0000E+00
    -23.839  0.0000E+00  0.0000E+00
    -23.717  0.0000E+00  0.0000E+00
    -23.596  0.0000E+00  0.0000E+00
    -23.474  0.3112E-06  0.3778E-07
    -23.353  0.4724E+00  0.5736E-01
    -23.232  0.2897E+02  0.3575E+01
    -23.110  0.3504E+01  0.4000E+01
    -22.989  0.4723E-04  0.4000E+01
    -22.867  0.0000E+00  0.4000E+01
    -22.746  0.0000E+00  0.4000E+01
    -22.625  0.0000E+00  0.4000E+01
    -22.503  0.0000E+00  0.4000E+01
    -22.382  0.0000E+00  0.4000E+01
    -22.260  0.0000E+00  0.4000E+01
    -22.139  0.0000E+00  0.4000E+01
    -22.018  0.0000E+00  0.4000E+01
    -21.896  0.0000E+00  0.4000E+01
    -21.775  0.0000E+00  0.4000E+01
    -21.653  0.0000E+00  0.4000E+01
    -21.532  0.0000E+00  0.4000E+01
    -21.410  0.0000E+00  0.4000E+01
    -21.289  0.0000E+00  0.4000E+01
    -21.168  0.0000E+00  0.4000E+01
    -21.046  0.0000E+00  0.4000E+01
    -20.925  0.0000E+00  0.4000E+01
    -20.803  0.0000E+00  0.4000E+01
    -20.682  0.0000E+00  0.4000E+01
    -20.561  0.0000E+00  0.4000E+01
    -20.439  0.0000E+00  0.4000E+01
    -20.318  0.0000E+00  0.4000E+01
    -20.196  0.0000E+00  0.4000E+01
    -20.075  0.0000E+00  0.4000E+01
    -19.954  0.0000E+00  0.4000E+01
    -19.832  0.0000E+00  0.4000E+01
    -19.711  0.0000E+00  0.4000E+01
    -19.589  0.0000E+00  0.4000E+01
    -19.468  0.0000E+00  0.4000E+01
    -19.346  0.0000E+00  0.4000E+01
    -19.225  0.0000E+00  0.4000E+01
    -19.104  0.0000E+00  0.4000E+01
    -18.982  0.0000E+00  0.4000E+01
    -18.861  0.0000E+00  0.4000E+01
    -18.739  0.0000E+00  0.4000E+01
    -18.618  0.0000E+00  0.4000E+01
    -18.497  0.0000E+00  0.4000E+01
    -18.375  0.0000E+00  0.4000E+01
    -18.254  0.0000E+00  0.4000E+01
    -18.132  0.0000E+00  0.4000E+01
    -18.011  0.0000E+00  0.4000E+01
    -17.890  0.0000E+00  0.4000E+01
    -17.768  0.0000E+00  0.4000E+01
    -17.647  0.0000E+00  0.4000E+01
    -17.525  0.0000E+00  0.4000E+01
    -17.404  0.0000E+00  0.4000E+01
    -17.283  0.0000E+00  0.4000E+01
    -17.161  0.0000E+00  0.4000E+01
    -17.040  0.0000E+00  0.4000E+01
    -16.918  0.0000E+00  0.4000E+01
    -16.797  0.0000E+00  0.4000E+01
    -16.675  0.0000E+00  0.4000E+01
    -16.554  0.0000E+00  0.4000E+01
    -16.433  0.0000E+00  0.4000E+01
    -16.311  0.0000E+00  0.4000E+01
    -16.190  0.0000E+00  0.4000E+01
    -16.068  0.0000E+00  0.4000E+01
    -15.947  0.0000E+00  0.4000E+01
    -15.826  0.0000E+00  0.4000E+01
    -15.704  0.0000E+00  0.4000E+01
    -15.583  0.0000E+00  0.4000E+01
    -15.461  0.0000E+00  0.4000E+01
    -15.340  0.0000E+00  0.4000E+01
    -15.219  0.0000E+00  0.4000E+01
    -15.097  0.0000E+00  0.4000E+01
    -14.976  0.0000E+00  0.4000E+01
    -14.854  0.0000E+00  0.4000E+01
    -14.733  0.0000E+00  0.4000E+01
    -14.611  0.0000E+00  0.4000E+01
    -14.490  0.0000E+00  0.4000E+01
    -14.369  0.0000E+00  0.4000E+01
    -14.247  0.0000E+00  0.4000E+01
    -14.126  0.0000E+00  0.4000E+01
    -14.004  0.0000E+00  0.4000E+01
    -13.883  0.0000E+00  0.4000E+01
    -13.762  0.0000E+00  0.4000E+01
    -13.640  0.0000E+00  0.4000E+01
    -13.519  0.0000E+00  0.4000E+01
    -13.397  0.0000E+00  0.4000E+01
    -13.276  0.0000E+00  0.4000E+01
    -13.155  0.0000E+00  0.4000E+01
    -13.033  0.0000E+00  0.4000E+01
    -12.912  0.0000E+00  0.4000E+01
    -12.790  0.0000E+00  0.4000E+01
    -12.669  0.0000E+00  0.4000E+01
    -12.548  0.0000E+00  0.4000E+01
    -12.426  0.0000E+00  0.4000E+01
    -12.305  0.0000E+00  0.4000E+01
    -12.183  0.0000E+00  0.4000E+01
    -12.062  0.0000E+00  0.4000E+01
    -11.940  0.0000E+00  0.4000E+01
    -11.819  0.0000E+00  0.4000E+01
    -11.698  0.0000E+00  0.4000E+01
    -11.576  0.0000E+00  0.4000E+01
    -11.455  0.0000E+00  0.4000E+01
    -11.333  0.0000E+00  0.4000E+01
    -11.212  0.0000E+00  0.4000E+01
    -11.091  0.0000E+00  0.4000E+01
    -10.969  0.0000E+00  0.4000E+01
    -10.848  0.0000E+00  0.4000E+01
    -10.726  0.0000E+00  0.4000E+01
    -10.605  0.4106E-07  0.4000E+01
    -10.484  0.8849E-01  0.4011E+01
    -10.362  0.7092E+01  0.4872E+01
    -10.241  0.4996E+01  0.5478E+01
    -10.119  0.4586E+01  0.6035E+01
     -9.998  0.7589E+01  0.6957E+01
     -9.877  0.6896E+01  0.7794E+01
     -9.755  0.1698E+01  0.8000E+01
     -9.634  0.1869E-03  0.8000E+01
     -9.512  0.6495E-04  0.8000E+01
     -9.391  0.1437E+01  0.8174E+01
     -9.269  0.6983E+01  0.9022E+01
     -9.148  0.1022E+02  0.1026E+02
     -9.027  0.5963E+01  0.1099E+02
     -8.905  0.3845E+00  0.1103E+02
     -8.784  0.1047E+02  0.1231E+02
     -8.662  0.6485E+01  0.1309E+02
     -8.541  0.1911E+02  0.1541E+02
     -8.420  0.5108E+02  0.2161E+02
     -8.298  0.2505E+02  0.2466E+02
     -8.177  0.7704E+01  0.2559E+02
     -8.055  0.1274E+02  0.2714E+02
     -7.934  0.7092E+01  0.2800E+02
     -7.813  0.1180E-01  0.2800E+02
     -7.691  0.1690E+01  0.2821E+02
     -7.570  0.6508E+01  0.2900E+02
     -7.448  0.3673E+00  0.2904E+02
     -7.327  0.7835E+01  0.2999E+02
     -7.205  0.1011E+02  0.3122E+02
     -7.084  0.6421E+01  0.3200E+02
     -6.963  0.6715E+01  0.3281E+02
     -6.841  0.1538E+01  0.3300E+02
     -6.720  0.9955E+00  0.3312E+02
     -6.598  0.2151E+02  0.3573E+02
     -6.477  0.2380E+01  0.3602E+02
     -6.356  0.7405E+01  0.3692E+02
     -6.234  0.6571E+00  0.3700E+02
     -6.113  0.4525E+01  0.3755E+02
     -5.991  0.3706E+01  0.3800E+02
     -5.870  0.1598E-02  0.3800E+02
     -5.749  0.5155E-01  0.3801E+02
     -5.627  0.5927E+01  0.3873E+02
     -5.506  0.8170E+01  0.3972E+02
     -5.384  0.2324E+01  0.4000E+02
     -5.263  0.3063E-03  0.4000E+02
     -5.142  0.7025E-03  0.4000E+02
     -5.020  0.3044E+01  0.4037E+02
     -4.899  0.5183E+01  0.4100E+02
     -4.777  0.9258E-02  0.4100E+02
     -4.656  0.3378E+01  0.4141E+02
     -4.534  0.9021E+01  0.4251E+02
     -4.413  0.4299E+01  0.4303E+02
     -4.292  0.3797E+01  0.4349E+02
     -4.170  0.8793E+01  0.4456E+02
     -4.049  0.3656E+01  0.4500E+02
     -3.927  0.1137E-02  0.4500E+02
     -3.806  0.5455E+00  0.4507E+02
     -3.685  0.5243E+01  0.4570E+02
     -3.563  0.2443E+01  0.4600E+02
     -3.442  0.3147E+01  0.4638E+02
     -3.320  0.1439E+02  0.4813E+02
     -3.199  0.1256E+02  0.4965E+02
     -3.078  0.1120E+02  0.5101E+02
     -2.956  0.8105E+01  0.5200E+02
     -2.835  0.3966E-01  0.5200E+02
     -2.713  0.2588E+01  0.5232E+02
     -2.592  0.7734E+01  0.5326E+02
     -2.470  0.6009E+01  0.5399E+02
     -2.349  0.1216E+00  0.5400E+02
     -2.228  0.1233E+00  0.5401E+02
     -2.106  0.2917E+01  0.5437E+02
     -1.985  0.3329E+01  0.5477E+02
     -1.863  0.6973E+01  0.5562E+02
     -1.742  0.3070E+01  0.5599E+02
     -1.621  0.6958E-01  0.5600E+02
     -1.499  0.4062E+01  0.5649E+02
     -1.378  0.9666E+01  0.5767E+02
     -1.256  0.1012E+02  0.5890E+02
     -1.135  0.6970E+01  0.5974E+02
     -1.014  0.2120E+01  0.6000E+02
     -0.892  0.2825E-02  0.6000E+02
     -0.771  0.1126E+01  0.6014E+02
     -0.649  0.1511E+02  0.6197E+02
     -0.528  0.1517E+02  0.6381E+02
     -0.407  0.1553E+02  0.6570E+02
     -0.285  0.1178E+02  0.6713E+02
     -0.164  0.1216E+02  0.6861E+02
     -0.042  0.9200E+01  0.6972E+02
      0.079  0.2388E+01  0.7001E+02
      0.201  0.2015E+01  0.7026E+02
      0.322  0.1157E+02  0.7166E+02
      0.443  0.1201E+02  0.7312E+02
      0.565  0.7412E+01  0.7402E+02
      0.686  0.1168E+02  0.7544E+02
      0.808  0.9099E+01  0.7654E+02
      0.929  0.1126E+02  0.7791E+02
      1.050  0.7581E+01  0.7883E+02
      1.172  0.1110E+02  0.8018E+02
      1.293  0.1057E+02  0.8146E+02
      1.415  0.1320E+02  0.8306E+02
      1.536  0.1769E+02  0.8521E+02
      1.657  0.1493E+02  0.8702E+02
      1.779  0.1752E+02  0.8915E+02
      1.900  0.1359E+02  0.9080E+02
      2.022  0.1565E+02  0.9270E+02
      2.143  0.1318E+02  0.9430E+02
      2.265  0.1066E+02  0.9559E+02
      2.386  0.1411E+02  0.9731E+02
      2.507  0.1822E+02  0.9952E+02
      2.629  0.9358E+01  0.1007E+03
      2.750  0.8934E+01  0.1017E+03
      2.872  0.7547E+01  0.1027E+03
      2.993  0.1176E+02  0.1041E+03
      3.114  0.1040E+02  0.1053E+03
      3.236  0.1051E+02  0.1066E+03
      3.357  0.1083E+02  0.1079E+03
      3.479  0.1412E+02  0.1097E+03
      3.600  0.1659E+02  0.1117E+03
      3.721  0.1480E+02  0.1135E+03
      3.843  0.1711E+02  0.1155E+03
      3.964  0.1044E+02  0.1168E+03
      4.086  0.1859E+02  0.1191E+03
      4.207  0.7501E+01  0.1200E+03
      4.328  0.2045E+00  0.1200E+03
      4.450  0.2333E-05  0.1200E+03
      4.571  0.0000E+00  0.1200E+03
      4.693  0.0000E+00  0.1200E+03
      4.814  0.0000E+00  0.1200E+03
      4.936  0.0000E+00  0.1200E+03
      5.057  0.0000E+00  0.1200E+03
      5.178  0.0000E+00  0.1200E+03
      5.300  0.0000E+00  0.1200E+03
      5.421  0.1539E-09  0.1200E+03
      5.543  0.4454E-02  0.1200E+03
      5.664  0.4090E+01  0.1205E+03
      5.785  0.1069E+02  0.1218E+03
      5.907  0.7930E+01  0.1228E+03
      6.028  0.7250E+01  0.1236E+03
      6.150  0.4929E+01  0.1242E+03
      6.271  0.1098E+02  0.1256E+03
      6.392  0.1433E+02  0.1273E+03
      6.514  0.1920E+02  0.1296E+03
      6.635  0.1585E+02  0.1316E+03
      6.757  0.1232E+02  0.1331E+03
      6.878  0.1361E+02  0.1347E+03
      6.999  0.1706E+02  0.1368E+03
      7.121  0.1142E+02  0.1382E+03
      7.242  0.1350E+02  0.1398E+03
      7.364  0.9566E+01  0.1410E+03
      7.485  0.1715E+02  0.1431E+03
      7.607  0.1956E+02  0.1454E+03
      7.728  0.2099E+02  0.1480E+03
      7.849  0.2272E+02  0.1507E+03
      7.971  0.1845E+02  0.1530E+03
      8.092  0.1698E+02  0.1550E+03
      8.214  0.1860E+02  0.1573E+03
      8.335  0.1881E+02  0.1596E+03
      8.456  0.1621E+02  0.1615E+03
      8.578  0.1465E+02  0.1633E+03
      8.699  0.1593E+02  0.1653E+03
      8.821  0.1990E+02  0.1677E+03
      8.942  0.1745E+02  0.1698E+03
      9.063  0.1997E+02  0.1722E+03
      9.185  0.1868E+02  0.1745E+03
      9.306  0.1871E+02  0.1768E+03
      9.428  0.1918E+02  0.1791E+03
      9.549  0.1806E+02  0.1813E+03
      9.671  0.1065E+02  0.1826E+03
      9.792  0.8753E+01  0.1836E+03
      9.913  0.2992E+01  0.1840E+03
     10.035  0.1420E-01  0.1840E+03
     10.156  0.6330E-08  0.1840E+03
     10.278  0.0000E+00  0.1840E+03
     10.399  0.0000E+00  0.1840E+03
     10.520  0.0000E+00  0.1840E+03
     10.642  0.0000E+00  0.1840E+03
     10.763  0.0000E+00  0.1840E+03
     10.885  0.0000E+00  0.1840E+03
     11.006  0.0000E+00  0.1840E+03
     11.127  0.0000E+00  0.1840E+03
     11.249  0.0000E+00  0.1840E+03
     11.370  0.0000E+00  0.1840E+03
     11.492  0.0000E+00  0.1840E+03
