       N       E                     dE             d eps       ncg     rms          rms(c)
DAV:   1     0.584781208899E+03    0.58478E+03   -0.53102E+04  5888   0.125E+03
DAV:   2    -0.677393097373E+02   -0.65252E+03   -0.61944E+03  7456   0.209E+02
DAV:   3    -0.117822739881E+03   -0.50083E+02   -0.49313E+02  7320   0.569E+01
DAV:   4    -0.119177132733E+03   -0.13544E+01   -0.13464E+01  8608   0.959E+00
DAV:   5    -0.119215445299E+03   -0.38313E-01   -0.38287E-01  8392   0.143E+00    0.232E+01
DAV:   6    -0.117970081946E+03    0.12454E+01   -0.13045E+00  7272   0.329E+00    0.137E+01
DAV:   7    -0.117730193864E+03    0.23989E+00   -0.17233E+00  7480   0.312E+00    0.164E+00
DAV:   8    -0.117712681839E+03    0.17512E-01   -0.20355E-01  6912   0.128E+00    0.122E+00
DAV:   9    -0.117715434894E+03   -0.27531E-02   -0.26698E-02  7312   0.415E-01    0.454E-01
DAV:  10    -0.117715772143E+03   -0.33725E-03   -0.40750E-03  7576   0.161E-01    0.210E-01
DAV:  11    -0.117716419439E+03   -0.64730E-03   -0.13166E-03  7440   0.973E-02    0.725E-02
DAV:  12    -0.117716482679E+03   -0.63240E-04   -0.82388E-05  8456   0.236E-02    0.426E-02
DAV:  13    -0.117716567266E+03   -0.84587E-04   -0.10778E-04  6656   0.315E-02    0.212E-02
DAV:  14    -0.117716575026E+03   -0.77593E-05   -0.10704E-05  7408   0.924E-03    0.163E-02
DAV:  15    -0.117716575904E+03   -0.87809E-06   -0.14788E-06  5936   0.334E-03
   1 F= -.11771658E+03 E0= -.11771658E+03  d E =-.330603E-18
