Ba2 P20
1.0
   6.4798465600000004   -0.0000000000000000    0.0000000000000000
  -3.2399232800000002    6.4541258299999997   -0.0000000000000000
   0.0000000000000000   -0.0000000000000000   12.1247359699999997
Ba P
2 20
direct
   0.1873992000000000    0.3747984000000000    0.0057684400000000 Ba
   0.8126008000000000    0.6252016000000000    0.5057684400000000 Ba
   0.3902899700000000    0.7805799500000000    0.6055874100000000 P
   0.6097100300000000    0.2194200500000000    0.1055874100000000 P
   0.0673847600000000    0.1347715200000000    0.5584023500000000 P
   0.9326152400000000    0.8652284800000000    0.0584023500000000 P
   0.4085144000000000    0.8170288000000000    0.7820570999999999 P
   0.5914855999999999    0.1829712000000000    0.2820571000000000 P
   0.8133508400000000    0.6267026700000000    0.9292937300000000 P
   0.1866491600000000    0.3732973300000000    0.4292937300000000 P
   0.9088902599999999    0.8177825200000000    0.7810405100000000 P
   0.0911097400000000    0.1822174800000000    0.2810405100000000 P
   0.5520791700000000    0.1041613400000000    0.5661656900000001 P
   0.4479208300000000    0.8958386600000000    0.0661656900000000 P
   0.8690974700000000    0.2474060700000000    0.6653782300000000 P
   0.1309025300000000    0.7525939300000000    0.1653782300000000 P
   0.3783076000000000    0.2474060700000000    0.6653782300000000 P
   0.6216924000000000    0.7525939300000000    0.1653782300000000 P
   0.7719302800000000    0.0433643000000000    0.8151641600000000 P
   0.2280697200000000    0.9566357000000000    0.3151641600000000 P
   0.2714330200000000    0.0433643000000000    0.8151641600000000 P
   0.7285669800000000    0.9566357000000000    0.3151641600000000 P
