unknown system                          
           1
     6.479847    0.000000    0.000000
    -3.239923    6.454126    0.000000
     0.000000    0.000000   12.124736
   Ba   P 
     2    20
Direct configuration=     1
   0.18739920  0.37479840  0.00576844
   0.81260080  0.62520160  0.50576844
   0.39028997  0.78057995  0.60558741
   0.60971003  0.21942005  0.10558741
   0.06738476  0.13477152  0.55840235
   0.93261524  0.86522848  0.05840235
   0.40851440  0.81702880  0.78205710
   0.59148560  0.18297120  0.28205710
   0.81335084  0.62670267  0.92929373
   0.18664916  0.37329733  0.42929373
   0.90889026  0.81778252  0.78104051
   0.09110974  0.18221748  0.28104051
   0.55207917  0.10416134  0.56616569
   0.44792083  0.89583866  0.06616569
   0.86909747  0.24740607  0.66537823
   0.13090253  0.75259393  0.16537823
   0.37830760  0.24740607  0.66537823
   0.62169240  0.75259393  0.16537823
   0.77193028  0.04336430  0.81516416
   0.22806972  0.95663570  0.31516416
   0.27143302  0.04336430  0.81516416
   0.72856698  0.95663570  0.31516416
