       N       E                     dE             d eps       ncg     rms          rms(c)
DAV:   1     0.638123281926E+02    0.63812E+02   -0.12747E+04  8000   0.912E+02
DAV:   2    -0.388140886045E+02   -0.10263E+03   -0.93827E+02  9872   0.136E+02
DAV:   3    -0.440227060962E+02   -0.52086E+01   -0.51406E+01 10568   0.265E+01
DAV:   4    -0.440909591566E+02   -0.68253E-01   -0.68198E-01  9864   0.384E+00
DAV:   5    -0.440921198853E+02   -0.11607E-02   -0.11606E-02 10392   0.486E-01    0.968E+00
DAV:   6    -0.436047089149E+02    0.48741E+00   -0.20019E-01  9624   0.149E+00    0.590E+00
DAV:   7    -0.433815994454E+02    0.22311E+00   -0.43331E-01  9384   0.230E+00    0.343E-01
DAV:   8    -0.433865488590E+02   -0.49494E-02   -0.33357E-02  9472   0.624E-01    0.140E-01
DAV:   9    -0.433873808410E+02   -0.83198E-03   -0.11445E-03 10672   0.142E-01    0.119E-01
DAV:  10    -0.433876177662E+02   -0.23693E-03   -0.37008E-04  9176   0.688E-02    0.430E-02
DAV:  11    -0.433876142073E+02    0.35588E-05   -0.64060E-06  9864   0.102E-02    0.359E-03
DAV:  12    -0.433876147819E+02   -0.57453E-06   -0.13222E-06  7432   0.503E-03
   1 F= -.43387615E+02 E0= -.43387615E+02  d E =-.739133E-17
