   2   2   0   0
  0.1294524E+02  0.2683344E-09  0.2683344E-09  0.4151993E-09  0.5000000E-15
  1.000000000000000E-004
  CAR 
 unknown system                          
     33.51018399    -37.19999003  301      8.61959038      1.00000000
    -37.200  0.0000E+00  0.0000E+00
    -36.964  0.0000E+00  0.0000E+00
    -36.729  0.0000E+00  0.0000E+00
    -36.493  0.0000E+00  0.0000E+00
    -36.257  0.0000E+00  0.0000E+00
    -36.021  0.0000E+00  0.0000E+00
    -35.786  0.0000E+00  0.0000E+00
    -35.550  0.0000E+00  0.0000E+00
    -35.314  0.0000E+00  0.0000E+00
    -35.079  0.0000E+00  0.0000E+00
    -34.843  0.0000E+00  0.0000E+00
    -34.607  0.0000E+00  0.0000E+00
    -34.372  0.0000E+00  0.0000E+00
    -34.136  0.5448E-05  0.1284E-05
    -33.900  0.1497E+01  0.3528E+00
    -33.664  0.3741E+01  0.1235E+01
    -33.429  0.6331E+01  0.2727E+01
    -33.193  0.7147E+01  0.4411E+01
    -32.957  0.5087E+01  0.5611E+01
    -32.722  0.1652E+01  0.6000E+01
    -32.486  0.3226E-04  0.6000E+01
    -32.250  0.0000E+00  0.6000E+01
    -32.015  0.0000E+00  0.6000E+01
    -31.779  0.0000E+00  0.6000E+01
    -31.543  0.0000E+00  0.6000E+01
    -31.307  0.0000E+00  0.6000E+01
    -31.072  0.0000E+00  0.6000E+01
    -30.836  0.0000E+00  0.6000E+01
    -30.600  0.0000E+00  0.6000E+01
    -30.365  0.0000E+00  0.6000E+01
    -30.129  0.0000E+00  0.6000E+01
    -29.893  0.0000E+00  0.6000E+01
    -29.658  0.0000E+00  0.6000E+01
    -29.422  0.0000E+00  0.6000E+01
    -29.186  0.0000E+00  0.6000E+01
    -28.950  0.0000E+00  0.6000E+01
    -28.715  0.0000E+00  0.6000E+01
    -28.479  0.0000E+00  0.6000E+01
    -28.243  0.0000E+00  0.6000E+01
    -28.008  0.0000E+00  0.6000E+01
    -27.772  0.0000E+00  0.6000E+01
    -27.536  0.0000E+00  0.6000E+01
    -27.301  0.0000E+00  0.6000E+01
    -27.065  0.0000E+00  0.6000E+01
    -26.829  0.0000E+00  0.6000E+01
    -26.593  0.0000E+00  0.6000E+01
    -26.358  0.0000E+00  0.6000E+01
    -26.122  0.0000E+00  0.6000E+01
    -25.886  0.0000E+00  0.6000E+01
    -25.651  0.0000E+00  0.6000E+01
    -25.415  0.0000E+00  0.6000E+01
    -25.179  0.0000E+00  0.6000E+01
    -24.944  0.0000E+00  0.6000E+01
    -24.708  0.0000E+00  0.6000E+01
    -24.472  0.0000E+00  0.6000E+01
    -24.236  0.0000E+00  0.6000E+01
    -24.001  0.0000E+00  0.6000E+01
    -23.765  0.0000E+00  0.6000E+01
    -23.529  0.0000E+00  0.6000E+01
    -23.294  0.0000E+00  0.6000E+01
    -23.058  0.0000E+00  0.6000E+01
    -22.822  0.0000E+00  0.6000E+01
    -22.587  0.0000E+00  0.6000E+01
    -22.351  0.0000E+00  0.6000E+01
    -22.115  0.0000E+00  0.6000E+01
    -21.879  0.0000E+00  0.6000E+01
    -21.644  0.0000E+00  0.6000E+01
    -21.408  0.0000E+00  0.6000E+01
    -21.172  0.0000E+00  0.6000E+01
    -20.937  0.0000E+00  0.6000E+01
    -20.701  0.0000E+00  0.6000E+01
    -20.465  0.0000E+00  0.6000E+01
    -20.230  0.0000E+00  0.6000E+01
    -19.994  0.0000E+00  0.6000E+01
    -19.758  0.0000E+00  0.6000E+01
    -19.522  0.0000E+00  0.6000E+01
    -19.287  0.0000E+00  0.6000E+01
    -19.051  0.0000E+00  0.6000E+01
    -18.815  0.0000E+00  0.6000E+01
    -18.580  0.0000E+00  0.6000E+01
    -18.344  0.0000E+00  0.6000E+01
    -18.108  0.0000E+00  0.6000E+01
    -17.873  0.0000E+00  0.6000E+01
    -17.637  0.0000E+00  0.6000E+01
    -17.401  0.0000E+00  0.6000E+01
    -17.165  0.0000E+00  0.6000E+01
    -16.930  0.0000E+00  0.6000E+01
    -16.694  0.0000E+00  0.6000E+01
    -16.458  0.0000E+00  0.6000E+01
    -16.223  0.0000E+00  0.6000E+01
    -15.987  0.0000E+00  0.6000E+01
    -15.751  0.0000E+00  0.6000E+01
    -15.516  0.0000E+00  0.6000E+01
    -15.280  0.0000E+00  0.6000E+01
    -15.044  0.0000E+00  0.6000E+01
    -14.808  0.0000E+00  0.6000E+01
    -14.573  0.0000E+00  0.6000E+01
    -14.337  0.0000E+00  0.6000E+01
    -14.101  0.0000E+00  0.6000E+01
    -13.866  0.0000E+00  0.6000E+01
    -13.630  0.0000E+00  0.6000E+01
    -13.394  0.0000E+00  0.6000E+01
    -13.159  0.0000E+00  0.6000E+01
    -12.923  0.0000E+00  0.6000E+01
    -12.687  0.0000E+00  0.6000E+01
    -12.451  0.0000E+00  0.6000E+01
    -12.216  0.0000E+00  0.6000E+01
    -11.980  0.0000E+00  0.6000E+01
    -11.744  0.0000E+00  0.6000E+01
    -11.509  0.0000E+00  0.6000E+01
    -11.273  0.0000E+00  0.6000E+01
    -11.037  0.0000E+00  0.6000E+01
    -10.802  0.0000E+00  0.6000E+01
    -10.566  0.0000E+00  0.6000E+01
    -10.330  0.0000E+00  0.6000E+01
    -10.094  0.0000E+00  0.6000E+01
     -9.859  0.0000E+00  0.6000E+01
     -9.623  0.0000E+00  0.6000E+01
     -9.387  0.0000E+00  0.6000E+01
     -9.152  0.0000E+00  0.6000E+01
     -8.916  0.0000E+00  0.6000E+01
     -8.680  0.0000E+00  0.6000E+01
     -8.445  0.0000E+00  0.6000E+01
     -8.209  0.0000E+00  0.6000E+01
     -7.973  0.0000E+00  0.6000E+01
     -7.737  0.0000E+00  0.6000E+01
     -7.502  0.0000E+00  0.6000E+01
     -7.266  0.0000E+00  0.6000E+01
     -7.030  0.0000E+00  0.6000E+01
     -6.795  0.0000E+00  0.6000E+01
     -6.559  0.0000E+00  0.6000E+01
     -6.323  0.0000E+00  0.6000E+01
     -6.088  0.0000E+00  0.6000E+01
     -5.852  0.0000E+00  0.6000E+01
     -5.616  0.0000E+00  0.6000E+01
     -5.380  0.0000E+00  0.6000E+01
     -5.145  0.0000E+00  0.6000E+01
     -4.909  0.0000E+00  0.6000E+01
     -4.673  0.0000E+00  0.6000E+01
     -4.438  0.0000E+00  0.6000E+01
     -4.202  0.0000E+00  0.6000E+01
     -3.966  0.0000E+00  0.6000E+01
     -3.731  0.0000E+00  0.6000E+01
     -3.495  0.0000E+00  0.6000E+01
     -3.259  0.0000E+00  0.6000E+01
     -3.023  0.0000E+00  0.6000E+01
     -2.788  0.0000E+00  0.6000E+01
     -2.552  0.0000E+00  0.6000E+01
     -2.316  0.0000E+00  0.6000E+01
     -2.081  0.0000E+00  0.6000E+01
     -1.845  0.0000E+00  0.6000E+01
     -1.609  0.0000E+00  0.6000E+01
     -1.374  0.0000E+00  0.6000E+01
     -1.138  0.3951E-09  0.6000E+01
     -0.902  0.9043E-02  0.6002E+01
     -0.666  0.2449E-01  0.6008E+01
     -0.431  0.8578E-01  0.6028E+01
     -0.195  0.1002E+00  0.6052E+01
      0.041  0.5686E-01  0.6065E+01
      0.276  0.2655E+00  0.6128E+01
      0.512  0.1532E+00  0.6164E+01
      0.748  0.8155E-01  0.6183E+01
      0.984  0.2027E+00  0.6231E+01
      1.219  0.2427E+00  0.6288E+01
      1.455  0.3050E+00  0.6360E+01
      1.691  0.2494E+00  0.6419E+01
      1.926  0.3383E+00  0.6498E+01
      2.162  0.1207E+00  0.6527E+01
      2.398  0.9178E+00  0.6743E+01
      2.633  0.1130E+01  0.7009E+01
      2.869  0.1260E+01  0.7306E+01
      3.105  0.1025E+01  0.7548E+01
      3.341  0.1488E+01  0.7899E+01
      3.576  0.2524E+01  0.8494E+01
      3.812  0.1041E+01  0.8739E+01
      4.048  0.2887E+01  0.9420E+01
      4.283  0.1421E+01  0.9754E+01
      4.519  0.1201E+01  0.1004E+02
      4.755  0.1784E+01  0.1046E+02
      4.990  0.2171E+01  0.1097E+02
      5.226  0.2699E+01  0.1161E+02
      5.462  0.1550E+01  0.1197E+02
      5.698  0.1827E+01  0.1240E+02
      5.933  0.3348E+01  0.1319E+02
      6.169  0.2706E+01  0.1383E+02
      6.405  0.3318E+01  0.1461E+02
      6.640  0.3730E+01  0.1549E+02
      6.876  0.2996E+01  0.1620E+02
      7.112  0.5788E+01  0.1756E+02
      7.347  0.4010E+01  0.1851E+02
      7.583  0.4381E+01  0.1954E+02
      7.819  0.2176E+01  0.2005E+02
      8.055  0.2136E+01  0.2055E+02
      8.290  0.3048E+01  0.2127E+02
      8.526  0.1912E+01  0.2172E+02
      8.762  0.3063E+01  0.2245E+02
      8.997  0.2191E+01  0.2296E+02
      9.233  0.1983E+01  0.2343E+02
      9.469  0.1140E+01  0.2370E+02
      9.704  0.2070E+01  0.2419E+02
      9.940  0.2598E+01  0.2480E+02
     10.176  0.1881E+01  0.2524E+02
     10.412  0.1753E+01  0.2566E+02
     10.647  0.2130E+01  0.2616E+02
     10.883  0.1787E+01  0.2658E+02
     11.119  0.9408E+00  0.2680E+02
     11.354  0.7037E+00  0.2697E+02
     11.590  0.9318E+00  0.2719E+02
     11.826  0.1290E+01  0.2749E+02
     12.061  0.4314E+00  0.2759E+02
     12.297  0.2066E+00  0.2764E+02
     12.533  0.4536E+00  0.2775E+02
     12.769  0.1608E+00  0.2779E+02
     13.004  0.1275E+01  0.2809E+02
     13.240  0.1192E+01  0.2837E+02
     13.476  0.6257E+00  0.2851E+02
     13.711  0.7092E+00  0.2868E+02
     13.947  0.7653E+00  0.2886E+02
     14.183  0.4164E+00  0.2896E+02
     14.418  0.7070E+00  0.2913E+02
     14.654  0.4025E-01  0.2914E+02
     14.890  0.2986E-01  0.2914E+02
     15.126  0.5872E+00  0.2928E+02
     15.361  0.5786E+00  0.2942E+02
     15.597  0.8126E+00  0.2961E+02
     15.833  0.4974E+00  0.2973E+02
     16.068  0.3772E+00  0.2982E+02
     16.304  0.4295E+00  0.2992E+02
     16.540  0.1013E+00  0.2994E+02
     16.775  0.7264E-01  0.2996E+02
     17.011  0.2401E+00  0.3001E+02
     17.247  0.3764E+00  0.3010E+02
     17.483  0.4834E+00  0.3022E+02
     17.718  0.1000E+01  0.3045E+02
     17.954  0.1300E+01  0.3076E+02
     18.190  0.6346E+00  0.3091E+02
     18.425  0.9979E+00  0.3114E+02
     18.661  0.5534E+00  0.3127E+02
     18.897  0.8653E+00  0.3148E+02
     19.132  0.1417E+01  0.3181E+02
     19.368  0.1086E+01  0.3207E+02
     19.604  0.5308E+00  0.3219E+02
     19.840  0.1610E+00  0.3223E+02
     20.075  0.2090E+00  0.3228E+02
     20.311  0.1203E+01  0.3256E+02
     20.547  0.6982E+00  0.3273E+02
     20.782  0.5805E+00  0.3287E+02
     21.018  0.1400E+01  0.3320E+02
     21.254  0.8417E+00  0.3339E+02
     21.489  0.7865E+00  0.3358E+02
     21.725  0.5245E+00  0.3370E+02
     21.961  0.3536E+00  0.3379E+02
     22.197  0.9100E+00  0.3400E+02
     22.432  0.7607E+00  0.3418E+02
     22.668  0.6858E+00  0.3434E+02
     22.904  0.8119E+00  0.3453E+02
     23.139  0.4233E+00  0.3463E+02
     23.375  0.9565E+00  0.3486E+02
     23.611  0.5019E+00  0.3498E+02
     23.846  0.5228E+00  0.3510E+02
     24.082  0.6814E+00  0.3526E+02
     24.318  0.2023E+01  0.3574E+02
     24.554  0.1770E+01  0.3615E+02
     24.789  0.8495E+00  0.3635E+02
     25.025  0.1081E+01  0.3661E+02
     25.261  0.1192E+01  0.3689E+02
     25.496  0.1966E+01  0.3735E+02
     25.732  0.1461E+01  0.3770E+02
     25.968  0.1088E+01  0.3795E+02
     26.203  0.1042E+01  0.3820E+02
     26.439  0.8699E+00  0.3840E+02
     26.675  0.1546E+01  0.3877E+02
     26.911  0.4135E+00  0.3887E+02
     27.146  0.5700E+00  0.3900E+02
     27.382  0.9854E+00  0.3923E+02
     27.618  0.4278E+00  0.3933E+02
     27.853  0.3288E+00  0.3941E+02
     28.089  0.3395E+00  0.3949E+02
     28.325  0.2540E+00  0.3955E+02
     28.560  0.3427E+00  0.3963E+02
     28.796  0.8673E+00  0.3984E+02
     29.032  0.3970E+00  0.3993E+02
     29.268  0.7559E-01  0.3995E+02
     29.503  0.1239E+00  0.3998E+02
     29.739  0.3623E-01  0.3999E+02
     29.975  0.5991E-04  0.3999E+02
     30.210  0.4023E-01  0.4000E+02
     30.446  0.1982E-01  0.4000E+02
     30.682  0.1484E-06  0.4000E+02
     30.917  0.0000E+00  0.4000E+02
     31.153  0.0000E+00  0.4000E+02
     31.389  0.0000E+00  0.4000E+02
     31.625  0.0000E+00  0.4000E+02
     31.860  0.0000E+00  0.4000E+02
     32.096  0.0000E+00  0.4000E+02
     32.332  0.0000E+00  0.4000E+02
     32.567  0.0000E+00  0.4000E+02
     32.803  0.0000E+00  0.4000E+02
     33.039  0.0000E+00  0.4000E+02
     33.274  0.0000E+00  0.4000E+02
     33.510  0.0000E+00  0.4000E+02
