       N       E                     dE             d eps       ncg     rms          rms(c)
DAV:   1     0.141215427958E+03    0.14122E+03   -0.12327E+04 53324   0.165E+03
DAV:   2    -0.170377175489E+02   -0.15825E+03   -0.15059E+03 53184   0.499E+02
DAV:   3    -0.215124733195E+02   -0.44748E+01   -0.44121E+01 51304   0.877E+01
DAV:   4    -0.215591847827E+02   -0.46711E-01   -0.46674E-01 48852   0.576E+00
DAV:   5    -0.215621460792E+02   -0.29613E-02   -0.29609E-02 48560   0.146E+00    0.332E+01
DAV:   6    -0.302715232310E+02   -0.87094E+01   -0.70905E+01 53744   0.116E+02    0.313E+01
DAV:   7    -0.194885032102E+02    0.10783E+02   -0.22207E+01 55216   0.873E+01    0.868E+00
DAV:   8    -0.192847857402E+02    0.20372E+00   -0.85820E-01 62832   0.102E+01    0.195E+00
DAV:   9    -0.192803327364E+02    0.44530E-02   -0.53673E-02 66984   0.329E+00    0.127E+00
DAV:  10    -0.192727749476E+02    0.75578E-02   -0.69081E-02 62264   0.370E+00    0.668E-01
DAV:  11    -0.192703996965E+02    0.23753E-02   -0.90610E-03 60664   0.120E+00    0.120E-01
DAV:  12    -0.192704701057E+02   -0.70409E-04   -0.57791E-04 63656   0.283E-01    0.963E-02
DAV:  13    -0.192703943972E+02    0.75708E-04   -0.38612E-04 63120   0.274E-01    0.229E-02
DAV:  14    -0.192703896880E+02    0.47092E-05   -0.15781E-05 36116   0.515E-02    0.165E-03
DAV:  15    -0.192703895259E+02    0.16213E-06   -0.48564E-07 20544   0.149E-02
   1 F= -.19270390E+02 E0= -.19267901E+02  d E =-.497746E-02
