Hf1 W2                                  
   1.00000000000000     
    -1.6182010000000000   -1.6783399999999999    1.6783399999999999
    -1.6182010000000000    1.6783399999999999   -1.6783399999999999
     1.6182010000000000   -4.8797170000000003   -4.8797170000000003
   Hf   W 
     1     2
Direct
     0.0000000000000000    0.0000000000000000    0.0000000000000000
     0.6732820000000004    0.6732820000000004    0.3465630000000033
     0.3267179999999996    0.3267179999999996    0.6534369999999967
 
  0.00000000E+00  0.00000000E+00  0.00000000E+00
  0.00000000E+00  0.00000000E+00  0.00000000E+00
  0.00000000E+00  0.00000000E+00  0.00000000E+00
