In12 Ir4                                
   1.00000000000000     
     7.0471395699999997   -0.0000040600000000   -0.0000020600000000
    -0.0000030500000000    7.0471365199999996   -0.0000061800000000
    -0.0000020500000000   -0.0000061400000000    7.2687214500000001
   In   Ir
    12     4
Direct
     0.8502470299999985    0.8502470299999985    0.2570098999999999
     0.6497539699999990    0.3502460300000010    0.7570089000000024
     0.6497539699999990    0.3502460300000010    0.2429921000000022
     0.5000000000000000    0.9999990000000025    0.0000009999999975
     0.3502460300000010    0.6497549700000036    0.2429910999999976
     0.3502460300000010    0.6497549700000036    0.7570089000000024
     0.0000000000000000    0.5000000000000000    0.0000000000000000
     0.1497529700000015    0.1497529700000015    0.2570108999999974
     0.1497519699999970    0.1497529700000015    0.7429901000000001
     0.5000000000000000    0.9999990000000025    0.5000000000000000
     0.8502470299999985    0.8502480300000030    0.7429901000000001
     0.0000000000000000    0.5000000000000000    0.4999990000000025
     0.6578382300000030    0.6578382300000030    0.0000000000000000
     0.1578382300000030    0.8421617699999970    0.5000000000000000
     0.8421627700000016    0.1578382300000030    0.5000000000000000
     0.3421617699999970    0.3421617699999970    0.0000000000000000
 
  0.00000000E+00  0.00000000E+00  0.00000000E+00
  0.00000000E+00  0.00000000E+00  0.00000000E+00
  0.00000000E+00  0.00000000E+00  0.00000000E+00
  0.00000000E+00  0.00000000E+00  0.00000000E+00
  0.00000000E+00  0.00000000E+00  0.00000000E+00
  0.00000000E+00  0.00000000E+00  0.00000000E+00
  0.00000000E+00  0.00000000E+00  0.00000000E+00
  0.00000000E+00  0.00000000E+00  0.00000000E+00
  0.00000000E+00  0.00000000E+00  0.00000000E+00
  0.00000000E+00  0.00000000E+00  0.00000000E+00
  0.00000000E+00  0.00000000E+00  0.00000000E+00
  0.00000000E+00  0.00000000E+00  0.00000000E+00
  0.00000000E+00  0.00000000E+00  0.00000000E+00
  0.00000000E+00  0.00000000E+00  0.00000000E+00
  0.00000000E+00  0.00000000E+00  0.00000000E+00
  0.00000000E+00  0.00000000E+00  0.00000000E+00
