       N       E                     dE             d eps       ncg     rms          rms(c)
DAV:   1     0.260785108693E+04    0.26079E+04   -0.85436E+04 18872   0.204E+03
DAV:   2     0.462562500585E+03   -0.21453E+04   -0.20226E+04 18432   0.576E+02
DAV:   3    -0.256126117796E+02   -0.48818E+03   -0.44878E+03 18432   0.245E+02
DAV:   4    -0.695659116476E+02   -0.43953E+02   -0.42999E+02 21592   0.830E+01
DAV:   5    -0.711419784658E+02   -0.15761E+01   -0.15727E+01 22472   0.166E+01    0.219E+01
DAV:   6    -0.693081704958E+02    0.18338E+01   -0.19405E+00 25296   0.864E+00    0.108E+01
DAV:   7    -0.687723935628E+02    0.53578E+00   -0.21254E+00 23096   0.715E+00    0.244E+00
DAV:   8    -0.687191451948E+02    0.53248E-01   -0.32615E-01 20640   0.350E+00    0.140E+00
DAV:   9    -0.687152624889E+02    0.38827E-02   -0.59533E-02 24120   0.122E+00    0.105E+00
DAV:  10    -0.687149833553E+02    0.27913E-03   -0.57332E-03 24592   0.312E-01    0.262E-01
DAV:  11    -0.687143192971E+02    0.66406E-03   -0.26056E-03 25072   0.340E-01    0.124E-01
DAV:  12    -0.687143415727E+02   -0.22276E-04   -0.22053E-04 23912   0.874E-02    0.867E-02
DAV:  13    -0.687143443038E+02   -0.27310E-05   -0.28654E-05 25696   0.313E-02    0.573E-02
DAV:  14    -0.687143387776E+02    0.55261E-05   -0.79135E-06 21976   0.232E-02    0.141E-02
DAV:  15    -0.687143383177E+02    0.45994E-06   -0.19901E-06 10952   0.149E-02
   1 F= -.68714338E+02 E0= -.68710812E+02  d E =-.705226E-02
