   6   6   0   0
  0.3663181E+02  0.7046982E-09  0.7046982E-09  0.4425917E-09  0.5000000E-15
  1.000000000000000E-004
  CAR 
 unknown system                          
      9.60982100    -21.29670473  301      1.58056317      1.00000000
    -21.297  0.0000E+00  0.0000E+00
    -21.194  0.0000E+00  0.0000E+00
    -21.091  0.0000E+00  0.0000E+00
    -20.988  0.0000E+00  0.0000E+00
    -20.885  0.0000E+00  0.0000E+00
    -20.782  0.0000E+00  0.0000E+00
    -20.679  0.0000E+00  0.0000E+00
    -20.576  0.0000E+00  0.0000E+00
    -20.473  0.0000E+00  0.0000E+00
    -20.370  0.0000E+00  0.0000E+00
    -20.266  0.0000E+00  0.0000E+00
    -20.163  0.1732E-12  0.1785E-13
    -20.060  0.3401E-04  0.3504E-05
    -19.957  0.2391E+01  0.2463E+00
    -19.854  0.1383E+03  0.1449E+02
    -19.751  0.5342E+02  0.1999E+02
    -19.648  0.5427E-01  0.2000E+02
    -19.545  0.2532E-07  0.2000E+02
    -19.442  0.0000E+00  0.2000E+02
    -19.339  0.0000E+00  0.2000E+02
    -19.236  0.0000E+00  0.2000E+02
    -19.133  0.0000E+00  0.2000E+02
    -19.030  0.0000E+00  0.2000E+02
    -18.927  0.0000E+00  0.2000E+02
    -18.824  0.0000E+00  0.2000E+02
    -18.721  0.0000E+00  0.2000E+02
    -18.618  0.0000E+00  0.2000E+02
    -18.515  0.0000E+00  0.2000E+02
    -18.412  0.0000E+00  0.2000E+02
    -18.309  0.0000E+00  0.2000E+02
    -18.206  0.0000E+00  0.2000E+02
    -18.103  0.0000E+00  0.2000E+02
    -18.000  0.0000E+00  0.2000E+02
    -17.897  0.0000E+00  0.2000E+02
    -17.794  0.0000E+00  0.2000E+02
    -17.691  0.0000E+00  0.2000E+02
    -17.588  0.0000E+00  0.2000E+02
    -17.485  0.0000E+00  0.2000E+02
    -17.382  0.0000E+00  0.2000E+02
    -17.279  0.0000E+00  0.2000E+02
    -17.176  0.0000E+00  0.2000E+02
    -17.073  0.0000E+00  0.2000E+02
    -16.970  0.0000E+00  0.2000E+02
    -16.867  0.0000E+00  0.2000E+02
    -16.764  0.0000E+00  0.2000E+02
    -16.661  0.0000E+00  0.2000E+02
    -16.558  0.0000E+00  0.2000E+02
    -16.455  0.0000E+00  0.2000E+02
    -16.352  0.0000E+00  0.2000E+02
    -16.249  0.0000E+00  0.2000E+02
    -16.146  0.0000E+00  0.2000E+02
    -16.043  0.0000E+00  0.2000E+02
    -15.940  0.0000E+00  0.2000E+02
    -15.837  0.0000E+00  0.2000E+02
    -15.734  0.0000E+00  0.2000E+02
    -15.631  0.0000E+00  0.2000E+02
    -15.527  0.0000E+00  0.2000E+02
    -15.424  0.0000E+00  0.2000E+02
    -15.321  0.0000E+00  0.2000E+02
    -15.218  0.0000E+00  0.2000E+02
    -15.115  0.0000E+00  0.2000E+02
    -15.012  0.0000E+00  0.2000E+02
    -14.909  0.0000E+00  0.2000E+02
    -14.806  0.0000E+00  0.2000E+02
    -14.703  0.0000E+00  0.2000E+02
    -14.600  0.0000E+00  0.2000E+02
    -14.497  0.0000E+00  0.2000E+02
    -14.394  0.0000E+00  0.2000E+02
    -14.291  0.0000E+00  0.2000E+02
    -14.188  0.0000E+00  0.2000E+02
    -14.085  0.0000E+00  0.2000E+02
    -13.982  0.0000E+00  0.2000E+02
    -13.879  0.0000E+00  0.2000E+02
    -13.776  0.0000E+00  0.2000E+02
    -13.673  0.0000E+00  0.2000E+02
    -13.570  0.0000E+00  0.2000E+02
    -13.467  0.1114E-08  0.2000E+02
    -13.364  0.1347E-02  0.2000E+02
    -13.261  0.6735E+00  0.2007E+02
    -13.158  0.3679E+01  0.2045E+02
    -13.055  0.7506E+01  0.2122E+02
    -12.952  0.1517E+02  0.2278E+02
    -12.849  0.2032E+02  0.2488E+02
    -12.746  0.2788E+02  0.2775E+02
    -12.643  0.2425E+01  0.2800E+02
    -12.540  0.5876E-03  0.2800E+02
    -12.437  0.9992E-10  0.2800E+02
    -12.334  0.0000E+00  0.2800E+02
    -12.231  0.0000E+00  0.2800E+02
    -12.128  0.0000E+00  0.2800E+02
    -12.025  0.0000E+00  0.2800E+02
    -11.922  0.0000E+00  0.2800E+02
    -11.819  0.0000E+00  0.2800E+02
    -11.716  0.0000E+00  0.2800E+02
    -11.613  0.0000E+00  0.2800E+02
    -11.510  0.0000E+00  0.2800E+02
    -11.407  0.0000E+00  0.2800E+02
    -11.304  0.0000E+00  0.2800E+02
    -11.201  0.0000E+00  0.2800E+02
    -11.098  0.0000E+00  0.2800E+02
    -10.995  0.0000E+00  0.2800E+02
    -10.892  0.0000E+00  0.2800E+02
    -10.788  0.0000E+00  0.2800E+02
    -10.685  0.0000E+00  0.2800E+02
    -10.582  0.0000E+00  0.2800E+02
    -10.479  0.0000E+00  0.2800E+02
    -10.376  0.0000E+00  0.2800E+02
    -10.273  0.0000E+00  0.2800E+02
    -10.170  0.0000E+00  0.2800E+02
    -10.067  0.0000E+00  0.2800E+02
     -9.964  0.0000E+00  0.2800E+02
     -9.861  0.0000E+00  0.2800E+02
     -9.758  0.0000E+00  0.2800E+02
     -9.655  0.0000E+00  0.2800E+02
     -9.552  0.0000E+00  0.2800E+02
     -9.449  0.0000E+00  0.2800E+02
     -9.346  0.0000E+00  0.2800E+02
     -9.243  0.0000E+00  0.2800E+02
     -9.140  0.0000E+00  0.2800E+02
     -9.037  0.0000E+00  0.2800E+02
     -8.934  0.0000E+00  0.2800E+02
     -8.831  0.0000E+00  0.2800E+02
     -8.728  0.0000E+00  0.2800E+02
     -8.625  0.0000E+00  0.2800E+02
     -8.522  0.0000E+00  0.2800E+02
     -8.419  0.0000E+00  0.2800E+02
     -8.316  0.0000E+00  0.2800E+02
     -8.213  0.0000E+00  0.2800E+02
     -8.110  0.0000E+00  0.2800E+02
     -8.007  0.0000E+00  0.2800E+02
     -7.904  0.0000E+00  0.2800E+02
     -7.801  0.0000E+00  0.2800E+02
     -7.698  0.0000E+00  0.2800E+02
     -7.595  0.0000E+00  0.2800E+02
     -7.492  0.0000E+00  0.2800E+02
     -7.389  0.0000E+00  0.2800E+02
     -7.286  0.0000E+00  0.2800E+02
     -7.183  0.0000E+00  0.2800E+02
     -7.080  0.0000E+00  0.2800E+02
     -6.977  0.0000E+00  0.2800E+02
     -6.874  0.0000E+00  0.2800E+02
     -6.771  0.0000E+00  0.2800E+02
     -6.668  0.0000E+00  0.2800E+02
     -6.565  0.0000E+00  0.2800E+02
     -6.462  0.0000E+00  0.2800E+02
     -6.359  0.0000E+00  0.2800E+02
     -6.256  0.0000E+00  0.2800E+02
     -6.153  0.6279E-11  0.2800E+02
     -6.049  0.6901E-04  0.2800E+02
     -5.946  0.2509E+00  0.2803E+02
     -5.843  0.1643E+01  0.2820E+02
     -5.740  0.1310E+01  0.2833E+02
     -5.637  0.1671E+00  0.2835E+02
     -5.534  0.4014E+01  0.2876E+02
     -5.431  0.8912E+01  0.2968E+02
     -5.328  0.4068E+01  0.3010E+02
     -5.225  0.4211E+01  0.3053E+02
     -5.122  0.2707E+01  0.3081E+02
     -5.019  0.3173E+01  0.3114E+02
     -4.916  0.2168E+01  0.3136E+02
     -4.813  0.2765E+01  0.3165E+02
     -4.710  0.2020E+00  0.3167E+02
     -4.607  0.6090E+00  0.3173E+02
     -4.504  0.1000E+01  0.3183E+02
     -4.401  0.7527E-02  0.3183E+02
     -4.298  0.3873E-02  0.3183E+02
     -4.195  0.8649E+00  0.3192E+02
     -4.092  0.7469E+00  0.3200E+02
     -3.989  0.2135E-02  0.3200E+02
     -3.886  0.2593E-08  0.3200E+02
     -3.783  0.0000E+00  0.3200E+02
     -3.680  0.0000E+00  0.3200E+02
     -3.577  0.0000E+00  0.3200E+02
     -3.474  0.0000E+00  0.3200E+02
     -3.371  0.0000E+00  0.3200E+02
     -3.268  0.0000E+00  0.3200E+02
     -3.165  0.0000E+00  0.3200E+02
     -3.062  0.2515E-14  0.3200E+02
     -2.959  0.6847E-06  0.3200E+02
     -2.856  0.5178E-01  0.3201E+02
     -2.753  0.2469E+01  0.3226E+02
     -2.650  0.1007E+01  0.3236E+02
     -2.547  0.5293E+01  0.3291E+02
     -2.444  0.3687E+01  0.3329E+02
     -2.341  0.5715E+01  0.3388E+02
     -2.238  0.5517E+01  0.3445E+02
     -2.135  0.3720E+01  0.3483E+02
     -2.032  0.1008E+02  0.3587E+02
     -1.929  0.9863E+01  0.3688E+02
     -1.826  0.5886E+01  0.3749E+02
     -1.723  0.5168E+01  0.3802E+02
     -1.620  0.9279E+01  0.3898E+02
     -1.517  0.7416E+01  0.3974E+02
     -1.414  0.2506E+01  0.4000E+02
     -1.310  0.2488E+01  0.4026E+02
     -1.207  0.7176E+01  0.4100E+02
     -1.104  0.1231E+02  0.4226E+02
     -1.001  0.8870E+01  0.4318E+02
     -0.898  0.2956E+01  0.4348E+02
     -0.795  0.8594E+01  0.4437E+02
     -0.692  0.9266E+01  0.4532E+02
     -0.589  0.1018E+02  0.4637E+02
     -0.486  0.1196E+02  0.4760E+02
     -0.383  0.1309E+02  0.4895E+02
     -0.280  0.1524E+02  0.5052E+02
     -0.177  0.9986E+01  0.5155E+02
     -0.074  0.3974E+01  0.5196E+02
      0.029  0.4552E+01  0.5243E+02
      0.132  0.2296E+01  0.5267E+02
      0.235  0.1375E+01  0.5281E+02
      0.338  0.4709E+01  0.5329E+02
      0.441  0.3844E+01  0.5369E+02
      0.544  0.2772E+01  0.5397E+02
      0.647  0.7012E+01  0.5470E+02
      0.750  0.1367E+01  0.5484E+02
      0.853  0.4104E+01  0.5526E+02
      0.956  0.2882E+01  0.5556E+02
      1.059  0.1051E+01  0.5567E+02
      1.162  0.4109E+00  0.5571E+02
      1.265  0.1473E+01  0.5586E+02
      1.368  0.1321E+01  0.5600E+02
      1.471  0.3982E-01  0.5600E+02
      1.574  0.8558E-06  0.5600E+02
      1.677  0.5209E-14  0.5600E+02
      1.780  0.0000E+00  0.5600E+02
      1.883  0.0000E+00  0.5600E+02
      1.986  0.0000E+00  0.5600E+02
      2.089  0.0000E+00  0.5600E+02
      2.192  0.0000E+00  0.5600E+02
      2.295  0.0000E+00  0.5600E+02
      2.398  0.0000E+00  0.5600E+02
      2.501  0.0000E+00  0.5600E+02
      2.604  0.0000E+00  0.5600E+02
      2.707  0.0000E+00  0.5600E+02
      2.810  0.0000E+00  0.5600E+02
      2.913  0.5661E-09  0.5600E+02
      3.016  0.1257E-02  0.5600E+02
      3.119  0.1058E+01  0.5611E+02
      3.222  0.2154E+01  0.5633E+02
      3.325  0.7386E-01  0.5634E+02
      3.429  0.1920E+01  0.5654E+02
      3.532  0.3172E+01  0.5686E+02
      3.635  0.2270E+01  0.5710E+02
      3.738  0.6805E+01  0.5780E+02
      3.841  0.4034E+01  0.5821E+02
      3.944  0.5839E+01  0.5882E+02
      4.047  0.3824E+01  0.5921E+02
      4.150  0.2741E+01  0.5949E+02
      4.253  0.1390E+01  0.5963E+02
      4.356  0.2531E+01  0.5990E+02
      4.459  0.2222E+01  0.6012E+02
      4.562  0.1213E+01  0.6025E+02
      4.665  0.4379E+01  0.6070E+02
      4.768  0.7127E+01  0.6143E+02
      4.871  0.4928E+01  0.6194E+02
      4.974  0.5697E+01  0.6253E+02
      5.077  0.1918E+01  0.6273E+02
      5.180  0.4638E+01  0.6320E+02
      5.283  0.9266E+01  0.6416E+02
      5.386  0.3638E+01  0.6453E+02
      5.489  0.4963E+01  0.6505E+02
      5.592  0.5953E+01  0.6566E+02
      5.695  0.2215E+01  0.6589E+02
      5.798  0.4866E+01  0.6639E+02
      5.901  0.1080E+01  0.6650E+02
      6.004  0.1257E-01  0.6650E+02
      6.107  0.1529E+01  0.6666E+02
      6.210  0.5442E+01  0.6722E+02
      6.313  0.4050E+01  0.6764E+02
      6.416  0.2937E+00  0.6767E+02
      6.519  0.4573E-04  0.6767E+02
      6.622  0.2001E+00  0.6769E+02
      6.725  0.2813E+01  0.6798E+02
      6.828  0.1605E+01  0.6814E+02
      6.931  0.2351E+00  0.6817E+02
      7.034  0.5803E-04  0.6817E+02
      7.137  0.4697E-11  0.6817E+02
      7.240  0.3049E-06  0.6817E+02
      7.343  0.2469E-01  0.6817E+02
      7.446  0.1794E+01  0.6835E+02
      7.549  0.2958E+01  0.6866E+02
      7.652  0.7868E-01  0.6867E+02
      7.755  0.2226E+01  0.6890E+02
      7.858  0.7164E+01  0.6963E+02
      7.961  0.4757E+01  0.7012E+02
      8.064  0.7641E+01  0.7091E+02
      8.168  0.6194E+01  0.7155E+02
      8.271  0.4339E+01  0.7200E+02
      8.374  0.3427E-01  0.7200E+02
      8.477  0.3203E-06  0.7200E+02
      8.580  0.1774E-14  0.7200E+02
      8.683  0.0000E+00  0.7200E+02
      8.786  0.0000E+00  0.7200E+02
      8.889  0.0000E+00  0.7200E+02
      8.992  0.0000E+00  0.7200E+02
      9.095  0.0000E+00  0.7200E+02
      9.198  0.0000E+00  0.7200E+02
      9.301  0.0000E+00  0.7200E+02
      9.404  0.0000E+00  0.7200E+02
      9.507  0.0000E+00  0.7200E+02
      9.610  0.0000E+00  0.7200E+02
