Sn2 Br4
1.0
   7.0469823800000002    0.0000000000000000    0.0000000000000000
   0.0000000000000000    7.0469823800000002    0.0000000000000000
   0.0000000000000000    0.0000000000000000    4.4259170299999999
Sn Br
2 4
direct
   0.0000000000000000   -0.0000000000000000    0.0000000000000000 Sn
   0.5000000000000000    0.5000000000000000    0.5000010000000000 Sn
   0.2986551900000000    0.2986551900000000   -0.0000000000000000 Br
   0.7013458100000000    0.7013458100000000    0.0000000000000000 Br
   0.7986541900000000    0.2013448100000000    0.5000010000000000 Br
   0.2013448100000000    0.7986541900000000    0.5000010000000000 Br
