   6   6   0   0
  0.2311482E+02  0.4041356E-09  0.5330876E-09  0.6437484E-09  0.5000000E-15
  1.000000000000000E-004
  CAR 
 unknown system                          
     18.93523422    -35.83720002  301      9.22301141      1.00000000
    -35.837  0.0000E+00  0.0000E+00
    -35.655  0.0000E+00  0.0000E+00
    -35.472  0.0000E+00  0.0000E+00
    -35.289  0.0000E+00  0.0000E+00
    -35.107  0.0000E+00  0.0000E+00
    -34.924  0.0000E+00  0.0000E+00
    -34.742  0.0000E+00  0.0000E+00
    -34.559  0.0000E+00  0.0000E+00
    -34.377  0.0000E+00  0.0000E+00
    -34.194  0.0000E+00  0.0000E+00
    -34.011  0.0000E+00  0.0000E+00
    -33.829  0.0000E+00  0.0000E+00
    -33.646  0.0000E+00  0.0000E+00
    -33.464  0.9920E-02  0.1811E-02
    -33.281  0.3191E+02  0.5828E+01
    -33.099  0.3381E+02  0.1200E+02
    -32.916  0.3200E-03  0.1200E+02
    -32.733  0.0000E+00  0.1200E+02
    -32.551  0.0000E+00  0.1200E+02
    -32.368  0.0000E+00  0.1200E+02
    -32.186  0.0000E+00  0.1200E+02
    -32.003  0.0000E+00  0.1200E+02
    -31.821  0.0000E+00  0.1200E+02
    -31.638  0.0000E+00  0.1200E+02
    -31.455  0.0000E+00  0.1200E+02
    -31.273  0.0000E+00  0.1200E+02
    -31.090  0.0000E+00  0.1200E+02
    -30.908  0.0000E+00  0.1200E+02
    -30.725  0.0000E+00  0.1200E+02
    -30.543  0.0000E+00  0.1200E+02
    -30.360  0.0000E+00  0.1200E+02
    -30.177  0.0000E+00  0.1200E+02
    -29.995  0.0000E+00  0.1200E+02
    -29.812  0.0000E+00  0.1200E+02
    -29.630  0.0000E+00  0.1200E+02
    -29.447  0.0000E+00  0.1200E+02
    -29.265  0.0000E+00  0.1200E+02
    -29.082  0.0000E+00  0.1200E+02
    -28.899  0.0000E+00  0.1200E+02
    -28.717  0.0000E+00  0.1200E+02
    -28.534  0.0000E+00  0.1200E+02
    -28.352  0.0000E+00  0.1200E+02
    -28.169  0.0000E+00  0.1200E+02
    -27.986  0.0000E+00  0.1200E+02
    -27.804  0.0000E+00  0.1200E+02
    -27.621  0.0000E+00  0.1200E+02
    -27.439  0.0000E+00  0.1200E+02
    -27.256  0.0000E+00  0.1200E+02
    -27.074  0.0000E+00  0.1200E+02
    -26.891  0.0000E+00  0.1200E+02
    -26.708  0.0000E+00  0.1200E+02
    -26.526  0.0000E+00  0.1200E+02
    -26.343  0.0000E+00  0.1200E+02
    -26.161  0.0000E+00  0.1200E+02
    -25.978  0.0000E+00  0.1200E+02
    -25.796  0.0000E+00  0.1200E+02
    -25.613  0.0000E+00  0.1200E+02
    -25.430  0.0000E+00  0.1200E+02
    -25.248  0.0000E+00  0.1200E+02
    -25.065  0.0000E+00  0.1200E+02
    -24.883  0.0000E+00  0.1200E+02
    -24.700  0.0000E+00  0.1200E+02
    -24.518  0.0000E+00  0.1200E+02
    -24.335  0.0000E+00  0.1200E+02
    -24.152  0.0000E+00  0.1200E+02
    -23.970  0.0000E+00  0.1200E+02
    -23.787  0.0000E+00  0.1200E+02
    -23.605  0.0000E+00  0.1200E+02
    -23.422  0.0000E+00  0.1200E+02
    -23.240  0.0000E+00  0.1200E+02
    -23.057  0.0000E+00  0.1200E+02
    -22.874  0.0000E+00  0.1200E+02
    -22.692  0.0000E+00  0.1200E+02
    -22.509  0.0000E+00  0.1200E+02
    -22.327  0.0000E+00  0.1200E+02
    -22.144  0.0000E+00  0.1200E+02
    -21.962  0.0000E+00  0.1200E+02
    -21.779  0.0000E+00  0.1200E+02
    -21.596  0.0000E+00  0.1200E+02
    -21.414  0.0000E+00  0.1200E+02
    -21.231  0.0000E+00  0.1200E+02
    -21.049  0.0000E+00  0.1200E+02
    -20.866  0.0000E+00  0.1200E+02
    -20.683  0.0000E+00  0.1200E+02
    -20.501  0.0000E+00  0.1200E+02
    -20.318  0.0000E+00  0.1200E+02
    -20.136  0.0000E+00  0.1200E+02
    -19.953  0.0000E+00  0.1200E+02
    -19.771  0.0000E+00  0.1200E+02
    -19.588  0.0000E+00  0.1200E+02
    -19.405  0.0000E+00  0.1200E+02
    -19.223  0.0000E+00  0.1200E+02
    -19.040  0.0000E+00  0.1200E+02
    -18.858  0.0000E+00  0.1200E+02
    -18.675  0.0000E+00  0.1200E+02
    -18.493  0.0000E+00  0.1200E+02
    -18.310  0.0000E+00  0.1200E+02
    -18.127  0.0000E+00  0.1200E+02
    -17.945  0.0000E+00  0.1200E+02
    -17.762  0.0000E+00  0.1200E+02
    -17.580  0.0000E+00  0.1200E+02
    -17.397  0.0000E+00  0.1200E+02
    -17.215  0.0000E+00  0.1200E+02
    -17.032  0.0000E+00  0.1200E+02
    -16.849  0.0000E+00  0.1200E+02
    -16.667  0.0000E+00  0.1200E+02
    -16.484  0.0000E+00  0.1200E+02
    -16.302  0.0000E+00  0.1200E+02
    -16.119  0.0000E+00  0.1200E+02
    -15.937  0.0000E+00  0.1200E+02
    -15.754  0.0000E+00  0.1200E+02
    -15.571  0.0000E+00  0.1200E+02
    -15.389  0.0000E+00  0.1200E+02
    -15.206  0.0000E+00  0.1200E+02
    -15.024  0.0000E+00  0.1200E+02
    -14.841  0.0000E+00  0.1200E+02
    -14.659  0.0000E+00  0.1200E+02
    -14.476  0.0000E+00  0.1200E+02
    -14.293  0.0000E+00  0.1200E+02
    -14.111  0.0000E+00  0.1200E+02
    -13.928  0.0000E+00  0.1200E+02
    -13.746  0.0000E+00  0.1200E+02
    -13.563  0.0000E+00  0.1200E+02
    -13.381  0.0000E+00  0.1200E+02
    -13.198  0.0000E+00  0.1200E+02
    -13.015  0.0000E+00  0.1200E+02
    -12.833  0.0000E+00  0.1200E+02
    -12.650  0.0000E+00  0.1200E+02
    -12.468  0.0000E+00  0.1200E+02
    -12.285  0.0000E+00  0.1200E+02
    -12.102  0.0000E+00  0.1200E+02
    -11.920  0.0000E+00  0.1200E+02
    -11.737  0.0000E+00  0.1200E+02
    -11.555  0.0000E+00  0.1200E+02
    -11.372  0.0000E+00  0.1200E+02
    -11.190  0.0000E+00  0.1200E+02
    -11.007  0.0000E+00  0.1200E+02
    -10.824  0.0000E+00  0.1200E+02
    -10.642  0.0000E+00  0.1200E+02
    -10.459  0.0000E+00  0.1200E+02
    -10.277  0.0000E+00  0.1200E+02
    -10.094  0.0000E+00  0.1200E+02
     -9.912  0.0000E+00  0.1200E+02
     -9.729  0.0000E+00  0.1200E+02
     -9.546  0.0000E+00  0.1200E+02
     -9.364  0.0000E+00  0.1200E+02
     -9.181  0.0000E+00  0.1200E+02
     -8.999  0.0000E+00  0.1200E+02
     -8.816  0.0000E+00  0.1200E+02
     -8.634  0.0000E+00  0.1200E+02
     -8.451  0.0000E+00  0.1200E+02
     -8.268  0.0000E+00  0.1200E+02
     -8.086  0.0000E+00  0.1200E+02
     -7.903  0.0000E+00  0.1200E+02
     -7.721  0.0000E+00  0.1200E+02
     -7.538  0.0000E+00  0.1200E+02
     -7.356  0.0000E+00  0.1200E+02
     -7.173  0.0000E+00  0.1200E+02
     -6.990  0.0000E+00  0.1200E+02
     -6.808  0.0000E+00  0.1200E+02
     -6.625  0.0000E+00  0.1200E+02
     -6.443  0.0000E+00  0.1200E+02
     -6.260  0.0000E+00  0.1200E+02
     -6.078  0.0000E+00  0.1200E+02
     -5.895  0.0000E+00  0.1200E+02
     -5.712  0.0000E+00  0.1200E+02
     -5.530  0.0000E+00  0.1200E+02
     -5.347  0.0000E+00  0.1200E+02
     -5.165  0.0000E+00  0.1200E+02
     -4.982  0.1113E-04  0.1200E+02
     -4.799  0.7432E-01  0.1201E+02
     -4.617  0.4421E+00  0.1209E+02
     -4.434  0.9263E+00  0.1226E+02
     -4.252  0.8181E+00  0.1241E+02
     -4.069  0.9247E+00  0.1258E+02
     -3.887  0.1956E+01  0.1294E+02
     -3.704  0.1694E+01  0.1325E+02
     -3.521  0.2509E+01  0.1371E+02
     -3.339  0.2275E+01  0.1412E+02
     -3.156  0.6618E+01  0.1533E+02
     -2.974  0.3090E+01  0.1589E+02
     -2.791  0.5810E+00  0.1600E+02
     -2.609  0.6195E+00  0.1611E+02
     -2.426  0.1274E+01  0.1635E+02
     -2.243  0.2085E+01  0.1673E+02
     -2.061  0.2941E+01  0.1726E+02
     -1.878  0.6461E+01  0.1844E+02
     -1.696  0.6099E+01  0.1956E+02
     -1.513  0.1428E+01  0.1982E+02
     -1.331  0.9840E+00  0.2000E+02
     -1.148  0.1842E-01  0.2000E+02
     -0.965  0.0000E+00  0.2000E+02
     -0.783  0.0000E+00  0.2000E+02
     -0.600  0.0000E+00  0.2000E+02
     -0.418  0.0000E+00  0.2000E+02
     -0.235  0.0000E+00  0.2000E+02
     -0.053  0.0000E+00  0.2000E+02
      0.130  0.0000E+00  0.2000E+02
      0.313  0.0000E+00  0.2000E+02
      0.495  0.0000E+00  0.2000E+02
      0.678  0.0000E+00  0.2000E+02
      0.860  0.0000E+00  0.2000E+02
      1.043  0.0000E+00  0.2000E+02
      1.225  0.0000E+00  0.2000E+02
      1.408  0.0000E+00  0.2000E+02
      1.591  0.0000E+00  0.2000E+02
      1.773  0.0000E+00  0.2000E+02
      1.956  0.0000E+00  0.2000E+02
      2.138  0.0000E+00  0.2000E+02
      2.321  0.2597E-12  0.2000E+02
      2.504  0.3478E-02  0.2000E+02
      2.686  0.8140E-01  0.2002E+02
      2.869  0.4266E+00  0.2009E+02
      3.051  0.2745E+01  0.2059E+02
      3.234  0.3622E+01  0.2126E+02
      3.416  0.7912E+01  0.2270E+02
      3.599  0.5919E+01  0.2378E+02
      3.782  0.3808E+01  0.2448E+02
      3.964  0.1986E+01  0.2484E+02
      4.147  0.1884E+01  0.2518E+02
      4.329  0.5972E+01  0.2627E+02
      4.512  0.3294E+01  0.2687E+02
      4.694  0.4166E+01  0.2764E+02
      4.877  0.4918E+01  0.2853E+02
      5.060  0.6775E+01  0.2977E+02
      5.242  0.6761E+01  0.3100E+02
      5.425  0.5855E+01  0.3207E+02
      5.607  0.3888E+01  0.3278E+02
      5.790  0.7358E+01  0.3413E+02
      5.972  0.3935E+01  0.3485E+02
      6.155  0.3650E+01  0.3551E+02
      6.338  0.6185E+01  0.3664E+02
      6.520  0.4490E+01  0.3746E+02
      6.703  0.5899E+01  0.3854E+02
      6.885  0.5471E+01  0.3954E+02
      7.068  0.4796E+01  0.4041E+02
      7.250  0.9043E+01  0.4206E+02
      7.433  0.7471E+01  0.4343E+02
      7.616  0.7596E+01  0.4481E+02
      7.798  0.9405E+01  0.4653E+02
      7.981  0.1255E+02  0.4882E+02
      8.163  0.4260E+01  0.4960E+02
      8.346  0.5319E+01  0.5057E+02
      8.528  0.3720E+01  0.5125E+02
      8.711  0.2251E+01  0.5166E+02
      8.894  0.1694E+01  0.5197E+02
      9.076  0.1276E+00  0.5199E+02
      9.259  0.2971E-01  0.5200E+02
      9.441  0.2684E+00  0.5205E+02
      9.624  0.7325E+00  0.5218E+02
      9.806  0.2997E+01  0.5273E+02
      9.989  0.4175E+01  0.5349E+02
     10.172  0.6327E+01  0.5465E+02
     10.354  0.4396E+01  0.5545E+02
     10.537  0.4314E+01  0.5624E+02
     10.719  0.4115E+01  0.5699E+02
     10.902  0.6572E+01  0.5819E+02
     11.085  0.3734E+01  0.5887E+02
     11.267  0.3794E+01  0.5956E+02
     11.450  0.2658E+01  0.6005E+02
     11.632  0.4396E+01  0.6085E+02
     11.815  0.4869E+01  0.6174E+02
     11.997  0.5031E+01  0.6266E+02
     12.180  0.2720E+01  0.6316E+02
     12.363  0.1183E+01  0.6337E+02
     12.545  0.1853E+01  0.6371E+02
     12.728  0.1047E+01  0.6390E+02
     12.910  0.5503E+00  0.6400E+02
     13.093  0.4634E+00  0.6409E+02
     13.275  0.6311E+00  0.6420E+02
     13.458  0.3112E+00  0.6426E+02
     13.641  0.1241E+01  0.6448E+02
     13.823  0.1306E+01  0.6472E+02
     14.006  0.2531E+01  0.6518E+02
     14.188  0.2816E+01  0.6570E+02
     14.371  0.3646E+01  0.6636E+02
     14.553  0.4674E+01  0.6722E+02
     14.736  0.4086E+01  0.6796E+02
     14.919  0.2396E+01  0.6840E+02
     15.101  0.4412E+01  0.6921E+02
     15.284  0.4391E+01  0.7001E+02
     15.466  0.3440E+01  0.7064E+02
     15.649  0.2456E+01  0.7108E+02
     15.831  0.1582E+01  0.7137E+02
     16.014  0.1699E+01  0.7168E+02
     16.197  0.8689E+00  0.7184E+02
     16.379  0.4183E+00  0.7192E+02
     16.562  0.4436E+00  0.7200E+02
     16.744  0.1122E-03  0.7200E+02
     16.927  0.0000E+00  0.7200E+02
     17.109  0.0000E+00  0.7200E+02
     17.292  0.0000E+00  0.7200E+02
     17.475  0.0000E+00  0.7200E+02
     17.657  0.0000E+00  0.7200E+02
     17.840  0.0000E+00  0.7200E+02
     18.022  0.0000E+00  0.7200E+02
     18.205  0.0000E+00  0.7200E+02
     18.388  0.0000E+00  0.7200E+02
     18.570  0.0000E+00  0.7200E+02
     18.753  0.0000E+00  0.7200E+02
     18.935  0.0000E+00  0.7200E+02
