       N       E                     dE             d eps       ncg     rms          rms(c)
DAV:   1     0.415572620503E+03    0.41557E+03   -0.27880E+04 11288   0.146E+03
DAV:   2    -0.109926049015E+02   -0.42657E+03   -0.41089E+03 11512   0.333E+02
DAV:   3    -0.330779475567E+02   -0.22085E+02   -0.21603E+02 12208   0.683E+01
DAV:   4    -0.335379452752E+02   -0.46000E+00   -0.45886E+00 11312   0.967E+00
DAV:   5    -0.335517888583E+02   -0.13844E-01   -0.13843E-01 13176   0.171E+00    0.149E+01
DAV:   6    -0.330824309718E+02    0.46936E+00   -0.49786E-01 11032   0.466E+00    0.783E+00
DAV:   7    -0.329637818987E+02    0.11865E+00   -0.40804E-01 10612   0.320E+00    0.217E+00
DAV:   8    -0.329393360932E+02    0.24446E-01   -0.16684E-01 10868   0.286E+00    0.966E-01
DAV:   9    -0.329383108406E+02    0.10253E-02   -0.91175E-03 11636   0.536E-01    0.500E-01
DAV:  10    -0.329381694066E+02    0.14143E-03   -0.28008E-03 10952   0.343E-01    0.158E-01
DAV:  11    -0.329382615504E+02   -0.92144E-04   -0.17810E-04 11636   0.829E-02    0.365E-02
DAV:  12    -0.329382683546E+02   -0.68043E-05   -0.24805E-05 11060   0.311E-02    0.143E-02
DAV:  13    -0.329382671345E+02    0.12201E-05   -0.50235E-06 10052   0.200E-02    0.903E-03
DAV:  14    -0.329382659815E+02    0.11531E-05   -0.53795E-06  9968   0.160E-02    0.460E-03
DAV:  15    -0.329382663213E+02   -0.33982E-06   -0.44545E-07  5864   0.418E-03
   1 F= -.32938266E+02 E0= -.32938266E+02  d E =-.259921E-08
