Si10 H20                                
   1.00000000000000     
    13.8874449999999996    0.0000000000000000    0.0000000000000000
     0.0000000000000000    5.3110439999999999    0.0000000000000000
     0.0000000000000000    1.3610080000000000    7.3054509999999997
   Si   H 
    10    20
Direct
     0.7500000000000000    0.5442999999999998    0.5848560000000020
     0.2500000000000000    0.4557000000000002    0.4151439999999980
     0.6125189999999989    0.3188090000000017    0.7140580000000014
     0.1125189999999989    0.6811909999999983    0.2859419999999986
     0.3874810000000011    0.6811909999999983    0.2859419999999986
     0.8874810000000011    0.3188090000000017    0.7140580000000014
     0.6652399999999972    0.0701210000000003    0.9932450000000017
     0.1652399999999972    0.9298789999999997    0.0067549999999983
     0.3347600000000028    0.9298789999999997    0.0067549999999983
     0.8347600000000028    0.0701210000000003    0.9932450000000017
     0.5737110000000030    0.1506019999999992    0.5892440000000008
     0.0737110000000030    0.8493980000000008    0.4107559999999992
     0.4262889999999970    0.8493980000000008    0.4107559999999992
     0.9262889999999970    0.1506019999999992    0.5892440000000008
     0.7500000000000000    0.5857039999999998    0.3802779999999970
     0.2500000000000000    0.4142960000000002    0.6197220000000030
     0.6270579999999981    0.8024130000000014    0.0191790000000012
     0.1270579999999981    0.1975869999999986    0.9808209999999988
     0.3729420000000019    0.1975869999999986    0.9808209999999988
     0.8729420000000019    0.8024130000000014    0.0191790000000012
     0.5337209999999999    0.4990669999999966    0.7438599999999980
     0.0337209999999999    0.5009330000000034    0.2561400000000020
     0.4662790000000001    0.5009330000000034    0.2561400000000020
     0.9662790000000001    0.4990669999999966    0.7438599999999980
     0.6316630000000032    0.1871360000000024    0.1511619999999994
     0.1316630000000032    0.8128639999999976    0.8488380000000006
     0.3683369999999968    0.8128639999999976    0.8488380000000006
     0.8683369999999968    0.1871360000000024    0.1511619999999994
     0.7500000000000000    0.8042739999999995    0.6374029999999991
     0.2500000000000000    0.1957260000000005    0.3625970000000009
 
  0.00000000E+00  0.00000000E+00  0.00000000E+00
  0.00000000E+00  0.00000000E+00  0.00000000E+00
  0.00000000E+00  0.00000000E+00  0.00000000E+00
  0.00000000E+00  0.00000000E+00  0.00000000E+00
  0.00000000E+00  0.00000000E+00  0.00000000E+00
  0.00000000E+00  0.00000000E+00  0.00000000E+00
  0.00000000E+00  0.00000000E+00  0.00000000E+00
  0.00000000E+00  0.00000000E+00  0.00000000E+00
  0.00000000E+00  0.00000000E+00  0.00000000E+00
  0.00000000E+00  0.00000000E+00  0.00000000E+00
  0.00000000E+00  0.00000000E+00  0.00000000E+00
  0.00000000E+00  0.00000000E+00  0.00000000E+00
  0.00000000E+00  0.00000000E+00  0.00000000E+00
  0.00000000E+00  0.00000000E+00  0.00000000E+00
  0.00000000E+00  0.00000000E+00  0.00000000E+00
  0.00000000E+00  0.00000000E+00  0.00000000E+00
  0.00000000E+00  0.00000000E+00  0.00000000E+00
  0.00000000E+00  0.00000000E+00  0.00000000E+00
  0.00000000E+00  0.00000000E+00  0.00000000E+00
  0.00000000E+00  0.00000000E+00  0.00000000E+00
  0.00000000E+00  0.00000000E+00  0.00000000E+00
  0.00000000E+00  0.00000000E+00  0.00000000E+00
  0.00000000E+00  0.00000000E+00  0.00000000E+00
  0.00000000E+00  0.00000000E+00  0.00000000E+00
  0.00000000E+00  0.00000000E+00  0.00000000E+00
  0.00000000E+00  0.00000000E+00  0.00000000E+00
  0.00000000E+00  0.00000000E+00  0.00000000E+00
  0.00000000E+00  0.00000000E+00  0.00000000E+00
  0.00000000E+00  0.00000000E+00  0.00000000E+00
  0.00000000E+00  0.00000000E+00  0.00000000E+00
