       N       E                     dE             d eps       ncg     rms          rms(c)
DAV:   1     0.138226790777E+03    0.13823E+03   -0.21960E+04  3600   0.858E+02
DAV:   2    -0.108747392533E+03   -0.24697E+03   -0.23526E+03  4428   0.141E+02
DAV:   3    -0.126891257598E+03   -0.18144E+02   -0.18017E+02  4688   0.375E+01
DAV:   4    -0.127176663337E+03   -0.28541E+00   -0.28518E+00  4688   0.553E+00
DAV:   5    -0.127184324226E+03   -0.76609E-02   -0.76604E-02  5056   0.889E-01    0.185E+01
DAV:   6    -0.122603426505E+03    0.45809E+01   -0.18294E+00  4176   0.381E+00    0.107E+01
DAV:   7    -0.120527551102E+03    0.20759E+01   -0.47046E+00  4192   0.579E+00    0.136E+00
DAV:   8    -0.120571256848E+03   -0.43706E-01   -0.32149E-01  4180   0.174E+00    0.668E-01
DAV:   9    -0.120587564427E+03   -0.16308E-01   -0.34553E-02  4272   0.580E-01    0.389E-01
DAV:  10    -0.120590023628E+03   -0.24592E-02   -0.55548E-03  4044   0.233E-01    0.111E-01
DAV:  11    -0.120591328173E+03   -0.13045E-02   -0.16346E-03  4056   0.164E-01    0.520E-02
DAV:  12    -0.120591317447E+03    0.10725E-04   -0.76476E-05  4848   0.274E-02    0.167E-02
DAV:  13    -0.120591322775E+03   -0.53281E-05   -0.21742E-05  4176   0.165E-02    0.644E-03
DAV:  14    -0.120591322924E+03   -0.14835E-06   -0.37159E-06  4556   0.611E-03
   1 F= -.12059132E+03 E0= -.12059132E+03  d E =-.135807E-13
