Si10H20
1.0
     13.8874450       0.0000000       0.0000000
      0.0000000       5.3110440       0.0000000
      0.0000000       1.3610080       7.3054510
  Si    H   
  10    20  
Direct
      0.7500000       0.5443000       0.5848560
      0.2500000       0.4557000       0.4151440
      0.6125190       0.3188090       0.7140580
      0.1125190       0.6811910       0.2859420
      0.3874810       0.6811910       0.2859420
      0.8874810       0.3188090       0.7140580
      0.6652400       0.0701210       0.9932450
      0.1652400       0.9298790       0.0067550
      0.3347600       0.9298790       0.0067550
      0.8347600       0.0701210       0.9932450
      0.5737110       0.1506020       0.5892440
      0.0737110       0.8493980       0.4107560
      0.4262890       0.8493980       0.4107560
      0.9262890       0.1506020       0.5892440
      0.7500000       0.5857040       0.3802780
      0.2500000       0.4142960       0.6197220
      0.6270580       0.8024130       0.0191790
      0.1270580       0.1975870       0.9808210
      0.3729420       0.1975870       0.9808210
      0.8729420       0.8024130       0.0191790
      0.5337210       0.4990670       0.7438600
      0.0337210       0.5009330       0.2561400
      0.4662790       0.5009330       0.2561400
      0.9662790       0.4990670       0.7438600
      0.6316630       0.1871360       0.1511620
      0.1316630       0.8128640       0.8488380
      0.3683370       0.8128640       0.8488380
      0.8683370       0.1871360       0.1511620
      0.7500000       0.8042740       0.6374030
      0.2500000       0.1957260       0.3625970
