unknown system                          
           1
    13.887445    0.000000    0.000000
     0.000000    5.311044    0.000000
     0.000000    1.361008    7.305451
   Si   H 
    10    20
Direct configuration=     1
   0.75000000  0.54430000  0.58485600
   0.25000000  0.45570000  0.41514400
   0.61251900  0.31880900  0.71405800
   0.11251900  0.68119100  0.28594200
   0.38748100  0.68119100  0.28594200
   0.88748100  0.31880900  0.71405800
   0.66524000  0.07012100  0.99324500
   0.16524000  0.92987900  0.00675500
   0.33476000  0.92987900  0.00675500
   0.83476000  0.07012100  0.99324500
   0.57371100  0.15060200  0.58924400
   0.07371100  0.84939800  0.41075600
   0.42628900  0.84939800  0.41075600
   0.92628900  0.15060200  0.58924400
   0.75000000  0.58570400  0.38027800
   0.25000000  0.41429600  0.61972200
   0.62705800  0.80241300  0.01917900
   0.12705800  0.19758700  0.98082100
   0.37294200  0.19758700  0.98082100
   0.87294200  0.80241300  0.01917900
   0.53372100  0.49906700  0.74386000
   0.03372100  0.50093300  0.25614000
   0.46627900  0.50093300  0.25614000
   0.96627900  0.49906700  0.74386000
   0.63166300  0.18713600  0.15116200
   0.13166300  0.81286400  0.84883800
   0.36833700  0.81286400  0.84883800
   0.86833700  0.18713600  0.15116200
   0.75000000  0.80427400  0.63740300
   0.25000000  0.19572600  0.36259700
