   4   4   0   0
  0.1751093E+02  0.2896422E-09  0.2896422E-09  0.9046989E-09  0.5000000E-15
  1.000000000000000E-004
  CAR 
 unknown system                          
     16.55250603    -29.70606658  301      5.54937962      1.00000000
    -29.706  0.0000E+00  0.0000E+00
    -29.552  0.0000E+00  0.0000E+00
    -29.398  0.0000E+00  0.0000E+00
    -29.243  0.0000E+00  0.0000E+00
    -29.089  0.0000E+00  0.0000E+00
    -28.935  0.0000E+00  0.0000E+00
    -28.781  0.0000E+00  0.0000E+00
    -28.627  0.0000E+00  0.0000E+00
    -28.473  0.0000E+00  0.0000E+00
    -28.318  0.0000E+00  0.0000E+00
    -28.164  0.0000E+00  0.0000E+00
    -28.010  0.0000E+00  0.0000E+00
    -27.856  0.2637E-13  0.4066E-14
    -27.702  0.4613E-03  0.7113E-04
    -27.547  0.4679E+01  0.7216E+00
    -27.393  0.2289E+02  0.4251E+01
    -27.239  0.2559E+02  0.8197E+01
    -27.085  0.3870E+02  0.1416E+02
    -26.931  0.2470E+02  0.1797E+02
    -26.776  0.1773E+00  0.1800E+02
    -26.622  0.8937E-08  0.1800E+02
    -26.468  0.0000E+00  0.1800E+02
    -26.314  0.0000E+00  0.1800E+02
    -26.160  0.0000E+00  0.1800E+02
    -26.005  0.0000E+00  0.1800E+02
    -25.851  0.0000E+00  0.1800E+02
    -25.697  0.0000E+00  0.1800E+02
    -25.543  0.2282E-09  0.1800E+02
    -25.389  0.9031E-02  0.1800E+02
    -25.234  0.1570E+01  0.1824E+02
    -25.080  0.4786E+01  0.1898E+02
    -24.926  0.2713E+01  0.1940E+02
    -24.772  0.1068E+02  0.2105E+02
    -24.618  0.1005E+02  0.2260E+02
    -24.463  0.4372E+01  0.2327E+02
    -24.309  0.4363E+01  0.2394E+02
    -24.155  0.3671E+00  0.2400E+02
    -24.001  0.3757E-04  0.2400E+02
    -23.847  0.0000E+00  0.2400E+02
    -23.692  0.0000E+00  0.2400E+02
    -23.538  0.0000E+00  0.2400E+02
    -23.384  0.0000E+00  0.2400E+02
    -23.230  0.0000E+00  0.2400E+02
    -23.076  0.0000E+00  0.2400E+02
    -22.921  0.0000E+00  0.2400E+02
    -22.767  0.0000E+00  0.2400E+02
    -22.613  0.0000E+00  0.2400E+02
    -22.459  0.0000E+00  0.2400E+02
    -22.305  0.0000E+00  0.2400E+02
    -22.150  0.0000E+00  0.2400E+02
    -21.996  0.0000E+00  0.2400E+02
    -21.842  0.0000E+00  0.2400E+02
    -21.688  0.0000E+00  0.2400E+02
    -21.534  0.0000E+00  0.2400E+02
    -21.380  0.0000E+00  0.2400E+02
    -21.225  0.0000E+00  0.2400E+02
    -21.071  0.0000E+00  0.2400E+02
    -20.917  0.0000E+00  0.2400E+02
    -20.763  0.0000E+00  0.2400E+02
    -20.609  0.0000E+00  0.2400E+02
    -20.454  0.0000E+00  0.2400E+02
    -20.300  0.0000E+00  0.2400E+02
    -20.146  0.0000E+00  0.2400E+02
    -19.992  0.0000E+00  0.2400E+02
    -19.838  0.0000E+00  0.2400E+02
    -19.683  0.0000E+00  0.2400E+02
    -19.529  0.0000E+00  0.2400E+02
    -19.375  0.0000E+00  0.2400E+02
    -19.221  0.0000E+00  0.2400E+02
    -19.067  0.0000E+00  0.2400E+02
    -18.912  0.0000E+00  0.2400E+02
    -18.758  0.0000E+00  0.2400E+02
    -18.604  0.0000E+00  0.2400E+02
    -18.450  0.0000E+00  0.2400E+02
    -18.296  0.0000E+00  0.2400E+02
    -18.141  0.0000E+00  0.2400E+02
    -17.987  0.0000E+00  0.2400E+02
    -17.833  0.0000E+00  0.2400E+02
    -17.679  0.0000E+00  0.2400E+02
    -17.525  0.0000E+00  0.2400E+02
    -17.370  0.0000E+00  0.2400E+02
    -17.216  0.0000E+00  0.2400E+02
    -17.062  0.0000E+00  0.2400E+02
    -16.908  0.0000E+00  0.2400E+02
    -16.754  0.0000E+00  0.2400E+02
    -16.599  0.0000E+00  0.2400E+02
    -16.445  0.0000E+00  0.2400E+02
    -16.291  0.0000E+00  0.2400E+02
    -16.137  0.0000E+00  0.2400E+02
    -15.983  0.0000E+00  0.2400E+02
    -15.828  0.0000E+00  0.2400E+02
    -15.674  0.0000E+00  0.2400E+02
    -15.520  0.0000E+00  0.2400E+02
    -15.366  0.0000E+00  0.2400E+02
    -15.212  0.0000E+00  0.2400E+02
    -15.058  0.0000E+00  0.2400E+02
    -14.903  0.0000E+00  0.2400E+02
    -14.749  0.0000E+00  0.2400E+02
    -14.595  0.0000E+00  0.2400E+02
    -14.441  0.0000E+00  0.2400E+02
    -14.287  0.0000E+00  0.2400E+02
    -14.132  0.0000E+00  0.2400E+02
    -13.978  0.0000E+00  0.2400E+02
    -13.824  0.0000E+00  0.2400E+02
    -13.670  0.0000E+00  0.2400E+02
    -13.516  0.0000E+00  0.2400E+02
    -13.361  0.0000E+00  0.2400E+02
    -13.207  0.0000E+00  0.2400E+02
    -13.053  0.0000E+00  0.2400E+02
    -12.899  0.0000E+00  0.2400E+02
    -12.745  0.0000E+00  0.2400E+02
    -12.590  0.0000E+00  0.2400E+02
    -12.436  0.0000E+00  0.2400E+02
    -12.282  0.0000E+00  0.2400E+02
    -12.128  0.0000E+00  0.2400E+02
    -11.974  0.0000E+00  0.2400E+02
    -11.819  0.0000E+00  0.2400E+02
    -11.665  0.0000E+00  0.2400E+02
    -11.511  0.0000E+00  0.2400E+02
    -11.357  0.0000E+00  0.2400E+02
    -11.203  0.0000E+00  0.2400E+02
    -11.048  0.0000E+00  0.2400E+02
    -10.894  0.0000E+00  0.2400E+02
    -10.740  0.0000E+00  0.2400E+02
    -10.586  0.0000E+00  0.2400E+02
    -10.432  0.0000E+00  0.2400E+02
    -10.277  0.0000E+00  0.2400E+02
    -10.123  0.0000E+00  0.2400E+02
     -9.969  0.0000E+00  0.2400E+02
     -9.815  0.0000E+00  0.2400E+02
     -9.661  0.0000E+00  0.2400E+02
     -9.506  0.0000E+00  0.2400E+02
     -9.352  0.0000E+00  0.2400E+02
     -9.198  0.0000E+00  0.2400E+02
     -9.044  0.0000E+00  0.2400E+02
     -8.890  0.0000E+00  0.2400E+02
     -8.736  0.0000E+00  0.2400E+02
     -8.581  0.0000E+00  0.2400E+02
     -8.427  0.0000E+00  0.2400E+02
     -8.273  0.0000E+00  0.2400E+02
     -8.119  0.0000E+00  0.2400E+02
     -7.965  0.0000E+00  0.2400E+02
     -7.810  0.0000E+00  0.2400E+02
     -7.656  0.0000E+00  0.2400E+02
     -7.502  0.0000E+00  0.2400E+02
     -7.348  0.0000E+00  0.2400E+02
     -7.194  0.0000E+00  0.2400E+02
     -7.039  0.0000E+00  0.2400E+02
     -6.885  0.0000E+00  0.2400E+02
     -6.731  0.0000E+00  0.2400E+02
     -6.577  0.0000E+00  0.2400E+02
     -6.423  0.0000E+00  0.2400E+02
     -6.268  0.0000E+00  0.2400E+02
     -6.114  0.0000E+00  0.2400E+02
     -5.960  0.0000E+00  0.2400E+02
     -5.806  0.0000E+00  0.2400E+02
     -5.652  0.0000E+00  0.2400E+02
     -5.497  0.0000E+00  0.2400E+02
     -5.343  0.0000E+00  0.2400E+02
     -5.189  0.0000E+00  0.2400E+02
     -5.035  0.0000E+00  0.2400E+02
     -4.881  0.0000E+00  0.2400E+02
     -4.726  0.0000E+00  0.2400E+02
     -4.572  0.0000E+00  0.2400E+02
     -4.418  0.0000E+00  0.2400E+02
     -4.264  0.0000E+00  0.2400E+02
     -4.110  0.0000E+00  0.2400E+02
     -3.955  0.0000E+00  0.2400E+02
     -3.801  0.0000E+00  0.2400E+02
     -3.647  0.0000E+00  0.2400E+02
     -3.493  0.0000E+00  0.2400E+02
     -3.339  0.0000E+00  0.2400E+02
     -3.184  0.0000E+00  0.2400E+02
     -3.030  0.0000E+00  0.2400E+02
     -2.876  0.0000E+00  0.2400E+02
     -2.722  0.0000E+00  0.2400E+02
     -2.568  0.0000E+00  0.2400E+02
     -2.414  0.0000E+00  0.2400E+02
     -2.259  0.0000E+00  0.2400E+02
     -2.105  0.0000E+00  0.2400E+02
     -1.951  0.0000E+00  0.2400E+02
     -1.797  0.0000E+00  0.2400E+02
     -1.643  0.0000E+00  0.2400E+02
     -1.488  0.0000E+00  0.2400E+02
     -1.334  0.0000E+00  0.2400E+02
     -1.180  0.0000E+00  0.2400E+02
     -1.026  0.0000E+00  0.2400E+02
     -0.872  0.0000E+00  0.2400E+02
     -0.717  0.7200E-17  0.2400E+02
     -0.563  0.2962E-05  0.2400E+02
     -0.409  0.3061E-01  0.2400E+02
     -0.255  0.1395E-01  0.2401E+02
     -0.101  0.2905E+00  0.2405E+02
      0.054  0.1044E+00  0.2407E+02
      0.208  0.4591E+00  0.2414E+02
      0.362  0.9392E-01  0.2415E+02
      0.516  0.2427E+00  0.2419E+02
      0.670  0.4627E+00  0.2426E+02
      0.825  0.8775E+00  0.2440E+02
      0.979  0.3483E+00  0.2445E+02
      1.133  0.1846E+00  0.2448E+02
      1.287  0.3476E+00  0.2453E+02
      1.441  0.1085E+01  0.2470E+02
      1.596  0.6078E+00  0.2479E+02
      1.750  0.1124E+01  0.2497E+02
      1.904  0.7368E+00  0.2508E+02
      2.058  0.5297E+00  0.2516E+02
      2.212  0.1293E+01  0.2536E+02
      2.367  0.1481E+01  0.2559E+02
      2.521  0.2724E+01  0.2601E+02
      2.675  0.3491E+01  0.2655E+02
      2.829  0.2979E+01  0.2701E+02
      2.983  0.3249E+01  0.2751E+02
      3.138  0.3977E+01  0.2812E+02
      3.292  0.3026E+01  0.2859E+02
      3.446  0.4581E+01  0.2930E+02
      3.600  0.4984E+01  0.3006E+02
      3.754  0.4435E+01  0.3075E+02
      3.908  0.5197E+01  0.3155E+02
      4.063  0.3308E+01  0.3206E+02
      4.217  0.3277E+01  0.3256E+02
      4.371  0.4958E+01  0.3333E+02
      4.525  0.5522E+01  0.3418E+02
      4.679  0.5844E+01  0.3508E+02
      4.834  0.7021E+01  0.3616E+02
      4.988  0.7440E+01  0.3731E+02
      5.142  0.7160E+01  0.3841E+02
      5.296  0.6323E+01  0.3939E+02
      5.450  0.5905E+01  0.4030E+02
      5.605  0.6844E+01  0.4136E+02
      5.759  0.7203E+01  0.4247E+02
      5.913  0.4885E+01  0.4322E+02
      6.067  0.5495E+01  0.4407E+02
      6.221  0.5625E+01  0.4493E+02
      6.376  0.6210E+01  0.4589E+02
      6.530  0.6048E+01  0.4682E+02
      6.684  0.2962E+01  0.4728E+02
      6.838  0.3104E+01  0.4776E+02
      6.992  0.3925E+01  0.4836E+02
      7.147  0.5576E+01  0.4922E+02
      7.301  0.6368E+01  0.5021E+02
      7.455  0.6794E+01  0.5125E+02
      7.609  0.7151E+01  0.5236E+02
      7.763  0.4265E+01  0.5301E+02
      7.918  0.5026E+01  0.5379E+02
      8.072  0.4551E+01  0.5449E+02
      8.226  0.6765E+01  0.5553E+02
      8.380  0.6502E+01  0.5654E+02
      8.534  0.5882E+01  0.5744E+02
      8.689  0.7947E+01  0.5867E+02
      8.843  0.1136E+02  0.6042E+02
      8.997  0.7948E+01  0.6165E+02
      9.151  0.8547E+01  0.6296E+02
      9.305  0.7773E+01  0.6416E+02
      9.460  0.4332E+01  0.6483E+02
      9.614  0.5541E+01  0.6569E+02
      9.768  0.4952E+01  0.6645E+02
      9.922  0.1921E+01  0.6675E+02
     10.076  0.2102E+01  0.6707E+02
     10.231  0.2412E+01  0.6744E+02
     10.385  0.3533E+01  0.6799E+02
     10.539  0.1922E+01  0.6828E+02
     10.693  0.1207E+01  0.6847E+02
     10.847  0.1390E+01  0.6868E+02
     11.001  0.9254E+00  0.6883E+02
     11.156  0.2455E+01  0.6920E+02
     11.310  0.1729E+01  0.6947E+02
     11.464  0.9353E+00  0.6962E+02
     11.618  0.8514E+00  0.6975E+02
     11.772  0.1079E+01  0.6991E+02
     11.927  0.1796E+01  0.7019E+02
     12.081  0.9378E+00  0.7033E+02
     12.235  0.1776E+01  0.7061E+02
     12.389  0.1640E+01  0.7086E+02
     12.543  0.1024E+01  0.7102E+02
     12.698  0.8494E+00  0.7115E+02
     12.852  0.8536E+00  0.7128E+02
     13.006  0.9122E+00  0.7142E+02
     13.160  0.1072E+01  0.7159E+02
     13.314  0.4824E+00  0.7166E+02
     13.469  0.6899E+00  0.7177E+02
     13.623  0.3102E+00  0.7182E+02
     13.777  0.4858E+00  0.7189E+02
     13.931  0.2794E-01  0.7190E+02
     14.085  0.9416E-01  0.7191E+02
     14.240  0.1950E+00  0.7194E+02
     14.394  0.2189E+00  0.7197E+02
     14.548  0.1697E+00  0.7200E+02
     14.702  0.3695E-03  0.7200E+02
     14.856  0.0000E+00  0.7200E+02
     15.011  0.0000E+00  0.7200E+02
     15.165  0.0000E+00  0.7200E+02
     15.319  0.0000E+00  0.7200E+02
     15.473  0.0000E+00  0.7200E+02
     15.627  0.0000E+00  0.7200E+02
     15.782  0.0000E+00  0.7200E+02
     15.936  0.0000E+00  0.7200E+02
     16.090  0.0000E+00  0.7200E+02
     16.244  0.0000E+00  0.7200E+02
     16.398  0.0000E+00  0.7200E+02
     16.553  0.0000E+00  0.7200E+02
