       N       E                     dE             d eps       ncg     rms          rms(c)
DAV:   1     0.463143491337E+03    0.46314E+03   -0.21003E+04 21600   0.138E+03
DAV:   2    -0.120379084831E+02   -0.47518E+03   -0.45892E+03 21600   0.468E+02
DAV:   3    -0.361909362432E+02   -0.24153E+02   -0.21871E+02 26036   0.108E+02
DAV:   4    -0.375460465034E+02   -0.13551E+01   -0.13242E+01 25940   0.274E+01
DAV:   5    -0.375993446967E+02   -0.53298E-01   -0.53240E-01 27184   0.589E+00    0.263E+01
DAV:   6    -0.362629436406E+02    0.13364E+01   -0.37405E+01 30940   0.353E+01    0.103E+01
DAV:   7    -0.356553417573E+02    0.60760E+00   -0.33947E+01 32928   0.254E+01    0.939E+00
DAV:   8    -0.340640056291E+02    0.15913E+01   -0.13026E+01 33048   0.196E+01    0.811E+00
DAV:   9    -0.333547664538E+02    0.70924E+00   -0.35807E+00 29912   0.888E+00    0.308E+00
DAV:  10    -0.333357824816E+02    0.18984E-01   -0.81004E-02 22648   0.192E+00    0.213E+00
DAV:  11    -0.333205847274E+02    0.15198E-01   -0.63394E-02 31316   0.184E+00    0.564E-01
DAV:  12    -0.333191996038E+02    0.13851E-02   -0.63857E-03 30296   0.712E-01    0.150E-01
DAV:  13    -0.333193868591E+02   -0.18726E-03   -0.17364E-03 24900   0.308E-01    0.133E-01
DAV:  14    -0.333192370340E+02    0.14983E-03   -0.13768E-03 25696   0.283E-01    0.626E-02
DAV:  15    -0.333192171172E+02    0.19917E-04   -0.83549E-05 31952   0.770E-02    0.147E-02
DAV:  16    -0.333192127716E+02    0.43456E-05   -0.71643E-06 23212   0.194E-02    0.440E-03
DAV:  17    -0.333192118389E+02    0.93267E-06   -0.64091E-07 11296   0.599E-03
   1 F= -.33319212E+02 E0= -.33314484E+02  d E =-.945582E-02
