Cs2N6
1.0
      5.5654831      -0.0138282      -2.6376626
     -3.3340288       5.1025143      -0.8835524
     -0.0090338       0.0138282       6.1588796
  Cs    N   
  2     6   
Direct
      0.0000000       0.2500000       0.2500000
      0.0000000       0.7500000       0.7500000
      0.7544652       0.6272336       0.1272336
      0.5000000       0.1272336       0.3727664
      0.5000000       0.8727664       0.6272336
      0.2455348       0.3727664       0.8727664
      0.5000000       0.5000000       0.0000000
      0.5000000       0.0000000       0.5000000
