Ta3 N3                                  
   1.00000000000000     
     2.6315729999999999   -4.5580170000000004    0.0000000000000000
     2.6315729999999999    4.5580170000000004    0.0000000000000000
     0.0000000000000000    0.0000000000000000    2.9312870000000002
   Ta   N 
     3     3
Direct
     0.0000000000000000    0.0000000000000000    0.0000000000000000
     0.3333330000000032    0.6666669999999968    0.5000000000000000
     0.6666669999999968    0.3333330000000032    0.5000000000000000
     0.5000000000000000    0.0000000000000000    0.0000000000000000
     0.5000000000000000    0.5000000000000000    0.0000000000000000
     0.0000000000000000    0.5000000000000000    0.0000000000000000
 
  0.00000000E+00  0.00000000E+00  0.00000000E+00
  0.00000000E+00  0.00000000E+00  0.00000000E+00
  0.00000000E+00  0.00000000E+00  0.00000000E+00
  0.00000000E+00  0.00000000E+00  0.00000000E+00
  0.00000000E+00  0.00000000E+00  0.00000000E+00
  0.00000000E+00  0.00000000E+00  0.00000000E+00
