   6   6   0   0
  0.1172002E+02  0.5263145E-09  0.5263145E-09  0.2931287E-09  0.5000000E-15
  1.000000000000000E-004
  CAR 
 unknown system                          
     21.66017554    -31.07879177  301      7.77037297      1.00000000
    -31.079  0.0000E+00  0.0000E+00
    -30.903  0.0000E+00  0.0000E+00
    -30.727  0.0000E+00  0.0000E+00
    -30.551  0.0000E+00  0.0000E+00
    -30.376  0.0000E+00  0.0000E+00
    -30.200  0.0000E+00  0.0000E+00
    -30.024  0.0000E+00  0.0000E+00
    -29.848  0.0000E+00  0.0000E+00
    -29.672  0.0000E+00  0.0000E+00
    -29.497  0.0000E+00  0.0000E+00
    -29.321  0.0000E+00  0.0000E+00
    -29.145  0.0000E+00  0.0000E+00
    -28.969  0.1010E-16  0.1776E-17
    -28.793  0.1108E-03  0.1948E-04
    -28.618  0.1192E+01  0.2096E+00
    -28.442  0.6916E+01  0.1425E+01
    -28.266  0.1904E+02  0.4773E+01
    -28.090  0.1191E+02  0.6866E+01
    -27.914  0.1933E+02  0.1026E+02
    -27.739  0.1673E+02  0.1321E+02
    -27.563  0.1591E+02  0.1600E+02
    -27.387  0.3169E+01  0.1656E+02
    -27.211  0.2481E+01  0.1700E+02
    -27.035  0.2298E+01  0.1740E+02
    -26.860  0.3275E+01  0.1798E+02
    -26.684  0.1385E+00  0.1800E+02
    -26.508  0.4122E-09  0.1800E+02
    -26.332  0.0000E+00  0.1800E+02
    -26.156  0.0000E+00  0.1800E+02
    -25.981  0.0000E+00  0.1800E+02
    -25.805  0.0000E+00  0.1800E+02
    -25.629  0.0000E+00  0.1800E+02
    -25.453  0.0000E+00  0.1800E+02
    -25.278  0.0000E+00  0.1800E+02
    -25.102  0.0000E+00  0.1800E+02
    -24.926  0.0000E+00  0.1800E+02
    -24.750  0.0000E+00  0.1800E+02
    -24.574  0.0000E+00  0.1800E+02
    -24.399  0.0000E+00  0.1800E+02
    -24.223  0.0000E+00  0.1800E+02
    -24.047  0.0000E+00  0.1800E+02
    -23.871  0.0000E+00  0.1800E+02
    -23.695  0.0000E+00  0.1800E+02
    -23.520  0.0000E+00  0.1800E+02
    -23.344  0.0000E+00  0.1800E+02
    -23.168  0.0000E+00  0.1800E+02
    -22.992  0.0000E+00  0.1800E+02
    -22.816  0.0000E+00  0.1800E+02
    -22.641  0.0000E+00  0.1800E+02
    -22.465  0.0000E+00  0.1800E+02
    -22.289  0.0000E+00  0.1800E+02
    -22.113  0.0000E+00  0.1800E+02
    -21.937  0.0000E+00  0.1800E+02
    -21.762  0.0000E+00  0.1800E+02
    -21.586  0.0000E+00  0.1800E+02
    -21.410  0.0000E+00  0.1800E+02
    -21.234  0.0000E+00  0.1800E+02
    -21.058  0.0000E+00  0.1800E+02
    -20.883  0.0000E+00  0.1800E+02
    -20.707  0.0000E+00  0.1800E+02
    -20.531  0.0000E+00  0.1800E+02
    -20.355  0.0000E+00  0.1800E+02
    -20.179  0.0000E+00  0.1800E+02
    -20.004  0.0000E+00  0.1800E+02
    -19.828  0.0000E+00  0.1800E+02
    -19.652  0.0000E+00  0.1800E+02
    -19.476  0.0000E+00  0.1800E+02
    -19.300  0.0000E+00  0.1800E+02
    -19.125  0.0000E+00  0.1800E+02
    -18.949  0.0000E+00  0.1800E+02
    -18.773  0.0000E+00  0.1800E+02
    -18.597  0.0000E+00  0.1800E+02
    -18.421  0.0000E+00  0.1800E+02
    -18.246  0.0000E+00  0.1800E+02
    -18.070  0.0000E+00  0.1800E+02
    -17.894  0.0000E+00  0.1800E+02
    -17.718  0.0000E+00  0.1800E+02
    -17.542  0.0000E+00  0.1800E+02
    -17.367  0.0000E+00  0.1800E+02
    -17.191  0.0000E+00  0.1800E+02
    -17.015  0.0000E+00  0.1800E+02
    -16.839  0.0000E+00  0.1800E+02
    -16.663  0.0000E+00  0.1800E+02
    -16.488  0.0000E+00  0.1800E+02
    -16.312  0.0000E+00  0.1800E+02
    -16.136  0.0000E+00  0.1800E+02
    -15.960  0.0000E+00  0.1800E+02
    -15.784  0.0000E+00  0.1800E+02
    -15.609  0.0000E+00  0.1800E+02
    -15.433  0.0000E+00  0.1800E+02
    -15.257  0.0000E+00  0.1800E+02
    -15.081  0.0000E+00  0.1800E+02
    -14.906  0.0000E+00  0.1800E+02
    -14.730  0.0000E+00  0.1800E+02
    -14.554  0.0000E+00  0.1800E+02
    -14.378  0.0000E+00  0.1800E+02
    -14.202  0.0000E+00  0.1800E+02
    -14.027  0.0000E+00  0.1800E+02
    -13.851  0.0000E+00  0.1800E+02
    -13.675  0.0000E+00  0.1800E+02
    -13.499  0.0000E+00  0.1800E+02
    -13.323  0.0000E+00  0.1800E+02
    -13.148  0.0000E+00  0.1800E+02
    -12.972  0.0000E+00  0.1800E+02
    -12.796  0.0000E+00  0.1800E+02
    -12.620  0.0000E+00  0.1800E+02
    -12.444  0.0000E+00  0.1800E+02
    -12.269  0.0000E+00  0.1800E+02
    -12.093  0.0000E+00  0.1800E+02
    -11.917  0.0000E+00  0.1800E+02
    -11.741  0.0000E+00  0.1800E+02
    -11.565  0.0000E+00  0.1800E+02
    -11.390  0.0000E+00  0.1800E+02
    -11.214  0.0000E+00  0.1800E+02
    -11.038  0.0000E+00  0.1800E+02
    -10.862  0.0000E+00  0.1800E+02
    -10.686  0.0000E+00  0.1800E+02
    -10.511  0.5387E-06  0.1800E+02
    -10.335  0.3513E-01  0.1801E+02
    -10.159  0.1274E+00  0.1803E+02
     -9.983  0.3056E+00  0.1808E+02
     -9.807  0.5022E+00  0.1817E+02
     -9.632  0.3399E+00  0.1823E+02
     -9.456  0.9828E+00  0.1840E+02
     -9.280  0.1085E+01  0.1859E+02
     -9.104  0.7948E+00  0.1873E+02
     -8.928  0.9346E+00  0.1890E+02
     -8.753  0.5840E+00  0.1900E+02
     -8.577  0.1459E+01  0.1926E+02
     -8.401  0.1867E+01  0.1959E+02
     -8.225  0.3382E+01  0.2018E+02
     -8.049  0.7262E+01  0.2146E+02
     -7.874  0.5713E+01  0.2246E+02
     -7.698  0.2541E+01  0.2291E+02
     -7.522  0.2641E+01  0.2337E+02
     -7.346  0.1713E+01  0.2367E+02
     -7.170  0.1856E+01  0.2400E+02
     -6.995  0.6614E-02  0.2400E+02
     -6.819  0.0000E+00  0.2400E+02
     -6.643  0.0000E+00  0.2400E+02
     -6.467  0.0000E+00  0.2400E+02
     -6.291  0.0000E+00  0.2400E+02
     -6.116  0.0000E+00  0.2400E+02
     -5.940  0.0000E+00  0.2400E+02
     -5.764  0.0000E+00  0.2400E+02
     -5.588  0.0000E+00  0.2400E+02
     -5.412  0.0000E+00  0.2400E+02
     -5.237  0.0000E+00  0.2400E+02
     -5.061  0.0000E+00  0.2400E+02
     -4.885  0.0000E+00  0.2400E+02
     -4.709  0.0000E+00  0.2400E+02
     -4.534  0.0000E+00  0.2400E+02
     -4.358  0.0000E+00  0.2400E+02
     -4.182  0.0000E+00  0.2400E+02
     -4.006  0.0000E+00  0.2400E+02
     -3.830  0.0000E+00  0.2400E+02
     -3.655  0.0000E+00  0.2400E+02
     -3.479  0.0000E+00  0.2400E+02
     -3.303  0.0000E+00  0.2400E+02
     -3.127  0.0000E+00  0.2400E+02
     -2.951  0.0000E+00  0.2400E+02
     -2.776  0.0000E+00  0.2400E+02
     -2.600  0.0000E+00  0.2400E+02
     -2.424  0.1120E-12  0.2400E+02
     -2.248  0.1204E-02  0.2400E+02
     -2.072  0.4425E-01  0.2401E+02
     -1.897  0.2701E-02  0.2401E+02
     -1.721  0.8984E-01  0.2402E+02
     -1.545  0.2696E+00  0.2407E+02
     -1.369  0.2670E+00  0.2412E+02
     -1.193  0.2810E+00  0.2417E+02
     -1.018  0.1096E-01  0.2417E+02
     -0.842  0.3214E+00  0.2423E+02
     -0.666  0.1087E+01  0.2442E+02
     -0.490  0.4010E+01  0.2512E+02
     -0.314  0.2383E+01  0.2554E+02
     -0.139  0.3211E+01  0.2611E+02
      0.037  0.2298E+01  0.2651E+02
      0.213  0.2927E+01  0.2702E+02
      0.389  0.4638E+01  0.2784E+02
      0.565  0.3199E+01  0.2840E+02
      0.740  0.2075E+01  0.2877E+02
      0.916  0.3695E+01  0.2942E+02
      1.092  0.3049E+01  0.2995E+02
      1.268  0.4254E+01  0.3070E+02
      1.444  0.5668E+01  0.3170E+02
      1.619  0.3680E+01  0.3234E+02
      1.795  0.5220E+01  0.3326E+02
      1.971  0.7170E+01  0.3452E+02
      2.147  0.5194E+01  0.3544E+02
      2.323  0.4220E+01  0.3618E+02
      2.498  0.1776E+01  0.3649E+02
      2.674  0.2606E+01  0.3695E+02
      2.850  0.3222E+01  0.3751E+02
      3.026  0.1691E+01  0.3781E+02
      3.202  0.1744E+01  0.3812E+02
      3.377  0.2412E+01  0.3854E+02
      3.553  0.3330E+01  0.3913E+02
      3.729  0.3120E+01  0.3968E+02
      3.905  0.9674E+00  0.3985E+02
      4.081  0.2877E+01  0.4035E+02
      4.256  0.1363E+01  0.4059E+02
      4.432  0.3535E+01  0.4121E+02
      4.608  0.2428E+01  0.4164E+02
      4.784  0.1560E+01  0.4191E+02
      4.960  0.3079E+01  0.4245E+02
      5.135  0.1371E+01  0.4270E+02
      5.311  0.1217E+01  0.4291E+02
      5.487  0.2232E+01  0.4330E+02
      5.663  0.1661E+01  0.4359E+02
      5.838  0.1058E+01  0.4378E+02
      6.014  0.1899E+01  0.4411E+02
      6.190  0.8284E+00  0.4426E+02
      6.366  0.4121E+01  0.4498E+02
      6.542  0.2031E+01  0.4534E+02
      6.717  0.8323E+00  0.4549E+02
      6.893  0.1749E+01  0.4579E+02
      7.069  0.2490E+01  0.4623E+02
      7.245  0.3519E+01  0.4685E+02
      7.421  0.4071E+01  0.4757E+02
      7.596  0.1465E+01  0.4782E+02
      7.772  0.1011E+01  0.4800E+02
      7.948  0.6529E+00  0.4812E+02
      8.124  0.7291E+00  0.4824E+02
      8.300  0.2141E+01  0.4862E+02
      8.475  0.1466E+01  0.4888E+02
      8.651  0.2145E+01  0.4926E+02
      8.827  0.3779E+01  0.4992E+02
      9.003  0.2718E+01  0.5040E+02
      9.179  0.4877E+01  0.5126E+02
      9.354  0.2839E+01  0.5175E+02
      9.530  0.2859E+01  0.5226E+02
      9.706  0.4010E+01  0.5296E+02
      9.882  0.5891E+01  0.5400E+02
     10.058  0.4838E+01  0.5485E+02
     10.233  0.7150E+01  0.5611E+02
     10.409  0.6487E+01  0.5725E+02
     10.585  0.4616E+01  0.5806E+02
     10.761  0.7032E+01  0.5929E+02
     10.937  0.7908E+01  0.6068E+02
     11.112  0.5710E+01  0.6169E+02
     11.288  0.6378E+01  0.6281E+02
     11.464  0.8469E+01  0.6430E+02
     11.640  0.5300E+01  0.6523E+02
     11.816  0.2306E+01  0.6563E+02
     11.991  0.5380E+01  0.6658E+02
     12.167  0.1615E+01  0.6686E+02
     12.343  0.2433E+01  0.6729E+02
     12.519  0.2028E+01  0.6765E+02
     12.695  0.2757E+01  0.6813E+02
     12.870  0.3907E+01  0.6882E+02
     13.046  0.2025E+01  0.6918E+02
     13.222  0.1998E+01  0.6953E+02
     13.398  0.3083E+01  0.7007E+02
     13.574  0.2798E+01  0.7056E+02
     13.749  0.1069E+01  0.7075E+02
     13.925  0.2740E+01  0.7123E+02
     14.101  0.3066E+01  0.7177E+02
     14.277  0.3344E+01  0.7236E+02
     14.453  0.1927E+01  0.7270E+02
     14.628  0.1821E+01  0.7302E+02
     14.804  0.1726E+01  0.7332E+02
     14.980  0.1369E+01  0.7356E+02
     15.156  0.1400E+01  0.7381E+02
     15.331  0.2801E+01  0.7430E+02
     15.507  0.1995E+01  0.7465E+02
     15.683  0.1720E+01  0.7495E+02
     15.859  0.2110E+01  0.7532E+02
     16.035  0.1310E+01  0.7555E+02
     16.210  0.3858E+00  0.7562E+02
     16.386  0.1879E+01  0.7595E+02
     16.562  0.1482E+01  0.7621E+02
     16.738  0.1315E+01  0.7644E+02
     16.914  0.2590E+01  0.7690E+02
     17.089  0.2093E+01  0.7727E+02
     17.265  0.1178E+01  0.7747E+02
     17.441  0.1951E+01  0.7782E+02
     17.617  0.2139E+01  0.7819E+02
     17.793  0.1876E+01  0.7852E+02
     17.968  0.2842E+01  0.7902E+02
     18.144  0.1863E+01  0.7935E+02
     18.320  0.1257E+01  0.7957E+02
     18.496  0.1094E+01  0.7976E+02
     18.672  0.3092E-01  0.7977E+02
     18.847  0.2461E+00  0.7981E+02
     19.023  0.9312E+00  0.7998E+02
     19.199  0.9716E-01  0.7999E+02
     19.375  0.4394E-01  0.8000E+02
     19.551  0.3539E-04  0.8000E+02
     19.726  0.0000E+00  0.8000E+02
     19.902  0.0000E+00  0.8000E+02
     20.078  0.0000E+00  0.8000E+02
     20.254  0.0000E+00  0.8000E+02
     20.430  0.0000E+00  0.8000E+02
     20.605  0.0000E+00  0.8000E+02
     20.781  0.0000E+00  0.8000E+02
     20.957  0.0000E+00  0.8000E+02
     21.133  0.0000E+00  0.8000E+02
     21.309  0.0000E+00  0.8000E+02
     21.484  0.0000E+00  0.8000E+02
     21.660  0.0000E+00  0.8000E+02
