P8 S8                                   
   1.00000000000000     
     6.7362305300000003    0.0374797600000000    1.1170410700000000
     0.3896398900000000    6.7250560699999999    1.1170410900000001
     0.0250452300000000    0.0237694500000000    8.9612847000000002
   P    S 
     8     8
Direct
     0.1970451800000035    0.7978108499999976    0.4295249400000003
     0.2021891500000024    0.8029548199999965    0.0704750599999997
     0.8029548199999965    0.2021891500000024    0.5704750599999997
     0.7978108499999976    0.1970451800000035    0.9295249400000003
     0.5288293400000015    0.7654097500000034    0.1335302299999981
     0.2345902499999966    0.4711706599999985    0.3664697700000019
     0.4711706599999985    0.2345902499999966    0.8664697700000019
     0.7654097500000034    0.5288293400000015    0.6335302299999981
     0.5303503000000021    0.4696496999999979    0.2500000000000000
     0.4696496999999979    0.5303503000000021    0.7500000000000000
     0.0513500599999972    0.9486499400000028    0.2500000000000000
     0.9486499400000028    0.0513500599999972    0.7500000000000000
     0.4804934599999982    0.8989859799999991    0.3329445299999989
     0.1010140200000009    0.5195065400000018    0.1670554700000011
     0.5195065400000018    0.1010140200000009    0.6670554700000011
     0.8989859799999991    0.4804934599999982    0.8329445299999989
 
  0.00000000E+00  0.00000000E+00  0.00000000E+00
  0.00000000E+00  0.00000000E+00  0.00000000E+00
  0.00000000E+00  0.00000000E+00  0.00000000E+00
  0.00000000E+00  0.00000000E+00  0.00000000E+00
  0.00000000E+00  0.00000000E+00  0.00000000E+00
  0.00000000E+00  0.00000000E+00  0.00000000E+00
  0.00000000E+00  0.00000000E+00  0.00000000E+00
  0.00000000E+00  0.00000000E+00  0.00000000E+00
  0.00000000E+00  0.00000000E+00  0.00000000E+00
  0.00000000E+00  0.00000000E+00  0.00000000E+00
  0.00000000E+00  0.00000000E+00  0.00000000E+00
  0.00000000E+00  0.00000000E+00  0.00000000E+00
  0.00000000E+00  0.00000000E+00  0.00000000E+00
  0.00000000E+00  0.00000000E+00  0.00000000E+00
  0.00000000E+00  0.00000000E+00  0.00000000E+00
  0.00000000E+00  0.00000000E+00  0.00000000E+00
