  16  16   0   0
  0.2534209E+02  0.6828323E-09  0.6828322E-09  0.8961351E-09  0.5000000E-15
  1.000000000000000E-004
  CAR 
 unknown system                          
      9.51605187    -14.40338867  301      2.66412880      1.00000000
    -14.403  0.0000E+00  0.0000E+00
    -14.324  0.0000E+00  0.0000E+00
    -14.244  0.0000E+00  0.0000E+00
    -14.164  0.0000E+00  0.0000E+00
    -14.084  0.0000E+00  0.0000E+00
    -14.005  0.0000E+00  0.0000E+00
    -13.925  0.0000E+00  0.0000E+00
    -13.845  0.0000E+00  0.0000E+00
    -13.766  0.0000E+00  0.0000E+00
    -13.686  0.0000E+00  0.0000E+00
    -13.606  0.5802E-16  0.4626E-17
    -13.526  0.7323E-09  0.5839E-10
    -13.447  0.6571E-04  0.5239E-05
    -13.367  0.7826E-01  0.6245E-02
    -13.287  0.4017E+01  0.3266E+00
    -13.207  0.2525E+02  0.2340E+01
    -13.128  0.1998E+02  0.3933E+01
    -13.048  0.8364E+00  0.4000E+01
    -12.968  0.6918E-03  0.4000E+01
    -12.888  0.6257E-08  0.4000E+01
    -12.809  0.2321E-15  0.4000E+01
    -12.729  0.0000E+00  0.4000E+01
    -12.649  0.0000E+00  0.4000E+01
    -12.570  0.0000E+00  0.4000E+01
    -12.490  0.0000E+00  0.4000E+01
    -12.410  0.0000E+00  0.4000E+01
    -12.330  0.0000E+00  0.4000E+01
    -12.251  0.0000E+00  0.4000E+01
    -12.171  0.0000E+00  0.4000E+01
    -12.091  0.0000E+00  0.4000E+01
    -12.011  0.0000E+00  0.4000E+01
    -11.932  0.2437E-14  0.4000E+01
    -11.852  0.1537E-07  0.4000E+01
    -11.772  0.7582E-03  0.4000E+01
    -11.693  0.4755E+00  0.4038E+01
    -11.613  0.1199E+02  0.4994E+01
    -11.533  0.4434E+02  0.8529E+01
    -11.453  0.4050E+02  0.1176E+02
    -11.374  0.3032E+01  0.1200E+02
    -11.294  0.5713E-02  0.1200E+02
    -11.214  0.1313E-06  0.1200E+02
    -11.134  0.2564E-13  0.1200E+02
    -11.055  0.0000E+00  0.1200E+02
    -10.975  0.0000E+00  0.1200E+02
    -10.895  0.0000E+00  0.1200E+02
    -10.815  0.0000E+00  0.1200E+02
    -10.736  0.0000E+00  0.1200E+02
    -10.656  0.0000E+00  0.1200E+02
    -10.576  0.0000E+00  0.1200E+02
    -10.497  0.0000E+00  0.1200E+02
    -10.417  0.2390E-13  0.1200E+02
    -10.337  0.5439E-07  0.1200E+02
    -10.257  0.1036E-02  0.1200E+02
    -10.178  0.3416E+00  0.1203E+02
    -10.098  0.6744E+01  0.1257E+02
    -10.018  0.2302E+02  0.1440E+02
     -9.938  0.1841E+02  0.1587E+02
     -9.859  0.1646E+01  0.1600E+02
     -9.779  0.4532E-02  0.1600E+02
     -9.699  0.1611E-06  0.1600E+02
     -9.620  0.5315E-13  0.1600E+02
     -9.540  0.0000E+00  0.1600E+02
     -9.460  0.0000E+00  0.1600E+02
     -9.380  0.4867E-11  0.1600E+02
     -9.301  0.2149E-05  0.1600E+02
     -9.221  0.8323E-02  0.1600E+02
     -9.141  0.9057E+00  0.1607E+02
     -9.061  0.8495E+01  0.1675E+02
     -8.982  0.1456E+02  0.1791E+02
     -8.902  0.1429E+02  0.1905E+02
     -8.822  0.1080E+02  0.1991E+02
     -8.742  0.1103E+01  0.2000E+02
     -8.663  0.5170E-02  0.2000E+02
     -8.583  0.5842E-06  0.2000E+02
     -8.503  0.6760E-12  0.2000E+02
     -8.424  0.0000E+00  0.2000E+02
     -8.344  0.0000E+00  0.2000E+02
     -8.264  0.0000E+00  0.2000E+02
     -8.184  0.0000E+00  0.2000E+02
     -8.105  0.0000E+00  0.2000E+02
     -8.025  0.0000E+00  0.2000E+02
     -7.945  0.0000E+00  0.2000E+02
     -7.865  0.0000E+00  0.2000E+02
     -7.786  0.0000E+00  0.2000E+02
     -7.706  0.0000E+00  0.2000E+02
     -7.626  0.0000E+00  0.2000E+02
     -7.546  0.0000E+00  0.2000E+02
     -7.467  0.0000E+00  0.2000E+02
     -7.387  0.0000E+00  0.2000E+02
     -7.307  0.0000E+00  0.2000E+02
     -7.228  0.0000E+00  0.2000E+02
     -7.148  0.0000E+00  0.2000E+02
     -7.068  0.0000E+00  0.2000E+02
     -6.988  0.0000E+00  0.2000E+02
     -6.909  0.0000E+00  0.2000E+02
     -6.829  0.0000E+00  0.2000E+02
     -6.749  0.0000E+00  0.2000E+02
     -6.669  0.0000E+00  0.2000E+02
     -6.590  0.2430E-09  0.2000E+02
     -6.510  0.3268E-04  0.2000E+02
     -6.430  0.5155E-01  0.2000E+02
     -6.351  0.2680E+01  0.2022E+02
     -6.271  0.1512E+02  0.2142E+02
     -6.191  0.1664E+02  0.2275E+02
     -6.111  0.8920E+01  0.2346E+02
     -6.032  0.4822E+01  0.2385E+02
     -5.952  0.1686E+01  0.2398E+02
     -5.872  0.7168E+01  0.2455E+02
     -5.792  0.2441E+02  0.2650E+02
     -5.713  0.2534E+02  0.2852E+02
     -5.633  0.2880E+02  0.3081E+02
     -5.553  0.1371E+02  0.3191E+02
     -5.473  0.1149E+01  0.3200E+02
     -5.394  0.1487E-01  0.3200E+02
     -5.314  0.6838E-05  0.3200E+02
     -5.234  0.2726E-10  0.3200E+02
     -5.155  0.0000E+00  0.3200E+02
     -5.075  0.0000E+00  0.3200E+02
     -4.995  0.0000E+00  0.3200E+02
     -4.915  0.0000E+00  0.3200E+02
     -4.836  0.0000E+00  0.3200E+02
     -4.756  0.0000E+00  0.3200E+02
     -4.676  0.0000E+00  0.3200E+02
     -4.596  0.0000E+00  0.3200E+02
     -4.517  0.0000E+00  0.3200E+02
     -4.437  0.0000E+00  0.3200E+02
     -4.357  0.0000E+00  0.3200E+02
     -4.277  0.0000E+00  0.3200E+02
     -4.198  0.0000E+00  0.3200E+02
     -4.118  0.0000E+00  0.3200E+02
     -4.038  0.0000E+00  0.3200E+02
     -3.959  0.0000E+00  0.3200E+02
     -3.879  0.0000E+00  0.3200E+02
     -3.799  0.0000E+00  0.3200E+02
     -3.719  0.0000E+00  0.3200E+02
     -3.640  0.0000E+00  0.3200E+02
     -3.560  0.2142E-11  0.3200E+02
     -3.480  0.1216E-05  0.3200E+02
     -3.400  0.5301E-02  0.3200E+02
     -3.321  0.3491E+00  0.3203E+02
     -3.241  0.3576E+01  0.3231E+02
     -3.161  0.8408E+01  0.3298E+02
     -3.082  0.1132E+02  0.3389E+02
     -3.002  0.1308E+02  0.3493E+02
     -2.922  0.1083E+02  0.3579E+02
     -2.842  0.2679E+01  0.3601E+02
     -2.763  0.4064E+00  0.3604E+02
     -2.683  0.8357E+00  0.3611E+02
     -2.603  0.1090E+02  0.3697E+02
     -2.523  0.2151E+02  0.3869E+02
     -2.444  0.1652E+02  0.4001E+02
     -2.364  0.8432E+01  0.4068E+02
     -2.284  0.5980E+01  0.4116E+02
     -2.204  0.5875E+01  0.4162E+02
     -2.125  0.1094E+02  0.4250E+02
     -2.045  0.1231E+02  0.4348E+02
     -1.965  0.9119E+01  0.4421E+02
     -1.886  0.1397E+02  0.4532E+02
     -1.806  0.2002E+02  0.4692E+02
     -1.726  0.2123E+02  0.4861E+02
     -1.646  0.2111E+02  0.5029E+02
     -1.567  0.1599E+02  0.5157E+02
     -1.487  0.4869E+01  0.5195E+02
     -1.407  0.5168E+00  0.5200E+02
     -1.327  0.4799E-01  0.5200E+02
     -1.248  0.8816E-04  0.5200E+02
     -1.168  0.1365E-08  0.5200E+02
     -1.088  0.1160E-15  0.5200E+02
     -1.009  0.0000E+00  0.5200E+02
     -0.929  0.0000E+00  0.5200E+02
     -0.849  0.0000E+00  0.5200E+02
     -0.769  0.1404E-13  0.5200E+02
     -0.690  0.4405E-07  0.5200E+02
     -0.610  0.1003E-02  0.5200E+02
     -0.530  0.2066E+00  0.5202E+02
     -0.450  0.8702E+00  0.5209E+02
     -0.371  0.2309E+01  0.5227E+02
     -0.291  0.8695E+01  0.5296E+02
     -0.211  0.2227E+02  0.5474E+02
     -0.131  0.1548E+02  0.5597E+02
     -0.052  0.1373E+02  0.5707E+02
      0.028  0.1920E+02  0.5860E+02
      0.108  0.2323E+02  0.6045E+02
      0.187  0.2305E+02  0.6229E+02
      0.267  0.2645E+02  0.6440E+02
      0.347  0.3116E+02  0.6688E+02
      0.427  0.2902E+02  0.6920E+02
      0.506  0.2676E+02  0.7133E+02
      0.586  0.1163E+02  0.7226E+02
      0.666  0.4727E+01  0.7263E+02
      0.746  0.4321E+01  0.7298E+02
      0.825  0.1055E+02  0.7382E+02
      0.905  0.1157E+02  0.7474E+02
      0.985  0.8587E+01  0.7543E+02
      1.065  0.4439E+01  0.7578E+02
      1.144  0.7506E+01  0.7638E+02
      1.224  0.1292E+02  0.7741E+02
      1.304  0.1426E+02  0.7854E+02
      1.383  0.5212E+01  0.7896E+02
      1.463  0.6979E+01  0.7952E+02
      1.543  0.8808E+01  0.8022E+02
      1.623  0.3143E+01  0.8047E+02
      1.702  0.2175E+01  0.8064E+02
      1.782  0.7769E+01  0.8126E+02
      1.862  0.9185E+01  0.8199E+02
      1.942  0.7473E+01  0.8259E+02
      2.021  0.1233E+02  0.8357E+02
      2.101  0.1276E+02  0.8459E+02
      2.181  0.1754E+02  0.8599E+02
      2.260  0.1385E+02  0.8709E+02
      2.340  0.7712E+01  0.8771E+02
      2.420  0.2676E+01  0.8792E+02
      2.500  0.9134E+00  0.8800E+02
      2.579  0.6077E-01  0.8800E+02
      2.659  0.1200E-03  0.8800E+02
      2.739  0.2198E-08  0.8800E+02
      2.819  0.2901E-15  0.8800E+02
      2.898  0.0000E+00  0.8800E+02
      2.978  0.0000E+00  0.8800E+02
      3.058  0.0000E+00  0.8800E+02
      3.138  0.0000E+00  0.8800E+02
      3.217  0.0000E+00  0.8800E+02
      3.297  0.0000E+00  0.8800E+02
      3.377  0.0000E+00  0.8800E+02
      3.456  0.0000E+00  0.8800E+02
      3.536  0.0000E+00  0.8800E+02
      3.616  0.0000E+00  0.8800E+02
      3.696  0.0000E+00  0.8800E+02
      3.775  0.0000E+00  0.8800E+02
      3.855  0.0000E+00  0.8800E+02
      3.935  0.0000E+00  0.8800E+02
      4.015  0.0000E+00  0.8800E+02
      4.094  0.0000E+00  0.8800E+02
      4.174  0.0000E+00  0.8800E+02
      4.254  0.0000E+00  0.8800E+02
      4.334  0.0000E+00  0.8800E+02
      4.413  0.2063E-10  0.8800E+02
      4.493  0.7258E-05  0.8800E+02
      4.573  0.2235E-01  0.8800E+02
      4.652  0.1531E+01  0.8812E+02
      4.732  0.1205E+02  0.8908E+02
      4.812  0.1729E+02  0.9046E+02
      4.892  0.1054E+02  0.9130E+02
      4.971  0.7359E+01  0.9189E+02
      5.051  0.5132E+01  0.9230E+02
      5.131  0.1226E+02  0.9328E+02
      5.211  0.1132E+02  0.9418E+02
      5.290  0.9615E+01  0.9495E+02
      5.370  0.1252E+02  0.9594E+02
      5.450  0.9778E+01  0.9672E+02
      5.529  0.1584E+02  0.9799E+02
      5.609  0.1211E+02  0.9895E+02
      5.689  0.1460E+02  0.1001E+03
      5.769  0.1424E+02  0.1013E+03
      5.848  0.1082E+02  0.1021E+03
      5.928  0.1174E+02  0.1031E+03
      6.008  0.1347E+02  0.1041E+03
      6.088  0.1428E+02  0.1053E+03
      6.167  0.1865E+02  0.1068E+03
      6.247  0.1549E+02  0.1080E+03
      6.327  0.1273E+02  0.1090E+03
      6.407  0.1645E+02  0.1103E+03
      6.486  0.1905E+02  0.1118E+03
      6.566  0.1405E+02  0.1130E+03
      6.646  0.1467E+02  0.1141E+03
      6.725  0.1257E+02  0.1151E+03
      6.805  0.1231E+02  0.1161E+03
      6.885  0.8838E+01  0.1168E+03
      6.965  0.1106E+02  0.1177E+03
      7.044  0.8481E+01  0.1184E+03
      7.124  0.7005E+01  0.1189E+03
      7.204  0.9560E+01  0.1197E+03
      7.284  0.6387E+01  0.1202E+03
      7.363  0.5682E+01  0.1207E+03
      7.443  0.9272E+01  0.1214E+03
      7.523  0.8297E+01  0.1221E+03
      7.602  0.6457E+01  0.1226E+03
      7.682  0.7252E+01  0.1231E+03
      7.762  0.6649E+01  0.1237E+03
      7.842  0.3933E+01  0.1240E+03
      7.921  0.6338E+01  0.1245E+03
      8.001  0.1175E+02  0.1254E+03
      8.081  0.6707E+01  0.1260E+03
      8.161  0.2215E+01  0.1261E+03
      8.240  0.6644E+01  0.1267E+03
      8.320  0.8921E+01  0.1274E+03
      8.400  0.4817E+01  0.1278E+03
      8.480  0.2701E+01  0.1280E+03
      8.559  0.2073E+00  0.1280E+03
      8.639  0.2623E-03  0.1280E+03
      8.719  0.2786E-08  0.1280E+03
      8.798  0.5802E-16  0.1280E+03
      8.878  0.0000E+00  0.1280E+03
      8.958  0.0000E+00  0.1280E+03
      9.038  0.0000E+00  0.1280E+03
      9.117  0.0000E+00  0.1280E+03
      9.197  0.0000E+00  0.1280E+03
      9.277  0.0000E+00  0.1280E+03
      9.357  0.0000E+00  0.1280E+03
      9.436  0.0000E+00  0.1280E+03
      9.516  0.0000E+00  0.1280E+03
