       N       E                     dE             d eps       ncg     rms          rms(c)
DAV:   1     0.494235397607E+03    0.49424E+03   -0.38888E+04  6144   0.130E+03
DAV:   2    -0.311949169991E+02   -0.52543E+03   -0.50385E+03  7744   0.216E+02
DAV:   3    -0.781998545797E+02   -0.47005E+02   -0.46306E+02  7392   0.674E+01
DAV:   4    -0.794551175484E+02   -0.12553E+01   -0.12459E+01  8080   0.123E+01
DAV:   5    -0.794857275010E+02   -0.30610E-01   -0.30573E-01  7712   0.194E+00    0.321E+01
DAV:   6    -0.785539785860E+02    0.93175E+00   -0.13206E+00  7144   0.361E+00    0.187E+01
DAV:   7    -0.784368332232E+02    0.11715E+00   -0.13060E+00  7088   0.322E+00    0.231E+00
DAV:   8    -0.784113007708E+02    0.25532E-01   -0.20186E-01  6952   0.152E+00    0.998E-01
DAV:   9    -0.784130402459E+02   -0.17395E-02   -0.22881E-02  7136   0.510E-01    0.433E-01
DAV:  10    -0.784132606067E+02   -0.22036E-03   -0.20562E-03  7872   0.141E-01    0.223E-01
DAV:  11    -0.784134138896E+02   -0.15328E-03   -0.25600E-04  7128   0.602E-02    0.458E-02
DAV:  12    -0.784134275018E+02   -0.13612E-04   -0.40100E-05  7768   0.204E-02    0.246E-02
DAV:  13    -0.784134425480E+02   -0.15046E-04   -0.15090E-05  6912   0.133E-02    0.116E-02
DAV:  14    -0.784134468700E+02   -0.43220E-05   -0.44356E-06  6808   0.754E-03    0.475E-03
DAV:  15    -0.784134472656E+02   -0.39565E-06   -0.33489E-07  4224   0.243E-03
   1 F= -.78413447E+02 E0= -.78413447E+02  d E =-.161421E-10
