unknown system                          
           1
     6.736231    0.037480    1.117041
     0.389640    6.725056    1.117041
     0.025045    0.023769    8.961285
   P    S 
     8     8
Direct configuration=     1
   0.19704518  0.79781085  0.42952494
   0.20218915  0.80295482  0.07047506
   0.80295482  0.20218915  0.57047506
   0.79781085  0.19704518  0.92952494
   0.52882934  0.76540975  0.13353023
   0.23459025  0.47117066  0.36646977
   0.47117066  0.23459025  0.86646977
   0.76540975  0.52882934  0.63353023
   0.53035030  0.46964970  0.25000000
   0.46964970  0.53035030  0.75000000
   0.05135006  0.94864994  0.25000000
   0.94864994  0.05135006  0.75000000
   0.48049346  0.89898598  0.33294453
   0.10101402  0.51950654  0.16705547
   0.51950654  0.10101402  0.66705547
   0.89898598  0.48049346  0.83294453
