Ca4 O4                                  
   1.00000000000000     
     2.3550650000000002   -2.3592240000000002    0.0000000000000000
     2.3550650000000002    2.3592240000000002    0.0000000000000000
     0.0000000000000000    0.0000000000000000   16.7489880000000007
   Ca   O 
     4     4
Direct
     0.0672080000000008    0.9327919999999992    0.1784880000000015
     0.9327919999999992    0.0672080000000008    0.8215119999999985
     0.4327919999999992    0.5672080000000008    0.6784880000000015
     0.5672080000000008    0.4327919999999992    0.3215119999999985
     0.0670080000000013    0.9329919999999987    0.3196360000000027
     0.9329919999999987    0.0670080000000013    0.6803639999999973
     0.4329919999999987    0.5670080000000013    0.8196360000000027
     0.5670080000000013    0.4329919999999987    0.1803639999999973
 
  0.00000000E+00  0.00000000E+00  0.00000000E+00
  0.00000000E+00  0.00000000E+00  0.00000000E+00
  0.00000000E+00  0.00000000E+00  0.00000000E+00
  0.00000000E+00  0.00000000E+00  0.00000000E+00
  0.00000000E+00  0.00000000E+00  0.00000000E+00
  0.00000000E+00  0.00000000E+00  0.00000000E+00
  0.00000000E+00  0.00000000E+00  0.00000000E+00
  0.00000000E+00  0.00000000E+00  0.00000000E+00
