   8   8   0   0
  0.2326487E+02  0.3333507E-09  0.3333507E-09  0.1674899E-08  0.5000000E-15
  1.000000000000000E-004
  CAR 
 unknown system                          
      8.18181960    -40.21038324  301      0.29792322      1.00000000
    -40.210  0.0000E+00  0.0000E+00
    -40.049  0.0000E+00  0.0000E+00
    -39.888  0.0000E+00  0.0000E+00
    -39.726  0.0000E+00  0.0000E+00
    -39.565  0.0000E+00  0.0000E+00
    -39.404  0.0000E+00  0.0000E+00
    -39.243  0.0000E+00  0.0000E+00
    -39.081  0.0000E+00  0.0000E+00
    -38.920  0.0000E+00  0.0000E+00
    -38.759  0.0000E+00  0.0000E+00
    -38.597  0.0000E+00  0.0000E+00
    -38.436  0.0000E+00  0.0000E+00
    -38.275  0.2599E-13  0.4193E-14
    -38.113  0.2627E-02  0.4237E-03
    -37.952  0.1516E+02  0.2445E+01
    -37.791  0.3442E+02  0.7998E+01
    -37.629  0.1346E-01  0.8000E+01
    -37.468  0.0000E+00  0.8000E+01
    -37.307  0.0000E+00  0.8000E+01
    -37.146  0.0000E+00  0.8000E+01
    -36.984  0.0000E+00  0.8000E+01
    -36.823  0.0000E+00  0.8000E+01
    -36.662  0.0000E+00  0.8000E+01
    -36.500  0.0000E+00  0.8000E+01
    -36.339  0.0000E+00  0.8000E+01
    -36.178  0.0000E+00  0.8000E+01
    -36.016  0.0000E+00  0.8000E+01
    -35.855  0.0000E+00  0.8000E+01
    -35.694  0.0000E+00  0.8000E+01
    -35.532  0.0000E+00  0.8000E+01
    -35.371  0.0000E+00  0.8000E+01
    -35.210  0.0000E+00  0.8000E+01
    -35.049  0.0000E+00  0.8000E+01
    -34.887  0.0000E+00  0.8000E+01
    -34.726  0.0000E+00  0.8000E+01
    -34.565  0.0000E+00  0.8000E+01
    -34.403  0.0000E+00  0.8000E+01
    -34.242  0.0000E+00  0.8000E+01
    -34.081  0.0000E+00  0.8000E+01
    -33.919  0.0000E+00  0.8000E+01
    -33.758  0.0000E+00  0.8000E+01
    -33.597  0.0000E+00  0.8000E+01
    -33.435  0.0000E+00  0.8000E+01
    -33.274  0.0000E+00  0.8000E+01
    -33.113  0.0000E+00  0.8000E+01
    -32.952  0.0000E+00  0.8000E+01
    -32.790  0.0000E+00  0.8000E+01
    -32.629  0.0000E+00  0.8000E+01
    -32.468  0.0000E+00  0.8000E+01
    -32.306  0.0000E+00  0.8000E+01
    -32.145  0.0000E+00  0.8000E+01
    -31.984  0.0000E+00  0.8000E+01
    -31.822  0.0000E+00  0.8000E+01
    -31.661  0.0000E+00  0.8000E+01
    -31.500  0.0000E+00  0.8000E+01
    -31.338  0.0000E+00  0.8000E+01
    -31.177  0.0000E+00  0.8000E+01
    -31.016  0.0000E+00  0.8000E+01
    -30.855  0.0000E+00  0.8000E+01
    -30.693  0.0000E+00  0.8000E+01
    -30.532  0.0000E+00  0.8000E+01
    -30.371  0.0000E+00  0.8000E+01
    -30.209  0.0000E+00  0.8000E+01
    -30.048  0.0000E+00  0.8000E+01
    -29.887  0.0000E+00  0.8000E+01
    -29.725  0.0000E+00  0.8000E+01
    -29.564  0.0000E+00  0.8000E+01
    -29.403  0.0000E+00  0.8000E+01
    -29.241  0.0000E+00  0.8000E+01
    -29.080  0.0000E+00  0.8000E+01
    -28.919  0.0000E+00  0.8000E+01
    -28.758  0.0000E+00  0.8000E+01
    -28.596  0.0000E+00  0.8000E+01
    -28.435  0.0000E+00  0.8000E+01
    -28.274  0.0000E+00  0.8000E+01
    -28.112  0.0000E+00  0.8000E+01
    -27.951  0.0000E+00  0.8000E+01
    -27.790  0.0000E+00  0.8000E+01
    -27.628  0.0000E+00  0.8000E+01
    -27.467  0.0000E+00  0.8000E+01
    -27.306  0.0000E+00  0.8000E+01
    -27.144  0.0000E+00  0.8000E+01
    -26.983  0.0000E+00  0.8000E+01
    -26.822  0.0000E+00  0.8000E+01
    -26.661  0.0000E+00  0.8000E+01
    -26.499  0.0000E+00  0.8000E+01
    -26.338  0.0000E+00  0.8000E+01
    -26.177  0.0000E+00  0.8000E+01
    -26.015  0.0000E+00  0.8000E+01
    -25.854  0.0000E+00  0.8000E+01
    -25.693  0.0000E+00  0.8000E+01
    -25.531  0.0000E+00  0.8000E+01
    -25.370  0.0000E+00  0.8000E+01
    -25.209  0.0000E+00  0.8000E+01
    -25.047  0.0000E+00  0.8000E+01
    -24.886  0.0000E+00  0.8000E+01
    -24.725  0.0000E+00  0.8000E+01
    -24.564  0.0000E+00  0.8000E+01
    -24.402  0.0000E+00  0.8000E+01
    -24.241  0.0000E+00  0.8000E+01
    -24.080  0.0000E+00  0.8000E+01
    -23.918  0.0000E+00  0.8000E+01
    -23.757  0.0000E+00  0.8000E+01
    -23.596  0.0000E+00  0.8000E+01
    -23.434  0.0000E+00  0.8000E+01
    -23.273  0.0000E+00  0.8000E+01
    -23.112  0.0000E+00  0.8000E+01
    -22.950  0.0000E+00  0.8000E+01
    -22.789  0.0000E+00  0.8000E+01
    -22.628  0.0000E+00  0.8000E+01
    -22.467  0.0000E+00  0.8000E+01
    -22.305  0.0000E+00  0.8000E+01
    -22.144  0.0000E+00  0.8000E+01
    -21.983  0.0000E+00  0.8000E+01
    -21.821  0.0000E+00  0.8000E+01
    -21.660  0.0000E+00  0.8000E+01
    -21.499  0.0000E+00  0.8000E+01
    -21.337  0.0000E+00  0.8000E+01
    -21.176  0.0000E+00  0.8000E+01
    -21.015  0.0000E+00  0.8000E+01
    -20.854  0.0000E+00  0.8000E+01
    -20.692  0.0000E+00  0.8000E+01
    -20.531  0.0000E+00  0.8000E+01
    -20.370  0.0000E+00  0.8000E+01
    -20.208  0.0000E+00  0.8000E+01
    -20.047  0.0000E+00  0.8000E+01
    -19.886  0.6903E-05  0.8000E+01
    -19.724  0.1123E+01  0.8181E+01
    -19.563  0.1259E+02  0.1021E+02
    -19.402  0.2172E+02  0.1372E+02
    -19.240  0.1118E+02  0.1552E+02
    -19.079  0.1947E+02  0.1866E+02
    -18.918  0.4625E+02  0.2612E+02
    -18.757  0.3118E+02  0.3115E+02
    -18.595  0.5268E+01  0.3200E+02
    -18.434  0.7257E-04  0.3200E+02
    -18.273  0.0000E+00  0.3200E+02
    -18.111  0.0000E+00  0.3200E+02
    -17.950  0.0000E+00  0.3200E+02
    -17.789  0.0000E+00  0.3200E+02
    -17.627  0.0000E+00  0.3200E+02
    -17.466  0.0000E+00  0.3200E+02
    -17.305  0.0000E+00  0.3200E+02
    -17.143  0.0000E+00  0.3200E+02
    -16.982  0.0000E+00  0.3200E+02
    -16.821  0.0000E+00  0.3200E+02
    -16.660  0.0000E+00  0.3200E+02
    -16.498  0.0000E+00  0.3200E+02
    -16.337  0.0000E+00  0.3200E+02
    -16.176  0.0000E+00  0.3200E+02
    -16.014  0.0000E+00  0.3200E+02
    -15.853  0.0000E+00  0.3200E+02
    -15.692  0.0000E+00  0.3200E+02
    -15.530  0.1862E-07  0.3200E+02
    -15.369  0.8534E-01  0.3201E+02
    -15.208  0.1199E+01  0.3221E+02
    -15.046  0.6589E+01  0.3327E+02
    -14.885  0.6982E+01  0.3440E+02
    -14.724  0.2012E+02  0.3764E+02
    -14.563  0.8009E+01  0.3893E+02
    -14.401  0.6309E+01  0.3995E+02
    -14.240  0.2980E+00  0.4000E+02
    -14.079  0.4297E-07  0.4000E+02
    -13.917  0.0000E+00  0.4000E+02
    -13.756  0.0000E+00  0.4000E+02
    -13.595  0.0000E+00  0.4000E+02
    -13.433  0.0000E+00  0.4000E+02
    -13.272  0.0000E+00  0.4000E+02
    -13.111  0.0000E+00  0.4000E+02
    -12.949  0.0000E+00  0.4000E+02
    -12.788  0.0000E+00  0.4000E+02
    -12.627  0.0000E+00  0.4000E+02
    -12.466  0.0000E+00  0.4000E+02
    -12.304  0.0000E+00  0.4000E+02
    -12.143  0.0000E+00  0.4000E+02
    -11.982  0.0000E+00  0.4000E+02
    -11.820  0.0000E+00  0.4000E+02
    -11.659  0.0000E+00  0.4000E+02
    -11.498  0.0000E+00  0.4000E+02
    -11.336  0.0000E+00  0.4000E+02
    -11.175  0.0000E+00  0.4000E+02
    -11.014  0.0000E+00  0.4000E+02
    -10.852  0.0000E+00  0.4000E+02
    -10.691  0.0000E+00  0.4000E+02
    -10.530  0.0000E+00  0.4000E+02
    -10.369  0.0000E+00  0.4000E+02
    -10.207  0.0000E+00  0.4000E+02
    -10.046  0.0000E+00  0.4000E+02
     -9.885  0.0000E+00  0.4000E+02
     -9.723  0.0000E+00  0.4000E+02
     -9.562  0.0000E+00  0.4000E+02
     -9.401  0.0000E+00  0.4000E+02
     -9.239  0.0000E+00  0.4000E+02
     -9.078  0.0000E+00  0.4000E+02
     -8.917  0.0000E+00  0.4000E+02
     -8.755  0.0000E+00  0.4000E+02
     -8.594  0.0000E+00  0.4000E+02
     -8.433  0.0000E+00  0.4000E+02
     -8.272  0.0000E+00  0.4000E+02
     -8.110  0.0000E+00  0.4000E+02
     -7.949  0.0000E+00  0.4000E+02
     -7.788  0.0000E+00  0.4000E+02
     -7.626  0.0000E+00  0.4000E+02
     -7.465  0.0000E+00  0.4000E+02
     -7.304  0.0000E+00  0.4000E+02
     -7.142  0.0000E+00  0.4000E+02
     -6.981  0.0000E+00  0.4000E+02
     -6.820  0.0000E+00  0.4000E+02
     -6.658  0.0000E+00  0.4000E+02
     -6.497  0.0000E+00  0.4000E+02
     -6.336  0.0000E+00  0.4000E+02
     -6.175  0.0000E+00  0.4000E+02
     -6.013  0.0000E+00  0.4000E+02
     -5.852  0.0000E+00  0.4000E+02
     -5.691  0.0000E+00  0.4000E+02
     -5.529  0.0000E+00  0.4000E+02
     -5.368  0.0000E+00  0.4000E+02
     -5.207  0.0000E+00  0.4000E+02
     -5.045  0.0000E+00  0.4000E+02
     -4.884  0.0000E+00  0.4000E+02
     -4.723  0.0000E+00  0.4000E+02
     -4.561  0.0000E+00  0.4000E+02
     -4.400  0.0000E+00  0.4000E+02
     -4.239  0.0000E+00  0.4000E+02
     -4.078  0.0000E+00  0.4000E+02
     -3.916  0.0000E+00  0.4000E+02
     -3.755  0.0000E+00  0.4000E+02
     -3.594  0.0000E+00  0.4000E+02
     -3.432  0.0000E+00  0.4000E+02
     -3.271  0.0000E+00  0.4000E+02
     -3.110  0.0000E+00  0.4000E+02
     -2.948  0.0000E+00  0.4000E+02
     -2.787  0.0000E+00  0.4000E+02
     -2.626  0.3011E-15  0.4000E+02
     -2.464  0.2560E-03  0.4000E+02
     -2.303  0.1286E+01  0.4021E+02
     -2.142  0.3160E+01  0.4072E+02
     -1.981  0.8046E+01  0.4202E+02
     -1.819  0.4724E+01  0.4278E+02
     -1.658  0.6415E+01  0.4381E+02
     -1.497  0.1353E+02  0.4599E+02
     -1.335  0.4302E+01  0.4669E+02
     -1.174  0.9355E+01  0.4820E+02
     -1.013  0.2948E+02  0.5295E+02
     -0.851  0.1945E+02  0.5609E+02
     -0.690  0.2293E+02  0.5979E+02
     -0.529  0.1438E+02  0.6211E+02
     -0.367  0.7045E+01  0.6324E+02
     -0.206  0.3226E+01  0.6376E+02
     -0.045  0.1105E+01  0.6394E+02
      0.116  0.3534E+00  0.6400E+02
      0.278  0.1217E-05  0.6400E+02
      0.439  0.0000E+00  0.6400E+02
      0.600  0.0000E+00  0.6400E+02
      0.762  0.0000E+00  0.6400E+02
      0.923  0.0000E+00  0.6400E+02
      1.084  0.0000E+00  0.6400E+02
      1.246  0.0000E+00  0.6400E+02
      1.407  0.0000E+00  0.6400E+02
      1.568  0.0000E+00  0.6400E+02
      1.730  0.0000E+00  0.6400E+02
      1.891  0.1601E-05  0.6400E+02
      2.052  0.1164E+00  0.6402E+02
      2.213  0.1136E+00  0.6404E+02
      2.375  0.7391E+00  0.6416E+02
      2.536  0.7445E+00  0.6428E+02
      2.697  0.3003E-01  0.6428E+02
      2.859  0.4636E+00  0.6436E+02
      3.020  0.1582E+01  0.6461E+02
      3.181  0.1992E+01  0.6493E+02
      3.343  0.3993E-01  0.6494E+02
      3.504  0.7962E+00  0.6507E+02
      3.665  0.2269E+01  0.6543E+02
      3.827  0.7643E+00  0.6556E+02
      3.988  0.1855E+01  0.6586E+02
      4.149  0.1065E+01  0.6603E+02
      4.310  0.1739E+01  0.6631E+02
      4.472  0.5039E+01  0.6712E+02
      4.633  0.2666E+01  0.6755E+02
      4.794  0.5276E+01  0.6840E+02
      4.956  0.5873E+01  0.6935E+02
      5.117  0.1997E+01  0.6967E+02
      5.278  0.3035E+01  0.7016E+02
      5.440  0.2480E+01  0.7056E+02
      5.601  0.2630E+01  0.7099E+02
      5.762  0.4495E+01  0.7171E+02
      5.924  0.1017E+01  0.7188E+02
      6.085  0.7734E+00  0.7200E+02
      6.246  0.1294E-02  0.7200E+02
      6.407  0.0000E+00  0.7200E+02
      6.569  0.0000E+00  0.7200E+02
      6.730  0.0000E+00  0.7200E+02
      6.891  0.0000E+00  0.7200E+02
      7.053  0.0000E+00  0.7200E+02
      7.214  0.0000E+00  0.7200E+02
      7.375  0.0000E+00  0.7200E+02
      7.537  0.0000E+00  0.7200E+02
      7.698  0.0000E+00  0.7200E+02
      7.859  0.0000E+00  0.7200E+02
      8.021  0.0000E+00  0.7200E+02
      8.182  0.0000E+00  0.7200E+02
