unknown system                          
           1
     2.355065   -2.359224    0.000000
     2.355065    2.359224    0.000000
     0.000000    0.000000   16.748988
   Ca   O 
     4     4
Direct configuration=     1
   0.06720800  0.93279200  0.17848800
   0.93279200  0.06720800  0.82151200
   0.43279200  0.56720800  0.67848800
   0.56720800  0.43279200  0.32151200
   0.06700800  0.93299200  0.31963600
   0.93299200  0.06700800  0.68036400
   0.43299200  0.56700800  0.81963600
   0.56700800  0.43299200  0.18036400
