Mg15 B1                                 
   1.00000000000000     
     3.1447090000000002   -5.4467960000000000    0.0000000000000000
     3.1447090000000002    5.4467960000000000    0.0000000000000000
     0.0000000000000000    0.0000000000000000   10.0522080000000003
   Mg   B 
    15     1
Direct
     0.0000000000000000    0.0000000000000000    0.5000000000000000
     0.9945939999999993    0.4972970000000032    0.0000000000000000
     0.0027410000000003    0.5013709999999989    0.5000000000000000
     0.5027029999999968    0.4972970000000032    0.0000000000000000
     0.4986290000000011    0.5013709999999989    0.5000000000000000
     0.5027029999999968    0.0054060000000007    0.0000000000000000
     0.4986290000000011    0.9972589999999997    0.5000000000000000
     0.1618210000000033    0.3236419999999995    0.7622969999999967
     0.1618210000000033    0.3236419999999995    0.2377030000000033
     0.1618210000000033    0.8381789999999967    0.7622969999999967
     0.1618210000000033    0.8381789999999967    0.2377030000000033
     0.6763580000000005    0.8381789999999967    0.7622969999999967
     0.6763580000000005    0.8381789999999967    0.2377030000000033
     0.6666669999999968    0.3333330000000032    0.7489759999999990
     0.6666669999999968    0.3333330000000032    0.2510240000000010
     0.0000000000000000    0.0000000000000000    0.0000000000000000
 
  0.00000000E+00  0.00000000E+00  0.00000000E+00
  0.00000000E+00  0.00000000E+00  0.00000000E+00
  0.00000000E+00  0.00000000E+00  0.00000000E+00
  0.00000000E+00  0.00000000E+00  0.00000000E+00
  0.00000000E+00  0.00000000E+00  0.00000000E+00
  0.00000000E+00  0.00000000E+00  0.00000000E+00
  0.00000000E+00  0.00000000E+00  0.00000000E+00
  0.00000000E+00  0.00000000E+00  0.00000000E+00
  0.00000000E+00  0.00000000E+00  0.00000000E+00
  0.00000000E+00  0.00000000E+00  0.00000000E+00
  0.00000000E+00  0.00000000E+00  0.00000000E+00
  0.00000000E+00  0.00000000E+00  0.00000000E+00
  0.00000000E+00  0.00000000E+00  0.00000000E+00
  0.00000000E+00  0.00000000E+00  0.00000000E+00
  0.00000000E+00  0.00000000E+00  0.00000000E+00
  0.00000000E+00  0.00000000E+00  0.00000000E+00
