  16  16   0   0
  0.2152252E+02  0.6289418E-09  0.6289418E-09  0.1005221E-08  0.5000000E-15
  1.000000000000000E-004
  CAR 
 unknown system                          
      6.07862242    -42.56782227  301      2.64834379      1.00000000
    -42.568  0.0000E+00  0.0000E+00
    -42.406  0.0000E+00  0.0000E+00
    -42.244  0.0000E+00  0.0000E+00
    -42.081  0.0000E+00  0.0000E+00
    -41.919  0.0000E+00  0.0000E+00
    -41.757  0.0000E+00  0.0000E+00
    -41.595  0.0000E+00  0.0000E+00
    -41.433  0.0000E+00  0.0000E+00
    -41.271  0.0000E+00  0.0000E+00
    -41.108  0.0000E+00  0.0000E+00
    -40.946  0.0000E+00  0.0000E+00
    -40.784  0.0000E+00  0.0000E+00
    -40.622  0.2635E-12  0.4273E-13
    -40.460  0.5114E-01  0.8292E-02
    -40.298  0.1311E+03  0.2127E+02
    -40.136  0.3146E+03  0.7229E+02
    -39.973  0.1091E+03  0.8998E+02
    -39.811  0.1514E+00  0.9000E+02
    -39.649  0.0000E+00  0.9000E+02
    -39.487  0.0000E+00  0.9000E+02
    -39.325  0.0000E+00  0.9000E+02
    -39.163  0.0000E+00  0.9000E+02
    -39.000  0.0000E+00  0.9000E+02
    -38.838  0.0000E+00  0.9000E+02
    -38.676  0.0000E+00  0.9000E+02
    -38.514  0.0000E+00  0.9000E+02
    -38.352  0.0000E+00  0.9000E+02
    -38.190  0.0000E+00  0.9000E+02
    -38.027  0.0000E+00  0.9000E+02
    -37.865  0.0000E+00  0.9000E+02
    -37.703  0.0000E+00  0.9000E+02
    -37.541  0.0000E+00  0.9000E+02
    -37.379  0.0000E+00  0.9000E+02
    -37.217  0.0000E+00  0.9000E+02
    -37.055  0.0000E+00  0.9000E+02
    -36.892  0.0000E+00  0.9000E+02
    -36.730  0.0000E+00  0.9000E+02
    -36.568  0.0000E+00  0.9000E+02
    -36.406  0.0000E+00  0.9000E+02
    -36.244  0.0000E+00  0.9000E+02
    -36.082  0.0000E+00  0.9000E+02
    -35.919  0.0000E+00  0.9000E+02
    -35.757  0.0000E+00  0.9000E+02
    -35.595  0.0000E+00  0.9000E+02
    -35.433  0.0000E+00  0.9000E+02
    -35.271  0.0000E+00  0.9000E+02
    -35.109  0.0000E+00  0.9000E+02
    -34.947  0.0000E+00  0.9000E+02
    -34.784  0.0000E+00  0.9000E+02
    -34.622  0.0000E+00  0.9000E+02
    -34.460  0.0000E+00  0.9000E+02
    -34.298  0.0000E+00  0.9000E+02
    -34.136  0.0000E+00  0.9000E+02
    -33.974  0.0000E+00  0.9000E+02
    -33.811  0.0000E+00  0.9000E+02
    -33.649  0.0000E+00  0.9000E+02
    -33.487  0.0000E+00  0.9000E+02
    -33.325  0.0000E+00  0.9000E+02
    -33.163  0.0000E+00  0.9000E+02
    -33.001  0.0000E+00  0.9000E+02
    -32.839  0.0000E+00  0.9000E+02
    -32.676  0.0000E+00  0.9000E+02
    -32.514  0.0000E+00  0.9000E+02
    -32.352  0.0000E+00  0.9000E+02
    -32.190  0.0000E+00  0.9000E+02
    -32.028  0.0000E+00  0.9000E+02
    -31.866  0.0000E+00  0.9000E+02
    -31.703  0.0000E+00  0.9000E+02
    -31.541  0.0000E+00  0.9000E+02
    -31.379  0.0000E+00  0.9000E+02
    -31.217  0.0000E+00  0.9000E+02
    -31.055  0.0000E+00  0.9000E+02
    -30.893  0.0000E+00  0.9000E+02
    -30.731  0.0000E+00  0.9000E+02
    -30.568  0.0000E+00  0.9000E+02
    -30.406  0.0000E+00  0.9000E+02
    -30.244  0.0000E+00  0.9000E+02
    -30.082  0.0000E+00  0.9000E+02
    -29.920  0.0000E+00  0.9000E+02
    -29.758  0.0000E+00  0.9000E+02
    -29.595  0.0000E+00  0.9000E+02
    -29.433  0.0000E+00  0.9000E+02
    -29.271  0.0000E+00  0.9000E+02
    -29.109  0.0000E+00  0.9000E+02
    -28.947  0.0000E+00  0.9000E+02
    -28.785  0.0000E+00  0.9000E+02
    -28.623  0.0000E+00  0.9000E+02
    -28.460  0.0000E+00  0.9000E+02
    -28.298  0.0000E+00  0.9000E+02
    -28.136  0.0000E+00  0.9000E+02
    -27.974  0.0000E+00  0.9000E+02
    -27.812  0.0000E+00  0.9000E+02
    -27.650  0.0000E+00  0.9000E+02
    -27.487  0.0000E+00  0.9000E+02
    -27.325  0.0000E+00  0.9000E+02
    -27.163  0.0000E+00  0.9000E+02
    -27.001  0.0000E+00  0.9000E+02
    -26.839  0.0000E+00  0.9000E+02
    -26.677  0.0000E+00  0.9000E+02
    -26.514  0.0000E+00  0.9000E+02
    -26.352  0.0000E+00  0.9000E+02
    -26.190  0.0000E+00  0.9000E+02
    -26.028  0.0000E+00  0.9000E+02
    -25.866  0.0000E+00  0.9000E+02
    -25.704  0.0000E+00  0.9000E+02
    -25.542  0.0000E+00  0.9000E+02
    -25.379  0.0000E+00  0.9000E+02
    -25.217  0.0000E+00  0.9000E+02
    -25.055  0.0000E+00  0.9000E+02
    -24.893  0.0000E+00  0.9000E+02
    -24.731  0.0000E+00  0.9000E+02
    -24.569  0.0000E+00  0.9000E+02
    -24.406  0.0000E+00  0.9000E+02
    -24.244  0.0000E+00  0.9000E+02
    -24.082  0.0000E+00  0.9000E+02
    -23.920  0.0000E+00  0.9000E+02
    -23.758  0.0000E+00  0.9000E+02
    -23.596  0.0000E+00  0.9000E+02
    -23.434  0.0000E+00  0.9000E+02
    -23.271  0.0000E+00  0.9000E+02
    -23.109  0.0000E+00  0.9000E+02
    -22.947  0.0000E+00  0.9000E+02
    -22.785  0.0000E+00  0.9000E+02
    -22.623  0.0000E+00  0.9000E+02
    -22.461  0.0000E+00  0.9000E+02
    -22.298  0.0000E+00  0.9000E+02
    -22.136  0.0000E+00  0.9000E+02
    -21.974  0.0000E+00  0.9000E+02
    -21.812  0.0000E+00  0.9000E+02
    -21.650  0.0000E+00  0.9000E+02
    -21.488  0.0000E+00  0.9000E+02
    -21.326  0.0000E+00  0.9000E+02
    -21.163  0.0000E+00  0.9000E+02
    -21.001  0.0000E+00  0.9000E+02
    -20.839  0.0000E+00  0.9000E+02
    -20.677  0.0000E+00  0.9000E+02
    -20.515  0.0000E+00  0.9000E+02
    -20.353  0.0000E+00  0.9000E+02
    -20.190  0.0000E+00  0.9000E+02
    -20.028  0.0000E+00  0.9000E+02
    -19.866  0.0000E+00  0.9000E+02
    -19.704  0.0000E+00  0.9000E+02
    -19.542  0.0000E+00  0.9000E+02
    -19.380  0.0000E+00  0.9000E+02
    -19.218  0.0000E+00  0.9000E+02
    -19.055  0.0000E+00  0.9000E+02
    -18.893  0.0000E+00  0.9000E+02
    -18.731  0.0000E+00  0.9000E+02
    -18.569  0.0000E+00  0.9000E+02
    -18.407  0.0000E+00  0.9000E+02
    -18.245  0.0000E+00  0.9000E+02
    -18.082  0.0000E+00  0.9000E+02
    -17.920  0.0000E+00  0.9000E+02
    -17.758  0.0000E+00  0.9000E+02
    -17.596  0.0000E+00  0.9000E+02
    -17.434  0.0000E+00  0.9000E+02
    -17.272  0.0000E+00  0.9000E+02
    -17.110  0.0000E+00  0.9000E+02
    -16.947  0.0000E+00  0.9000E+02
    -16.785  0.0000E+00  0.9000E+02
    -16.623  0.0000E+00  0.9000E+02
    -16.461  0.0000E+00  0.9000E+02
    -16.299  0.0000E+00  0.9000E+02
    -16.137  0.0000E+00  0.9000E+02
    -15.974  0.0000E+00  0.9000E+02
    -15.812  0.0000E+00  0.9000E+02
    -15.650  0.0000E+00  0.9000E+02
    -15.488  0.0000E+00  0.9000E+02
    -15.326  0.0000E+00  0.9000E+02
    -15.164  0.0000E+00  0.9000E+02
    -15.002  0.0000E+00  0.9000E+02
    -14.839  0.0000E+00  0.9000E+02
    -14.677  0.0000E+00  0.9000E+02
    -14.515  0.0000E+00  0.9000E+02
    -14.353  0.0000E+00  0.9000E+02
    -14.191  0.0000E+00  0.9000E+02
    -14.029  0.0000E+00  0.9000E+02
    -13.866  0.0000E+00  0.9000E+02
    -13.704  0.0000E+00  0.9000E+02
    -13.542  0.0000E+00  0.9000E+02
    -13.380  0.0000E+00  0.9000E+02
    -13.218  0.0000E+00  0.9000E+02
    -13.056  0.0000E+00  0.9000E+02
    -12.893  0.0000E+00  0.9000E+02
    -12.731  0.0000E+00  0.9000E+02
    -12.569  0.0000E+00  0.9000E+02
    -12.407  0.0000E+00  0.9000E+02
    -12.245  0.0000E+00  0.9000E+02
    -12.083  0.0000E+00  0.9000E+02
    -11.921  0.0000E+00  0.9000E+02
    -11.758  0.0000E+00  0.9000E+02
    -11.596  0.0000E+00  0.9000E+02
    -11.434  0.0000E+00  0.9000E+02
    -11.272  0.0000E+00  0.9000E+02
    -11.110  0.0000E+00  0.9000E+02
    -10.948  0.0000E+00  0.9000E+02
    -10.785  0.0000E+00  0.9000E+02
    -10.623  0.0000E+00  0.9000E+02
    -10.461  0.0000E+00  0.9000E+02
    -10.299  0.0000E+00  0.9000E+02
    -10.137  0.0000E+00  0.9000E+02
     -9.975  0.0000E+00  0.9000E+02
     -9.813  0.0000E+00  0.9000E+02
     -9.650  0.0000E+00  0.9000E+02
     -9.488  0.0000E+00  0.9000E+02
     -9.326  0.0000E+00  0.9000E+02
     -9.164  0.0000E+00  0.9000E+02
     -9.002  0.0000E+00  0.9000E+02
     -8.840  0.0000E+00  0.9000E+02
     -8.677  0.0000E+00  0.9000E+02
     -8.515  0.0000E+00  0.9000E+02
     -8.353  0.0000E+00  0.9000E+02
     -8.191  0.0000E+00  0.9000E+02
     -8.029  0.0000E+00  0.9000E+02
     -7.867  0.0000E+00  0.9000E+02
     -7.705  0.0000E+00  0.9000E+02
     -7.542  0.0000E+00  0.9000E+02
     -7.380  0.0000E+00  0.9000E+02
     -7.218  0.0000E+00  0.9000E+02
     -7.056  0.0000E+00  0.9000E+02
     -6.894  0.0000E+00  0.9000E+02
     -6.732  0.0000E+00  0.9000E+02
     -6.569  0.0000E+00  0.9000E+02
     -6.407  0.0000E+00  0.9000E+02
     -6.245  0.0000E+00  0.9000E+02
     -6.083  0.0000E+00  0.9000E+02
     -5.921  0.0000E+00  0.9000E+02
     -5.759  0.0000E+00  0.9000E+02
     -5.597  0.0000E+00  0.9000E+02
     -5.434  0.0000E+00  0.9000E+02
     -5.272  0.2083E-14  0.9000E+02
     -5.110  0.2561E-03  0.9000E+02
     -4.948  0.3103E+00  0.9005E+02
     -4.786  0.5359E+00  0.9014E+02
     -4.624  0.3736E+01  0.9074E+02
     -4.461  0.8134E+00  0.9087E+02
     -4.299  0.3257E+00  0.9093E+02
     -4.137  0.6365E+01  0.9196E+02
     -3.975  0.7605E+00  0.9208E+02
     -3.813  0.8061E+00  0.9221E+02
     -3.651  0.2281E+01  0.9258E+02
     -3.489  0.2569E+00  0.9263E+02
     -3.326  0.1843E+01  0.9292E+02
     -3.164  0.5804E+01  0.9387E+02
     -3.002  0.1091E+01  0.9404E+02
     -2.840  0.3066E+01  0.9454E+02
     -2.678  0.4422E+01  0.9526E+02
     -2.516  0.1322E+01  0.9547E+02
     -2.353  0.5862E+01  0.9642E+02
     -2.191  0.5578E+01  0.9733E+02
     -2.029  0.1485E+01  0.9757E+02
     -1.867  0.4837E+01  0.9835E+02
     -1.705  0.5946E+01  0.9932E+02
     -1.543  0.1708E+01  0.9959E+02
     -1.380  0.2566E+01  0.1000E+03
     -1.218  0.7152E+01  0.1012E+03
     -1.056  0.3069E+01  0.1017E+03
     -0.894  0.5909E+01  0.1026E+03
     -0.732  0.5718E+01  0.1036E+03
     -0.570  0.2949E+01  0.1040E+03
     -0.408  0.7538E+01  0.1053E+03
     -0.245  0.6404E+01  0.1063E+03
     -0.083  0.1194E+01  0.1065E+03
      0.079  0.8761E+01  0.1079E+03
      0.241  0.5051E+01  0.1087E+03
      0.403  0.5140E+01  0.1096E+03
      0.565  0.5956E+01  0.1105E+03
      0.728  0.5989E+01  0.1115E+03
      0.890  0.4522E+01  0.1122E+03
      1.052  0.7520E+01  0.1134E+03
      1.214  0.7115E+01  0.1146E+03
      1.376  0.5486E+01  0.1155E+03
      1.538  0.9638E+01  0.1171E+03
      1.700  0.8226E+01  0.1184E+03
      1.863  0.1013E+02  0.1200E+03
      2.025  0.3856E+01  0.1207E+03
      2.187  0.4402E+01  0.1214E+03
      2.349  0.2997E+01  0.1219E+03
      2.511  0.2415E+01  0.1222E+03
      2.673  0.6264E+01  0.1233E+03
      2.836  0.5459E+01  0.1241E+03
      2.998  0.1096E+02  0.1259E+03
      3.160  0.6427E+01  0.1270E+03
      3.322  0.9700E+00  0.1271E+03
      3.484  0.7387E+00  0.1272E+03
      3.646  0.3114E+01  0.1277E+03
      3.808  0.1191E+00  0.1278E+03
      3.971  0.1423E+01  0.1280E+03
      4.133  0.1360E-02  0.1280E+03
      4.295  0.0000E+00  0.1280E+03
      4.457  0.0000E+00  0.1280E+03
      4.619  0.0000E+00  0.1280E+03
      4.781  0.0000E+00  0.1280E+03
      4.944  0.0000E+00  0.1280E+03
      5.106  0.0000E+00  0.1280E+03
      5.268  0.0000E+00  0.1280E+03
      5.430  0.0000E+00  0.1280E+03
      5.592  0.0000E+00  0.1280E+03
      5.754  0.0000E+00  0.1280E+03
      5.916  0.0000E+00  0.1280E+03
      6.079  0.0000E+00  0.1280E+03
