Mg15B1
1.0
      3.1447090      -5.4467960       0.0000000
      3.1447090       5.4467960       0.0000000
      0.0000000       0.0000000      10.0522080
  Mg    B   
  15    1   
Direct
      0.0000000       0.0000000       0.5000000
      0.9945940       0.4972970       0.0000000
      0.0027410       0.5013710       0.5000000
      0.5027030       0.4972970       0.0000000
      0.4986290       0.5013710       0.5000000
      0.5027030       0.0054060       0.0000000
      0.4986290       0.9972590       0.5000000
      0.1618210       0.3236420       0.7622970
      0.1618210       0.3236420       0.2377030
      0.1618210       0.8381790       0.7622970
      0.1618210       0.8381790       0.2377030
      0.6763580       0.8381790       0.7622970
      0.6763580       0.8381790       0.2377030
      0.6666670       0.3333330       0.7489760
      0.6666670       0.3333330       0.2510240
      0.0000000       0.0000000       0.0000000
