unknown system                          
           1
     3.144709   -5.446796    0.000000
     3.144709    5.446796    0.000000
     0.000000    0.000000   10.052208
   Mg   B 
    15     1
Direct configuration=     1
   0.00000000  0.00000000  0.50000000
   0.99459400  0.49729700  0.00000000
   0.00274100  0.50137100  0.50000000
   0.50270300  0.49729700  0.00000000
   0.49862900  0.50137100  0.50000000
   0.50270300  0.00540600  0.00000000
   0.49862900  0.99725900  0.50000000
   0.16182100  0.32364200  0.76229700
   0.16182100  0.32364200  0.23770300
   0.16182100  0.83817900  0.76229700
   0.16182100  0.83817900  0.23770300
   0.67635800  0.83817900  0.76229700
   0.67635800  0.83817900  0.23770300
   0.66666700  0.33333300  0.74897600
   0.66666700  0.33333300  0.25102400
   0.00000000  0.00000000  0.00000000
