   2   2   0   0
  0.2468377E+02  0.3668432E-09  0.3668432E-09  0.3668432E-09  0.5000000E-15
  1.000000000000000E-004
  CAR 
 unknown system                          
     13.37239487    -33.46933098  301      3.71128891      1.00000000
    -33.469  0.0000E+00  0.0000E+00
    -33.313  0.0000E+00  0.0000E+00
    -33.157  0.0000E+00  0.0000E+00
    -33.001  0.0000E+00  0.0000E+00
    -32.845  0.0000E+00  0.0000E+00
    -32.689  0.0000E+00  0.0000E+00
    -32.532  0.0000E+00  0.0000E+00
    -32.376  0.0000E+00  0.0000E+00
    -32.220  0.0000E+00  0.0000E+00
    -32.064  0.0000E+00  0.0000E+00
    -31.908  0.0000E+00  0.0000E+00
    -31.752  0.0000E+00  0.0000E+00
    -31.596  0.3227E-13  0.5038E-14
    -31.440  0.1253E-02  0.1956E-03
    -31.283  0.7093E+01  0.1108E+01
    -31.127  0.5714E+01  0.2000E+01
    -30.971  0.3476E-03  0.2000E+01
    -30.815  0.0000E+00  0.2000E+01
    -30.659  0.0000E+00  0.2000E+01
    -30.503  0.0000E+00  0.2000E+01
    -30.347  0.0000E+00  0.2000E+01
    -30.190  0.0000E+00  0.2000E+01
    -30.034  0.0000E+00  0.2000E+01
    -29.878  0.0000E+00  0.2000E+01
    -29.722  0.0000E+00  0.2000E+01
    -29.566  0.0000E+00  0.2000E+01
    -29.410  0.0000E+00  0.2000E+01
    -29.254  0.0000E+00  0.2000E+01
    -29.097  0.0000E+00  0.2000E+01
    -28.941  0.0000E+00  0.2000E+01
    -28.785  0.0000E+00  0.2000E+01
    -28.629  0.0000E+00  0.2000E+01
    -28.473  0.0000E+00  0.2000E+01
    -28.317  0.0000E+00  0.2000E+01
    -28.161  0.0000E+00  0.2000E+01
    -28.004  0.0000E+00  0.2000E+01
    -27.848  0.0000E+00  0.2000E+01
    -27.692  0.0000E+00  0.2000E+01
    -27.536  0.0000E+00  0.2000E+01
    -27.380  0.0000E+00  0.2000E+01
    -27.224  0.0000E+00  0.2000E+01
    -27.068  0.0000E+00  0.2000E+01
    -26.911  0.0000E+00  0.2000E+01
    -26.755  0.0000E+00  0.2000E+01
    -26.599  0.0000E+00  0.2000E+01
    -26.443  0.0000E+00  0.2000E+01
    -26.287  0.0000E+00  0.2000E+01
    -26.131  0.0000E+00  0.2000E+01
    -25.975  0.0000E+00  0.2000E+01
    -25.819  0.0000E+00  0.2000E+01
    -25.662  0.0000E+00  0.2000E+01
    -25.506  0.0000E+00  0.2000E+01
    -25.350  0.0000E+00  0.2000E+01
    -25.194  0.0000E+00  0.2000E+01
    -25.038  0.0000E+00  0.2000E+01
    -24.882  0.0000E+00  0.2000E+01
    -24.726  0.0000E+00  0.2000E+01
    -24.569  0.0000E+00  0.2000E+01
    -24.413  0.0000E+00  0.2000E+01
    -24.257  0.0000E+00  0.2000E+01
    -24.101  0.0000E+00  0.2000E+01
    -23.945  0.0000E+00  0.2000E+01
    -23.789  0.0000E+00  0.2000E+01
    -23.633  0.0000E+00  0.2000E+01
    -23.476  0.0000E+00  0.2000E+01
    -23.320  0.0000E+00  0.2000E+01
    -23.164  0.0000E+00  0.2000E+01
    -23.008  0.0000E+00  0.2000E+01
    -22.852  0.0000E+00  0.2000E+01
    -22.696  0.0000E+00  0.2000E+01
    -22.540  0.0000E+00  0.2000E+01
    -22.383  0.0000E+00  0.2000E+01
    -22.227  0.0000E+00  0.2000E+01
    -22.071  0.0000E+00  0.2000E+01
    -21.915  0.0000E+00  0.2000E+01
    -21.759  0.0000E+00  0.2000E+01
    -21.603  0.0000E+00  0.2000E+01
    -21.447  0.0000E+00  0.2000E+01
    -21.290  0.0000E+00  0.2000E+01
    -21.134  0.0000E+00  0.2000E+01
    -20.978  0.0000E+00  0.2000E+01
    -20.822  0.0000E+00  0.2000E+01
    -20.666  0.0000E+00  0.2000E+01
    -20.510  0.0000E+00  0.2000E+01
    -20.354  0.0000E+00  0.2000E+01
    -20.198  0.0000E+00  0.2000E+01
    -20.041  0.0000E+00  0.2000E+01
    -19.885  0.0000E+00  0.2000E+01
    -19.729  0.0000E+00  0.2000E+01
    -19.573  0.0000E+00  0.2000E+01
    -19.417  0.0000E+00  0.2000E+01
    -19.261  0.0000E+00  0.2000E+01
    -19.105  0.0000E+00  0.2000E+01
    -18.948  0.0000E+00  0.2000E+01
    -18.792  0.0000E+00  0.2000E+01
    -18.636  0.0000E+00  0.2000E+01
    -18.480  0.0000E+00  0.2000E+01
    -18.324  0.0000E+00  0.2000E+01
    -18.168  0.0000E+00  0.2000E+01
    -18.012  0.0000E+00  0.2000E+01
    -17.855  0.0000E+00  0.2000E+01
    -17.699  0.0000E+00  0.2000E+01
    -17.543  0.0000E+00  0.2000E+01
    -17.387  0.0000E+00  0.2000E+01
    -17.231  0.0000E+00  0.2000E+01
    -17.075  0.0000E+00  0.2000E+01
    -16.919  0.0000E+00  0.2000E+01
    -16.762  0.0000E+00  0.2000E+01
    -16.606  0.0000E+00  0.2000E+01
    -16.450  0.0000E+00  0.2000E+01
    -16.294  0.0000E+00  0.2000E+01
    -16.138  0.0000E+00  0.2000E+01
    -15.982  0.0000E+00  0.2000E+01
    -15.826  0.0000E+00  0.2000E+01
    -15.669  0.0000E+00  0.2000E+01
    -15.513  0.0000E+00  0.2000E+01
    -15.357  0.0000E+00  0.2000E+01
    -15.201  0.0000E+00  0.2000E+01
    -15.045  0.0000E+00  0.2000E+01
    -14.889  0.0000E+00  0.2000E+01
    -14.733  0.0000E+00  0.2000E+01
    -14.577  0.0000E+00  0.2000E+01
    -14.420  0.0000E+00  0.2000E+01
    -14.264  0.0000E+00  0.2000E+01
    -14.108  0.0000E+00  0.2000E+01
    -13.952  0.1096E-12  0.2000E+01
    -13.796  0.9281E-03  0.2000E+01
    -13.640  0.1696E+01  0.2265E+01
    -13.484  0.9402E+01  0.3733E+01
    -13.327  0.9935E+01  0.5284E+01
    -13.171  0.9680E+01  0.6796E+01
    -13.015  0.7662E+01  0.7992E+01
    -12.859  0.5206E-01  0.8000E+01
    -12.703  0.3978E-09  0.8000E+01
    -12.547  0.0000E+00  0.8000E+01
    -12.391  0.0000E+00  0.8000E+01
    -12.234  0.0000E+00  0.8000E+01
    -12.078  0.0000E+00  0.8000E+01
    -11.922  0.0000E+00  0.8000E+01
    -11.766  0.0000E+00  0.8000E+01
    -11.610  0.0000E+00  0.8000E+01
    -11.454  0.0000E+00  0.8000E+01
    -11.298  0.0000E+00  0.8000E+01
    -11.141  0.0000E+00  0.8000E+01
    -10.985  0.0000E+00  0.8000E+01
    -10.829  0.0000E+00  0.8000E+01
    -10.673  0.0000E+00  0.8000E+01
    -10.517  0.0000E+00  0.8000E+01
    -10.361  0.0000E+00  0.8000E+01
    -10.205  0.0000E+00  0.8000E+01
    -10.048  0.0000E+00  0.8000E+01
     -9.892  0.0000E+00  0.8000E+01
     -9.736  0.0000E+00  0.8000E+01
     -9.580  0.0000E+00  0.8000E+01
     -9.424  0.0000E+00  0.8000E+01
     -9.268  0.0000E+00  0.8000E+01
     -9.112  0.0000E+00  0.8000E+01
     -8.955  0.0000E+00  0.8000E+01
     -8.799  0.0000E+00  0.8000E+01
     -8.643  0.0000E+00  0.8000E+01
     -8.487  0.3572E-14  0.8000E+01
     -8.331  0.6159E-04  0.8000E+01
     -8.175  0.3528E-01  0.8006E+01
     -8.019  0.2289E+00  0.8041E+01
     -7.863  0.5530E+00  0.8128E+01
     -7.706  0.5144E+00  0.8208E+01
     -7.550  0.1932E+01  0.8510E+01
     -7.394  0.5594E+01  0.9383E+01
     -7.238  0.2892E+01  0.9834E+01
     -7.082  0.8250E+00  0.9963E+01
     -6.926  0.2351E+00  0.1000E+02
     -6.770  0.4371E-04  0.1000E+02
     -6.613  0.0000E+00  0.1000E+02
     -6.457  0.0000E+00  0.1000E+02
     -6.301  0.0000E+00  0.1000E+02
     -6.145  0.0000E+00  0.1000E+02
     -5.989  0.0000E+00  0.1000E+02
     -5.833  0.0000E+00  0.1000E+02
     -5.677  0.0000E+00  0.1000E+02
     -5.520  0.0000E+00  0.1000E+02
     -5.364  0.0000E+00  0.1000E+02
     -5.208  0.0000E+00  0.1000E+02
     -5.052  0.0000E+00  0.1000E+02
     -4.896  0.0000E+00  0.1000E+02
     -4.740  0.0000E+00  0.1000E+02
     -4.584  0.0000E+00  0.1000E+02
     -4.427  0.0000E+00  0.1000E+02
     -4.271  0.0000E+00  0.1000E+02
     -4.115  0.0000E+00  0.1000E+02
     -3.959  0.0000E+00  0.1000E+02
     -3.803  0.0000E+00  0.1000E+02
     -3.647  0.0000E+00  0.1000E+02
     -3.491  0.0000E+00  0.1000E+02
     -3.334  0.0000E+00  0.1000E+02
     -3.178  0.0000E+00  0.1000E+02
     -3.022  0.0000E+00  0.1000E+02
     -2.866  0.0000E+00  0.1000E+02
     -2.710  0.0000E+00  0.1000E+02
     -2.554  0.0000E+00  0.1000E+02
     -2.398  0.0000E+00  0.1000E+02
     -2.242  0.0000E+00  0.1000E+02
     -2.085  0.0000E+00  0.1000E+02
     -1.929  0.0000E+00  0.1000E+02
     -1.773  0.0000E+00  0.1000E+02
     -1.617  0.0000E+00  0.1000E+02
     -1.461  0.0000E+00  0.1000E+02
     -1.305  0.0000E+00  0.1000E+02
     -1.149  0.0000E+00  0.1000E+02
     -0.992  0.0000E+00  0.1000E+02
     -0.836  0.0000E+00  0.1000E+02
     -0.680  0.0000E+00  0.1000E+02
     -0.524  0.0000E+00  0.1000E+02
     -0.368  0.1163E-09  0.1000E+02
     -0.212  0.1026E-01  0.1000E+02
     -0.056  0.2133E+00  0.1003E+02
      0.101  0.7446E+00  0.1015E+02
      0.257  0.6697E+00  0.1026E+02
      0.413  0.3787E+00  0.1031E+02
      0.569  0.5275E+00  0.1040E+02
      0.725  0.3189E+01  0.1090E+02
      0.881  0.3657E+01  0.1147E+02
      1.037  0.2292E+01  0.1182E+02
      1.194  0.2946E+01  0.1228E+02
      1.350  0.1012E+01  0.1244E+02
      1.506  0.1819E+01  0.1273E+02
      1.662  0.3147E+01  0.1322E+02
      1.818  0.9797E+00  0.1337E+02
      1.974  0.1079E+01  0.1354E+02
      2.130  0.5127E+00  0.1362E+02
      2.287  0.1576E+01  0.1386E+02
      2.443  0.3756E+01  0.1445E+02
      2.599  0.1519E+01  0.1469E+02
      2.755  0.3205E+01  0.1519E+02
      2.911  0.1794E+01  0.1547E+02
      3.067  0.1862E+01  0.1576E+02
      3.223  0.1084E+01  0.1593E+02
      3.379  0.8016E-01  0.1594E+02
      3.536  0.3752E+00  0.1600E+02
      3.692  0.1344E-03  0.1600E+02
      3.848  0.0000E+00  0.1600E+02
      4.004  0.0000E+00  0.1600E+02
      4.160  0.0000E+00  0.1600E+02
      4.316  0.0000E+00  0.1600E+02
      4.472  0.0000E+00  0.1600E+02
      4.629  0.0000E+00  0.1600E+02
      4.785  0.0000E+00  0.1600E+02
      4.941  0.0000E+00  0.1600E+02
      5.097  0.1401E-09  0.1600E+02
      5.253  0.5200E-02  0.1600E+02
      5.409  0.7959E-01  0.1601E+02
      5.565  0.2153E+00  0.1605E+02
      5.722  0.4309E+00  0.1611E+02
      5.878  0.2692E+00  0.1616E+02
      6.034  0.5045E+00  0.1623E+02
      6.190  0.1007E+01  0.1639E+02
      6.346  0.1594E+01  0.1664E+02
      6.502  0.5316E+00  0.1672E+02
      6.658  0.2582E+01  0.1713E+02
      6.815  0.2767E+01  0.1756E+02
      6.971  0.1004E+01  0.1772E+02
      7.127  0.4734E+00  0.1779E+02
      7.283  0.8151E-03  0.1779E+02
      7.439  0.9092E+00  0.1793E+02
      7.595  0.1770E+01  0.1821E+02
      7.751  0.1029E+00  0.1822E+02
      7.908  0.2343E+01  0.1859E+02
      8.064  0.3561E+01  0.1915E+02
      8.220  0.3280E+01  0.1966E+02
      8.376  0.5163E+01  0.2046E+02
      8.532  0.2656E+01  0.2088E+02
      8.688  0.2353E+01  0.2125E+02
      8.844  0.3154E+01  0.2174E+02
      9.001  0.1507E+01  0.2197E+02
      9.157  0.2111E+00  0.2201E+02
      9.313  0.1330E+01  0.2222E+02
      9.469  0.2753E+01  0.2265E+02
      9.625  0.1155E+01  0.2283E+02
      9.781  0.2399E+01  0.2320E+02
      9.937  0.5069E+00  0.2328E+02
     10.093  0.6450E+00  0.2338E+02
     10.250  0.5911E+00  0.2347E+02
     10.406  0.1869E+01  0.2376E+02
     10.562  0.2889E+00  0.2381E+02
     10.718  0.1682E+00  0.2384E+02
     10.874  0.7554E+00  0.2395E+02
     11.030  0.5114E-03  0.2395E+02
     11.186  0.1957E-01  0.2396E+02
     11.343  0.2786E+00  0.2400E+02
     11.499  0.5538E-03  0.2400E+02
     11.655  0.0000E+00  0.2400E+02
     11.811  0.0000E+00  0.2400E+02
     11.967  0.0000E+00  0.2400E+02
     12.123  0.0000E+00  0.2400E+02
     12.279  0.0000E+00  0.2400E+02
     12.436  0.0000E+00  0.2400E+02
     12.592  0.0000E+00  0.2400E+02
     12.748  0.0000E+00  0.2400E+02
     12.904  0.0000E+00  0.2400E+02
     13.060  0.0000E+00  0.2400E+02
     13.216  0.0000E+00  0.2400E+02
     13.372  0.0000E+00  0.2400E+02
