Ti6 In2                                 
   1.00000000000000     
     5.9029397299999999   -0.0000292600000000    0.0000000000000000
    -2.9514955199999999    5.1120735000000002    0.0000000000000000
     0.0000000000000000    0.0000000000000000    4.7739575600000004
   Ti   In
     6     2
Direct
     0.1652234600000000    0.3304431700000023    0.2500000000000000
     0.6695398399999988    0.8347705500000018    0.2500000000000000
     0.1652359899999993    0.8347671100000014    0.2500000000000000
     0.8347828200000009    0.6695544600000005    0.7500000000000000
     0.3304631499999999    0.1652158799999981    0.7500000000000000
     0.8347527099999965    0.1652240700000007    0.7500000000000000
     0.3333374799999973    0.6666892699999991    0.7500000000000000
     0.6666645500000001    0.3333305000000024    0.2500000000000000
 
  0.00000000E+00  0.00000000E+00  0.00000000E+00
  0.00000000E+00  0.00000000E+00  0.00000000E+00
  0.00000000E+00  0.00000000E+00  0.00000000E+00
  0.00000000E+00  0.00000000E+00  0.00000000E+00
  0.00000000E+00  0.00000000E+00  0.00000000E+00
  0.00000000E+00  0.00000000E+00  0.00000000E+00
  0.00000000E+00  0.00000000E+00  0.00000000E+00
  0.00000000E+00  0.00000000E+00  0.00000000E+00
