   8   8   0   0
  0.1800747E+02  0.5902940E-09  0.5902933E-09  0.4773958E-09  0.5000000E-15
  1.000000000000000E-004
  CAR 
 unknown system                          
     18.50988426    -28.31400884  301      7.00081741      1.00000000
    -28.314  0.0000E+00  0.0000E+00
    -28.158  0.0000E+00  0.0000E+00
    -28.002  0.0000E+00  0.0000E+00
    -27.846  0.0000E+00  0.0000E+00
    -27.690  0.0000E+00  0.0000E+00
    -27.534  0.0000E+00  0.0000E+00
    -27.378  0.0000E+00  0.0000E+00
    -27.221  0.0000E+00  0.0000E+00
    -27.065  0.0000E+00  0.0000E+00
    -26.909  0.0000E+00  0.0000E+00
    -26.753  0.0000E+00  0.0000E+00
    -26.597  0.0000E+00  0.0000E+00
    -26.441  0.6319E-13  0.9862E-14
    -26.285  0.2293E-02  0.3579E-03
    -26.129  0.1775E+02  0.2771E+01
    -25.973  0.6943E+02  0.1361E+02
    -25.817  0.7600E+02  0.2547E+02
    -25.661  0.6599E+02  0.3577E+02
    -25.505  0.1475E+01  0.3600E+02
    -25.348  0.4918E-07  0.3600E+02
    -25.192  0.0000E+00  0.3600E+02
    -25.036  0.0000E+00  0.3600E+02
    -24.880  0.0000E+00  0.3600E+02
    -24.724  0.0000E+00  0.3600E+02
    -24.568  0.0000E+00  0.3600E+02
    -24.412  0.0000E+00  0.3600E+02
    -24.256  0.0000E+00  0.3600E+02
    -24.100  0.0000E+00  0.3600E+02
    -23.944  0.0000E+00  0.3600E+02
    -23.788  0.0000E+00  0.3600E+02
    -23.632  0.0000E+00  0.3600E+02
    -23.476  0.0000E+00  0.3600E+02
    -23.319  0.0000E+00  0.3600E+02
    -23.163  0.0000E+00  0.3600E+02
    -23.007  0.0000E+00  0.3600E+02
    -22.851  0.0000E+00  0.3600E+02
    -22.695  0.0000E+00  0.3600E+02
    -22.539  0.0000E+00  0.3600E+02
    -22.383  0.0000E+00  0.3600E+02
    -22.227  0.0000E+00  0.3600E+02
    -22.071  0.0000E+00  0.3600E+02
    -21.915  0.0000E+00  0.3600E+02
    -21.759  0.0000E+00  0.3600E+02
    -21.603  0.0000E+00  0.3600E+02
    -21.447  0.0000E+00  0.3600E+02
    -21.290  0.0000E+00  0.3600E+02
    -21.134  0.0000E+00  0.3600E+02
    -20.978  0.0000E+00  0.3600E+02
    -20.822  0.0000E+00  0.3600E+02
    -20.666  0.0000E+00  0.3600E+02
    -20.510  0.0000E+00  0.3600E+02
    -20.354  0.0000E+00  0.3600E+02
    -20.198  0.0000E+00  0.3600E+02
    -20.042  0.0000E+00  0.3600E+02
    -19.886  0.0000E+00  0.3600E+02
    -19.730  0.0000E+00  0.3600E+02
    -19.574  0.0000E+00  0.3600E+02
    -19.417  0.0000E+00  0.3600E+02
    -19.261  0.0000E+00  0.3600E+02
    -19.105  0.0000E+00  0.3600E+02
    -18.949  0.0000E+00  0.3600E+02
    -18.793  0.0000E+00  0.3600E+02
    -18.637  0.0000E+00  0.3600E+02
    -18.481  0.0000E+00  0.3600E+02
    -18.325  0.0000E+00  0.3600E+02
    -18.169  0.0000E+00  0.3600E+02
    -18.013  0.0000E+00  0.3600E+02
    -17.857  0.0000E+00  0.3600E+02
    -17.701  0.0000E+00  0.3600E+02
    -17.545  0.0000E+00  0.3600E+02
    -17.388  0.0000E+00  0.3600E+02
    -17.232  0.0000E+00  0.3600E+02
    -17.076  0.0000E+00  0.3600E+02
    -16.920  0.0000E+00  0.3600E+02
    -16.764  0.0000E+00  0.3600E+02
    -16.608  0.0000E+00  0.3600E+02
    -16.452  0.0000E+00  0.3600E+02
    -16.296  0.0000E+00  0.3600E+02
    -16.140  0.0000E+00  0.3600E+02
    -15.984  0.0000E+00  0.3600E+02
    -15.828  0.0000E+00  0.3600E+02
    -15.672  0.0000E+00  0.3600E+02
    -15.515  0.0000E+00  0.3600E+02
    -15.359  0.0000E+00  0.3600E+02
    -15.203  0.0000E+00  0.3600E+02
    -15.047  0.0000E+00  0.3600E+02
    -14.891  0.0000E+00  0.3600E+02
    -14.735  0.0000E+00  0.3600E+02
    -14.579  0.0000E+00  0.3600E+02
    -14.423  0.0000E+00  0.3600E+02
    -14.267  0.0000E+00  0.3600E+02
    -14.111  0.0000E+00  0.3600E+02
    -13.955  0.0000E+00  0.3600E+02
    -13.799  0.0000E+00  0.3600E+02
    -13.643  0.0000E+00  0.3600E+02
    -13.486  0.0000E+00  0.3600E+02
    -13.330  0.0000E+00  0.3600E+02
    -13.174  0.0000E+00  0.3600E+02
    -13.018  0.0000E+00  0.3600E+02
    -12.862  0.0000E+00  0.3600E+02
    -12.706  0.0000E+00  0.3600E+02
    -12.550  0.0000E+00  0.3600E+02
    -12.394  0.0000E+00  0.3600E+02
    -12.238  0.0000E+00  0.3600E+02
    -12.082  0.0000E+00  0.3600E+02
    -11.926  0.0000E+00  0.3600E+02
    -11.770  0.0000E+00  0.3600E+02
    -11.613  0.0000E+00  0.3600E+02
    -11.457  0.0000E+00  0.3600E+02
    -11.301  0.0000E+00  0.3600E+02
    -11.145  0.0000E+00  0.3600E+02
    -10.989  0.0000E+00  0.3600E+02
    -10.833  0.0000E+00  0.3600E+02
    -10.677  0.0000E+00  0.3600E+02
    -10.521  0.0000E+00  0.3600E+02
    -10.365  0.0000E+00  0.3600E+02
    -10.209  0.0000E+00  0.3600E+02
    -10.053  0.0000E+00  0.3600E+02
     -9.897  0.0000E+00  0.3600E+02
     -9.741  0.0000E+00  0.3600E+02
     -9.584  0.0000E+00  0.3600E+02
     -9.428  0.0000E+00  0.3600E+02
     -9.272  0.0000E+00  0.3600E+02
     -9.116  0.0000E+00  0.3600E+02
     -8.960  0.0000E+00  0.3600E+02
     -8.804  0.0000E+00  0.3600E+02
     -8.648  0.0000E+00  0.3600E+02
     -8.492  0.0000E+00  0.3600E+02
     -8.336  0.0000E+00  0.3600E+02
     -8.180  0.0000E+00  0.3600E+02
     -8.024  0.0000E+00  0.3600E+02
     -7.868  0.0000E+00  0.3600E+02
     -7.711  0.0000E+00  0.3600E+02
     -7.555  0.0000E+00  0.3600E+02
     -7.399  0.0000E+00  0.3600E+02
     -7.243  0.0000E+00  0.3600E+02
     -7.087  0.1752E-07  0.3600E+02
     -6.931  0.1829E+01  0.3629E+02
     -6.775  0.1189E+03  0.5485E+02
     -6.619  0.7396E+01  0.5600E+02
     -6.463  0.1815E-05  0.5600E+02
     -6.307  0.0000E+00  0.5600E+02
     -6.151  0.0000E+00  0.5600E+02
     -5.995  0.0000E+00  0.5600E+02
     -5.839  0.0000E+00  0.5600E+02
     -5.682  0.0000E+00  0.5600E+02
     -5.526  0.0000E+00  0.5600E+02
     -5.370  0.0000E+00  0.5600E+02
     -5.214  0.0000E+00  0.5600E+02
     -5.058  0.0000E+00  0.5600E+02
     -4.902  0.0000E+00  0.5600E+02
     -4.746  0.0000E+00  0.5600E+02
     -4.590  0.0000E+00  0.5600E+02
     -4.434  0.0000E+00  0.5600E+02
     -4.278  0.0000E+00  0.5600E+02
     -4.122  0.0000E+00  0.5600E+02
     -3.966  0.0000E+00  0.5600E+02
     -3.810  0.0000E+00  0.5600E+02
     -3.653  0.0000E+00  0.5600E+02
     -3.497  0.0000E+00  0.5600E+02
     -3.341  0.0000E+00  0.5600E+02
     -3.185  0.0000E+00  0.5600E+02
     -3.029  0.0000E+00  0.5600E+02
     -2.873  0.0000E+00  0.5600E+02
     -2.717  0.0000E+00  0.5600E+02
     -2.561  0.0000E+00  0.5600E+02
     -2.405  0.0000E+00  0.5600E+02
     -2.249  0.0000E+00  0.5600E+02
     -2.093  0.0000E+00  0.5600E+02
     -1.937  0.0000E+00  0.5600E+02
     -1.780  0.0000E+00  0.5600E+02
     -1.624  0.0000E+00  0.5600E+02
     -1.468  0.0000E+00  0.5600E+02
     -1.312  0.0000E+00  0.5600E+02
     -1.156  0.1228E-05  0.5600E+02
     -1.000  0.5053E-01  0.5601E+02
     -0.844  0.7816E-01  0.5602E+02
     -0.688  0.6343E+00  0.5612E+02
     -0.532  0.9371E+00  0.5627E+02
     -0.376  0.1155E+00  0.5628E+02
     -0.220  0.6632E+00  0.5639E+02
     -0.064  0.1909E+01  0.5668E+02
      0.092  0.1584E+01  0.5693E+02
      0.249  0.1989E+00  0.5696E+02
      0.405  0.1675E+01  0.5722E+02
      0.561  0.1927E+01  0.5753E+02
      0.717  0.1223E+01  0.5772E+02
      0.873  0.2061E+01  0.5804E+02
      1.029  0.1983E+01  0.5835E+02
      1.185  0.3216E+01  0.5885E+02
      1.341  0.5061E+01  0.5964E+02
      1.497  0.9508E+00  0.5979E+02
      1.653  0.1317E+01  0.5999E+02
      1.809  0.4258E-01  0.6000E+02
      1.965  0.3654E-06  0.6000E+02
      2.122  0.0000E+00  0.6000E+02
      2.278  0.0000E+00  0.6000E+02
      2.434  0.6742E-11  0.6000E+02
      2.590  0.6245E-02  0.6000E+02
      2.746  0.4994E+00  0.6008E+02
      2.902  0.9323E+00  0.6022E+02
      3.058  0.1262E+00  0.6024E+02
      3.214  0.2572E+01  0.6065E+02
      3.370  0.4316E+01  0.6132E+02
      3.526  0.2159E+01  0.6166E+02
      3.682  0.1096E+01  0.6183E+02
      3.838  0.5340E+01  0.6266E+02
      3.994  0.4074E+01  0.6330E+02
      4.151  0.2800E+01  0.6373E+02
      4.307  0.2032E+01  0.6405E+02
      4.463  0.3290E+01  0.6456E+02
      4.619  0.3335E+01  0.6508E+02
      4.775  0.2031E+01  0.6540E+02
      4.931  0.4473E+01  0.6610E+02
      5.087  0.6398E+01  0.6710E+02
      5.243  0.5935E+01  0.6802E+02
      5.399  0.7192E+01  0.6915E+02
      5.555  0.1271E+02  0.7113E+02
      5.711  0.1070E+02  0.7280E+02
      5.867  0.1026E+02  0.7440E+02
      6.024  0.6013E+01  0.7534E+02
      6.180  0.6048E+01  0.7629E+02
      6.336  0.4594E+01  0.7700E+02
      6.492  0.6266E+01  0.7798E+02
      6.648  0.2209E+02  0.8143E+02
      6.804  0.1583E+02  0.8390E+02
      6.960  0.1036E+02  0.8552E+02
      7.116  0.5711E+01  0.8641E+02
      7.272  0.4511E+01  0.8711E+02
      7.428  0.1306E+02  0.8915E+02
      7.584  0.1358E+02  0.9127E+02
      7.740  0.2011E+02  0.9441E+02
      7.896  0.9380E+01  0.9587E+02
      8.053  0.4566E+01  0.9659E+02
      8.209  0.6190E+01  0.9755E+02
      8.365  0.6455E+01  0.9856E+02
      8.521  0.7603E+01  0.9975E+02
      8.677  0.1031E+02  0.1014E+03
      8.833  0.1401E+02  0.1035E+03
      8.989  0.1344E+02  0.1056E+03
      9.145  0.1797E+02  0.1084E+03
      9.301  0.1426E+02  0.1107E+03
      9.457  0.2170E+02  0.1141E+03
      9.613  0.2013E+02  0.1172E+03
      9.769  0.9461E+01  0.1187E+03
      9.926  0.4580E+01  0.1194E+03
     10.082  0.9132E+01  0.1208E+03
     10.238  0.1055E+02  0.1225E+03
     10.394  0.7948E+01  0.1237E+03
     10.550  0.7708E+01  0.1249E+03
     10.706  0.6813E+01  0.1260E+03
     10.862  0.2675E+01  0.1264E+03
     11.018  0.4608E+01  0.1271E+03
     11.174  0.8418E+01  0.1284E+03
     11.330  0.6888E+01  0.1295E+03
     11.486  0.5141E+01  0.1303E+03
     11.642  0.1508E+01  0.1305E+03
     11.798  0.3389E+01  0.1311E+03
     11.955  0.1680E+01  0.1313E+03
     12.111  0.3160E+01  0.1318E+03
     12.267  0.3559E+01  0.1324E+03
     12.423  0.3173E+01  0.1329E+03
     12.579  0.2329E+01  0.1332E+03
     12.735  0.1784E+01  0.1335E+03
     12.891  0.3943E+01  0.1341E+03
     13.047  0.3483E+01  0.1347E+03
     13.203  0.3889E+01  0.1353E+03
     13.359  0.2736E+01  0.1357E+03
     13.515  0.2662E+01  0.1361E+03
     13.671  0.1270E+01  0.1363E+03
     13.827  0.1125E+01  0.1365E+03
     13.984  0.1860E+01  0.1368E+03
     14.140  0.3307E+01  0.1373E+03
     14.296  0.6986E+01  0.1384E+03
     14.452  0.5037E+01  0.1392E+03
     14.608  0.2830E+01  0.1396E+03
     14.764  0.5715E+01  0.1405E+03
     14.920  0.4119E+01  0.1412E+03
     15.076  0.5493E+01  0.1420E+03
     15.232  0.2029E+01  0.1423E+03
     15.388  0.1290E+01  0.1425E+03
     15.544  0.3087E+01  0.1430E+03
     15.700  0.3795E+01  0.1436E+03
     15.857  0.6619E+00  0.1437E+03
     16.013  0.8659E+00  0.1438E+03
     16.169  0.3694E-03  0.1438E+03
     16.325  0.5574E-01  0.1438E+03
     16.481  0.9668E+00  0.1440E+03
     16.637  0.2533E-02  0.1440E+03
     16.793  0.0000E+00  0.1440E+03
     16.949  0.0000E+00  0.1440E+03
     17.105  0.0000E+00  0.1440E+03
     17.261  0.0000E+00  0.1440E+03
     17.417  0.0000E+00  0.1440E+03
     17.573  0.0000E+00  0.1440E+03
     17.729  0.0000E+00  0.1440E+03
     17.886  0.0000E+00  0.1440E+03
     18.042  0.0000E+00  0.1440E+03
     18.198  0.0000E+00  0.1440E+03
     18.354  0.0000E+00  0.1440E+03
     18.510  0.0000E+00  0.1440E+03
