       N       E                     dE             d eps       ncg     rms          rms(c)
DAV:   1     0.109065221210E+04    0.10907E+04   -0.42089E+04 21608   0.163E+03
DAV:   2     0.623974003486E+02   -0.10283E+04   -0.98806E+03 21600   0.506E+02
DAV:   3    -0.544083893598E+02   -0.11681E+03   -0.10973E+03 21768   0.171E+02
DAV:   4    -0.604165429520E+02   -0.60082E+01   -0.59381E+01 25648   0.403E+01
DAV:   5    -0.605986554587E+02   -0.18211E+00   -0.18206E+00 27696   0.772E+00    0.283E+01
DAV:   6    -0.532928718782E+02    0.73058E+01   -0.18729E+01 24272   0.238E+01    0.496E+00
DAV:   7    -0.530745149247E+02    0.21836E+00   -0.11704E+00 24480   0.613E+00    0.247E+00
DAV:   8    -0.530228503190E+02    0.51665E-01   -0.14074E-01 27592   0.201E+00    0.151E+00
DAV:   9    -0.530241921107E+02   -0.13418E-02   -0.34322E-02 26144   0.141E+00    0.116E+00
DAV:  10    -0.530209579376E+02    0.32342E-02   -0.46791E-02 26600   0.140E+00    0.876E-01
DAV:  11    -0.530182330167E+02    0.27249E-02   -0.15293E-02 26752   0.836E-01    0.380E-01
DAV:  12    -0.530167325583E+02    0.15005E-02   -0.48519E-03 26608   0.577E-01    0.822E-02
DAV:  13    -0.530166535884E+02    0.78970E-04   -0.40904E-04 24376   0.130E-01    0.241E-02
DAV:  14    -0.530166527207E+02    0.86773E-06   -0.57992E-05 28272   0.457E-02    0.178E-02
DAV:  15    -0.530166452111E+02    0.75095E-05   -0.84769E-06 24000   0.193E-02    0.884E-03
DAV:  16    -0.530166422860E+02    0.29251E-05   -0.52422E-06 21304   0.177E-02    0.108E-02
DAV:  17    -0.530166393322E+02    0.29538E-05   -0.37728E-06 17640   0.152E-02    0.244E-03
DAV:  18    -0.530166391756E+02    0.15668E-06   -0.72763E-07 12664   0.564E-03
   1 F= -.53016639E+02 E0= -.53010262E+02  d E =-.127554E-01
