   4   4   0   0
  0.3194284E+02  0.6291916E-09  0.6291916E-09  0.6291916E-09  0.5000000E-15
  1.000000000000000E-004
  CAR 
 unknown system                          
      5.30756473    -44.72591360  301      0.77288134      1.00000000
    -44.726  0.0000E+00  0.0000E+00
    -44.559  0.0000E+00  0.0000E+00
    -44.392  0.0000E+00  0.0000E+00
    -44.226  0.0000E+00  0.0000E+00
    -44.059  0.0000E+00  0.0000E+00
    -43.892  0.0000E+00  0.0000E+00
    -43.725  0.0000E+00  0.0000E+00
    -43.558  0.0000E+00  0.0000E+00
    -43.392  0.0000E+00  0.0000E+00
    -43.225  0.0000E+00  0.0000E+00
    -43.058  0.0000E+00  0.0000E+00
    -42.891  0.0000E+00  0.0000E+00
    -42.725  0.1491E-12  0.2487E-13
    -42.558  0.3949E-01  0.6586E-02
    -42.391  0.3409E+02  0.5692E+01
    -42.224  0.1849E+01  0.6000E+01
    -42.057  0.4638E-08  0.6000E+01
    -41.891  0.0000E+00  0.6000E+01
    -41.724  0.0000E+00  0.6000E+01
    -41.557  0.0000E+00  0.6000E+01
    -41.390  0.0000E+00  0.6000E+01
    -41.224  0.0000E+00  0.6000E+01
    -41.057  0.0000E+00  0.6000E+01
    -40.890  0.0000E+00  0.6000E+01
    -40.723  0.0000E+00  0.6000E+01
    -40.556  0.0000E+00  0.6000E+01
    -40.390  0.0000E+00  0.6000E+01
    -40.223  0.0000E+00  0.6000E+01
    -40.056  0.0000E+00  0.6000E+01
    -39.889  0.0000E+00  0.6000E+01
    -39.723  0.0000E+00  0.6000E+01
    -39.556  0.0000E+00  0.6000E+01
    -39.389  0.0000E+00  0.6000E+01
    -39.222  0.0000E+00  0.6000E+01
    -39.055  0.0000E+00  0.6000E+01
    -38.889  0.0000E+00  0.6000E+01
    -38.722  0.0000E+00  0.6000E+01
    -38.555  0.0000E+00  0.6000E+01
    -38.388  0.0000E+00  0.6000E+01
    -38.222  0.0000E+00  0.6000E+01
    -38.055  0.0000E+00  0.6000E+01
    -37.888  0.0000E+00  0.6000E+01
    -37.721  0.0000E+00  0.6000E+01
    -37.554  0.0000E+00  0.6000E+01
    -37.388  0.0000E+00  0.6000E+01
    -37.221  0.0000E+00  0.6000E+01
    -37.054  0.0000E+00  0.6000E+01
    -36.887  0.0000E+00  0.6000E+01
    -36.721  0.0000E+00  0.6000E+01
    -36.554  0.0000E+00  0.6000E+01
    -36.387  0.0000E+00  0.6000E+01
    -36.220  0.0000E+00  0.6000E+01
    -36.053  0.0000E+00  0.6000E+01
    -35.887  0.0000E+00  0.6000E+01
    -35.720  0.0000E+00  0.6000E+01
    -35.553  0.0000E+00  0.6000E+01
    -35.386  0.0000E+00  0.6000E+01
    -35.220  0.0000E+00  0.6000E+01
    -35.053  0.0000E+00  0.6000E+01
    -34.886  0.0000E+00  0.6000E+01
    -34.719  0.0000E+00  0.6000E+01
    -34.552  0.0000E+00  0.6000E+01
    -34.386  0.0000E+00  0.6000E+01
    -34.219  0.0000E+00  0.6000E+01
    -34.052  0.0000E+00  0.6000E+01
    -33.885  0.0000E+00  0.6000E+01
    -33.719  0.0000E+00  0.6000E+01
    -33.552  0.0000E+00  0.6000E+01
    -33.385  0.0000E+00  0.6000E+01
    -33.218  0.0000E+00  0.6000E+01
    -33.051  0.0000E+00  0.6000E+01
    -32.885  0.0000E+00  0.6000E+01
    -32.718  0.0000E+00  0.6000E+01
    -32.551  0.0000E+00  0.6000E+01
    -32.384  0.0000E+00  0.6000E+01
    -32.218  0.0000E+00  0.6000E+01
    -32.051  0.0000E+00  0.6000E+01
    -31.884  0.0000E+00  0.6000E+01
    -31.717  0.0000E+00  0.6000E+01
    -31.550  0.0000E+00  0.6000E+01
    -31.384  0.0000E+00  0.6000E+01
    -31.217  0.0000E+00  0.6000E+01
    -31.050  0.0000E+00  0.6000E+01
    -30.883  0.0000E+00  0.6000E+01
    -30.717  0.0000E+00  0.6000E+01
    -30.550  0.0000E+00  0.6000E+01
    -30.383  0.0000E+00  0.6000E+01
    -30.216  0.0000E+00  0.6000E+01
    -30.049  0.0000E+00  0.6000E+01
    -29.883  0.0000E+00  0.6000E+01
    -29.716  0.0000E+00  0.6000E+01
    -29.549  0.0000E+00  0.6000E+01
    -29.382  0.0000E+00  0.6000E+01
    -29.216  0.0000E+00  0.6000E+01
    -29.049  0.0000E+00  0.6000E+01
    -28.882  0.0000E+00  0.6000E+01
    -28.715  0.0000E+00  0.6000E+01
    -28.548  0.0000E+00  0.6000E+01
    -28.382  0.0000E+00  0.6000E+01
    -28.215  0.0000E+00  0.6000E+01
    -28.048  0.0000E+00  0.6000E+01
    -27.881  0.0000E+00  0.6000E+01
    -27.715  0.0000E+00  0.6000E+01
    -27.548  0.0000E+00  0.6000E+01
    -27.381  0.0000E+00  0.6000E+01
    -27.214  0.0000E+00  0.6000E+01
    -27.047  0.0000E+00  0.6000E+01
    -26.881  0.0000E+00  0.6000E+01
    -26.714  0.0000E+00  0.6000E+01
    -26.547  0.0000E+00  0.6000E+01
    -26.380  0.0000E+00  0.6000E+01
    -26.214  0.0000E+00  0.6000E+01
    -26.047  0.0000E+00  0.6000E+01
    -25.880  0.0000E+00  0.6000E+01
    -25.713  0.0000E+00  0.6000E+01
    -25.546  0.0000E+00  0.6000E+01
    -25.380  0.0000E+00  0.6000E+01
    -25.213  0.0000E+00  0.6000E+01
    -25.046  0.0000E+00  0.6000E+01
    -24.879  0.0000E+00  0.6000E+01
    -24.713  0.0000E+00  0.6000E+01
    -24.546  0.0000E+00  0.6000E+01
    -24.379  0.0000E+00  0.6000E+01
    -24.212  0.1161E-10  0.6000E+01
    -24.045  0.2047E+00  0.6034E+01
    -23.879  0.9866E+02  0.2249E+02
    -23.712  0.9063E+01  0.2400E+02
    -23.545  0.2368E-06  0.2400E+02
    -23.378  0.0000E+00  0.2400E+02
    -23.212  0.0000E+00  0.2400E+02
    -23.045  0.0000E+00  0.2400E+02
    -22.878  0.0000E+00  0.2400E+02
    -22.711  0.0000E+00  0.2400E+02
    -22.544  0.0000E+00  0.2400E+02
    -22.378  0.0000E+00  0.2400E+02
    -22.211  0.0000E+00  0.2400E+02
    -22.044  0.0000E+00  0.2400E+02
    -21.877  0.0000E+00  0.2400E+02
    -21.711  0.0000E+00  0.2400E+02
    -21.544  0.0000E+00  0.2400E+02
    -21.377  0.0000E+00  0.2400E+02
    -21.210  0.0000E+00  0.2400E+02
    -21.043  0.0000E+00  0.2400E+02
    -20.877  0.0000E+00  0.2400E+02
    -20.710  0.0000E+00  0.2400E+02
    -20.543  0.0000E+00  0.2400E+02
    -20.376  0.0000E+00  0.2400E+02
    -20.210  0.0000E+00  0.2400E+02
    -20.043  0.0000E+00  0.2400E+02
    -19.876  0.0000E+00  0.2400E+02
    -19.709  0.0000E+00  0.2400E+02
    -19.542  0.0000E+00  0.2400E+02
    -19.376  0.0000E+00  0.2400E+02
    -19.209  0.0000E+00  0.2400E+02
    -19.042  0.0000E+00  0.2400E+02
    -18.875  0.0000E+00  0.2400E+02
    -18.709  0.0000E+00  0.2400E+02
    -18.542  0.0000E+00  0.2400E+02
    -18.375  0.0000E+00  0.2400E+02
    -18.208  0.0000E+00  0.2400E+02
    -18.041  0.0000E+00  0.2400E+02
    -17.875  0.0000E+00  0.2400E+02
    -17.708  0.0000E+00  0.2400E+02
    -17.541  0.0000E+00  0.2400E+02
    -17.374  0.0000E+00  0.2400E+02
    -17.208  0.0000E+00  0.2400E+02
    -17.041  0.0000E+00  0.2400E+02
    -16.874  0.0000E+00  0.2400E+02
    -16.707  0.0000E+00  0.2400E+02
    -16.540  0.0000E+00  0.2400E+02
    -16.374  0.0000E+00  0.2400E+02
    -16.207  0.0000E+00  0.2400E+02
    -16.040  0.0000E+00  0.2400E+02
    -15.873  0.0000E+00  0.2400E+02
    -15.706  0.0000E+00  0.2400E+02
    -15.540  0.0000E+00  0.2400E+02
    -15.373  0.0000E+00  0.2400E+02
    -15.206  0.0000E+00  0.2400E+02
    -15.039  0.0000E+00  0.2400E+02
    -14.873  0.0000E+00  0.2400E+02
    -14.706  0.0000E+00  0.2400E+02
    -14.539  0.0000E+00  0.2400E+02
    -14.372  0.0000E+00  0.2400E+02
    -14.205  0.0000E+00  0.2400E+02
    -14.039  0.0000E+00  0.2400E+02
    -13.872  0.0000E+00  0.2400E+02
    -13.705  0.0000E+00  0.2400E+02
    -13.538  0.0000E+00  0.2400E+02
    -13.372  0.0000E+00  0.2400E+02
    -13.205  0.0000E+00  0.2400E+02
    -13.038  0.0000E+00  0.2400E+02
    -12.871  0.0000E+00  0.2400E+02
    -12.704  0.0000E+00  0.2400E+02
    -12.538  0.0000E+00  0.2400E+02
    -12.371  0.0000E+00  0.2400E+02
    -12.204  0.0000E+00  0.2400E+02
    -12.037  0.0000E+00  0.2400E+02
    -11.871  0.0000E+00  0.2400E+02
    -11.704  0.0000E+00  0.2400E+02
    -11.537  0.0000E+00  0.2400E+02
    -11.370  0.0000E+00  0.2400E+02
    -11.203  0.0000E+00  0.2400E+02
    -11.037  0.0000E+00  0.2400E+02
    -10.870  0.0000E+00  0.2400E+02
    -10.703  0.0000E+00  0.2400E+02
    -10.536  0.0000E+00  0.2400E+02
    -10.370  0.0000E+00  0.2400E+02
    -10.203  0.0000E+00  0.2400E+02
    -10.036  0.0000E+00  0.2400E+02
     -9.869  0.0000E+00  0.2400E+02
     -9.702  0.0000E+00  0.2400E+02
     -9.536  0.0000E+00  0.2400E+02
     -9.369  0.0000E+00  0.2400E+02
     -9.202  0.0000E+00  0.2400E+02
     -9.035  0.0000E+00  0.2400E+02
     -8.869  0.0000E+00  0.2400E+02
     -8.702  0.0000E+00  0.2400E+02
     -8.535  0.0000E+00  0.2400E+02
     -8.368  0.0000E+00  0.2400E+02
     -8.201  0.0000E+00  0.2400E+02
     -8.035  0.0000E+00  0.2400E+02
     -7.868  0.0000E+00  0.2400E+02
     -7.701  0.0000E+00  0.2400E+02
     -7.534  0.0000E+00  0.2400E+02
     -7.368  0.0000E+00  0.2400E+02
     -7.201  0.0000E+00  0.2400E+02
     -7.034  0.0000E+00  0.2400E+02
     -6.867  0.0000E+00  0.2400E+02
     -6.700  0.0000E+00  0.2400E+02
     -6.534  0.0000E+00  0.2400E+02
     -6.367  0.0000E+00  0.2400E+02
     -6.200  0.0000E+00  0.2400E+02
     -6.033  0.0000E+00  0.2400E+02
     -5.867  0.0000E+00  0.2400E+02
     -5.700  0.0000E+00  0.2400E+02
     -5.533  0.0000E+00  0.2400E+02
     -5.366  0.0000E+00  0.2400E+02
     -5.199  0.0000E+00  0.2400E+02
     -5.033  0.0000E+00  0.2400E+02
     -4.866  0.0000E+00  0.2400E+02
     -4.699  0.0000E+00  0.2400E+02
     -4.532  0.0000E+00  0.2400E+02
     -4.366  0.0000E+00  0.2400E+02
     -4.199  0.0000E+00  0.2400E+02
     -4.032  0.0000E+00  0.2400E+02
     -3.865  0.0000E+00  0.2400E+02
     -3.698  0.7017E-09  0.2400E+02
     -3.532  0.1644E-01  0.2400E+02
     -3.365  0.8242E-01  0.2402E+02
     -3.198  0.6109E+00  0.2412E+02
     -3.031  0.4632E+00  0.2420E+02
     -2.865  0.3406E+00  0.2425E+02
     -2.698  0.1603E+01  0.2452E+02
     -2.531  0.3372E+00  0.2458E+02
     -2.364  0.5722E+00  0.2467E+02
     -2.197  0.2937E+01  0.2516E+02
     -2.031  0.6328E-01  0.2517E+02
     -1.864  0.2255E+01  0.2555E+02
     -1.697  0.1331E+00  0.2557E+02
     -1.530  0.1206E+01  0.2577E+02
     -1.364  0.7728E+00  0.2590E+02
     -1.197  0.9164E+00  0.2605E+02
     -1.030  0.2680E+00  0.2610E+02
     -0.863  0.9195E+00  0.2625E+02
     -0.696  0.1345E+01  0.2648E+02
     -0.530  0.2335E+01  0.2687E+02
     -0.363  0.1380E+01  0.2710E+02
     -0.196  0.1283E+01  0.2731E+02
     -0.029  0.2261E+01  0.2769E+02
      0.137  0.1771E+01  0.2798E+02
      0.304  0.1459E+00  0.2801E+02
      0.471  0.1805E+01  0.2831E+02
      0.638  0.2351E+01  0.2870E+02
      0.805  0.2354E+01  0.2909E+02
      0.971  0.1645E+01  0.2937E+02
      1.138  0.3056E+01  0.2988E+02
      1.305  0.1895E+01  0.3019E+02
      1.472  0.1419E+01  0.3043E+02
      1.638  0.3029E+01  0.3093E+02
      1.805  0.8289E+00  0.3107E+02
      1.972  0.1230E+01  0.3128E+02
      2.139  0.3051E+00  0.3133E+02
      2.306  0.2590E+00  0.3137E+02
      2.472  0.1056E+01  0.3155E+02
      2.639  0.9608E+00  0.3171E+02
      2.806  0.8902E+00  0.3186E+02
      2.973  0.1306E+00  0.3188E+02
      3.139  0.7326E+00  0.3200E+02
      3.306  0.1990E-03  0.3200E+02
      3.473  0.0000E+00  0.3200E+02
      3.640  0.0000E+00  0.3200E+02
      3.807  0.0000E+00  0.3200E+02
      3.973  0.0000E+00  0.3200E+02
      4.140  0.0000E+00  0.3200E+02
      4.307  0.0000E+00  0.3200E+02
      4.474  0.0000E+00  0.3200E+02
      4.640  0.0000E+00  0.3200E+02
      4.807  0.0000E+00  0.3200E+02
      4.974  0.0000E+00  0.3200E+02
      5.141  0.0000E+00  0.3200E+02
      5.308  0.0000E+00  0.3200E+02
