       N       E                     dE             d eps       ncg     rms          rms(c)
DAV:   1     0.232495474623E+03    0.23250E+03   -0.18512E+04  4584   0.197E+03
DAV:   2     0.540127133830E+01   -0.22709E+03   -0.22640E+03  4000   0.496E+02
DAV:   3    -0.495961493124E+01   -0.10361E+02   -0.10221E+02  4864   0.135E+02
DAV:   4    -0.509985183516E+01   -0.14024E+00   -0.13987E+00  4552   0.163E+01
DAV:   5    -0.510311568619E+01   -0.32639E-02   -0.32551E-02  4976   0.249E+00    0.731E-01
DAV:   6    -0.509780539082E+01    0.53103E-02   -0.76746E-03  4936   0.890E-01    0.478E-01
DAV:   7    -0.509421277548E+01    0.35926E-02   -0.14162E-02  4768   0.104E+00    0.467E-02
DAV:   8    -0.509407297440E+01    0.13980E-03   -0.10944E-03  4232   0.457E-01    0.174E-02
DAV:   9    -0.509406981415E+01    0.31603E-05   -0.55906E-05  4936   0.103E-01    0.504E-03
DAV:  10    -0.509406941360E+01    0.40055E-06   -0.41182E-06  4312   0.297E-02
   1 F= -.50940694E+01 E0= -.50918376E+01  d E =-.446365E-02
