C3 N4                                   
   1.00000000000000     
     3.8268219999999999   -2.3922170000000000    0.0000000000000000
     3.8268219999999999    2.3922170000000000    0.0000000000000000
     2.3314029999999999    0.0000000000000000    3.8641719999999999
   C    N 
     3     4
Direct
     0.4900670000000034    0.4900670000000034    0.0193280000000016
     0.4900670000000034    0.0193280000000016    0.4900670000000034
     0.0193280000000016    0.4900670000000034    0.4900670000000034
     0.6597020000000029    0.1701150000000027    0.1701150000000027
     0.1701150000000027    0.1701150000000027    0.6597020000000029
     0.6656049999999993    0.6656049999999993    0.6656049999999993
     0.1701150000000027    0.6597020000000029    0.1701150000000027
 
  0.00000000E+00  0.00000000E+00  0.00000000E+00
  0.00000000E+00  0.00000000E+00  0.00000000E+00
  0.00000000E+00  0.00000000E+00  0.00000000E+00
  0.00000000E+00  0.00000000E+00  0.00000000E+00
  0.00000000E+00  0.00000000E+00  0.00000000E+00
  0.00000000E+00  0.00000000E+00  0.00000000E+00
  0.00000000E+00  0.00000000E+00  0.00000000E+00
