C3N4
1.0
      3.8268220      -2.3922170       0.0000000
      3.8268220       2.3922170       0.0000000
      2.3314030       0.0000000       3.8641720
  C     N   
  3     4   
Direct
      0.4900670       0.4900670       0.0193280
      0.4900670       0.0193280       0.4900670
      0.0193280       0.4900670       0.4900670
      0.6597020       0.1701150       0.1701150
      0.1701150       0.1701150       0.6597020
      0.6656050       0.6656050       0.6656050
      0.1701150       0.6597020       0.1701150
