   4   4   0   0
  0.1550037E+02  0.5440232E-09  0.5440232E-09  0.5440232E-09  0.5000000E-15
  1.000000000000000E-004
  CAR 
 unknown system                          
     12.79484955    -24.38526172  301     -0.20269768      1.00000000
    -24.385  0.0000E+00  0.0000E+00
    -24.261  0.0000E+00  0.0000E+00
    -24.137  0.0000E+00  0.0000E+00
    -24.013  0.0000E+00  0.0000E+00
    -23.890  0.0000E+00  0.0000E+00
    -23.766  0.0000E+00  0.0000E+00
    -23.642  0.0000E+00  0.0000E+00
    -23.518  0.0000E+00  0.0000E+00
    -23.394  0.0000E+00  0.0000E+00
    -23.270  0.0000E+00  0.0000E+00
    -23.146  0.0000E+00  0.0000E+00
    -23.022  0.0000E+00  0.0000E+00
    -22.898  0.6712E-09  0.8319E-10
    -22.774  0.5191E-02  0.6433E-03
    -22.650  0.4950E+01  0.6141E+00
    -22.526  0.1110E+02  0.1990E+01
    -22.402  0.7882E-01  0.2000E+01
    -22.278  0.4472E+00  0.2055E+01
    -22.154  0.3569E+02  0.6479E+01
    -22.031  0.1227E+02  0.8000E+01
    -21.907  0.2281E-02  0.8000E+01
    -21.783  0.7147E-11  0.8000E+01
    -21.659  0.0000E+00  0.8000E+01
    -21.535  0.0000E+00  0.8000E+01
    -21.411  0.0000E+00  0.8000E+01
    -21.287  0.0000E+00  0.8000E+01
    -21.163  0.0000E+00  0.8000E+01
    -21.039  0.0000E+00  0.8000E+01
    -20.915  0.0000E+00  0.8000E+01
    -20.791  0.0000E+00  0.8000E+01
    -20.667  0.0000E+00  0.8000E+01
    -20.543  0.0000E+00  0.8000E+01
    -20.419  0.0000E+00  0.8000E+01
    -20.295  0.0000E+00  0.8000E+01
    -20.172  0.0000E+00  0.8000E+01
    -20.048  0.0000E+00  0.8000E+01
    -19.924  0.0000E+00  0.8000E+01
    -19.800  0.0000E+00  0.8000E+01
    -19.676  0.0000E+00  0.8000E+01
    -19.552  0.0000E+00  0.8000E+01
    -19.428  0.0000E+00  0.8000E+01
    -19.304  0.0000E+00  0.8000E+01
    -19.180  0.0000E+00  0.8000E+01
    -19.056  0.0000E+00  0.8000E+01
    -18.932  0.0000E+00  0.8000E+01
    -18.808  0.0000E+00  0.8000E+01
    -18.684  0.0000E+00  0.8000E+01
    -18.560  0.6699E-08  0.8000E+01
    -18.436  0.1964E-01  0.8002E+01
    -18.313  0.8512E+01  0.9057E+01
    -18.189  0.7601E+01  0.9999E+01
    -18.065  0.4859E-02  0.1000E+02
    -17.941  0.4967E-10  0.1000E+02
    -17.817  0.0000E+00  0.1000E+02
    -17.693  0.0000E+00  0.1000E+02
    -17.569  0.0000E+00  0.1000E+02
    -17.445  0.0000E+00  0.1000E+02
    -17.321  0.0000E+00  0.1000E+02
    -17.197  0.0000E+00  0.1000E+02
    -17.073  0.0000E+00  0.1000E+02
    -16.949  0.0000E+00  0.1000E+02
    -16.825  0.0000E+00  0.1000E+02
    -16.701  0.0000E+00  0.1000E+02
    -16.577  0.0000E+00  0.1000E+02
    -16.454  0.0000E+00  0.1000E+02
    -16.330  0.0000E+00  0.1000E+02
    -16.206  0.0000E+00  0.1000E+02
    -16.082  0.0000E+00  0.1000E+02
    -15.958  0.0000E+00  0.1000E+02
    -15.834  0.0000E+00  0.1000E+02
    -15.710  0.0000E+00  0.1000E+02
    -15.586  0.0000E+00  0.1000E+02
    -15.462  0.0000E+00  0.1000E+02
    -15.338  0.0000E+00  0.1000E+02
    -15.214  0.0000E+00  0.1000E+02
    -15.090  0.0000E+00  0.1000E+02
    -14.966  0.0000E+00  0.1000E+02
    -14.842  0.0000E+00  0.1000E+02
    -14.718  0.0000E+00  0.1000E+02
    -14.594  0.0000E+00  0.1000E+02
    -14.471  0.0000E+00  0.1000E+02
    -14.347  0.0000E+00  0.1000E+02
    -14.223  0.0000E+00  0.1000E+02
    -14.099  0.0000E+00  0.1000E+02
    -13.975  0.0000E+00  0.1000E+02
    -13.851  0.0000E+00  0.1000E+02
    -13.727  0.0000E+00  0.1000E+02
    -13.603  0.0000E+00  0.1000E+02
    -13.479  0.0000E+00  0.1000E+02
    -13.355  0.0000E+00  0.1000E+02
    -13.231  0.0000E+00  0.1000E+02
    -13.107  0.0000E+00  0.1000E+02
    -12.983  0.0000E+00  0.1000E+02
    -12.859  0.0000E+00  0.1000E+02
    -12.735  0.0000E+00  0.1000E+02
    -12.612  0.0000E+00  0.1000E+02
    -12.488  0.0000E+00  0.1000E+02
    -12.364  0.0000E+00  0.1000E+02
    -12.240  0.0000E+00  0.1000E+02
    -12.116  0.0000E+00  0.1000E+02
    -11.992  0.0000E+00  0.1000E+02
    -11.868  0.0000E+00  0.1000E+02
    -11.744  0.0000E+00  0.1000E+02
    -11.620  0.0000E+00  0.1000E+02
    -11.496  0.0000E+00  0.1000E+02
    -11.372  0.0000E+00  0.1000E+02
    -11.248  0.0000E+00  0.1000E+02
    -11.124  0.0000E+00  0.1000E+02
    -11.000  0.0000E+00  0.1000E+02
    -10.876  0.0000E+00  0.1000E+02
    -10.753  0.0000E+00  0.1000E+02
    -10.629  0.0000E+00  0.1000E+02
    -10.505  0.0000E+00  0.1000E+02
    -10.381  0.0000E+00  0.1000E+02
    -10.257  0.0000E+00  0.1000E+02
    -10.133  0.0000E+00  0.1000E+02
    -10.009  0.0000E+00  0.1000E+02
     -9.885  0.0000E+00  0.1000E+02
     -9.761  0.0000E+00  0.1000E+02
     -9.637  0.0000E+00  0.1000E+02
     -9.513  0.0000E+00  0.1000E+02
     -9.389  0.0000E+00  0.1000E+02
     -9.265  0.0000E+00  0.1000E+02
     -9.141  0.0000E+00  0.1000E+02
     -9.017  0.0000E+00  0.1000E+02
     -8.894  0.0000E+00  0.1000E+02
     -8.770  0.0000E+00  0.1000E+02
     -8.646  0.0000E+00  0.1000E+02
     -8.522  0.0000E+00  0.1000E+02
     -8.398  0.0000E+00  0.1000E+02
     -8.274  0.0000E+00  0.1000E+02
     -8.150  0.0000E+00  0.1000E+02
     -8.026  0.0000E+00  0.1000E+02
     -7.902  0.0000E+00  0.1000E+02
     -7.778  0.0000E+00  0.1000E+02
     -7.654  0.0000E+00  0.1000E+02
     -7.530  0.0000E+00  0.1000E+02
     -7.406  0.5370E-08  0.1000E+02
     -7.282  0.9794E-02  0.1000E+02
     -7.158  0.2796E+01  0.1035E+02
     -7.035  0.8147E+01  0.1136E+02
     -6.911  0.3628E+01  0.1181E+02
     -6.787  0.3395E+01  0.1223E+02
     -6.663  0.9103E+01  0.1336E+02
     -6.539  0.1048E+02  0.1465E+02
     -6.415  0.4612E+01  0.1523E+02
     -6.291  0.4024E+01  0.1572E+02
     -6.167  0.1881E+01  0.1596E+02
     -6.043  0.3392E+00  0.1600E+02
     -5.919  0.1093E-02  0.1600E+02
     -5.795  0.2077E+00  0.1603E+02
     -5.671  0.1640E+00  0.1605E+02
     -5.547  0.6328E+00  0.1612E+02
     -5.423  0.5511E+00  0.1619E+02
     -5.299  0.1265E+01  0.1635E+02
     -5.176  0.1586E+01  0.1655E+02
     -5.052  0.2895E+01  0.1690E+02
     -4.928  0.3326E+01  0.1732E+02
     -4.804  0.3256E+01  0.1772E+02
     -4.680  0.1821E+01  0.1795E+02
     -4.556  0.4313E+00  0.1800E+02
     -4.432  0.1257E-02  0.1800E+02
     -4.308  0.5441E-09  0.1800E+02
     -4.184  0.0000E+00  0.1800E+02
     -4.060  0.0000E+00  0.1800E+02
     -3.936  0.0000E+00  0.1800E+02
     -3.812  0.0000E+00  0.1800E+02
     -3.688  0.0000E+00  0.1800E+02
     -3.564  0.0000E+00  0.1800E+02
     -3.440  0.0000E+00  0.1800E+02
     -3.317  0.0000E+00  0.1800E+02
     -3.193  0.0000E+00  0.1800E+02
     -3.069  0.0000E+00  0.1800E+02
     -2.945  0.0000E+00  0.1800E+02
     -2.821  0.0000E+00  0.1800E+02
     -2.697  0.0000E+00  0.1800E+02
     -2.573  0.0000E+00  0.1800E+02
     -2.449  0.0000E+00  0.1800E+02
     -2.325  0.0000E+00  0.1800E+02
     -2.201  0.0000E+00  0.1800E+02
     -2.077  0.0000E+00  0.1800E+02
     -1.953  0.0000E+00  0.1800E+02
     -1.829  0.1489E-12  0.1800E+02
     -1.705  0.5171E-04  0.1800E+02
     -1.581  0.2420E+00  0.1803E+02
     -1.458  0.1363E+01  0.1820E+02
     -1.334  0.3177E+01  0.1859E+02
     -1.210  0.4211E+01  0.1911E+02
     -1.086  0.2472E+01  0.1942E+02
     -0.962  0.3707E+01  0.1988E+02
     -0.838  0.4205E+01  0.2040E+02
     -0.714  0.5707E+01  0.2111E+02
     -0.590  0.5152E+01  0.2175E+02
     -0.466  0.1884E+01  0.2198E+02
     -0.342  0.1552E+00  0.2200E+02
     -0.218  0.1703E-04  0.2200E+02
     -0.094  0.3316E-13  0.2200E+02
      0.030  0.0000E+00  0.2200E+02
      0.154  0.0000E+00  0.2200E+02
      0.278  0.0000E+00  0.2200E+02
      0.401  0.0000E+00  0.2200E+02
      0.525  0.0000E+00  0.2200E+02
      0.649  0.0000E+00  0.2200E+02
      0.773  0.0000E+00  0.2200E+02
      0.897  0.0000E+00  0.2200E+02
      1.021  0.0000E+00  0.2200E+02
      1.145  0.0000E+00  0.2200E+02
      1.269  0.0000E+00  0.2200E+02
      1.393  0.0000E+00  0.2200E+02
      1.517  0.0000E+00  0.2200E+02
      1.641  0.0000E+00  0.2200E+02
      1.765  0.0000E+00  0.2200E+02
      1.889  0.0000E+00  0.2200E+02
      2.013  0.0000E+00  0.2200E+02
      2.137  0.0000E+00  0.2200E+02
      2.260  0.0000E+00  0.2200E+02
      2.384  0.0000E+00  0.2200E+02
      2.508  0.0000E+00  0.2200E+02
      2.632  0.0000E+00  0.2200E+02
      2.756  0.0000E+00  0.2200E+02
      2.880  0.0000E+00  0.2200E+02
      3.004  0.0000E+00  0.2200E+02
      3.128  0.0000E+00  0.2200E+02
      3.252  0.0000E+00  0.2200E+02
      3.376  0.0000E+00  0.2200E+02
      3.500  0.1326E-10  0.2200E+02
      3.624  0.4199E-03  0.2200E+02
      3.748  0.2830E+00  0.2204E+02
      3.872  0.1074E+01  0.2217E+02
      3.996  0.2177E+01  0.2244E+02
      4.119  0.3052E+01  0.2282E+02
      4.243  0.2597E+01  0.2314E+02
      4.367  0.2957E+01  0.2350E+02
      4.491  0.2944E+01  0.2387E+02
      4.615  0.1789E+01  0.2409E+02
      4.739  0.2201E+01  0.2436E+02
      4.863  0.2725E+01  0.2470E+02
      4.987  0.3119E+01  0.2509E+02
      5.111  0.2724E+01  0.2543E+02
      5.235  0.3691E+01  0.2588E+02
      5.359  0.2177E+01  0.2615E+02
      5.483  0.1036E+01  0.2628E+02
      5.607  0.3312E-01  0.2629E+02
      5.731  0.9669E-02  0.2629E+02
      5.855  0.1543E+01  0.2648E+02
      5.978  0.7140E+00  0.2657E+02
      6.102  0.1178E+01  0.2671E+02
      6.226  0.5070E+00  0.2678E+02
      6.350  0.4430E-03  0.2678E+02
      6.474  0.1220E-10  0.2678E+02
      6.598  0.1192E-07  0.2678E+02
      6.722  0.1539E-01  0.2678E+02
      6.846  0.1359E+01  0.2695E+02
      6.970  0.2070E+01  0.2720E+02
      7.094  0.2062E+01  0.2746E+02
      7.218  0.4207E+00  0.2751E+02
      7.342  0.8500E-01  0.2752E+02
      7.466  0.2359E+00  0.2755E+02
      7.590  0.9287E+00  0.2766E+02
      7.714  0.1692E+01  0.2787E+02
      7.838  0.8467E-01  0.2789E+02
      7.961  0.8448E+00  0.2799E+02
      8.085  0.1023E+01  0.2812E+02
      8.209  0.8051E+00  0.2822E+02
      8.333  0.1502E+01  0.2840E+02
      8.457  0.5245E+00  0.2847E+02
      8.581  0.2204E+01  0.2874E+02
      8.705  0.3121E+01  0.2913E+02
      8.829  0.4652E+01  0.2970E+02
      8.953  0.1638E+01  0.2991E+02
      9.077  0.1880E+01  0.3014E+02
      9.201  0.9046E+00  0.3025E+02
      9.325  0.1257E+01  0.3041E+02
      9.449  0.2324E+01  0.3070E+02
      9.573  0.1792E+01  0.3092E+02
      9.697  0.1330E+01  0.3108E+02
      9.820  0.1982E+01  0.3133E+02
      9.944  0.2373E+01  0.3162E+02
     10.068  0.1220E+01  0.3177E+02
     10.192  0.2243E+00  0.3180E+02
     10.316  0.4833E-04  0.3180E+02
     10.440  0.5795E-01  0.3181E+02
     10.564  0.2235E+00  0.3184E+02
     10.688  0.2874E+00  0.3187E+02
     10.812  0.8349E+00  0.3198E+02
     10.936  0.4838E-01  0.3198E+02
     11.060  0.6301E-01  0.3199E+02
     11.184  0.8340E-01  0.3200E+02
     11.308  0.1209E-02  0.3200E+02
     11.432  0.4556E-09  0.3200E+02
     11.556  0.0000E+00  0.3200E+02
     11.679  0.0000E+00  0.3200E+02
     11.803  0.0000E+00  0.3200E+02
     11.927  0.0000E+00  0.3200E+02
     12.051  0.0000E+00  0.3200E+02
     12.175  0.0000E+00  0.3200E+02
     12.299  0.0000E+00  0.3200E+02
     12.423  0.0000E+00  0.3200E+02
     12.547  0.0000E+00  0.3200E+02
     12.671  0.0000E+00  0.3200E+02
     12.795  0.0000E+00  0.3200E+02
