H3 Pd4                                  
   1.00000000000000     
    -2.0458674800000001   -2.0458674700000001    0.0000000000000000
     0.0000000000000000    2.0458674700000001   -2.0458674800000001
     6.0740491099999998   -4.0281785699999997   -6.0740491099999998
   H    Pd
     3     4
Direct
     0.1126418599999965    0.8873581400000035    0.3379245900000001
     0.8750000000000000    0.1250000000000000    0.6250000000000000
     0.6373581400000035    0.3626418599999965    0.9120754099999999
     0.2497498099999973    0.7502501900000027    0.7492474299999969
     0.5002501900000027    0.4997498099999973    0.5007525700000031
     0.0005247400000030    0.9994752599999970    0.0015742200000020
     0.7494752599999970    0.2505247400000030    0.2484257799999980
 
  0.00000000E+00  0.00000000E+00  0.00000000E+00
  0.00000000E+00  0.00000000E+00  0.00000000E+00
  0.00000000E+00  0.00000000E+00  0.00000000E+00
  0.00000000E+00  0.00000000E+00  0.00000000E+00
  0.00000000E+00  0.00000000E+00  0.00000000E+00
  0.00000000E+00  0.00000000E+00  0.00000000E+00
  0.00000000E+00  0.00000000E+00  0.00000000E+00
