H3Pd4
1.0
     -2.0458675      -2.0458675       0.0000000
      0.0000000       2.0458675      -2.0458675
      6.0740491      -4.0281786      -6.0740491
  H     Pd  
  3     4   
Direct
      0.1126419       0.8873581       0.3379246
      0.8750000       0.1250000       0.6250000
      0.6373581       0.3626419       0.9120754
      0.2497498       0.7502502       0.7492474
      0.5002502       0.4997498       0.5007526
      0.0005247       0.9994753       0.0015742
      0.7494753       0.2505247       0.2484258
