   4   4   0   0
  0.8721098E+01  0.2754330E-09  0.2754330E-09  0.5309682E-09  0.5000000E-15
  1.000000000000000E-004
  CAR 
 unknown system                          
     28.20797820    -33.55705763  301      8.17887182      1.00000000
    -33.557  0.0000E+00  0.0000E+00
    -33.351  0.0000E+00  0.0000E+00
    -33.145  0.0000E+00  0.0000E+00
    -32.939  0.0000E+00  0.0000E+00
    -32.734  0.0000E+00  0.0000E+00
    -32.528  0.0000E+00  0.0000E+00
    -32.322  0.0000E+00  0.0000E+00
    -32.116  0.0000E+00  0.0000E+00
    -31.910  0.0000E+00  0.0000E+00
    -31.704  0.0000E+00  0.0000E+00
    -31.498  0.0000E+00  0.0000E+00
    -31.292  0.0000E+00  0.0000E+00
    -31.086  0.0000E+00  0.0000E+00
    -30.881  0.7054E-05  0.1452E-05
    -30.675  0.2525E+01  0.5198E+00
    -30.469  0.1795E+02  0.4216E+01
    -30.263  0.1672E+02  0.7659E+01
    -30.057  0.2016E+02  0.1181E+02
    -29.851  0.9298E+00  0.1200E+02
    -29.645  0.0000E+00  0.1200E+02
    -29.439  0.0000E+00  0.1200E+02
    -29.234  0.0000E+00  0.1200E+02
    -29.028  0.0000E+00  0.1200E+02
    -28.822  0.0000E+00  0.1200E+02
    -28.616  0.0000E+00  0.1200E+02
    -28.410  0.0000E+00  0.1200E+02
    -28.204  0.0000E+00  0.1200E+02
    -27.998  0.0000E+00  0.1200E+02
    -27.792  0.0000E+00  0.1200E+02
    -27.586  0.0000E+00  0.1200E+02
    -27.381  0.0000E+00  0.1200E+02
    -27.175  0.0000E+00  0.1200E+02
    -26.969  0.0000E+00  0.1200E+02
    -26.763  0.0000E+00  0.1200E+02
    -26.557  0.0000E+00  0.1200E+02
    -26.351  0.0000E+00  0.1200E+02
    -26.145  0.0000E+00  0.1200E+02
    -25.939  0.0000E+00  0.1200E+02
    -25.733  0.0000E+00  0.1200E+02
    -25.528  0.0000E+00  0.1200E+02
    -25.322  0.0000E+00  0.1200E+02
    -25.116  0.0000E+00  0.1200E+02
    -24.910  0.0000E+00  0.1200E+02
    -24.704  0.0000E+00  0.1200E+02
    -24.498  0.0000E+00  0.1200E+02
    -24.292  0.0000E+00  0.1200E+02
    -24.086  0.0000E+00  0.1200E+02
    -23.881  0.0000E+00  0.1200E+02
    -23.675  0.0000E+00  0.1200E+02
    -23.469  0.0000E+00  0.1200E+02
    -23.263  0.0000E+00  0.1200E+02
    -23.057  0.0000E+00  0.1200E+02
    -22.851  0.0000E+00  0.1200E+02
    -22.645  0.0000E+00  0.1200E+02
    -22.439  0.0000E+00  0.1200E+02
    -22.233  0.0000E+00  0.1200E+02
    -22.028  0.0000E+00  0.1200E+02
    -21.822  0.0000E+00  0.1200E+02
    -21.616  0.0000E+00  0.1200E+02
    -21.410  0.0000E+00  0.1200E+02
    -21.204  0.0000E+00  0.1200E+02
    -20.998  0.0000E+00  0.1200E+02
    -20.792  0.0000E+00  0.1200E+02
    -20.586  0.0000E+00  0.1200E+02
    -20.381  0.0000E+00  0.1200E+02
    -20.175  0.0000E+00  0.1200E+02
    -19.969  0.0000E+00  0.1200E+02
    -19.763  0.0000E+00  0.1200E+02
    -19.557  0.0000E+00  0.1200E+02
    -19.351  0.0000E+00  0.1200E+02
    -19.145  0.0000E+00  0.1200E+02
    -18.939  0.0000E+00  0.1200E+02
    -18.733  0.0000E+00  0.1200E+02
    -18.528  0.0000E+00  0.1200E+02
    -18.322  0.0000E+00  0.1200E+02
    -18.116  0.0000E+00  0.1200E+02
    -17.910  0.0000E+00  0.1200E+02
    -17.704  0.0000E+00  0.1200E+02
    -17.498  0.0000E+00  0.1200E+02
    -17.292  0.0000E+00  0.1200E+02
    -17.086  0.0000E+00  0.1200E+02
    -16.880  0.0000E+00  0.1200E+02
    -16.675  0.0000E+00  0.1200E+02
    -16.469  0.0000E+00  0.1200E+02
    -16.263  0.0000E+00  0.1200E+02
    -16.057  0.0000E+00  0.1200E+02
    -15.851  0.0000E+00  0.1200E+02
    -15.645  0.0000E+00  0.1200E+02
    -15.439  0.0000E+00  0.1200E+02
    -15.233  0.0000E+00  0.1200E+02
    -15.028  0.0000E+00  0.1200E+02
    -14.822  0.0000E+00  0.1200E+02
    -14.616  0.0000E+00  0.1200E+02
    -14.410  0.0000E+00  0.1200E+02
    -14.204  0.0000E+00  0.1200E+02
    -13.998  0.0000E+00  0.1200E+02
    -13.792  0.0000E+00  0.1200E+02
    -13.586  0.0000E+00  0.1200E+02
    -13.380  0.0000E+00  0.1200E+02
    -13.175  0.0000E+00  0.1200E+02
    -12.969  0.0000E+00  0.1200E+02
    -12.763  0.0000E+00  0.1200E+02
    -12.557  0.0000E+00  0.1200E+02
    -12.351  0.0000E+00  0.1200E+02
    -12.145  0.0000E+00  0.1200E+02
    -11.939  0.0000E+00  0.1200E+02
    -11.733  0.0000E+00  0.1200E+02
    -11.528  0.0000E+00  0.1200E+02
    -11.322  0.0000E+00  0.1200E+02
    -11.116  0.0000E+00  0.1200E+02
    -10.910  0.0000E+00  0.1200E+02
    -10.704  0.0000E+00  0.1200E+02
    -10.498  0.0000E+00  0.1200E+02
    -10.292  0.0000E+00  0.1200E+02
    -10.086  0.0000E+00  0.1200E+02
     -9.880  0.0000E+00  0.1200E+02
     -9.675  0.0000E+00  0.1200E+02
     -9.469  0.0000E+00  0.1200E+02
     -9.263  0.1745E-11  0.1200E+02
     -9.057  0.4812E-02  0.1200E+02
     -8.851  0.1034E+00  0.1202E+02
     -8.645  0.2244E+00  0.1207E+02
     -8.439  0.1681E+00  0.1210E+02
     -8.233  0.5964E+00  0.1223E+02
     -8.028  0.1779E+00  0.1226E+02
     -7.822  0.8123E+00  0.1243E+02
     -7.616  0.6726E+00  0.1257E+02
     -7.410  0.7846E+00  0.1273E+02
     -7.204  0.1477E+01  0.1303E+02
     -6.998  0.2697E+01  0.1359E+02
     -6.792  0.4067E+01  0.1443E+02
     -6.586  0.3138E+01  0.1507E+02
     -6.380  0.2638E+01  0.1562E+02
     -6.175  0.1539E+01  0.1593E+02
     -5.969  0.3272E+00  0.1600E+02
     -5.763  0.2071E-03  0.1600E+02
     -5.557  0.0000E+00  0.1600E+02
     -5.351  0.0000E+00  0.1600E+02
     -5.145  0.0000E+00  0.1600E+02
     -4.939  0.0000E+00  0.1600E+02
     -4.733  0.0000E+00  0.1600E+02
     -4.527  0.0000E+00  0.1600E+02
     -4.322  0.0000E+00  0.1600E+02
     -4.116  0.0000E+00  0.1600E+02
     -3.910  0.0000E+00  0.1600E+02
     -3.704  0.0000E+00  0.1600E+02
     -3.498  0.0000E+00  0.1600E+02
     -3.292  0.0000E+00  0.1600E+02
     -3.086  0.0000E+00  0.1600E+02
     -2.880  0.0000E+00  0.1600E+02
     -2.675  0.0000E+00  0.1600E+02
     -2.469  0.0000E+00  0.1600E+02
     -2.263  0.0000E+00  0.1600E+02
     -2.057  0.0000E+00  0.1600E+02
     -1.851  0.0000E+00  0.1600E+02
     -1.645  0.0000E+00  0.1600E+02
     -1.439  0.0000E+00  0.1600E+02
     -1.233  0.0000E+00  0.1600E+02
     -1.027  0.0000E+00  0.1600E+02
     -0.822  0.0000E+00  0.1600E+02
     -0.616  0.0000E+00  0.1600E+02
     -0.410  0.0000E+00  0.1600E+02
     -0.204  0.0000E+00  0.1600E+02
      0.002  0.2179E-05  0.1600E+02
      0.208  0.1870E-01  0.1600E+02
      0.414  0.3542E+00  0.1608E+02
      0.620  0.3492E+00  0.1615E+02
      0.825  0.7904E+00  0.1631E+02
      1.031  0.1237E+01  0.1657E+02
      1.237  0.1095E+01  0.1679E+02
      1.443  0.1783E+01  0.1716E+02
      1.649  0.2709E+01  0.1772E+02
      1.855  0.4028E+01  0.1855E+02
      2.061  0.3182E+01  0.1920E+02
      2.267  0.9024E+00  0.1939E+02
      2.473  0.1644E+01  0.1972E+02
      2.678  0.2264E+01  0.2019E+02
      2.884  0.2687E+01  0.2074E+02
      3.090  0.3749E+01  0.2152E+02
      3.296  0.1890E+01  0.2191E+02
      3.502  0.3565E+01  0.2264E+02
      3.708  0.3049E+01  0.2327E+02
      3.914  0.4411E+01  0.2418E+02
      4.120  0.3455E+01  0.2489E+02
      4.325  0.3012E+01  0.2551E+02
      4.531  0.3470E+01  0.2622E+02
      4.737  0.2133E+01  0.2666E+02
      4.943  0.1614E+01  0.2699E+02
      5.149  0.1461E+01  0.2729E+02
      5.355  0.1218E+01  0.2754E+02
      5.561  0.4206E+00  0.2763E+02
      5.767  0.8237E+00  0.2780E+02
      5.973  0.9030E+00  0.2799E+02
      6.178  0.5642E+00  0.2810E+02
      6.384  0.5883E+00  0.2822E+02
      6.590  0.8710E+00  0.2840E+02
      6.796  0.2052E+01  0.2883E+02
      7.002  0.1403E+01  0.2911E+02
      7.208  0.1240E+01  0.2937E+02
      7.414  0.3343E+01  0.3006E+02
      7.620  0.2607E+01  0.3059E+02
      7.826  0.2961E+01  0.3120E+02
      8.031  0.1878E+01  0.3159E+02
      8.237  0.2557E+01  0.3212E+02
      8.443  0.1301E+01  0.3239E+02
      8.649  0.1941E+01  0.3278E+02
      8.855  0.1809E+01  0.3316E+02
      9.061  0.2655E+01  0.3370E+02
      9.267  0.3157E+01  0.3435E+02
      9.473  0.2727E+01  0.3492E+02
      9.678  0.3796E+01  0.3570E+02
      9.884  0.4344E+01  0.3659E+02
     10.090  0.2736E+01  0.3715E+02
     10.296  0.5543E+01  0.3830E+02
     10.502  0.5685E+01  0.3947E+02
     10.708  0.7249E+01  0.4096E+02
     10.914  0.2697E+01  0.4151E+02
     11.120  0.1973E+01  0.4192E+02
     11.326  0.2115E+01  0.4236E+02
     11.531  0.1895E+01  0.4275E+02
     11.737  0.1701E+01  0.4310E+02
     11.943  0.2834E+01  0.4368E+02
     12.149  0.3034E+01  0.4430E+02
     12.355  0.2663E+01  0.4485E+02
     12.561  0.2616E+01  0.4539E+02
     12.767  0.3362E+01  0.4608E+02
     12.973  0.2530E+01  0.4660E+02
     13.178  0.2208E+01  0.4706E+02
     13.384  0.2106E+01  0.4749E+02
     13.590  0.1818E+01  0.4787E+02
     13.796  0.6501E+00  0.4800E+02
     14.002  0.3678E-03  0.4800E+02
     14.208  0.0000E+00  0.4800E+02
     14.414  0.0000E+00  0.4800E+02
     14.620  0.0000E+00  0.4800E+02
     14.826  0.0000E+00  0.4800E+02
     15.031  0.1276E-06  0.4800E+02
     15.237  0.1500E-01  0.4800E+02
     15.443  0.1059E-02  0.4800E+02
     15.649  0.1214E+00  0.4803E+02
     15.855  0.7082E-02  0.4803E+02
     16.061  0.1841E+00  0.4807E+02
     16.267  0.6254E-01  0.4808E+02
     16.473  0.6522E-01  0.4809E+02
     16.679  0.4583E+00  0.4819E+02
     16.884  0.4894E+00  0.4829E+02
     17.090  0.6004E+00  0.4841E+02
     17.296  0.9825E+00  0.4861E+02
     17.502  0.1738E+01  0.4897E+02
     17.708  0.1127E+01  0.4920E+02
     17.914  0.1268E+01  0.4947E+02
     18.120  0.1444E+01  0.4976E+02
     18.326  0.1376E+01  0.5005E+02
     18.531  0.1365E+01  0.5033E+02
     18.737  0.1253E+01  0.5059E+02
     18.943  0.1480E+01  0.5089E+02
     19.149  0.8755E+00  0.5107E+02
     19.355  0.1283E+01  0.5133E+02
     19.561  0.1327E+01  0.5161E+02
     19.767  0.7603E+00  0.5176E+02
     19.973  0.5634E+00  0.5188E+02
     20.179  0.4752E+00  0.5198E+02
     20.384  0.2031E+00  0.5202E+02
     20.590  0.4792E+00  0.5212E+02
     20.796  0.6650E+00  0.5226E+02
     21.002  0.8006E+00  0.5242E+02
     21.208  0.7382E+00  0.5257E+02
     21.414  0.4450E+00  0.5266E+02
     21.620  0.1543E+01  0.5298E+02
     21.826  0.1515E+01  0.5329E+02
     22.031  0.1850E+01  0.5367E+02
     22.237  0.2101E+01  0.5411E+02
     22.443  0.3316E+01  0.5479E+02
     22.649  0.1958E+01  0.5519E+02
     22.855  0.1368E+01  0.5547E+02
     23.061  0.9247E+00  0.5567E+02
     23.267  0.4203E+00  0.5575E+02
     23.473  0.5618E+00  0.5587E+02
     23.679  0.3386E+00  0.5594E+02
     23.884  0.4829E-01  0.5595E+02
     24.090  0.4805E-01  0.5596E+02
     24.296  0.1206E-02  0.5596E+02
     24.502  0.9512E-01  0.5598E+02
     24.708  0.1639E-04  0.5598E+02
     24.914  0.5332E-13  0.5598E+02
     25.120  0.9438E-02  0.5598E+02
     25.326  0.8718E-01  0.5600E+02
     25.531  0.1578E-01  0.5600E+02
     25.737  0.1692E-05  0.5600E+02
     25.943  0.0000E+00  0.5600E+02
     26.149  0.0000E+00  0.5600E+02
     26.355  0.0000E+00  0.5600E+02
     26.561  0.0000E+00  0.5600E+02
     26.767  0.0000E+00  0.5600E+02
     26.973  0.0000E+00  0.5600E+02
     27.179  0.0000E+00  0.5600E+02
     27.384  0.0000E+00  0.5600E+02
     27.590  0.0000E+00  0.5600E+02
     27.796  0.0000E+00  0.5600E+02
     28.002  0.0000E+00  0.5600E+02
     28.208  0.0000E+00  0.5600E+02
