Ag6 As2                                 
   1.00000000000000     
     2.9700199999999999   -5.1442249999999996    0.0000000000000000
     2.9700199999999999    5.1442249999999996    0.0000000000000000
     0.0000000000000000    0.0000000000000000    4.8004069999999999
   Ag   As
     6     2
Direct
     0.1665989999999979    0.3331980000000030    0.2500000000000000
     0.6668019999999970    0.8334010000000021    0.2500000000000000
     0.1665989999999979    0.8334010000000021    0.2500000000000000
     0.8334010000000021    0.6668019999999970    0.7500000000000000
     0.3331980000000030    0.1665989999999979    0.7500000000000000
     0.8334010000000021    0.1665989999999979    0.7500000000000000
     0.3333330000000032    0.6666669999999968    0.7500000000000000
     0.6666669999999968    0.3333330000000032    0.2500000000000000
 
  0.00000000E+00  0.00000000E+00  0.00000000E+00
  0.00000000E+00  0.00000000E+00  0.00000000E+00
  0.00000000E+00  0.00000000E+00  0.00000000E+00
  0.00000000E+00  0.00000000E+00  0.00000000E+00
  0.00000000E+00  0.00000000E+00  0.00000000E+00
  0.00000000E+00  0.00000000E+00  0.00000000E+00
  0.00000000E+00  0.00000000E+00  0.00000000E+00
  0.00000000E+00  0.00000000E+00  0.00000000E+00
