   8   8   0   0
  0.1833570E+02  0.5940040E-09  0.5940040E-09  0.4800407E-09  0.5000000E-15
  1.000000000000000E-004
  CAR 
 unknown system                          
     24.32587930     -5.71643428  301      7.38185881      1.00000000
     -5.716  0.0000E+00  0.0000E+00
     -5.616  0.0000E+00  0.0000E+00
     -5.516  0.0000E+00  0.0000E+00
     -5.416  0.0000E+00  0.0000E+00
     -5.316  0.0000E+00  0.0000E+00
     -5.216  0.0000E+00  0.0000E+00
     -5.116  0.0000E+00  0.0000E+00
     -5.015  0.0000E+00  0.0000E+00
     -4.915  0.0000E+00  0.0000E+00
     -4.815  0.0000E+00  0.0000E+00
     -4.715  0.0000E+00  0.0000E+00
     -4.615  0.5447E-14  0.5455E-15
     -4.515  0.2378E-06  0.2381E-07
     -4.415  0.4759E-02  0.4766E-03
     -4.314  0.1225E+00  0.1274E-01
     -4.214  0.7236E+00  0.8520E-01
     -4.114  0.1443E+01  0.2297E+00
     -4.014  0.9381E+00  0.3236E+00
     -3.914  0.2891E+01  0.6131E+00
     -3.814  0.3322E+01  0.9457E+00
     -3.714  0.3498E+01  0.1296E+01
     -3.613  0.4223E+01  0.1719E+01
     -3.513  0.7047E+01  0.2425E+01
     -3.413  0.1196E+02  0.3622E+01
     -3.313  0.3657E+01  0.3989E+01
     -3.213  0.1147E+00  0.4000E+01
     -3.113  0.1676E-04  0.4000E+01
     -3.013  0.2643E-11  0.4000E+01
     -2.912  0.0000E+00  0.4000E+01
     -2.812  0.0000E+00  0.4000E+01
     -2.712  0.0000E+00  0.4000E+01
     -2.612  0.0000E+00  0.4000E+01
     -2.512  0.0000E+00  0.4000E+01
     -2.412  0.0000E+00  0.4000E+01
     -2.312  0.0000E+00  0.4000E+01
     -2.211  0.0000E+00  0.4000E+01
     -2.111  0.0000E+00  0.4000E+01
     -2.011  0.0000E+00  0.4000E+01
     -1.911  0.0000E+00  0.4000E+01
     -1.811  0.0000E+00  0.4000E+01
     -1.711  0.0000E+00  0.4000E+01
     -1.611  0.0000E+00  0.4000E+01
     -1.511  0.0000E+00  0.4000E+01
     -1.410  0.0000E+00  0.4000E+01
     -1.310  0.0000E+00  0.4000E+01
     -1.210  0.0000E+00  0.4000E+01
     -1.110  0.0000E+00  0.4000E+01
     -1.010  0.0000E+00  0.4000E+01
     -0.910  0.0000E+00  0.4000E+01
     -0.810  0.0000E+00  0.4000E+01
     -0.709  0.0000E+00  0.4000E+01
     -0.609  0.0000E+00  0.4000E+01
     -0.509  0.0000E+00  0.4000E+01
     -0.409  0.0000E+00  0.4000E+01
     -0.309  0.0000E+00  0.4000E+01
     -0.209  0.0000E+00  0.4000E+01
     -0.109  0.0000E+00  0.4000E+01
     -0.008  0.0000E+00  0.4000E+01
      0.092  0.0000E+00  0.4000E+01
      0.192  0.0000E+00  0.4000E+01
      0.292  0.0000E+00  0.4000E+01
      0.392  0.0000E+00  0.4000E+01
      0.492  0.0000E+00  0.4000E+01
      0.592  0.0000E+00  0.4000E+01
      0.693  0.4753E-08  0.4000E+01
      0.793  0.1647E-02  0.4000E+01
      0.893  0.4058E+00  0.4041E+01
      0.993  0.1240E+01  0.4165E+01
      1.093  0.3129E+01  0.4478E+01
      1.193  0.4510E+01  0.4930E+01
      1.293  0.1224E+02  0.6156E+01
      1.394  0.7576E+01  0.6915E+01
      1.494  0.9620E+01  0.7878E+01
      1.594  0.5588E+01  0.8438E+01
      1.694  0.1039E+02  0.9478E+01
      1.794  0.1590E+02  0.1107E+02
      1.894  0.2672E+02  0.1375E+02
      1.994  0.2191E+02  0.1594E+02
      2.095  0.2005E+02  0.1795E+02
      2.195  0.2544E+02  0.2050E+02
      2.295  0.2326E+02  0.2282E+02
      2.395  0.2899E+02  0.2573E+02
      2.495  0.2180E+02  0.2791E+02
      2.595  0.1620E+02  0.2953E+02
      2.695  0.1854E+02  0.3139E+02
      2.796  0.2382E+02  0.3377E+02
      2.896  0.1723E+02  0.3550E+02
      2.996  0.2707E+02  0.3821E+02
      3.096  0.2071E+02  0.4028E+02
      3.196  0.1784E+02  0.4207E+02
      3.296  0.2044E+02  0.4412E+02
      3.396  0.2111E+02  0.4623E+02
      3.497  0.2815E+02  0.4905E+02
      3.597  0.3297E+02  0.5235E+02
      3.697  0.3150E+02  0.5551E+02
      3.797  0.2823E+02  0.5833E+02
      3.897  0.1418E+02  0.5975E+02
      3.997  0.8540E+01  0.6061E+02
      4.097  0.1273E+02  0.6188E+02
      4.198  0.2019E+02  0.6390E+02
      4.298  0.1638E+02  0.6555E+02
      4.398  0.7781E+01  0.6632E+02
      4.498  0.2843E+01  0.6661E+02
      4.598  0.2712E+01  0.6688E+02
      4.698  0.3624E+01  0.6724E+02
      4.798  0.3020E+01  0.6755E+02
      4.899  0.2574E+01  0.6780E+02
      4.999  0.2236E+01  0.6803E+02
      5.099  0.2889E+01  0.6832E+02
      5.199  0.9827E+01  0.6930E+02
      5.299  0.4387E+01  0.6974E+02
      5.399  0.4837E+01  0.7022E+02
      5.499  0.5509E+01  0.7078E+02
      5.600  0.2302E+01  0.7101E+02
      5.700  0.2978E+01  0.7131E+02
      5.800  0.2982E+01  0.7160E+02
      5.900  0.2389E+01  0.7184E+02
      6.000  0.3554E+01  0.7220E+02
      6.100  0.1912E+01  0.7239E+02
      6.200  0.1017E+01  0.7249E+02
      6.300  0.9151E+00  0.7258E+02
      6.401  0.3482E+01  0.7293E+02
      6.501  0.8348E+01  0.7377E+02
      6.601  0.3566E+01  0.7413E+02
      6.701  0.1568E+01  0.7428E+02
      6.801  0.1132E+00  0.7429E+02
      6.901  0.1577E+01  0.7445E+02
      7.001  0.4077E+01  0.7486E+02
      7.102  0.1790E+01  0.7504E+02
      7.202  0.3614E+01  0.7540E+02
      7.302  0.2584E+01  0.7566E+02
      7.402  0.4596E+01  0.7612E+02
      7.502  0.4874E+01  0.7661E+02
      7.602  0.3874E+00  0.7665E+02
      7.702  0.8643E+00  0.7673E+02
      7.803  0.2201E+01  0.7695E+02
      7.903  0.2403E+01  0.7719E+02
      8.003  0.2435E+01  0.7744E+02
      8.103  0.1754E+01  0.7761E+02
      8.203  0.1086E+01  0.7772E+02
      8.303  0.1069E+01  0.7783E+02
      8.403  0.3990E+01  0.7823E+02
      8.504  0.2902E+01  0.7852E+02
      8.604  0.1537E+01  0.7867E+02
      8.704  0.2174E+01  0.7889E+02
      8.804  0.4985E+01  0.7939E+02
      8.904  0.3529E+01  0.7974E+02
      9.004  0.8492E+00  0.7983E+02
      9.104  0.2005E+01  0.8003E+02
      9.205  0.7294E+00  0.8010E+02
      9.305  0.1064E+01  0.8021E+02
      9.405  0.2604E+01  0.8047E+02
      9.505  0.1504E+01  0.8062E+02
      9.605  0.3283E+00  0.8065E+02
      9.705  0.1221E+01  0.8078E+02
      9.805  0.3098E+01  0.8109E+02
      9.906  0.3827E+01  0.8147E+02
     10.006  0.2197E+01  0.8169E+02
     10.106  0.2273E+01  0.8192E+02
     10.206  0.3596E+01  0.8228E+02
     10.306  0.5098E+01  0.8279E+02
     10.406  0.3270E+01  0.8312E+02
     10.506  0.2891E+01  0.8340E+02
     10.607  0.2568E+01  0.8366E+02
     10.707  0.3571E+01  0.8402E+02
     10.807  0.3232E+01  0.8434E+02
     10.907  0.3777E+01  0.8472E+02
     11.007  0.4060E+01  0.8513E+02
     11.107  0.2993E+01  0.8543E+02
     11.207  0.1534E+01  0.8558E+02
     11.308  0.7440E+00  0.8566E+02
     11.408  0.1537E+01  0.8581E+02
     11.508  0.3821E+01  0.8619E+02
     11.608  0.5871E+01  0.8678E+02
     11.708  0.2747E+01  0.8706E+02
     11.808  0.5511E+01  0.8761E+02
     11.908  0.5030E+01  0.8811E+02
     12.009  0.4801E+01  0.8859E+02
     12.109  0.1576E+01  0.8875E+02
     12.209  0.2081E+01  0.8896E+02
     12.309  0.1475E+01  0.8911E+02
     12.409  0.1183E+01  0.8922E+02
     12.509  0.3532E+01  0.8958E+02
     12.609  0.6764E+01  0.9026E+02
     12.710  0.4927E+01  0.9075E+02
     12.810  0.3247E+01  0.9107E+02
     12.910  0.7622E+01  0.9184E+02
     13.010  0.3211E+01  0.9216E+02
     13.110  0.1334E+01  0.9229E+02
     13.210  0.7918E+00  0.9237E+02
     13.310  0.3491E+01  0.9272E+02
     13.411  0.4939E+01  0.9322E+02
     13.511  0.3668E+01  0.9358E+02
     13.611  0.7745E+00  0.9366E+02
     13.711  0.5559E+01  0.9422E+02
     13.811  0.5428E+01  0.9476E+02
     13.911  0.6334E+01  0.9540E+02
     14.011  0.7145E+01  0.9611E+02
     14.111  0.6382E+01  0.9675E+02
     14.212  0.5937E+00  0.9681E+02
     14.312  0.3507E+01  0.9716E+02
     14.412  0.3625E+01  0.9752E+02
     14.512  0.2267E+01  0.9775E+02
     14.612  0.3033E+01  0.9805E+02
     14.712  0.2283E+01  0.9828E+02
     14.812  0.2229E+01  0.9851E+02
     14.913  0.3447E+01  0.9885E+02
     15.013  0.4269E+01  0.9928E+02
     15.113  0.2161E+01  0.9950E+02
     15.213  0.5339E+01  0.1000E+03
     15.313  0.2036E+01  0.1002E+03
     15.413  0.2630E+01  0.1005E+03
     15.513  0.3710E+01  0.1009E+03
     15.614  0.3034E+01  0.1012E+03
     15.714  0.1012E+01  0.1013E+03
     15.814  0.1329E+01  0.1014E+03
     15.914  0.2453E+01  0.1017E+03
     16.014  0.2078E+01  0.1019E+03
     16.114  0.4324E+01  0.1023E+03
     16.214  0.2366E+01  0.1025E+03
     16.315  0.2335E+01  0.1028E+03
     16.415  0.6394E+01  0.1034E+03
     16.515  0.5651E+01  0.1040E+03
     16.615  0.3662E+01  0.1043E+03
     16.715  0.5041E+01  0.1048E+03
     16.815  0.2941E+01  0.1051E+03
     16.915  0.1117E+01  0.1052E+03
     17.016  0.5265E+01  0.1058E+03
     17.116  0.5494E+01  0.1063E+03
     17.216  0.3968E+01  0.1067E+03
     17.316  0.2570E+01  0.1070E+03
     17.416  0.2233E+00  0.1070E+03
     17.516  0.2464E+01  0.1072E+03
     17.616  0.3789E+01  0.1076E+03
     17.717  0.6191E+01  0.1082E+03
     17.817  0.3089E+01  0.1086E+03
     17.917  0.2905E+01  0.1088E+03
     18.017  0.2925E+01  0.1091E+03
     18.117  0.2891E+01  0.1094E+03
     18.217  0.7789E+01  0.1102E+03
     18.317  0.3154E+01  0.1105E+03
     18.418  0.1664E+01  0.1107E+03
     18.518  0.5755E+01  0.1113E+03
     18.618  0.3486E+01  0.1116E+03
     18.718  0.4440E+01  0.1121E+03
     18.818  0.1177E+01  0.1122E+03
     18.918  0.6138E+01  0.1128E+03
     19.018  0.1711E+01  0.1130E+03
     19.119  0.2987E+01  0.1133E+03
     19.219  0.5490E+01  0.1138E+03
     19.319  0.4896E+01  0.1143E+03
     19.419  0.3834E+01  0.1147E+03
     19.519  0.5729E+01  0.1153E+03
     19.619  0.4084E+01  0.1157E+03
     19.719  0.3796E+01  0.1161E+03
     19.820  0.5967E+01  0.1167E+03
     19.920  0.4416E+01  0.1171E+03
     20.020  0.4981E+01  0.1176E+03
     20.120  0.1348E+01  0.1177E+03
     20.220  0.4818E+01  0.1182E+03
     20.320  0.6531E+01  0.1189E+03
     20.420  0.4284E+01  0.1193E+03
     20.521  0.6975E+01  0.1200E+03
     20.621  0.7008E+01  0.1207E+03
     20.721  0.3737E+01  0.1211E+03
     20.821  0.4816E+01  0.1216E+03
     20.921  0.4409E+01  0.1220E+03
     21.021  0.5102E+01  0.1225E+03
     21.121  0.1822E+01  0.1227E+03
     21.222  0.2307E+01  0.1229E+03
     21.322  0.3510E+01  0.1233E+03
     21.422  0.6334E+01  0.1239E+03
     21.522  0.8800E+01  0.1248E+03
     21.622  0.3683E+01  0.1252E+03
     21.722  0.5178E+01  0.1257E+03
     21.822  0.6683E+01  0.1263E+03
     21.922  0.1382E+01  0.1265E+03
     22.023  0.4134E+00  0.1265E+03
     22.123  0.2695E+01  0.1268E+03
     22.223  0.2683E+01  0.1271E+03
     22.323  0.1611E+01  0.1272E+03
     22.423  0.3656E+01  0.1276E+03
     22.523  0.1892E+01  0.1278E+03
     22.623  0.4570E+00  0.1278E+03
     22.724  0.8538E-01  0.1278E+03
     22.824  0.1174E+01  0.1279E+03
     22.924  0.4189E+00  0.1280E+03
     23.024  0.1086E+00  0.1280E+03
     23.124  0.4758E-02  0.1280E+03
     23.224  0.2378E-06  0.1280E+03
     23.324  0.5440E-14  0.1280E+03
     23.425  0.0000E+00  0.1280E+03
     23.525  0.0000E+00  0.1280E+03
     23.625  0.0000E+00  0.1280E+03
     23.725  0.0000E+00  0.1280E+03
     23.825  0.0000E+00  0.1280E+03
     23.925  0.0000E+00  0.1280E+03
     24.025  0.0000E+00  0.1280E+03
     24.126  0.0000E+00  0.1280E+03
     24.226  0.0000E+00  0.1280E+03
     24.326  0.0000E+00  0.1280E+03
