unknown system                          
           1
     2.970020   -5.144225    0.000000
     2.970020    5.144225    0.000000
     0.000000    0.000000    4.800407
   Ag   As
     6     2
Direct configuration=     1
   0.16659900  0.33319800  0.25000000
   0.66680200  0.83340100  0.25000000
   0.16659900  0.83340100  0.25000000
   0.83340100  0.66680200  0.75000000
   0.33319800  0.16659900  0.75000000
   0.83340100  0.16659900  0.75000000
   0.33333300  0.66666700  0.75000000
   0.66666700  0.33333300  0.25000000
