       N       E                     dE             d eps       ncg     rms          rms(c)
DAV:   1     0.575732123591E+03    0.57573E+03   -0.24101E+04  1880   0.939E+02
DAV:   2    -0.204347567034E+00   -0.57594E+03   -0.54184E+03  2824   0.212E+02
DAV:   3    -0.118830120723E+03   -0.11863E+03   -0.11767E+03  2344   0.101E+02
DAV:   4    -0.122407329174E+03   -0.35772E+01   -0.35439E+01  2272   0.234E+01
DAV:   5    -0.122475155323E+03   -0.67826E-01   -0.67679E-01  2264   0.291E+00    0.212E+01
DAV:   6    -0.113421793417E+03    0.90534E+01   -0.16075E+01  2152   0.198E+01    0.124E+01
DAV:   7    -0.111629191028E+03    0.17926E+01   -0.28463E+00  2424   0.947E+00    0.702E+00
DAV:   8    -0.111060890917E+03    0.56830E+00   -0.28166E+00  2272   0.607E+00    0.192E+00
DAV:   9    -0.111035818104E+03    0.25073E-01   -0.17533E-01  2168   0.178E+00    0.935E-01
DAV:  10    -0.111025051621E+03    0.10766E-01   -0.29353E-02  2200   0.758E-01    0.239E-01
DAV:  11    -0.111024398068E+03    0.65355E-03   -0.20200E-03  2232   0.196E-01    0.143E-01
DAV:  12    -0.111024746922E+03   -0.34885E-03   -0.95001E-04  1936   0.110E-01    0.623E-02
DAV:  13    -0.111027143413E+03   -0.23965E-02   -0.57795E-04  1984   0.668E-02    0.468E-02
DAV:  14    -0.111029645360E+03   -0.25019E-02   -0.49638E-04  2016   0.551E-02    0.307E-02
DAV:  15    -0.111031695216E+03   -0.20499E-02   -0.72920E-05  2088   0.241E-02    0.157E-02
DAV:  16    -0.111033596913E+03   -0.19017E-02   -0.11734E-04  2128   0.260E-02    0.120E-02
DAV:  17    -0.111033868012E+03   -0.27110E-03   -0.10731E-05  2304   0.841E-03    0.691E-03
DAV:  18    -0.111034167916E+03   -0.29990E-03   -0.21582E-05  1992   0.980E-03    0.199E-03
DAV:  19    -0.111034191122E+03   -0.23206E-04   -0.57635E-07  1864   0.237E-03    0.938E-04
DAV:  20    -0.111034210245E+03   -0.19123E-04   -0.11673E-06  1808   0.218E-03    0.692E-04
DAV:  21    -0.111034211477E+03   -0.12323E-05   -0.49560E-08  1824   0.801E-04    0.417E-04
DAV:  22    -0.111034211795E+03   -0.31847E-06   -0.16652E-08  1696   0.414E-04
   1 F= -.11103421E+03 E0= -.11103421E+03  d E =-.182542E-13
