unknown system                          
           1
     3.240711   -5.613075    0.000000
     3.240711    5.613075    0.000000
     0.000000    0.000000   22.053852
   C    N 
     6     8
Direct configuration=     1
   0.55613600  0.69436000  0.25000000
   0.13822400  0.44386400  0.25000000
   0.30564000  0.86177600  0.25000000
   0.44386400  0.30564000  0.75000000
   0.86177600  0.55613600  0.75000000
   0.69436000  0.13822400  0.75000000
   0.74271400  0.70867000  0.25000000
   0.96595600  0.25728600  0.25000000
   0.29133000  0.03404400  0.25000000
   0.25728600  0.29133000  0.75000000
   0.03404400  0.74271400  0.75000000
   0.70867000  0.96595600  0.75000000
   0.33333300  0.66666700  0.25000000
   0.66666700  0.33333300  0.75000000
