Be2 Cl4                                 
   1.00000000000000     
     4.7457105700000000    0.0000000200000000   -2.2242793600000001
    -1.0805189500000001    4.6835877400000001   -2.3053937300000000
     0.0295798700000000    0.0435010400000000    6.2379637900000002
   Be   Cl
     2     4
Direct
     0.2500000000000000    0.0000000000000000    0.0000000000000000
     0.7500000000000000    0.0000000000000000    0.0000000000000000
     0.6100604499999989    0.9049984500000008    0.2201208999999977
     0.3899395500000011    0.0950015499999992    0.7798791000000023
     0.1100604499999989    0.3151214499999995    0.2201208999999977
     0.8899395500000011    0.6848785500000005    0.7798791000000023
 
  0.00000000E+00  0.00000000E+00  0.00000000E+00
  0.00000000E+00  0.00000000E+00  0.00000000E+00
  0.00000000E+00  0.00000000E+00  0.00000000E+00
  0.00000000E+00  0.00000000E+00  0.00000000E+00
  0.00000000E+00  0.00000000E+00  0.00000000E+00
  0.00000000E+00  0.00000000E+00  0.00000000E+00
