   6   6   0   0
  0.2325659E+02  0.5241106E-09  0.5330887E-09  0.6238186E-09  0.5000000E-15
  1.000000000000000E-004
  CAR 
 unknown system                          
     15.35272127   -105.17526791  301     -0.91855727      1.00000000
   -105.175  0.0000E+00  0.0000E+00
   -104.774  0.0000E+00  0.0000E+00
   -104.372  0.0000E+00  0.0000E+00
   -103.970  0.0000E+00  0.0000E+00
   -103.568  0.0000E+00  0.0000E+00
   -103.166  0.0000E+00  0.0000E+00
   -102.765  0.0000E+00  0.0000E+00
   -102.363  0.0000E+00  0.0000E+00
   -101.961  0.0000E+00  0.0000E+00
   -101.559  0.0000E+00  0.0000E+00
   -101.158  0.0000E+00  0.0000E+00
   -100.756  0.0000E+00  0.0000E+00
   -100.354  0.0000E+00  0.0000E+00
    -99.952  0.2120E-11  0.8517E-12
    -99.551  0.9956E+01  0.4000E+01
    -99.149  0.0000E+00  0.4000E+01
    -98.747  0.0000E+00  0.4000E+01
    -98.345  0.0000E+00  0.4000E+01
    -97.944  0.0000E+00  0.4000E+01
    -97.542  0.0000E+00  0.4000E+01
    -97.140  0.0000E+00  0.4000E+01
    -96.738  0.0000E+00  0.4000E+01
    -96.337  0.0000E+00  0.4000E+01
    -95.935  0.0000E+00  0.4000E+01
    -95.533  0.0000E+00  0.4000E+01
    -95.131  0.0000E+00  0.4000E+01
    -94.730  0.0000E+00  0.4000E+01
    -94.328  0.0000E+00  0.4000E+01
    -93.926  0.0000E+00  0.4000E+01
    -93.524  0.0000E+00  0.4000E+01
    -93.122  0.0000E+00  0.4000E+01
    -92.721  0.0000E+00  0.4000E+01
    -92.319  0.0000E+00  0.4000E+01
    -91.917  0.0000E+00  0.4000E+01
    -91.515  0.0000E+00  0.4000E+01
    -91.114  0.0000E+00  0.4000E+01
    -90.712  0.0000E+00  0.4000E+01
    -90.310  0.0000E+00  0.4000E+01
    -89.908  0.0000E+00  0.4000E+01
    -89.507  0.0000E+00  0.4000E+01
    -89.105  0.0000E+00  0.4000E+01
    -88.703  0.0000E+00  0.4000E+01
    -88.301  0.0000E+00  0.4000E+01
    -87.900  0.0000E+00  0.4000E+01
    -87.498  0.0000E+00  0.4000E+01
    -87.096  0.0000E+00  0.4000E+01
    -86.694  0.0000E+00  0.4000E+01
    -86.293  0.0000E+00  0.4000E+01
    -85.891  0.0000E+00  0.4000E+01
    -85.489  0.0000E+00  0.4000E+01
    -85.087  0.0000E+00  0.4000E+01
    -84.686  0.0000E+00  0.4000E+01
    -84.284  0.0000E+00  0.4000E+01
    -83.882  0.0000E+00  0.4000E+01
    -83.480  0.0000E+00  0.4000E+01
    -83.078  0.0000E+00  0.4000E+01
    -82.677  0.0000E+00  0.4000E+01
    -82.275  0.0000E+00  0.4000E+01
    -81.873  0.0000E+00  0.4000E+01
    -81.471  0.0000E+00  0.4000E+01
    -81.070  0.0000E+00  0.4000E+01
    -80.668  0.0000E+00  0.4000E+01
    -80.266  0.0000E+00  0.4000E+01
    -79.864  0.0000E+00  0.4000E+01
    -79.463  0.0000E+00  0.4000E+01
    -79.061  0.0000E+00  0.4000E+01
    -78.659  0.0000E+00  0.4000E+01
    -78.257  0.0000E+00  0.4000E+01
    -77.856  0.0000E+00  0.4000E+01
    -77.454  0.0000E+00  0.4000E+01
    -77.052  0.0000E+00  0.4000E+01
    -76.650  0.0000E+00  0.4000E+01
    -76.249  0.0000E+00  0.4000E+01
    -75.847  0.0000E+00  0.4000E+01
    -75.445  0.0000E+00  0.4000E+01
    -75.043  0.0000E+00  0.4000E+01
    -74.642  0.0000E+00  0.4000E+01
    -74.240  0.0000E+00  0.4000E+01
    -73.838  0.0000E+00  0.4000E+01
    -73.436  0.0000E+00  0.4000E+01
    -73.034  0.0000E+00  0.4000E+01
    -72.633  0.0000E+00  0.4000E+01
    -72.231  0.0000E+00  0.4000E+01
    -71.829  0.0000E+00  0.4000E+01
    -71.427  0.0000E+00  0.4000E+01
    -71.026  0.0000E+00  0.4000E+01
    -70.624  0.0000E+00  0.4000E+01
    -70.222  0.0000E+00  0.4000E+01
    -69.820  0.0000E+00  0.4000E+01
    -69.419  0.0000E+00  0.4000E+01
    -69.017  0.0000E+00  0.4000E+01
    -68.615  0.0000E+00  0.4000E+01
    -68.213  0.0000E+00  0.4000E+01
    -67.812  0.0000E+00  0.4000E+01
    -67.410  0.0000E+00  0.4000E+01
    -67.008  0.0000E+00  0.4000E+01
    -66.606  0.0000E+00  0.4000E+01
    -66.205  0.0000E+00  0.4000E+01
    -65.803  0.0000E+00  0.4000E+01
    -65.401  0.0000E+00  0.4000E+01
    -64.999  0.0000E+00  0.4000E+01
    -64.598  0.0000E+00  0.4000E+01
    -64.196  0.0000E+00  0.4000E+01
    -63.794  0.0000E+00  0.4000E+01
    -63.392  0.0000E+00  0.4000E+01
    -62.990  0.0000E+00  0.4000E+01
    -62.589  0.0000E+00  0.4000E+01
    -62.187  0.0000E+00  0.4000E+01
    -61.785  0.0000E+00  0.4000E+01
    -61.383  0.0000E+00  0.4000E+01
    -60.982  0.0000E+00  0.4000E+01
    -60.580  0.0000E+00  0.4000E+01
    -60.178  0.0000E+00  0.4000E+01
    -59.776  0.0000E+00  0.4000E+01
    -59.375  0.0000E+00  0.4000E+01
    -58.973  0.0000E+00  0.4000E+01
    -58.571  0.0000E+00  0.4000E+01
    -58.169  0.0000E+00  0.4000E+01
    -57.768  0.0000E+00  0.4000E+01
    -57.366  0.0000E+00  0.4000E+01
    -56.964  0.0000E+00  0.4000E+01
    -56.562  0.0000E+00  0.4000E+01
    -56.161  0.0000E+00  0.4000E+01
    -55.759  0.0000E+00  0.4000E+01
    -55.357  0.0000E+00  0.4000E+01
    -54.955  0.0000E+00  0.4000E+01
    -54.554  0.0000E+00  0.4000E+01
    -54.152  0.0000E+00  0.4000E+01
    -53.750  0.0000E+00  0.4000E+01
    -53.348  0.0000E+00  0.4000E+01
    -52.946  0.0000E+00  0.4000E+01
    -52.545  0.0000E+00  0.4000E+01
    -52.143  0.0000E+00  0.4000E+01
    -51.741  0.0000E+00  0.4000E+01
    -51.339  0.0000E+00  0.4000E+01
    -50.938  0.0000E+00  0.4000E+01
    -50.536  0.0000E+00  0.4000E+01
    -50.134  0.0000E+00  0.4000E+01
    -49.732  0.0000E+00  0.4000E+01
    -49.331  0.0000E+00  0.4000E+01
    -48.929  0.0000E+00  0.4000E+01
    -48.527  0.0000E+00  0.4000E+01
    -48.125  0.0000E+00  0.4000E+01
    -47.724  0.0000E+00  0.4000E+01
    -47.322  0.0000E+00  0.4000E+01
    -46.920  0.0000E+00  0.4000E+01
    -46.518  0.0000E+00  0.4000E+01
    -46.117  0.0000E+00  0.4000E+01
    -45.715  0.0000E+00  0.4000E+01
    -45.313  0.0000E+00  0.4000E+01
    -44.911  0.0000E+00  0.4000E+01
    -44.510  0.0000E+00  0.4000E+01
    -44.108  0.0000E+00  0.4000E+01
    -43.706  0.0000E+00  0.4000E+01
    -43.304  0.0000E+00  0.4000E+01
    -42.902  0.0000E+00  0.4000E+01
    -42.501  0.0000E+00  0.4000E+01
    -42.099  0.0000E+00  0.4000E+01
    -41.697  0.0000E+00  0.4000E+01
    -41.295  0.0000E+00  0.4000E+01
    -40.894  0.0000E+00  0.4000E+01
    -40.492  0.0000E+00  0.4000E+01
    -40.090  0.0000E+00  0.4000E+01
    -39.688  0.0000E+00  0.4000E+01
    -39.287  0.0000E+00  0.4000E+01
    -38.885  0.0000E+00  0.4000E+01
    -38.483  0.0000E+00  0.4000E+01
    -38.081  0.0000E+00  0.4000E+01
    -37.680  0.0000E+00  0.4000E+01
    -37.278  0.0000E+00  0.4000E+01
    -36.876  0.0000E+00  0.4000E+01
    -36.474  0.0000E+00  0.4000E+01
    -36.073  0.0000E+00  0.4000E+01
    -35.671  0.0000E+00  0.4000E+01
    -35.269  0.0000E+00  0.4000E+01
    -34.867  0.0000E+00  0.4000E+01
    -34.466  0.0000E+00  0.4000E+01
    -34.064  0.0000E+00  0.4000E+01
    -33.662  0.0000E+00  0.4000E+01
    -33.260  0.0000E+00  0.4000E+01
    -32.858  0.0000E+00  0.4000E+01
    -32.457  0.0000E+00  0.4000E+01
    -32.055  0.0000E+00  0.4000E+01
    -31.653  0.0000E+00  0.4000E+01
    -31.251  0.0000E+00  0.4000E+01
    -30.850  0.0000E+00  0.4000E+01
    -30.448  0.0000E+00  0.4000E+01
    -30.046  0.0000E+00  0.4000E+01
    -29.644  0.0000E+00  0.4000E+01
    -29.243  0.0000E+00  0.4000E+01
    -28.841  0.0000E+00  0.4000E+01
    -28.439  0.0000E+00  0.4000E+01
    -28.037  0.0000E+00  0.4000E+01
    -27.636  0.0000E+00  0.4000E+01
    -27.234  0.0000E+00  0.4000E+01
    -26.832  0.0000E+00  0.4000E+01
    -26.430  0.0000E+00  0.4000E+01
    -26.029  0.0000E+00  0.4000E+01
    -25.627  0.0000E+00  0.4000E+01
    -25.225  0.0000E+00  0.4000E+01
    -24.823  0.0000E+00  0.4000E+01
    -24.422  0.0000E+00  0.4000E+01
    -24.020  0.0000E+00  0.4000E+01
    -23.618  0.0000E+00  0.4000E+01
    -23.216  0.0000E+00  0.4000E+01
    -22.814  0.0000E+00  0.4000E+01
    -22.413  0.0000E+00  0.4000E+01
    -22.011  0.0000E+00  0.4000E+01
    -21.609  0.0000E+00  0.4000E+01
    -21.207  0.0000E+00  0.4000E+01
    -20.806  0.0000E+00  0.4000E+01
    -20.404  0.0000E+00  0.4000E+01
    -20.002  0.0000E+00  0.4000E+01
    -19.600  0.0000E+00  0.4000E+01
    -19.199  0.0000E+00  0.4000E+01
    -18.797  0.0000E+00  0.4000E+01
    -18.395  0.0000E+00  0.4000E+01
    -17.993  0.0000E+00  0.4000E+01
    -17.592  0.0000E+00  0.4000E+01
    -17.190  0.0000E+00  0.4000E+01
    -16.788  0.0000E+00  0.4000E+01
    -16.386  0.0000E+00  0.4000E+01
    -15.985  0.0000E+00  0.4000E+01
    -15.583  0.2101E-10  0.4000E+01
    -15.181  0.2144E+01  0.4861E+01
    -14.779  0.3828E+01  0.6496E+01
    -14.378  0.4168E+01  0.8365E+01
    -13.976  0.8959E+01  0.1200E+02
    -13.574  0.0000E+00  0.1200E+02
    -13.172  0.0000E+00  0.1200E+02
    -12.770  0.0000E+00  0.1200E+02
    -12.369  0.0000E+00  0.1200E+02
    -11.967  0.0000E+00  0.1200E+02
    -11.565  0.0000E+00  0.1200E+02
    -11.163  0.0000E+00  0.1200E+02
    -10.762  0.0000E+00  0.1200E+02
    -10.360  0.0000E+00  0.1200E+02
     -9.958  0.0000E+00  0.1200E+02
     -9.556  0.0000E+00  0.1200E+02
     -9.155  0.0000E+00  0.1200E+02
     -8.753  0.0000E+00  0.1200E+02
     -8.351  0.0000E+00  0.1200E+02
     -7.949  0.0000E+00  0.1200E+02
     -7.548  0.0000E+00  0.1200E+02
     -7.146  0.0000E+00  0.1200E+02
     -6.744  0.0000E+00  0.1200E+02
     -6.342  0.0000E+00  0.1200E+02
     -5.941  0.0000E+00  0.1200E+02
     -5.539  0.0000E+00  0.1200E+02
     -5.137  0.2106E-02  0.1200E+02
     -4.735  0.8185E+01  0.1529E+02
     -4.334  0.2488E+01  0.1639E+02
     -3.932  0.5542E+01  0.1863E+02
     -3.530  0.4583E+01  0.2051E+02
     -3.128  0.3633E+01  0.2200E+02
     -2.726  0.3387E+01  0.2337E+02
     -2.325  0.7627E+01  0.2653E+02
     -1.923  0.8417E+01  0.3007E+02
     -1.521  0.8593E+01  0.3369E+02
     -1.119  0.5364E+01  0.3599E+02
     -0.718  0.0000E+00  0.3600E+02
     -0.316  0.0000E+00  0.3600E+02
      0.086  0.0000E+00  0.3600E+02
      0.488  0.0000E+00  0.3600E+02
      0.889  0.0000E+00  0.3600E+02
      1.291  0.0000E+00  0.3600E+02
      1.693  0.0000E+00  0.3600E+02
      2.095  0.0000E+00  0.3600E+02
      2.496  0.0000E+00  0.3600E+02
      2.898  0.0000E+00  0.3600E+02
      3.300  0.0000E+00  0.3600E+02
      3.702  0.0000E+00  0.3600E+02
      4.103  0.0000E+00  0.3600E+02
      4.505  0.0000E+00  0.3600E+02
      4.907  0.0000E+00  0.3600E+02
      5.309  0.2383E-02  0.3600E+02
      5.710  0.8854E-01  0.3604E+02
      6.112  0.1801E+01  0.3676E+02
      6.514  0.3914E+01  0.3837E+02
      6.916  0.6279E+01  0.4100E+02
      7.318  0.5105E+01  0.4320E+02
      7.719  0.4596E+01  0.4511E+02
      8.121  0.4748E+01  0.4710E+02
      8.523  0.7877E+01  0.5040E+02
      8.925  0.3971E+01  0.5207E+02
      9.326  0.4742E+01  0.5398E+02
      9.728  0.3954E+01  0.5578E+02
     10.130  0.3524E+00  0.5600E+02
     10.532  0.0000E+00  0.5600E+02
     10.933  0.0000E+00  0.5600E+02
     11.335  0.0000E+00  0.5600E+02
     11.737  0.0000E+00  0.5600E+02
     12.139  0.0000E+00  0.5600E+02
     12.540  0.0000E+00  0.5600E+02
     12.942  0.0000E+00  0.5600E+02
     13.344  0.0000E+00  0.5600E+02
     13.746  0.0000E+00  0.5600E+02
     14.147  0.0000E+00  0.5600E+02
     14.549  0.0000E+00  0.5600E+02
     14.951  0.0000E+00  0.5600E+02
     15.353  0.0000E+00  0.5600E+02
