       N       E                     dE             d eps       ncg     rms          rms(c)
DAV:   1     0.759666456892E+02    0.75967E+02   -0.84762E+03  6144   0.115E+03
DAV:   2    -0.137248986759E+02   -0.89692E+02   -0.86686E+02  8568   0.157E+02
DAV:   3    -0.186251198838E+02   -0.49002E+01   -0.48836E+01  7888   0.406E+01
DAV:   4    -0.186635847402E+02   -0.38465E-01   -0.38451E-01  7336   0.411E+00
DAV:   5    -0.186638594070E+02   -0.27467E-03   -0.27466E-03  7824   0.348E-01    0.477E+00
DAV:   6    -0.186137048001E+02    0.50155E-01   -0.26179E-02  6984   0.935E-01    0.288E+00
DAV:   7    -0.185890511381E+02    0.24654E-01   -0.54475E-02  6512   0.139E+00    0.139E-01
DAV:   8    -0.185892608137E+02   -0.20968E-03   -0.22192E-03  6688   0.272E-01    0.679E-02
DAV:   9    -0.185894376972E+02   -0.17688E-03   -0.34286E-04  7312   0.109E-01    0.217E-02
DAV:  10    -0.185894422010E+02   -0.45038E-05   -0.18312E-05  7056   0.255E-02    0.972E-03
DAV:  11    -0.185894444052E+02   -0.22042E-05   -0.66372E-06  7016   0.172E-02    0.167E-03
DAV:  12    -0.185894446366E+02   -0.23138E-06   -0.20940E-07  3344   0.280E-03
   1 F= -.18589445E+02 E0= -.18589445E+02  d E =-.647557E-13
