Sb8 S20                                 
   1.00000000000000     
     7.8224340000000003    0.0000000000000000    0.0000000000000000
     0.0000000000000000    8.9616799999999994    0.0000000000000000
     0.0000000000000000    3.0520320000000001   13.3764140000000005
   Sb   S 
     8    20
Direct
     0.0978780000000015    0.4612189999999998    0.6184870000000018
     0.5978780000000015    0.0387810000000002    0.3815129999999982
     0.9021219999999985    0.5387810000000002    0.3815129999999982
     0.4021219999999985    0.9612189999999998    0.6184870000000018
     0.1777569999999997    0.5899739999999980    0.8811099999999996
     0.6777569999999997    0.9100260000000020    0.1188900000000004
     0.8222430000000003    0.4100260000000020    0.1188900000000004
     0.3222430000000003    0.0899739999999980    0.8811099999999996
     0.2827929999999981    0.6457300000000004    0.7112449999999981
     0.7827929999999981    0.8542699999999996    0.2887550000000019
     0.7172070000000019    0.3542699999999996    0.2887550000000019
     0.2172070000000019    0.1457300000000004    0.7112449999999981
     0.3647380000000027    0.9295159999999996    0.1673589999999976
     0.8647380000000027    0.5704840000000004    0.8326410000000024
     0.6352619999999973    0.0704840000000004    0.8326410000000024
     0.1352619999999973    0.4295159999999996    0.1673589999999976
     0.3612060000000028    0.0886319999999969    0.2495479999999972
     0.8612060000000028    0.4113680000000031    0.7504520000000028
     0.6387939999999972    0.9113680000000031    0.7504520000000028
     0.1387939999999972    0.5886319999999969    0.2495479999999972
     0.0526780000000002    0.6949559999999977    0.4888509999999968
     0.5526780000000002    0.8050440000000023    0.5111490000000032
     0.9473219999999998    0.3050440000000023    0.5111490000000032
     0.4473219999999998    0.1949559999999977    0.4888509999999968
     0.7808109999999999    0.1732579999999970    0.0484289999999987
     0.2808109999999999    0.3267420000000030    0.9515710000000013
     0.2191890000000001    0.8267420000000030    0.9515710000000013
     0.7191890000000001    0.6732579999999970    0.0484289999999987
 
  0.00000000E+00  0.00000000E+00  0.00000000E+00
  0.00000000E+00  0.00000000E+00  0.00000000E+00
  0.00000000E+00  0.00000000E+00  0.00000000E+00
  0.00000000E+00  0.00000000E+00  0.00000000E+00
  0.00000000E+00  0.00000000E+00  0.00000000E+00
  0.00000000E+00  0.00000000E+00  0.00000000E+00
  0.00000000E+00  0.00000000E+00  0.00000000E+00
  0.00000000E+00  0.00000000E+00  0.00000000E+00
  0.00000000E+00  0.00000000E+00  0.00000000E+00
  0.00000000E+00  0.00000000E+00  0.00000000E+00
  0.00000000E+00  0.00000000E+00  0.00000000E+00
  0.00000000E+00  0.00000000E+00  0.00000000E+00
  0.00000000E+00  0.00000000E+00  0.00000000E+00
  0.00000000E+00  0.00000000E+00  0.00000000E+00
  0.00000000E+00  0.00000000E+00  0.00000000E+00
  0.00000000E+00  0.00000000E+00  0.00000000E+00
  0.00000000E+00  0.00000000E+00  0.00000000E+00
  0.00000000E+00  0.00000000E+00  0.00000000E+00
  0.00000000E+00  0.00000000E+00  0.00000000E+00
  0.00000000E+00  0.00000000E+00  0.00000000E+00
  0.00000000E+00  0.00000000E+00  0.00000000E+00
  0.00000000E+00  0.00000000E+00  0.00000000E+00
  0.00000000E+00  0.00000000E+00  0.00000000E+00
  0.00000000E+00  0.00000000E+00  0.00000000E+00
  0.00000000E+00  0.00000000E+00  0.00000000E+00
  0.00000000E+00  0.00000000E+00  0.00000000E+00
  0.00000000E+00  0.00000000E+00  0.00000000E+00
  0.00000000E+00  0.00000000E+00  0.00000000E+00
