  28  28   0   0
  0.3348984E+02  0.7822434E-09  0.8961680E-09  0.1372018E-08  0.5000000E-15
  1.000000000000000E-004
  CAR 
 unknown system                          
      7.86531325    -14.48797150  301      1.76428480      1.00000000
    -14.488  0.0000E+00  0.0000E+00
    -14.413  0.0000E+00  0.0000E+00
    -14.339  0.0000E+00  0.0000E+00
    -14.264  0.0000E+00  0.0000E+00
    -14.190  0.0000E+00  0.0000E+00
    -14.115  0.0000E+00  0.0000E+00
    -14.041  0.0000E+00  0.0000E+00
    -13.966  0.0000E+00  0.0000E+00
    -13.892  0.0000E+00  0.0000E+00
    -13.817  0.0000E+00  0.0000E+00
    -13.743  0.1407E-13  0.1049E-14
    -13.668  0.2350E-07  0.1751E-08
    -13.594  0.6473E-03  0.4823E-04
    -13.519  0.4777E+00  0.3564E-01
    -13.445  0.1749E+02  0.1339E+01
    -13.370  0.5900E+02  0.5735E+01
    -13.296  0.2906E+02  0.7900E+01
    -13.221  0.1338E+01  0.8000E+01
    -13.147  0.2711E-02  0.8000E+01
    -13.072  0.1471E-06  0.8000E+01
    -12.998  0.1439E-12  0.8000E+01
    -12.923  0.0000E+00  0.8000E+01
    -12.849  0.0000E+00  0.8000E+01
    -12.774  0.0000E+00  0.8000E+01
    -12.700  0.0000E+00  0.8000E+01
    -12.625  0.0000E+00  0.8000E+01
    -12.551  0.0000E+00  0.8000E+01
    -12.476  0.0000E+00  0.8000E+01
    -12.402  0.0000E+00  0.8000E+01
    -12.327  0.0000E+00  0.8000E+01
    -12.253  0.0000E+00  0.8000E+01
    -12.178  0.0000E+00  0.8000E+01
    -12.104  0.0000E+00  0.8000E+01
    -12.029  0.1159E-13  0.8000E+01
    -11.955  0.1955E-07  0.8000E+01
    -11.880  0.4690E-03  0.8000E+01
    -11.806  0.2062E+00  0.8015E+01
    -11.731  0.4357E+01  0.8340E+01
    -11.657  0.1607E+02  0.9537E+01
    -11.582  0.1835E+02  0.1090E+02
    -11.508  0.1254E+02  0.1184E+02
    -11.433  0.9638E+01  0.1256E+02
    -11.359  0.2276E+02  0.1425E+02
    -11.284  0.1837E+02  0.1562E+02
    -11.209  0.5206E+01  0.1601E+02
    -11.135  0.1172E+02  0.1688E+02
    -11.060  0.2182E+02  0.1851E+02
    -10.986  0.1053E+02  0.1929E+02
    -10.911  0.8430E+01  0.1992E+02
    -10.837  0.1038E+01  0.2000E+02
    -10.762  0.6128E-02  0.2000E+02
    -10.688  0.4678E-01  0.2000E+02
    -10.613  0.1021E+01  0.2008E+02
    -10.539  0.6106E+01  0.2053E+02
    -10.464  0.1744E+02  0.2183E+02
    -10.390  0.2360E+02  0.2359E+02
    -10.315  0.3835E+02  0.2645E+02
    -10.241  0.1974E+02  0.2792E+02
    -10.166  0.1123E+01  0.2800E+02
    -10.092  0.5883E+01  0.2844E+02
    -10.017  0.3289E+02  0.3089E+02
     -9.943  0.1455E+02  0.3198E+02
     -9.868  0.3021E+00  0.3200E+02
     -9.794  0.1472E-03  0.3200E+02
     -9.719  0.2332E-07  0.3200E+02
     -9.645  0.4398E-03  0.3200E+02
     -9.570  0.1385E+00  0.3201E+02
     -9.496  0.1764E+01  0.3214E+02
     -9.421  0.1090E+02  0.3295E+02
     -9.347  0.1622E+02  0.3416E+02
     -9.272  0.1576E+02  0.3534E+02
     -9.198  0.1651E+02  0.3657E+02
     -9.123  0.2018E+02  0.3807E+02
     -9.049  0.1838E+02  0.3944E+02
     -8.974  0.6514E+01  0.3993E+02
     -8.900  0.9658E+00  0.4000E+02
     -8.825  0.3319E-01  0.4000E+02
     -8.751  0.2830E-04  0.4000E+02
     -8.676  0.3542E-09  0.4000E+02
     -8.602  0.0000E+00  0.4000E+02
     -8.527  0.0000E+00  0.4000E+02
     -8.453  0.0000E+00  0.4000E+02
     -8.378  0.0000E+00  0.4000E+02
     -8.304  0.0000E+00  0.4000E+02
     -8.229  0.0000E+00  0.4000E+02
     -8.155  0.0000E+00  0.4000E+02
     -8.080  0.0000E+00  0.4000E+02
     -8.006  0.0000E+00  0.4000E+02
     -7.931  0.1656E-15  0.4000E+02
     -7.856  0.6747E-09  0.4000E+02
     -7.782  0.4391E-04  0.4000E+02
     -7.707  0.4371E-01  0.4000E+02
     -7.633  0.1338E+01  0.4010E+02
     -7.558  0.5417E+01  0.4051E+02
     -7.484  0.8122E+01  0.4111E+02
     -7.409  0.3073E+01  0.4134E+02
     -7.335  0.3375E+01  0.4159E+02
     -7.260  0.9382E+01  0.4229E+02
     -7.186  0.1011E+02  0.4304E+02
     -7.111  0.1078E+02  0.4385E+02
     -7.037  0.8473E+01  0.4448E+02
     -6.962  0.8284E+01  0.4510E+02
     -6.888  0.2539E+02  0.4699E+02
     -6.813  0.1215E+02  0.4789E+02
     -6.739  0.1392E+01  0.4800E+02
     -6.664  0.3106E-01  0.4800E+02
     -6.590  0.2073E-04  0.4800E+02
     -6.515  0.2382E-09  0.4800E+02
     -6.441  0.7676E-05  0.4800E+02
     -6.366  0.4301E-01  0.4800E+02
     -6.292  0.4945E+01  0.4837E+02
     -6.217  0.2211E+02  0.5002E+02
     -6.143  0.1029E+02  0.5079E+02
     -6.068  0.3925E+01  0.5108E+02
     -5.994  0.1092E+02  0.5189E+02
     -5.919  0.9709E+01  0.5262E+02
     -5.845  0.1044E+02  0.5339E+02
     -5.770  0.1689E+02  0.5465E+02
     -5.696  0.1358E+02  0.5566E+02
     -5.621  0.4359E+01  0.5599E+02
     -5.547  0.1605E+00  0.5600E+02
     -5.472  0.2404E-03  0.5600E+02
     -5.398  0.6904E-08  0.5600E+02
     -5.323  0.2814E-14  0.5600E+02
     -5.249  0.0000E+00  0.5600E+02
     -5.174  0.0000E+00  0.5600E+02
     -5.100  0.0000E+00  0.5600E+02
     -5.025  0.0000E+00  0.5600E+02
     -4.951  0.0000E+00  0.5600E+02
     -4.876  0.0000E+00  0.5600E+02
     -4.802  0.0000E+00  0.5600E+02
     -4.727  0.0000E+00  0.5600E+02
     -4.653  0.0000E+00  0.5600E+02
     -4.578  0.0000E+00  0.5600E+02
     -4.504  0.0000E+00  0.5600E+02
     -4.429  0.0000E+00  0.5600E+02
     -4.354  0.0000E+00  0.5600E+02
     -4.280  0.0000E+00  0.5600E+02
     -4.205  0.0000E+00  0.5600E+02
     -4.131  0.0000E+00  0.5600E+02
     -4.056  0.0000E+00  0.5600E+02
     -3.982  0.0000E+00  0.5600E+02
     -3.907  0.0000E+00  0.5600E+02
     -3.833  0.0000E+00  0.5600E+02
     -3.758  0.1490E-14  0.5600E+02
     -3.684  0.5120E-08  0.5600E+02
     -3.609  0.2378E-03  0.5600E+02
     -3.535  0.2151E+00  0.5602E+02
     -3.460  0.8008E+01  0.5661E+02
     -3.386  0.2951E+02  0.5881E+02
     -3.311  0.3335E+02  0.6130E+02
     -3.237  0.2290E+02  0.6300E+02
     -3.162  0.1223E+02  0.6391E+02
     -3.088  0.8412E+01  0.6454E+02
     -3.013  0.2153E+02  0.6615E+02
     -2.939  0.1720E+02  0.6743E+02
     -2.864  0.2076E+02  0.6897E+02
     -2.790  0.2721E+02  0.7100E+02
     -2.715  0.2003E+02  0.7249E+02
     -2.641  0.1433E+02  0.7356E+02
     -2.566  0.1906E+02  0.7498E+02
     -2.492  0.1802E+02  0.7632E+02
     -2.417  0.1335E+02  0.7732E+02
     -2.343  0.1661E+02  0.7856E+02
     -2.268  0.2374E+02  0.8033E+02
     -2.194  0.2911E+02  0.8250E+02
     -2.119  0.2218E+02  0.8415E+02
     -2.045  0.1582E+02  0.8533E+02
     -1.970  0.2325E+02  0.8706E+02
     -1.896  0.2221E+02  0.8871E+02
     -1.821  0.2024E+02  0.9022E+02
     -1.747  0.1780E+02  0.9155E+02
     -1.672  0.1060E+02  0.9234E+02
     -1.598  0.1309E+02  0.9331E+02
     -1.523  0.1620E+02  0.9452E+02
     -1.449  0.1417E+02  0.9558E+02
     -1.374  0.6256E+01  0.9604E+02
     -1.300  0.9303E+01  0.9674E+02
     -1.225  0.7823E+01  0.9732E+02
     -1.151  0.2173E+01  0.9748E+02
     -1.076  0.6856E+01  0.9799E+02
     -1.001  0.1971E+02  0.9946E+02
     -0.927  0.1352E+02  0.1005E+03
     -0.852  0.1504E+02  0.1016E+03
     -0.778  0.1530E+02  0.1027E+03
     -0.703  0.1987E+02  0.1042E+03
     -0.629  0.1491E+02  0.1053E+03
     -0.554  0.1782E+02  0.1066E+03
     -0.480  0.2846E+02  0.1088E+03
     -0.405  0.3143E+02  0.1111E+03
     -0.331  0.3484E+02  0.1137E+03
     -0.256  0.3166E+02  0.1161E+03
     -0.182  0.1755E+02  0.1174E+03
     -0.107  0.2300E+02  0.1191E+03
     -0.033  0.3073E+02  0.1214E+03
      0.042  0.3335E+02  0.1239E+03
      0.116  0.1539E+02  0.1250E+03
      0.191  0.2368E+02  0.1268E+03
      0.265  0.3601E+02  0.1295E+03
      0.340  0.3552E+02  0.1321E+03
      0.414  0.2835E+02  0.1342E+03
      0.489  0.3345E+02  0.1367E+03
      0.563  0.2640E+02  0.1387E+03
      0.638  0.2268E+02  0.1404E+03
      0.712  0.2371E+02  0.1421E+03
      0.787  0.2662E+02  0.1441E+03
      0.861  0.2420E+02  0.1459E+03
      0.936  0.1567E+02  0.1471E+03
      1.010  0.1249E+02  0.1480E+03
      1.085  0.1440E+02  0.1491E+03
      1.159  0.1929E+02  0.1505E+03
      1.234  0.1964E+02  0.1520E+03
      1.308  0.1240E+02  0.1529E+03
      1.383  0.1838E+02  0.1543E+03
      1.457  0.1928E+02  0.1557E+03
      1.532  0.9591E+01  0.1564E+03
      1.606  0.1142E+02  0.1573E+03
      1.681  0.1768E+02  0.1586E+03
      1.755  0.1714E+02  0.1599E+03
      1.830  0.1221E+02  0.1608E+03
      1.904  0.7558E+01  0.1614E+03
      1.979  0.1171E+02  0.1622E+03
      2.053  0.1358E+02  0.1632E+03
      2.128  0.6822E+01  0.1637E+03
      2.202  0.2066E+01  0.1639E+03
      2.277  0.1089E+01  0.1640E+03
      2.352  0.2878E+00  0.1640E+03
      2.426  0.1634E+01  0.1641E+03
      2.501  0.8507E+01  0.1648E+03
      2.575  0.1516E+02  0.1659E+03
      2.650  0.9805E+01  0.1666E+03
      2.724  0.6501E+00  0.1667E+03
      2.799  0.1561E-02  0.1667E+03
      2.873  0.1849E-01  0.1667E+03
      2.948  0.6634E+00  0.1667E+03
      3.022  0.2160E+01  0.1669E+03
      3.097  0.6314E+01  0.1673E+03
      3.171  0.6674E+01  0.1678E+03
      3.246  0.1982E+01  0.1680E+03
      3.320  0.8256E-01  0.1680E+03
      3.395  0.1253E-03  0.1680E+03
      3.469  0.8429E-08  0.1680E+03
      3.544  0.1725E-03  0.1680E+03
      3.618  0.8613E-01  0.1680E+03
      3.693  0.1229E+01  0.1681E+03
      3.767  0.7348E+01  0.1686E+03
      3.842  0.1270E+02  0.1696E+03
      3.916  0.1466E+02  0.1707E+03
      3.991  0.1966E+02  0.1721E+03
      4.065  0.1945E+02  0.1736E+03
      4.140  0.2213E+02  0.1752E+03
      4.214  0.2358E+02  0.1770E+03
      4.289  0.2299E+02  0.1787E+03
      4.363  0.1320E+02  0.1797E+03
      4.438  0.2236E+02  0.1814E+03
      4.512  0.3254E+02  0.1838E+03
      4.587  0.2826E+02  0.1859E+03
      4.661  0.2268E+02  0.1876E+03
      4.736  0.1491E+02  0.1887E+03
      4.810  0.2050E+02  0.1902E+03
      4.885  0.2472E+02  0.1921E+03
      4.959  0.2030E+02  0.1936E+03
      5.034  0.1894E+02  0.1950E+03
      5.108  0.1935E+02  0.1964E+03
      5.183  0.1654E+02  0.1977E+03
      5.257  0.1599E+02  0.1989E+03
      5.332  0.1425E+02  0.1999E+03
      5.406  0.2551E+02  0.2018E+03
      5.481  0.1743E+02  0.2031E+03
      5.555  0.7971E+01  0.2037E+03
      5.630  0.1183E+02  0.2046E+03
      5.704  0.1095E+02  0.2054E+03
      5.779  0.6943E+01  0.2059E+03
      5.854  0.1419E+02  0.2070E+03
      5.928  0.1095E+02  0.2078E+03
      6.003  0.1224E+02  0.2087E+03
      6.077  0.1964E+02  0.2102E+03
      6.152  0.2763E+02  0.2122E+03
      6.226  0.1202E+02  0.2131E+03
      6.301  0.1878E+02  0.2145E+03
      6.375  0.2051E+02  0.2161E+03
      6.450  0.1958E+02  0.2175E+03
      6.524  0.2323E+02  0.2192E+03
      6.599  0.1442E+02  0.2203E+03
      6.673  0.1631E+02  0.2215E+03
      6.748  0.7632E+01  0.2221E+03
      6.822  0.1365E+02  0.2231E+03
      6.897  0.1093E+02  0.2239E+03
      6.971  0.8484E+00  0.2240E+03
      7.046  0.2159E-02  0.2240E+03
      7.120  0.9415E-07  0.2240E+03
      7.195  0.5828E-13  0.2240E+03
      7.269  0.0000E+00  0.2240E+03
      7.344  0.0000E+00  0.2240E+03
      7.418  0.0000E+00  0.2240E+03
      7.493  0.0000E+00  0.2240E+03
      7.567  0.0000E+00  0.2240E+03
      7.642  0.0000E+00  0.2240E+03
      7.716  0.0000E+00  0.2240E+03
      7.791  0.0000E+00  0.2240E+03
      7.865  0.0000E+00  0.2240E+03
