  16  16   0   0
  0.2750332E+02  0.5091220E-09  0.8552038E-09  0.1010680E-08  0.5000000E-15
  1.000000000000000E-004
  CAR 
 unknown system                          
      8.94596172    -26.05662022  301      3.36013302      1.00000000
    -26.057  0.0000E+00  0.0000E+00
    -25.940  0.0000E+00  0.0000E+00
    -25.823  0.0000E+00  0.0000E+00
    -25.707  0.0000E+00  0.0000E+00
    -25.590  0.0000E+00  0.0000E+00
    -25.473  0.0000E+00  0.0000E+00
    -25.357  0.0000E+00  0.0000E+00
    -25.240  0.0000E+00  0.0000E+00
    -25.123  0.0000E+00  0.0000E+00
    -25.007  0.0000E+00  0.0000E+00
    -24.890  0.0000E+00  0.0000E+00
    -24.773  0.0000E+00  0.0000E+00
    -24.657  0.8032E-06  0.9372E-07
    -24.540  0.5216E+00  0.6086E-01
    -24.423  0.2936E+02  0.3486E+01
    -24.306  0.4404E+01  0.4000E+01
    -24.190  0.1019E+02  0.5189E+01
    -24.073  0.2399E+02  0.7989E+01
    -23.956  0.9736E-01  0.8000E+01
    -23.840  0.2284E-07  0.8000E+01
    -23.723  0.0000E+00  0.8000E+01
    -23.606  0.0000E+00  0.8000E+01
    -23.490  0.0000E+00  0.8000E+01
    -23.373  0.0000E+00  0.8000E+01
    -23.256  0.0000E+00  0.8000E+01
    -23.140  0.0000E+00  0.8000E+01
    -23.023  0.0000E+00  0.8000E+01
    -22.906  0.0000E+00  0.8000E+01
    -22.790  0.0000E+00  0.8000E+01
    -22.673  0.0000E+00  0.8000E+01
    -22.556  0.0000E+00  0.8000E+01
    -22.440  0.0000E+00  0.8000E+01
    -22.323  0.0000E+00  0.8000E+01
    -22.206  0.0000E+00  0.8000E+01
    -22.090  0.0000E+00  0.8000E+01
    -21.973  0.0000E+00  0.8000E+01
    -21.856  0.0000E+00  0.8000E+01
    -21.740  0.0000E+00  0.8000E+01
    -21.623  0.0000E+00  0.8000E+01
    -21.506  0.0000E+00  0.8000E+01
    -21.390  0.0000E+00  0.8000E+01
    -21.273  0.0000E+00  0.8000E+01
    -21.156  0.0000E+00  0.8000E+01
    -21.040  0.0000E+00  0.8000E+01
    -20.923  0.0000E+00  0.8000E+01
    -20.806  0.0000E+00  0.8000E+01
    -20.690  0.0000E+00  0.8000E+01
    -20.573  0.0000E+00  0.8000E+01
    -20.456  0.0000E+00  0.8000E+01
    -20.340  0.0000E+00  0.8000E+01
    -20.223  0.0000E+00  0.8000E+01
    -20.106  0.0000E+00  0.8000E+01
    -19.990  0.0000E+00  0.8000E+01
    -19.873  0.0000E+00  0.8000E+01
    -19.756  0.0000E+00  0.8000E+01
    -19.639  0.0000E+00  0.8000E+01
    -19.523  0.0000E+00  0.8000E+01
    -19.406  0.0000E+00  0.8000E+01
    -19.289  0.0000E+00  0.8000E+01
    -19.173  0.0000E+00  0.8000E+01
    -19.056  0.0000E+00  0.8000E+01
    -18.939  0.0000E+00  0.8000E+01
    -18.823  0.0000E+00  0.8000E+01
    -18.706  0.0000E+00  0.8000E+01
    -18.589  0.0000E+00  0.8000E+01
    -18.473  0.0000E+00  0.8000E+01
    -18.356  0.0000E+00  0.8000E+01
    -18.239  0.0000E+00  0.8000E+01
    -18.123  0.0000E+00  0.8000E+01
    -18.006  0.0000E+00  0.8000E+01
    -17.889  0.0000E+00  0.8000E+01
    -17.773  0.0000E+00  0.8000E+01
    -17.656  0.0000E+00  0.8000E+01
    -17.539  0.0000E+00  0.8000E+01
    -17.423  0.0000E+00  0.8000E+01
    -17.306  0.0000E+00  0.8000E+01
    -17.189  0.0000E+00  0.8000E+01
    -17.073  0.0000E+00  0.8000E+01
    -16.956  0.0000E+00  0.8000E+01
    -16.839  0.0000E+00  0.8000E+01
    -16.723  0.0000E+00  0.8000E+01
    -16.606  0.0000E+00  0.8000E+01
    -16.489  0.0000E+00  0.8000E+01
    -16.373  0.0000E+00  0.8000E+01
    -16.256  0.0000E+00  0.8000E+01
    -16.139  0.0000E+00  0.8000E+01
    -16.023  0.0000E+00  0.8000E+01
    -15.906  0.0000E+00  0.8000E+01
    -15.789  0.0000E+00  0.8000E+01
    -15.673  0.0000E+00  0.8000E+01
    -15.556  0.0000E+00  0.8000E+01
    -15.439  0.0000E+00  0.8000E+01
    -15.322  0.0000E+00  0.8000E+01
    -15.206  0.0000E+00  0.8000E+01
    -15.089  0.0000E+00  0.8000E+01
    -14.972  0.0000E+00  0.8000E+01
    -14.856  0.0000E+00  0.8000E+01
    -14.739  0.0000E+00  0.8000E+01
    -14.622  0.0000E+00  0.8000E+01
    -14.506  0.0000E+00  0.8000E+01
    -14.389  0.0000E+00  0.8000E+01
    -14.272  0.0000E+00  0.8000E+01
    -14.156  0.0000E+00  0.8000E+01
    -14.039  0.0000E+00  0.8000E+01
    -13.922  0.0000E+00  0.8000E+01
    -13.806  0.0000E+00  0.8000E+01
    -13.689  0.0000E+00  0.8000E+01
    -13.572  0.0000E+00  0.8000E+01
    -13.456  0.0000E+00  0.8000E+01
    -13.339  0.0000E+00  0.8000E+01
    -13.222  0.0000E+00  0.8000E+01
    -13.106  0.0000E+00  0.8000E+01
    -12.989  0.0000E+00  0.8000E+01
    -12.872  0.9300E-08  0.8000E+01
    -12.756  0.9285E-02  0.8001E+01
    -12.639  0.2231E+01  0.8261E+01
    -12.522  0.2198E+02  0.1083E+02
    -12.406  0.3332E+02  0.1471E+02
    -12.289  0.1094E+02  0.1599E+02
    -12.172  0.8529E-01  0.1600E+02
    -12.056  0.1115E-06  0.1600E+02
    -11.939  0.0000E+00  0.1600E+02
    -11.822  0.0000E+00  0.1600E+02
    -11.706  0.0000E+00  0.1600E+02
    -11.589  0.0000E+00  0.1600E+02
    -11.472  0.0000E+00  0.1600E+02
    -11.356  0.0000E+00  0.1600E+02
    -11.239  0.0000E+00  0.1600E+02
    -11.122  0.0000E+00  0.1600E+02
    -11.006  0.0000E+00  0.1600E+02
    -10.889  0.0000E+00  0.1600E+02
    -10.772  0.0000E+00  0.1600E+02
    -10.655  0.4278E-12  0.1600E+02
    -10.539  0.4589E-04  0.1600E+02
    -10.422  0.2146E+00  0.1603E+02
    -10.305  0.3701E+01  0.1646E+02
    -10.189  0.1471E+02  0.1817E+02
    -10.072  0.1819E+02  0.2030E+02
     -9.955  0.1060E+02  0.2153E+02
     -9.839  0.1016E+02  0.2272E+02
     -9.722  0.2297E+02  0.2540E+02
     -9.605  0.3226E+02  0.2916E+02
     -9.489  0.3355E+02  0.3308E+02
     -9.372  0.4206E+02  0.3798E+02
     -9.255  0.2310E+02  0.4068E+02
     -9.139  0.1396E+02  0.4231E+02
     -9.022  0.1787E+02  0.4439E+02
     -8.905  0.1862E+02  0.4656E+02
     -8.789  0.1183E+02  0.4795E+02
     -8.672  0.4682E+00  0.4800E+02
     -8.555  0.1060E-03  0.4800E+02
     -8.439  0.1897E-11  0.4800E+02
     -8.322  0.0000E+00  0.4800E+02
     -8.205  0.0000E+00  0.4800E+02
     -8.089  0.0000E+00  0.4800E+02
     -7.972  0.0000E+00  0.4800E+02
     -7.855  0.0000E+00  0.4800E+02
     -7.739  0.0000E+00  0.4800E+02
     -7.622  0.0000E+00  0.4800E+02
     -7.505  0.2925E-12  0.4800E+02
     -7.389  0.9941E-04  0.4800E+02
     -7.272  0.1251E+01  0.4815E+02
     -7.155  0.5545E+01  0.4879E+02
     -7.039  0.2582E+01  0.4909E+02
     -6.922  0.1421E+02  0.5075E+02
     -6.805  0.7742E+01  0.5166E+02
     -6.689  0.1291E+02  0.5316E+02
     -6.572  0.1351E+02  0.5474E+02
     -6.455  0.6754E+01  0.5553E+02
     -6.338  0.3015E+01  0.5588E+02
     -6.222  0.1021E+01  0.5600E+02
     -6.105  0.2705E-01  0.5600E+02
     -5.988  0.1854E-06  0.5600E+02
     -5.872  0.0000E+00  0.5600E+02
     -5.755  0.0000E+00  0.5600E+02
     -5.638  0.0000E+00  0.5600E+02
     -5.522  0.0000E+00  0.5600E+02
     -5.405  0.0000E+00  0.5600E+02
     -5.288  0.0000E+00  0.5600E+02
     -5.172  0.0000E+00  0.5600E+02
     -5.055  0.0000E+00  0.5600E+02
     -4.938  0.0000E+00  0.5600E+02
     -4.822  0.0000E+00  0.5600E+02
     -4.705  0.0000E+00  0.5600E+02
     -4.588  0.0000E+00  0.5600E+02
     -4.472  0.0000E+00  0.5600E+02
     -4.355  0.0000E+00  0.5600E+02
     -4.238  0.0000E+00  0.5600E+02
     -4.122  0.0000E+00  0.5600E+02
     -4.005  0.0000E+00  0.5600E+02
     -3.888  0.0000E+00  0.5600E+02
     -3.772  0.0000E+00  0.5600E+02
     -3.655  0.0000E+00  0.5600E+02
     -3.538  0.0000E+00  0.5600E+02
     -3.422  0.0000E+00  0.5600E+02
     -3.305  0.0000E+00  0.5600E+02
     -3.188  0.0000E+00  0.5600E+02
     -3.072  0.2366E-13  0.5600E+02
     -2.955  0.1499E-04  0.5600E+02
     -2.838  0.4661E+00  0.5605E+02
     -2.722  0.1199E+02  0.5745E+02
     -2.605  0.1098E+02  0.5873E+02
     -2.488  0.4009E+01  0.5920E+02
     -2.372  0.6363E+01  0.5994E+02
     -2.255  0.7805E+01  0.6086E+02
     -2.138  0.4223E+01  0.6135E+02
     -2.022  0.1837E+02  0.6349E+02
     -1.905  0.5955E+01  0.6419E+02
     -1.788  0.1913E+01  0.6441E+02
     -1.671  0.7062E+01  0.6523E+02
     -1.555  0.1405E+02  0.6687E+02
     -1.438  0.1036E+02  0.6808E+02
     -1.321  0.1158E+02  0.6943E+02
     -1.205  0.1080E+02  0.7069E+02
     -1.088  0.4049E+01  0.7116E+02
     -0.971  0.9002E+01  0.7221E+02
     -0.855  0.1529E+02  0.7400E+02
     -0.738  0.2118E+02  0.7647E+02
     -0.621  0.2107E+02  0.7893E+02
     -0.505  0.7085E+01  0.7975E+02
     -0.388  0.1964E+01  0.7998E+02
     -0.271  0.1456E+00  0.8000E+02
     -0.155  0.1993E-04  0.8000E+02
     -0.038  0.9382E-03  0.8000E+02
      0.079  0.1095E+01  0.8013E+02
      0.195  0.2813E+01  0.8046E+02
      0.312  0.3442E+01  0.8086E+02
      0.429  0.3308E+01  0.8124E+02
      0.545  0.1494E+02  0.8299E+02
      0.662  0.1709E+02  0.8498E+02
      0.779  0.1527E+02  0.8676E+02
      0.895  0.1278E+02  0.8825E+02
      1.012  0.1935E+02  0.9051E+02
      1.129  0.2576E+02  0.9352E+02
      1.245  0.1800E+02  0.9562E+02
      1.362  0.1020E+02  0.9681E+02
      1.479  0.1941E+02  0.9907E+02
      1.595  0.1766E+02  0.1011E+03
      1.712  0.1704E+02  0.1031E+03
      1.829  0.9264E+00  0.1032E+03
      1.945  0.2560E+01  0.1035E+03
      2.062  0.2602E+01  0.1038E+03
      2.179  0.1447E+01  0.1040E+03
      2.295  0.1785E-01  0.1040E+03
      2.412  0.2939E+01  0.1043E+03
      2.529  0.8323E+01  0.1053E+03
      2.645  0.1421E+02  0.1070E+03
      2.762  0.9140E+01  0.1080E+03
      2.879  0.6851E+01  0.1088E+03
      2.996  0.1676E+02  0.1108E+03
      3.112  0.9409E+01  0.1119E+03
      3.229  0.9234E+00  0.1120E+03
      3.346  0.1143E-03  0.1120E+03
      3.462  0.6983E-12  0.1120E+03
      3.579  0.0000E+00  0.1120E+03
      3.696  0.0000E+00  0.1120E+03
      3.812  0.0000E+00  0.1120E+03
      3.929  0.0000E+00  0.1120E+03
      4.046  0.1019E-11  0.1120E+03
      4.162  0.1009E-03  0.1120E+03
      4.279  0.3751E+00  0.1120E+03
      4.396  0.2110E+01  0.1123E+03
      4.512  0.1030E+01  0.1124E+03
      4.629  0.2504E+01  0.1127E+03
      4.746  0.5860E+01  0.1134E+03
      4.862  0.5083E+01  0.1140E+03
      4.979  0.1836E+01  0.1142E+03
      5.096  0.8641E+01  0.1152E+03
      5.212  0.1492E+02  0.1169E+03
      5.329  0.8924E+01  0.1180E+03
      5.446  0.4596E+01  0.1185E+03
      5.562  0.9829E+01  0.1197E+03
      5.679  0.6346E+01  0.1204E+03
      5.796  0.8129E+01  0.1214E+03
      5.912  0.5929E+01  0.1220E+03
      6.029  0.1544E+02  0.1238E+03
      6.146  0.1094E+02  0.1251E+03
      6.262  0.1012E+02  0.1263E+03
      6.379  0.3257E+01  0.1267E+03
      6.496  0.3510E+01  0.1271E+03
      6.612  0.1370E+02  0.1287E+03
      6.729  0.7238E+01  0.1295E+03
      6.846  0.1459E+02  0.1312E+03
      6.962  0.1217E+02  0.1327E+03
      7.079  0.1374E+02  0.1343E+03
      7.196  0.1182E+02  0.1356E+03
      7.313  0.1198E+01  0.1358E+03
      7.429  0.1830E+01  0.1360E+03
      7.546  0.2165E-01  0.1360E+03
      7.663  0.2719E-07  0.1360E+03
      7.779  0.0000E+00  0.1360E+03
      7.896  0.0000E+00  0.1360E+03
      8.013  0.0000E+00  0.1360E+03
      8.129  0.0000E+00  0.1360E+03
      8.246  0.0000E+00  0.1360E+03
      8.363  0.0000E+00  0.1360E+03
      8.479  0.0000E+00  0.1360E+03
      8.596  0.0000E+00  0.1360E+03
      8.713  0.0000E+00  0.1360E+03
      8.829  0.0000E+00  0.1360E+03
      8.946  0.0000E+00  0.1360E+03
