       N       E                     dE             d eps       ncg     rms          rms(c)
DAV:   1     0.815482564245E+03    0.81548E+03   -0.52684E+04  4080   0.160E+03
DAV:   2     0.192152775274E+01   -0.81356E+03   -0.78696E+03  5560   0.274E+02
DAV:   3    -0.729428993974E+02   -0.74864E+02   -0.73946E+02  5072   0.861E+01
DAV:   4    -0.752161685203E+02   -0.22733E+01   -0.22592E+01  5808   0.150E+01
DAV:   5    -0.752954647635E+02   -0.79296E-01   -0.79199E-01  5840   0.248E+00    0.294E+01
DAV:   6    -0.738013061907E+02    0.14942E+01   -0.29742E+00  5224   0.533E+00    0.173E+01
DAV:   7    -0.737281775106E+02    0.73129E-01   -0.22223E+00  5112   0.458E+00    0.326E+00
DAV:   8    -0.737137634210E+02    0.14414E-01   -0.19355E-01  4848   0.166E+00    0.147E+00
DAV:   9    -0.737181430262E+02   -0.43796E-02   -0.56820E-02  4984   0.679E-01    0.745E-01
DAV:  10    -0.737191432203E+02   -0.10002E-02   -0.48215E-03  5728   0.248E-01    0.343E-01
DAV:  11    -0.737206136173E+02   -0.14704E-02   -0.20549E-03  4752   0.170E-01    0.159E-01
DAV:  12    -0.737209179411E+02   -0.30432E-03   -0.71639E-04  5712   0.822E-02    0.101E-01
DAV:  13    -0.737210467551E+02   -0.12881E-03   -0.18086E-04  4664   0.499E-02    0.505E-02
DAV:  14    -0.737210636941E+02   -0.16939E-04   -0.25760E-05  5360   0.168E-02    0.454E-02
DAV:  15    -0.737210616420E+02    0.20522E-05   -0.23647E-05  5280   0.159E-02    0.953E-03
DAV:  16    -0.737210621807E+02   -0.53869E-06   -0.28621E-06  3760   0.577E-03
   1 F= -.73721062E+02 E0= -.73721062E+02  d E =-.995509E-15
