Ba4S12
1.0
      5.0912194       0.0000000       0.0000000
      0.0000000       8.5520375       0.0000000
      0.0000000       0.0000000      10.1068008
  Ba    S   
  4     12  
Direct
      0.0127576       0.5000000       0.0000000
      0.9872414       0.0000000       0.5000000
      0.0276691       0.0000000       0.0000000
      0.9723309       0.5000000       0.5000000
      0.4688825       0.2449796       0.4908950
      0.4097298       0.1900954       0.2919080
      0.5311175       0.2550204       0.9908950
      0.4097298       0.8099046       0.7080920
      0.5902702       0.6900954       0.2080920
      0.9796662       0.7496934       0.2482728
      0.0203338       0.2496934       0.2517272
      0.9796662       0.2503066       0.7517272
      0.5311175       0.7449796       0.0091050
      0.0203338       0.7503066       0.7482728
      0.4688825       0.7550204       0.5091050
      0.5902702       0.3099046       0.7919080
