   3   3   0   0
  0.1416242E+02  0.4779371E-09  0.4779371E-09  0.4779371E-09  0.5000000E-15
  1.000000000000000E-004
  CAR 
 unknown system                          
     25.40871985    -26.05556183  301      8.98436118      1.00000000
    -26.056  0.0000E+00  0.0000E+00
    -25.884  0.0000E+00  0.0000E+00
    -25.712  0.0000E+00  0.0000E+00
    -25.541  0.0000E+00  0.0000E+00
    -25.369  0.0000E+00  0.0000E+00
    -25.198  0.0000E+00  0.0000E+00
    -25.026  0.0000E+00  0.0000E+00
    -24.855  0.0000E+00  0.0000E+00
    -24.683  0.0000E+00  0.0000E+00
    -24.512  0.0000E+00  0.0000E+00
    -24.340  0.0000E+00  0.0000E+00
    -24.169  0.0000E+00  0.0000E+00
    -23.997  0.2629E-15  0.4510E-16
    -23.825  0.7286E-03  0.1250E-03
    -23.654  0.8558E+01  0.1468E+01
    -23.482  0.2179E+02  0.5206E+01
    -23.311  0.4494E+01  0.5977E+01
    -23.139  0.1343E+00  0.6000E+01
    -22.968  0.4007E-09  0.6000E+01
    -22.796  0.0000E+00  0.6000E+01
    -22.625  0.0000E+00  0.6000E+01
    -22.453  0.0000E+00  0.6000E+01
    -22.282  0.0000E+00  0.6000E+01
    -22.110  0.0000E+00  0.6000E+01
    -21.938  0.0000E+00  0.6000E+01
    -21.767  0.0000E+00  0.6000E+01
    -21.595  0.0000E+00  0.6000E+01
    -21.424  0.0000E+00  0.6000E+01
    -21.252  0.0000E+00  0.6000E+01
    -21.081  0.0000E+00  0.6000E+01
    -20.909  0.0000E+00  0.6000E+01
    -20.738  0.0000E+00  0.6000E+01
    -20.566  0.0000E+00  0.6000E+01
    -20.394  0.0000E+00  0.6000E+01
    -20.223  0.0000E+00  0.6000E+01
    -20.051  0.0000E+00  0.6000E+01
    -19.880  0.0000E+00  0.6000E+01
    -19.708  0.0000E+00  0.6000E+01
    -19.537  0.0000E+00  0.6000E+01
    -19.365  0.0000E+00  0.6000E+01
    -19.194  0.0000E+00  0.6000E+01
    -19.022  0.0000E+00  0.6000E+01
    -18.851  0.0000E+00  0.6000E+01
    -18.679  0.0000E+00  0.6000E+01
    -18.507  0.0000E+00  0.6000E+01
    -18.336  0.0000E+00  0.6000E+01
    -18.164  0.0000E+00  0.6000E+01
    -17.993  0.0000E+00  0.6000E+01
    -17.821  0.0000E+00  0.6000E+01
    -17.650  0.0000E+00  0.6000E+01
    -17.478  0.0000E+00  0.6000E+01
    -17.307  0.0000E+00  0.6000E+01
    -17.135  0.0000E+00  0.6000E+01
    -16.964  0.0000E+00  0.6000E+01
    -16.792  0.0000E+00  0.6000E+01
    -16.620  0.0000E+00  0.6000E+01
    -16.449  0.0000E+00  0.6000E+01
    -16.277  0.0000E+00  0.6000E+01
    -16.106  0.0000E+00  0.6000E+01
    -15.934  0.0000E+00  0.6000E+01
    -15.763  0.0000E+00  0.6000E+01
    -15.591  0.0000E+00  0.6000E+01
    -15.420  0.0000E+00  0.6000E+01
    -15.248  0.0000E+00  0.6000E+01
    -15.077  0.0000E+00  0.6000E+01
    -14.905  0.0000E+00  0.6000E+01
    -14.733  0.0000E+00  0.6000E+01
    -14.562  0.0000E+00  0.6000E+01
    -14.390  0.0000E+00  0.6000E+01
    -14.219  0.0000E+00  0.6000E+01
    -14.047  0.0000E+00  0.6000E+01
    -13.876  0.0000E+00  0.6000E+01
    -13.704  0.0000E+00  0.6000E+01
    -13.533  0.0000E+00  0.6000E+01
    -13.361  0.0000E+00  0.6000E+01
    -13.189  0.0000E+00  0.6000E+01
    -13.018  0.0000E+00  0.6000E+01
    -12.846  0.0000E+00  0.6000E+01
    -12.675  0.0000E+00  0.6000E+01
    -12.503  0.0000E+00  0.6000E+01
    -12.332  0.0000E+00  0.6000E+01
    -12.160  0.0000E+00  0.6000E+01
    -11.989  0.0000E+00  0.6000E+01
    -11.817  0.0000E+00  0.6000E+01
    -11.646  0.0000E+00  0.6000E+01
    -11.474  0.0000E+00  0.6000E+01
    -11.302  0.0000E+00  0.6000E+01
    -11.131  0.0000E+00  0.6000E+01
    -10.959  0.0000E+00  0.6000E+01
    -10.788  0.0000E+00  0.6000E+01
    -10.616  0.0000E+00  0.6000E+01
    -10.445  0.0000E+00  0.6000E+01
    -10.273  0.0000E+00  0.6000E+01
    -10.102  0.0000E+00  0.6000E+01
     -9.930  0.0000E+00  0.6000E+01
     -9.759  0.0000E+00  0.6000E+01
     -9.587  0.0000E+00  0.6000E+01
     -9.415  0.0000E+00  0.6000E+01
     -9.244  0.0000E+00  0.6000E+01
     -9.072  0.0000E+00  0.6000E+01
     -8.901  0.0000E+00  0.6000E+01
     -8.729  0.0000E+00  0.6000E+01
     -8.558  0.0000E+00  0.6000E+01
     -8.386  0.0000E+00  0.6000E+01
     -8.215  0.0000E+00  0.6000E+01
     -8.043  0.0000E+00  0.6000E+01
     -7.872  0.0000E+00  0.6000E+01
     -7.700  0.0000E+00  0.6000E+01
     -7.528  0.0000E+00  0.6000E+01
     -7.357  0.0000E+00  0.6000E+01
     -7.185  0.0000E+00  0.6000E+01
     -7.014  0.0000E+00  0.6000E+01
     -6.842  0.0000E+00  0.6000E+01
     -6.671  0.0000E+00  0.6000E+01
     -6.499  0.0000E+00  0.6000E+01
     -6.328  0.0000E+00  0.6000E+01
     -6.156  0.0000E+00  0.6000E+01
     -5.984  0.0000E+00  0.6000E+01
     -5.813  0.0000E+00  0.6000E+01
     -5.641  0.0000E+00  0.6000E+01
     -5.470  0.0000E+00  0.6000E+01
     -5.298  0.0000E+00  0.6000E+01
     -5.127  0.0000E+00  0.6000E+01
     -4.955  0.0000E+00  0.6000E+01
     -4.784  0.0000E+00  0.6000E+01
     -4.612  0.0000E+00  0.6000E+01
     -4.441  0.0000E+00  0.6000E+01
     -4.269  0.0000E+00  0.6000E+01
     -4.097  0.0000E+00  0.6000E+01
     -3.926  0.0000E+00  0.6000E+01
     -3.754  0.2166E-09  0.6000E+01
     -3.583  0.8539E-02  0.6001E+01
     -3.411  0.4658E-01  0.6009E+01
     -3.240  0.2057E+00  0.6045E+01
     -3.068  0.2298E+00  0.6084E+01
     -2.897  0.2226E+00  0.6122E+01
     -2.725  0.3229E+00  0.6178E+01
     -2.554  0.1007E+00  0.6195E+01
     -2.382  0.7566E+00  0.6325E+01
     -2.210  0.3828E+00  0.6390E+01
     -2.039  0.5339E+00  0.6482E+01
     -1.867  0.2858E+00  0.6531E+01
     -1.696  0.5517E+00  0.6626E+01
     -1.524  0.5758E+00  0.6725E+01
     -1.353  0.4540E+00  0.6802E+01
     -1.181  0.2849E+00  0.6851E+01
     -1.010  0.5129E+00  0.6939E+01
     -0.838  0.5136E+00  0.7027E+01
     -0.667  0.5238E+00  0.7117E+01
     -0.495  0.5182E+00  0.7206E+01
     -0.323  0.5813E+00  0.7306E+01
     -0.152  0.6647E+00  0.7420E+01
      0.020  0.2396E+00  0.7461E+01
      0.191  0.3491E+00  0.7521E+01
      0.363  0.8014E+00  0.7658E+01
      0.534  0.5352E+00  0.7750E+01
      0.706  0.3865E+00  0.7816E+01
      0.877  0.9315E+00  0.7976E+01
      1.049  0.5943E+00  0.8078E+01
      1.221  0.1055E+01  0.8259E+01
      1.392  0.1099E+01  0.8448E+01
      1.564  0.7875E+00  0.8583E+01
      1.735  0.8801E+00  0.8734E+01
      1.907  0.5231E+00  0.8824E+01
      2.078  0.7793E+00  0.8957E+01
      2.250  0.7776E+00  0.9091E+01
      2.421  0.7069E+00  0.9212E+01
      2.593  0.7147E+00  0.9334E+01
      2.764  0.6087E+00  0.9439E+01
      2.936  0.1931E+00  0.9472E+01
      3.108  0.9182E+00  0.9630E+01
      3.279  0.4834E+00  0.9712E+01
      3.451  0.5274E+00  0.9803E+01
      3.622  0.3124E+00  0.9857E+01
      3.794  0.7105E+00  0.9978E+01
      3.965  0.1112E+01  0.1017E+02
      4.137  0.9396E+00  0.1033E+02
      4.308  0.1287E+01  0.1055E+02
      4.480  0.1803E+01  0.1086E+02
      4.651  0.9314E+00  0.1102E+02
      4.823  0.1219E+01  0.1123E+02
      4.995  0.9528E+00  0.1139E+02
      5.166  0.5114E+00  0.1148E+02
      5.338  0.8257E+00  0.1162E+02
      5.509  0.7647E+00  0.1175E+02
      5.681  0.8674E+00  0.1190E+02
      5.852  0.5691E+00  0.1200E+02
      6.024  0.1709E+01  0.1229E+02
      6.195  0.1368E+01  0.1253E+02
      6.367  0.1298E+01  0.1275E+02
      6.538  0.1649E+01  0.1303E+02
      6.710  0.1343E+01  0.1326E+02
      6.882  0.1161E+01  0.1346E+02
      7.053  0.1214E+01  0.1367E+02
      7.225  0.1319E+01  0.1390E+02
      7.396  0.1782E+01  0.1420E+02
      7.568  0.1502E+01  0.1446E+02
      7.739  0.1853E+01  0.1478E+02
      7.911  0.2733E+01  0.1525E+02
      8.082  0.2192E+01  0.1562E+02
      8.254  0.3151E+01  0.1616E+02
      8.426  0.3735E+01  0.1680E+02
      8.597  0.3395E+01  0.1739E+02
      8.769  0.1512E+01  0.1765E+02
      8.940  0.1595E+01  0.1792E+02
      9.112  0.1526E+01  0.1818E+02
      9.283  0.1310E+01  0.1841E+02
      9.455  0.1658E+01  0.1869E+02
      9.626  0.9454E+00  0.1885E+02
      9.798  0.1028E+01  0.1903E+02
      9.969  0.9426E+00  0.1919E+02
     10.141  0.1391E+01  0.1943E+02
     10.313  0.1690E+01  0.1972E+02
     10.484  0.9866E+00  0.1989E+02
     10.656  0.1420E+01  0.2013E+02
     10.827  0.1416E+01  0.2038E+02
     10.999  0.1789E+01  0.2068E+02
     11.170  0.2505E+01  0.2111E+02
     11.342  0.1600E+01  0.2139E+02
     11.513  0.2860E+01  0.2188E+02
     11.685  0.3307E+01  0.2244E+02
     11.856  0.2369E+01  0.2285E+02
     12.028  0.2592E+01  0.2330E+02
     12.200  0.2060E+01  0.2365E+02
     12.371  0.3753E+01  0.2429E+02
     12.543  0.2936E+01  0.2480E+02
     12.714  0.1782E+01  0.2510E+02
     12.886  0.2927E+01  0.2560E+02
     13.057  0.2490E+01  0.2603E+02
     13.229  0.2148E+01  0.2640E+02
     13.400  0.1767E+01  0.2670E+02
     13.572  0.1759E+01  0.2700E+02
     13.743  0.2457E+01  0.2743E+02
     13.915  0.2655E+01  0.2788E+02
     14.087  0.2066E+01  0.2824E+02
     14.258  0.1541E+01  0.2850E+02
     14.430  0.2101E+01  0.2886E+02
     14.601  0.1290E+01  0.2908E+02
     14.773  0.2049E+01  0.2943E+02
     14.944  0.2298E+01  0.2983E+02
     15.116  0.1099E+01  0.3002E+02
     15.287  0.2098E+01  0.3038E+02
     15.459  0.1890E+01  0.3070E+02
     15.631  0.8653E+00  0.3085E+02
     15.802  0.1323E+01  0.3108E+02
     15.974  0.1744E+01  0.3138E+02
     16.145  0.1513E+01  0.3163E+02
     16.317  0.1672E+01  0.3192E+02
     16.488  0.1443E+01  0.3217E+02
     16.660  0.1875E+01  0.3249E+02
     16.831  0.1917E+01  0.3282E+02
     17.003  0.1444E+01  0.3307E+02
     17.174  0.2081E+01  0.3342E+02
     17.346  0.1281E+01  0.3364E+02
     17.518  0.9234E+00  0.3380E+02
     17.689  0.5483E+00  0.3390E+02
     17.861  0.1405E+01  0.3414E+02
     18.032  0.1787E+01  0.3444E+02
     18.204  0.1376E+01  0.3468E+02
     18.375  0.1162E+01  0.3488E+02
     18.547  0.1915E+01  0.3521E+02
     18.718  0.7958E+00  0.3534E+02
     18.890  0.1682E+01  0.3563E+02
     19.061  0.1656E+01  0.3592E+02
     19.233  0.1939E+01  0.3625E+02
     19.405  0.1594E+01  0.3652E+02
     19.576  0.1209E+01  0.3673E+02
     19.748  0.1418E+01  0.3697E+02
     19.919  0.1676E+01  0.3726E+02
     20.091  0.1962E+01  0.3760E+02
     20.262  0.1978E+01  0.3794E+02
     20.434  0.9443E+00  0.3810E+02
     20.605  0.7652E+00  0.3823E+02
     20.777  0.1260E+01  0.3845E+02
     20.948  0.1783E+01  0.3875E+02
     21.120  0.1077E+01  0.3894E+02
     21.292  0.8695E+00  0.3909E+02
     21.463  0.1132E+01  0.3928E+02
     21.635  0.9466E+00  0.3944E+02
     21.806  0.7013E+00  0.3956E+02
     21.978  0.5927E+00  0.3967E+02
     22.149  0.4503E+00  0.3974E+02
     22.321  0.4457E-01  0.3975E+02
     22.492  0.2087E+00  0.3979E+02
     22.664  0.5436E+00  0.3988E+02
     22.836  0.2943E+00  0.3993E+02
     23.007  0.6233E-01  0.3994E+02
     23.179  0.3477E+00  0.4000E+02
     23.350  0.1937E-03  0.4000E+02
     23.522  0.0000E+00  0.4000E+02
     23.693  0.0000E+00  0.4000E+02
     23.865  0.0000E+00  0.4000E+02
     24.036  0.0000E+00  0.4000E+02
     24.208  0.0000E+00  0.4000E+02
     24.379  0.0000E+00  0.4000E+02
     24.551  0.0000E+00  0.4000E+02
     24.723  0.0000E+00  0.4000E+02
     24.894  0.0000E+00  0.4000E+02
     25.066  0.0000E+00  0.4000E+02
     25.237  0.0000E+00  0.4000E+02
     25.409  0.0000E+00  0.4000E+02
