C6 N8                                   
   1.00000000000000     
     0.0000000000000000    3.3912480000000000    3.3912480000000000
     3.3912480000000000    0.0000000000000000    3.3912480000000000
     3.3912480000000000    3.3912480000000000    0.0000000000000000
   C    N 
     6     8
Direct
     0.0000000000000000    0.0000000000000000    0.0000000000000000
     0.2500000000000000    0.2500000000000000    0.2500000000000000
     0.6250000000000000    0.1250000000000000    0.6250000000000000
     0.6250000000000000    0.6250000000000000    0.1250000000000000
     0.1250000000000000    0.6250000000000000    0.6250000000000000
     0.6250000000000000    0.6250000000000000    0.6250000000000000
     0.8691419999999965    0.3925740000000033    0.8691419999999965
     0.3808580000000035    0.3808580000000035    0.8574259999999967
     0.8574259999999967    0.3808580000000035    0.3808580000000035
     0.3808580000000035    0.3808580000000035    0.3808580000000035
     0.3925740000000033    0.8691419999999965    0.8691419999999965
     0.8691419999999965    0.8691419999999965    0.8691419999999965
     0.8691419999999965    0.8691419999999965    0.3925740000000033
     0.3808580000000035    0.8574259999999967    0.3808580000000035
 
  0.00000000E+00  0.00000000E+00  0.00000000E+00
  0.00000000E+00  0.00000000E+00  0.00000000E+00
  0.00000000E+00  0.00000000E+00  0.00000000E+00
  0.00000000E+00  0.00000000E+00  0.00000000E+00
  0.00000000E+00  0.00000000E+00  0.00000000E+00
  0.00000000E+00  0.00000000E+00  0.00000000E+00
  0.00000000E+00  0.00000000E+00  0.00000000E+00
  0.00000000E+00  0.00000000E+00  0.00000000E+00
  0.00000000E+00  0.00000000E+00  0.00000000E+00
  0.00000000E+00  0.00000000E+00  0.00000000E+00
  0.00000000E+00  0.00000000E+00  0.00000000E+00
  0.00000000E+00  0.00000000E+00  0.00000000E+00
  0.00000000E+00  0.00000000E+00  0.00000000E+00
  0.00000000E+00  0.00000000E+00  0.00000000E+00
