  14  14   0   0
  0.5571609E+01  0.4795949E-09  0.4795949E-09  0.4795949E-09  0.5000000E-15
  1.000000000000000E-004
  CAR 
 unknown system                          
     26.22785225    -15.94477895  301     10.78212608      1.00000000
    -15.945  0.0000E+00  0.0000E+00
    -15.804  0.0000E+00  0.0000E+00
    -15.664  0.0000E+00  0.0000E+00
    -15.523  0.0000E+00  0.0000E+00
    -15.382  0.0000E+00  0.0000E+00
    -15.242  0.0000E+00  0.0000E+00
    -15.101  0.0000E+00  0.0000E+00
    -14.961  0.0000E+00  0.0000E+00
    -14.820  0.0000E+00  0.0000E+00
    -14.680  0.0000E+00  0.0000E+00
    -14.539  0.0000E+00  0.0000E+00
    -14.398  0.0000E+00  0.0000E+00
    -14.258  0.2537E-11  0.3566E-12
    -14.117  0.3754E-03  0.5277E-04
    -13.977  0.6061E-01  0.8574E-02
    -13.836  0.2044E+00  0.3730E-01
    -13.696  0.7054E+00  0.1365E+00
    -13.555  0.4195E-01  0.1424E+00
    -13.414  0.7523E+00  0.2481E+00
    -13.274  0.1128E+01  0.4067E+00
    -13.133  0.9918E+00  0.5461E+00
    -12.993  0.5200E-01  0.5534E+00
    -12.852  0.4015E+00  0.6098E+00
    -12.712  0.2211E+01  0.9206E+00
    -12.571  0.1066E+01  0.1070E+01
    -12.430  0.1662E+01  0.1304E+01
    -12.290  0.2948E+00  0.1345E+01
    -12.149  0.1299E+01  0.1528E+01
    -12.009  0.1864E+01  0.1790E+01
    -11.868  0.5050E+00  0.1861E+01
    -11.728  0.1986E+00  0.1889E+01
    -11.587  0.5271E+00  0.1963E+01
    -11.446  0.1707E+01  0.2203E+01
    -11.306  0.2577E+01  0.2565E+01
    -11.165  0.7198E+00  0.2666E+01
    -11.025  0.1255E+01  0.2843E+01
    -10.884  0.2333E+01  0.3171E+01
    -10.743  0.1740E+00  0.3195E+01
    -10.603  0.8882E+00  0.3320E+01
    -10.462  0.1841E+01  0.3579E+01
    -10.322  0.3080E-01  0.3583E+01
    -10.181  0.1002E+01  0.3724E+01
    -10.041  0.5508E+01  0.4498E+01
     -9.900  0.1774E+01  0.4748E+01
     -9.759  0.7110E+00  0.4848E+01
     -9.619  0.1191E+00  0.4865E+01
     -9.478  0.2917E+01  0.5275E+01
     -9.338  0.1216E+01  0.5446E+01
     -9.197  0.2643E+01  0.5817E+01
     -9.057  0.3248E+01  0.6274E+01
     -8.916  0.2322E+01  0.6600E+01
     -8.775  0.7636E+00  0.6707E+01
     -8.635  0.2062E+00  0.6736E+01
     -8.494  0.1985E+01  0.7015E+01
     -8.354  0.2960E+01  0.7431E+01
     -8.213  0.2045E+01  0.7719E+01
     -8.073  0.2968E+01  0.8136E+01
     -7.932  0.2229E+01  0.8450E+01
     -7.791  0.1743E+01  0.8695E+01
     -7.651  0.1964E+00  0.8722E+01
     -7.510  0.1401E+01  0.8919E+01
     -7.370  0.5921E+01  0.9752E+01
     -7.229  0.4573E+01  0.1039E+02
     -7.089  0.2617E+01  0.1076E+02
     -6.948  0.3473E+01  0.1125E+02
     -6.807  0.1620E+01  0.1148E+02
     -6.667  0.1859E+01  0.1174E+02
     -6.526  0.1786E+01  0.1199E+02
     -6.386  0.3068E+01  0.1242E+02
     -6.245  0.2953E+01  0.1284E+02
     -6.104  0.1186E+01  0.1300E+02
     -5.964  0.3747E+01  0.1353E+02
     -5.823  0.4539E+01  0.1417E+02
     -5.683  0.2189E+00  0.1420E+02
     -5.542  0.4097E+01  0.1478E+02
     -5.402  0.3226E+01  0.1523E+02
     -5.261  0.1709E+01  0.1547E+02
     -5.120  0.1436E+01  0.1567E+02
     -4.980  0.2056E+01  0.1596E+02
     -4.839  0.9310E+00  0.1609E+02
     -4.699  0.9847E+00  0.1623E+02
     -4.558  0.2133E+00  0.1626E+02
     -4.418  0.1819E+00  0.1628E+02
     -4.277  0.1501E+01  0.1650E+02
     -4.136  0.1949E+01  0.1677E+02
     -3.996  0.1192E+00  0.1679E+02
     -3.855  0.1897E+01  0.1705E+02
     -3.715  0.1183E+01  0.1722E+02
     -3.574  0.1986E+01  0.1750E+02
     -3.434  0.1103E+01  0.1765E+02
     -3.293  0.7948E+00  0.1777E+02
     -3.152  0.1716E+01  0.1801E+02
     -3.012  0.5353E-01  0.1801E+02
     -2.871  0.2354E+01  0.1835E+02
     -2.731  0.2063E+01  0.1864E+02
     -2.590  0.2828E+01  0.1903E+02
     -2.450  0.3336E+01  0.1950E+02
     -2.309  0.1393E+01  0.1970E+02
     -2.168  0.2752E+01  0.2008E+02
     -2.028  0.4560E+01  0.2073E+02
     -1.887  0.4600E+01  0.2137E+02
     -1.747  0.4860E+01  0.2206E+02
     -1.606  0.2635E+01  0.2243E+02
     -1.466  0.2006E+01  0.2271E+02
     -1.325  0.1753E+01  0.2295E+02
     -1.184  0.3111E+01  0.2339E+02
     -1.044  0.3234E+01  0.2385E+02
     -0.903  0.2182E+01  0.2415E+02
     -0.763  0.1613E+01  0.2438E+02
     -0.622  0.1142E+01  0.2454E+02
     -0.481  0.4064E+01  0.2511E+02
     -0.341  0.1538E+01  0.2533E+02
     -0.200  0.3298E+01  0.2579E+02
     -0.060  0.2193E+01  0.2610E+02
      0.081  0.1770E+01  0.2635E+02
      0.221  0.5148E+01  0.2707E+02
      0.362  0.5468E+01  0.2784E+02
      0.503  0.2473E+01  0.2819E+02
      0.643  0.4501E+01  0.2882E+02
      0.784  0.3368E+01  0.2929E+02
      0.924  0.3656E+01  0.2981E+02
      1.065  0.2861E+01  0.3021E+02
      1.205  0.3077E+01  0.3064E+02
      1.346  0.3140E+01  0.3108E+02
      1.487  0.3026E+01  0.3151E+02
      1.627  0.1027E+02  0.3295E+02
      1.768  0.3214E+01  0.3341E+02
      1.908  0.3302E+01  0.3387E+02
      2.049  0.5429E+01  0.3463E+02
      2.189  0.4390E+01  0.3525E+02
      2.330  0.2274E+01  0.3557E+02
      2.471  0.2863E+01  0.3597E+02
      2.611  0.4742E+01  0.3664E+02
      2.752  0.5298E+00  0.3671E+02
      2.892  0.5059E+01  0.3742E+02
      3.033  0.1983E+01  0.3770E+02
      3.173  0.2707E+01  0.3808E+02
      3.314  0.2928E+01  0.3850E+02
      3.455  0.1294E+01  0.3868E+02
      3.595  0.7243E+01  0.3970E+02
      3.736  0.5269E+01  0.4044E+02
      3.876  0.6895E+01  0.4141E+02
      4.017  0.2174E+01  0.4171E+02
      4.158  0.1931E+01  0.4198E+02
      4.298  0.1591E+01  0.4221E+02
      4.439  0.5907E+01  0.4304E+02
      4.579  0.6083E+01  0.4389E+02
      4.720  0.2214E+01  0.4420E+02
      4.860  0.5981E+01  0.4504E+02
      5.001  0.2581E+01  0.4541E+02
      5.142  0.6192E+00  0.4549E+02
      5.282  0.1959E+00  0.4552E+02
      5.423  0.2039E+01  0.4581E+02
      5.563  0.2043E+01  0.4609E+02
      5.704  0.3566E+01  0.4660E+02
      5.844  0.2907E+01  0.4700E+02
      5.985  0.5506E+01  0.4778E+02
      6.126  0.3268E+01  0.4824E+02
      6.266  0.3081E+01  0.4867E+02
      6.407  0.3021E+01  0.4910E+02
      6.547  0.5606E+01  0.4988E+02
      6.688  0.5724E+01  0.5069E+02
      6.828  0.7176E+01  0.5170E+02
      6.969  0.4215E+01  0.5229E+02
      7.110  0.3470E+01  0.5278E+02
      7.250  0.2348E+01  0.5311E+02
      7.391  0.2366E+01  0.5344E+02
      7.531  0.3289E+01  0.5390E+02
      7.672  0.4300E+01  0.5451E+02
      7.812  0.3291E+01  0.5497E+02
      7.953  0.2747E+01  0.5536E+02
      8.094  0.4395E+01  0.5597E+02
      8.234  0.3263E+01  0.5643E+02
      8.375  0.4495E+01  0.5706E+02
      8.515  0.3660E+01  0.5758E+02
      8.656  0.1569E+01  0.5780E+02
      8.796  0.1617E+01  0.5803E+02
      8.937  0.1803E+01  0.5828E+02
      9.078  0.2925E+01  0.5869E+02
      9.218  0.1957E+01  0.5897E+02
      9.359  0.1485E+01  0.5918E+02
      9.499  0.1576E+01  0.5940E+02
      9.640  0.6575E+01  0.6032E+02
      9.781  0.7785E+01  0.6142E+02
      9.921  0.1912E+01  0.6168E+02
     10.062  0.2005E+01  0.6197E+02
     10.202  0.6100E+01  0.6282E+02
     10.343  0.5159E+01  0.6355E+02
     10.483  0.2876E+01  0.6395E+02
     10.624  0.3353E+00  0.6400E+02
     10.765  0.5312E-05  0.6400E+02
     10.905  0.0000E+00  0.6400E+02
     11.046  0.0000E+00  0.6400E+02
     11.186  0.8642E-08  0.6400E+02
     11.327  0.1671E-01  0.6400E+02
     11.467  0.2108E+00  0.6403E+02
     11.608  0.6746E+00  0.6413E+02
     11.749  0.2225E+00  0.6416E+02
     11.889  0.9604E+00  0.6429E+02
     12.030  0.8850E-01  0.6431E+02
     12.170  0.1999E+00  0.6433E+02
     12.311  0.3371E+01  0.6481E+02
     12.451  0.9919E+00  0.6495E+02
     12.592  0.5442E+00  0.6502E+02
     12.733  0.5576E+00  0.6510E+02
     12.873  0.1790E-01  0.6510E+02
     13.014  0.1420E+01  0.6530E+02
     13.154  0.3336E+01  0.6577E+02
     13.295  0.3189E+01  0.6622E+02
     13.435  0.1678E+01  0.6646E+02
     13.576  0.2954E+01  0.6687E+02
     13.717  0.5289E-01  0.6688E+02
     13.857  0.1586E-01  0.6688E+02
     13.998  0.3668E+01  0.6740E+02
     14.138  0.4084E+01  0.6797E+02
     14.279  0.2378E+01  0.6831E+02
     14.420  0.1957E+01  0.6858E+02
     14.560  0.4086E+01  0.6916E+02
     14.701  0.4199E+01  0.6975E+02
     14.841  0.2465E+01  0.7009E+02
     14.982  0.2706E+01  0.7047E+02
     15.122  0.5166E+01  0.7120E+02
     15.263  0.3281E+01  0.7166E+02
     15.404  0.2310E+01  0.7199E+02
     15.544  0.8541E+01  0.7319E+02
     15.685  0.5900E+01  0.7402E+02
     15.825  0.5631E+01  0.7481E+02
     15.966  0.4805E+01  0.7548E+02
     16.106  0.3942E+01  0.7604E+02
     16.247  0.3839E+01  0.7658E+02
     16.388  0.4256E+01  0.7717E+02
     16.528  0.5985E+01  0.7802E+02
     16.669  0.3405E+01  0.7849E+02
     16.809  0.2571E+01  0.7886E+02
     16.950  0.6169E+01  0.7972E+02
     17.090  0.5500E+01  0.8050E+02
     17.231  0.8927E+01  0.8175E+02
     17.372  0.6857E+01  0.8271E+02
     17.512  0.3871E+01  0.8326E+02
     17.653  0.2056E+01  0.8355E+02
     17.793  0.6280E+01  0.8443E+02
     17.934  0.7177E+01  0.8544E+02
     18.074  0.2997E+01  0.8586E+02
     18.215  0.5447E+01  0.8663E+02
     18.356  0.5887E+01  0.8745E+02
     18.496  0.9534E+01  0.8879E+02
     18.637  0.5868E+01  0.8962E+02
     18.777  0.5719E+01  0.9042E+02
     18.918  0.5334E+01  0.9117E+02
     19.059  0.6178E+01  0.9204E+02
     19.199  0.4699E+01  0.9270E+02
     19.340  0.5787E+01  0.9352E+02
     19.480  0.3645E+01  0.9403E+02
     19.621  0.1016E+02  0.9546E+02
     19.761  0.7858E+01  0.9656E+02
     19.902  0.5224E+01  0.9730E+02
     20.043  0.1694E+01  0.9753E+02
     20.183  0.6725E+01  0.9848E+02
     20.324  0.3971E+01  0.9904E+02
     20.464  0.5684E+01  0.9984E+02
     20.605  0.7172E+01  0.1008E+03
     20.745  0.3278E+01  0.1013E+03
     20.886  0.5148E+01  0.1020E+03
     21.027  0.6889E+01  0.1030E+03
     21.167  0.4784E+01  0.1037E+03
     21.308  0.5739E+01  0.1045E+03
     21.448  0.5683E+01  0.1053E+03
     21.589  0.2816E+01  0.1057E+03
     21.729  0.5817E+01  0.1065E+03
     21.870  0.6705E+01  0.1074E+03
     22.011  0.6250E+01  0.1083E+03
     22.151  0.5040E+01  0.1090E+03
     22.292  0.3780E+01  0.1096E+03
     22.432  0.4441E+00  0.1096E+03
     22.573  0.2110E+01  0.1099E+03
     22.713  0.6443E+00  0.1100E+03
     22.854  0.1313E+01  0.1102E+03
     22.995  0.2694E+00  0.1102E+03
     23.135  0.2210E+00  0.1103E+03
     23.276  0.1676E+01  0.1105E+03
     23.416  0.1662E+01  0.1107E+03
     23.557  0.1332E+01  0.1109E+03
     23.697  0.8202E+00  0.1110E+03
     23.838  0.2875E+01  0.1114E+03
     23.979  0.2852E+01  0.1118E+03
     24.119  0.2857E+00  0.1119E+03
     24.260  0.4219E+00  0.1119E+03
     24.400  0.4997E+00  0.1120E+03
     24.541  0.4970E-03  0.1120E+03
     24.682  0.2593E-11  0.1120E+03
     24.822  0.0000E+00  0.1120E+03
     24.963  0.0000E+00  0.1120E+03
     25.103  0.0000E+00  0.1120E+03
     25.244  0.0000E+00  0.1120E+03
     25.384  0.0000E+00  0.1120E+03
     25.525  0.0000E+00  0.1120E+03
     25.666  0.0000E+00  0.1120E+03
     25.806  0.0000E+00  0.1120E+03
     25.947  0.0000E+00  0.1120E+03
     26.087  0.0000E+00  0.1120E+03
     26.228  0.0000E+00  0.1120E+03
