       N       E                     dE             d eps       ncg     rms          rms(c)
DAV:   1     0.267330293482E+03    0.26733E+03   -0.38039E+04 24192   0.130E+03
DAV:   2    -0.831929242360E+02   -0.35052E+03   -0.32261E+03 28648   0.313E+02
DAV:   3    -0.102005278926E+03   -0.18812E+02   -0.18326E+02 31040   0.673E+01
DAV:   4    -0.102235171800E+03   -0.22989E+00   -0.22866E+00 29288   0.730E+00
DAV:   5    -0.102237353192E+03   -0.21814E-02   -0.21802E-02 29840   0.626E-01    0.158E+01
DAV:   6    -0.982506689226E+02    0.39867E+01   -0.53324E+00 29216   0.137E+01    0.699E+00
DAV:   7    -0.980903889397E+02    0.16028E+00   -0.96061E-01 27680   0.470E+00    0.458E+00
DAV:   8    -0.980494965880E+02    0.40892E-01   -0.15147E-01 29408   0.184E+00    0.107E+00
DAV:   9    -0.980510002474E+02   -0.15037E-02   -0.71861E-03 29912   0.551E-01    0.320E-01
DAV:  10    -0.980510922727E+02   -0.92025E-04   -0.17910E-03 29744   0.190E-01    0.697E-02
DAV:  11    -0.980511116500E+02   -0.19377E-04   -0.16058E-04 30736   0.686E-02    0.264E-02
DAV:  12    -0.980511251718E+02   -0.13522E-04   -0.21947E-05 27912   0.223E-02    0.893E-03
DAV:  13    -0.980511280669E+02   -0.28951E-05   -0.29837E-06 28744   0.851E-03    0.347E-03
DAV:  14    -0.980511282666E+02   -0.19975E-06   -0.20190E-07 14768   0.211E-03
   1 F= -.98051128E+02 E0= -.98051128E+02  d E =-.190251E-19
