C6N8
1.0
      0.0000000       3.3912480       3.3912480
      3.3912480       0.0000000       3.3912480
      3.3912480       3.3912480       0.0000000
  C     N   
  6     8   
Direct
      0.0000000       0.0000000       0.0000000
      0.2500000       0.2500000       0.2500000
      0.6250000       0.1250000       0.6250000
      0.6250000       0.6250000       0.1250000
      0.1250000       0.6250000       0.6250000
      0.6250000       0.6250000       0.6250000
      0.8691420       0.3925740       0.8691420
      0.3808580       0.3808580       0.8574260
      0.8574260       0.3808580       0.3808580
      0.3808580       0.3808580       0.3808580
      0.3925740       0.8691420       0.8691420
      0.8691420       0.8691420       0.8691420
      0.8691420       0.8691420       0.3925740
      0.3808580       0.8574260       0.3808580
