unknown system                          
           1
     0.000000    3.391248    3.391248
     3.391248    0.000000    3.391248
     3.391248    3.391248    0.000000
   C    N 
     6     8
Direct configuration=     1
   0.00000000  0.00000000  0.00000000
   0.25000000  0.25000000  0.25000000
   0.62500000  0.12500000  0.62500000
   0.62500000  0.62500000  0.12500000
   0.12500000  0.62500000  0.62500000
   0.62500000  0.62500000  0.62500000
   0.86914200  0.39257400  0.86914200
   0.38085800  0.38085800  0.85742600
   0.85742600  0.38085800  0.38085800
   0.38085800  0.38085800  0.38085800
   0.39257400  0.86914200  0.86914200
   0.86914200  0.86914200  0.86914200
   0.86914200  0.86914200  0.39257400
   0.38085800  0.85742600  0.38085800
