       N       E                     dE             d eps       ncg     rms          rms(c)
DAV:   1     0.143246616014E+03    0.14325E+03   -0.12175E+04 30100   0.165E+03
DAV:   2     0.210644469822E+01   -0.14114E+03   -0.13372E+03 29532   0.322E+02
DAV:   3    -0.429174324700E+01   -0.63982E+01   -0.63539E+01 32968   0.707E+01
DAV:   4    -0.434711456149E+01   -0.55371E-01   -0.55355E-01 32216   0.601E+00
DAV:   5    -0.434765014568E+01   -0.53558E-03   -0.53558E-03 32920   0.609E-01    0.657E+00
DAV:   6    -0.391575707839E+01    0.43189E+00   -0.13560E+00 32824   0.138E+01    0.435E+00
DAV:   7    -0.389906285372E+01    0.16694E-01   -0.22777E-02 37308   0.332E+00    0.244E+00
DAV:   8    -0.389080435216E+01    0.82585E-02   -0.67938E-03 31668   0.849E-01    0.148E-01
DAV:   9    -0.389078009315E+01    0.24259E-04   -0.11500E-04 38296   0.352E-01    0.500E-02
DAV:  10    -0.389079626951E+01   -0.16176E-04   -0.36115E-05 31700   0.592E-02    0.100E-02
DAV:  11    -0.389079645004E+01   -0.18054E-06   -0.23488E-06 30496   0.200E-02
   1 F= -.38907965E+01 E0= -.38906448E+01  d E =-.303211E-03
