In2 Br2                                 
   1.00000000000000     
     4.3018863899999999    0.0000000000000000   -1.5969979700000001
     0.0000000000000000    4.6024188800000001    0.0000000000000000
    -0.0072435200000000    0.0000000000000000    6.5730602600000001
   In   Br
     2     2
Direct
     0.6065537300000017    0.2500000000000000    0.2131094599999983
     0.3934462699999983    0.7500000000000000    0.7868905400000017
     0.8487282299999990    0.2500000000000000    0.6974544600000030
     0.1512717700000010    0.7500000000000000    0.3025455399999970
 
  0.00000000E+00  0.00000000E+00  0.00000000E+00
  0.00000000E+00  0.00000000E+00  0.00000000E+00
  0.00000000E+00  0.00000000E+00  0.00000000E+00
  0.00000000E+00  0.00000000E+00  0.00000000E+00
