       N       E                     dE             d eps       ncg     rms          rms(c)
DAV:   1     0.390356312874E+03    0.39036E+03   -0.19850E+04  8072   0.170E+03
DAV:   2     0.431798667093E+02   -0.34718E+03   -0.33585E+03  8168   0.415E+02
DAV:   3    -0.862755694225E+01   -0.51807E+02   -0.50652E+02 10172   0.157E+02
DAV:   4    -0.113696119767E+02   -0.27421E+01   -0.27307E+01  9272   0.369E+01
DAV:   5    -0.114575349214E+02   -0.87923E-01   -0.87909E-01  9960   0.720E+00    0.472E+00
DAV:   6    -0.111482359038E+02    0.30930E+00   -0.50111E-01 12380   0.479E+00    0.258E+00
DAV:   7    -0.111317900414E+02    0.16446E-01   -0.27851E-01 10004   0.297E+00    0.880E-01
DAV:   8    -0.111353589256E+02   -0.35689E-02   -0.36279E-02 10136   0.180E+00    0.293E-01
DAV:   9    -0.111354883892E+02   -0.12946E-03   -0.34707E-03 11148   0.641E-01    0.155E-01
DAV:  10    -0.111357636576E+02   -0.27527E-03   -0.11430E-03  9840   0.166E-01    0.115E-01
DAV:  11    -0.111357820547E+02   -0.18397E-04   -0.26426E-04 10432   0.195E-01    0.508E-02
DAV:  12    -0.111357830294E+02   -0.97474E-06   -0.36680E-05  8880   0.372E-02    0.200E-02
DAV:  13    -0.111357820823E+02    0.94714E-06   -0.32905E-06  8020   0.113E-02
   1 F= -.11135782E+02 E0= -.11135782E+02  d E =-.462496E-16
