       N       E                     dE             d eps       ncg     rms          rms(c)
DAV:   1     0.849952746440E+03    0.84995E+03   -0.39930E+04  7680   0.186E+03
DAV:   2     0.779673815274E+02   -0.77199E+03   -0.74741E+03  7936   0.474E+02
DAV:   3    -0.370659957772E+02   -0.11503E+03   -0.11165E+03  9264   0.179E+02
DAV:   4    -0.437854533796E+02   -0.67195E+01   -0.66455E+01  8928   0.392E+01
DAV:   5    -0.440265183184E+02   -0.24106E+00   -0.24017E+00 10056   0.809E+00    0.152E+01
DAV:   6    -0.427878954923E+02    0.12386E+01   -0.18995E+00  9088   0.497E+00    0.955E+00
DAV:   7    -0.426076785515E+02    0.18022E+00   -0.14446E+00 10000   0.423E+00    0.259E+00
DAV:   8    -0.426153563806E+02   -0.76778E-02   -0.15849E-01  8560   0.174E+00    0.915E-01
DAV:   9    -0.426133265816E+02    0.20298E-02   -0.72420E-03  8992   0.458E-01    0.291E-01
DAV:  10    -0.426152483986E+02   -0.19218E-02   -0.20231E-03  9352   0.171E-01    0.902E-02
DAV:  11    -0.426162084851E+02   -0.96009E-03   -0.92362E-04  8632   0.114E-01    0.751E-02
DAV:  12    -0.426162728778E+02   -0.64393E-04   -0.13944E-04  9680   0.449E-02    0.369E-02
DAV:  13    -0.426162941047E+02   -0.21227E-04   -0.38253E-05  7840   0.279E-02    0.105E-02
DAV:  14    -0.426162949549E+02   -0.85023E-06   -0.57714E-06  8384   0.872E-03
   1 F= -.42616295E+02 E0= -.42616295E+02  d E =-.374462E-13
