  84  84   0   0
  0.1525365E+02  0.6730475E-09  0.1154313E-08  0.1649240E-08  0.5000000E-15
  1.000000000000000E-004
  CAR 
 unknown system                          
     14.88803219    -22.49971183  301      2.19177745      1.00000000
    -22.500  0.0000E+00  0.0000E+00
    -22.375  0.0000E+00  0.0000E+00
    -22.250  0.0000E+00  0.0000E+00
    -22.126  0.0000E+00  0.0000E+00
    -22.001  0.0000E+00  0.0000E+00
    -21.877  0.0000E+00  0.0000E+00
    -21.752  0.0000E+00  0.0000E+00
    -21.627  0.0000E+00  0.0000E+00
    -21.503  0.0000E+00  0.0000E+00
    -21.378  0.0000E+00  0.0000E+00
    -21.253  0.0000E+00  0.0000E+00
    -21.129  0.0000E+00  0.0000E+00
    -21.004  0.1186E-07  0.1477E-08
    -20.880  0.9579E-01  0.1194E-01
    -20.755  0.5237E+02  0.6538E+01
    -20.630  0.2115E+03  0.3290E+02
    -20.506  0.1204E+03  0.4791E+02
    -20.381  0.7564E+00  0.4800E+02
    -20.256  0.3456E-06  0.4800E+02
    -20.132  0.0000E+00  0.4800E+02
    -20.007  0.0000E+00  0.4800E+02
    -19.883  0.0000E+00  0.4800E+02
    -19.758  0.0000E+00  0.4800E+02
    -19.633  0.0000E+00  0.4800E+02
    -19.509  0.0000E+00  0.4800E+02
    -19.384  0.0000E+00  0.4800E+02
    -19.259  0.0000E+00  0.4800E+02
    -19.135  0.0000E+00  0.4800E+02
    -19.010  0.0000E+00  0.4800E+02
    -18.886  0.0000E+00  0.4800E+02
    -18.761  0.0000E+00  0.4800E+02
    -18.636  0.0000E+00  0.4800E+02
    -18.512  0.0000E+00  0.4800E+02
    -18.387  0.0000E+00  0.4800E+02
    -18.262  0.0000E+00  0.4800E+02
    -18.138  0.0000E+00  0.4800E+02
    -18.013  0.0000E+00  0.4800E+02
    -17.889  0.0000E+00  0.4800E+02
    -17.764  0.0000E+00  0.4800E+02
    -17.639  0.0000E+00  0.4800E+02
    -17.515  0.0000E+00  0.4800E+02
    -17.390  0.0000E+00  0.4800E+02
    -17.265  0.0000E+00  0.4800E+02
    -17.141  0.0000E+00  0.4800E+02
    -17.016  0.0000E+00  0.4800E+02
    -16.892  0.0000E+00  0.4800E+02
    -16.767  0.1013E-11  0.4800E+02
    -16.642  0.1521E-02  0.4800E+02
    -16.518  0.3318E+02  0.5214E+02
    -16.393  0.3197E+03  0.9198E+02
    -16.268  0.3225E+02  0.9600E+02
    -16.144  0.1813E-02  0.9600E+02
    -16.019  0.1379E-11  0.9600E+02
    -15.895  0.0000E+00  0.9600E+02
    -15.770  0.0000E+00  0.9600E+02
    -15.645  0.0000E+00  0.9600E+02
    -15.521  0.0000E+00  0.9600E+02
    -15.396  0.0000E+00  0.9600E+02
    -15.271  0.0000E+00  0.9600E+02
    -15.147  0.0000E+00  0.9600E+02
    -15.022  0.0000E+00  0.9600E+02
    -14.898  0.0000E+00  0.9600E+02
    -14.773  0.0000E+00  0.9600E+02
    -14.648  0.0000E+00  0.9600E+02
    -14.524  0.5755E-08  0.9600E+02
    -14.399  0.1591E+00  0.9602E+02
    -14.274  0.1405E+03  0.1135E+03
    -14.150  0.2590E+03  0.1458E+03
    -14.025  0.5423E+03  0.2134E+03
    -13.901  0.2095E+02  0.2160E+03
    -13.776  0.1083E-03  0.2160E+03
    -13.651  0.0000E+00  0.2160E+03
    -13.527  0.0000E+00  0.2160E+03
    -13.402  0.0000E+00  0.2160E+03
    -13.277  0.0000E+00  0.2160E+03
    -13.153  0.0000E+00  0.2160E+03
    -13.028  0.0000E+00  0.2160E+03
    -12.904  0.0000E+00  0.2160E+03
    -12.779  0.0000E+00  0.2160E+03
    -12.654  0.0000E+00  0.2160E+03
    -12.530  0.0000E+00  0.2160E+03
    -12.405  0.0000E+00  0.2160E+03
    -12.280  0.0000E+00  0.2160E+03
    -12.156  0.0000E+00  0.2160E+03
    -12.031  0.0000E+00  0.2160E+03
    -11.907  0.0000E+00  0.2160E+03
    -11.782  0.0000E+00  0.2160E+03
    -11.657  0.0000E+00  0.2160E+03
    -11.533  0.0000E+00  0.2160E+03
    -11.408  0.0000E+00  0.2160E+03
    -11.283  0.0000E+00  0.2160E+03
    -11.159  0.0000E+00  0.2160E+03
    -11.034  0.0000E+00  0.2160E+03
    -10.910  0.0000E+00  0.2160E+03
    -10.785  0.0000E+00  0.2160E+03
    -10.660  0.0000E+00  0.2160E+03
    -10.536  0.0000E+00  0.2160E+03
    -10.411  0.0000E+00  0.2160E+03
    -10.286  0.0000E+00  0.2160E+03
    -10.162  0.0000E+00  0.2160E+03
    -10.037  0.0000E+00  0.2160E+03
     -9.913  0.0000E+00  0.2160E+03
     -9.788  0.0000E+00  0.2160E+03
     -9.663  0.0000E+00  0.2160E+03
     -9.539  0.0000E+00  0.2160E+03
     -9.414  0.0000E+00  0.2160E+03
     -9.289  0.0000E+00  0.2160E+03
     -9.165  0.0000E+00  0.2160E+03
     -9.040  0.0000E+00  0.2160E+03
     -8.915  0.0000E+00  0.2160E+03
     -8.791  0.0000E+00  0.2160E+03
     -8.666  0.0000E+00  0.2160E+03
     -8.542  0.0000E+00  0.2160E+03
     -8.417  0.0000E+00  0.2160E+03
     -8.292  0.0000E+00  0.2160E+03
     -8.168  0.0000E+00  0.2160E+03
     -8.043  0.0000E+00  0.2160E+03
     -7.918  0.0000E+00  0.2160E+03
     -7.794  0.0000E+00  0.2160E+03
     -7.669  0.0000E+00  0.2160E+03
     -7.545  0.1211E-06  0.2160E+03
     -7.420  0.7741E-01  0.2160E+03
     -7.295  0.2623E+01  0.2163E+03
     -7.171  0.8716E+01  0.2174E+03
     -7.046  0.9667E+01  0.2186E+03
     -6.921  0.1692E+02  0.2207E+03
     -6.797  0.3959E+02  0.2257E+03
     -6.672  0.2597E+02  0.2289E+03
     -6.548  0.3873E+02  0.2337E+03
     -6.423  0.2387E+02  0.2367E+03
     -6.298  0.1820E+02  0.2390E+03
     -6.174  0.6701E+01  0.2398E+03
     -6.049  0.1503E+01  0.2400E+03
     -5.924  0.2979E-02  0.2400E+03
     -5.800  0.7451E-05  0.2400E+03
     -5.675  0.4031E+00  0.2401E+03
     -5.551  0.1479E+02  0.2419E+03
     -5.426  0.5861E+02  0.2492E+03
     -5.301  0.8440E+02  0.2597E+03
     -5.177  0.8158E+02  0.2699E+03
     -5.052  0.8109E+02  0.2800E+03
     -4.927  0.5681E+02  0.2871E+03
     -4.803  0.6455E+02  0.2951E+03
     -4.678  0.9330E+02  0.3067E+03
     -4.554  0.1095E+03  0.3204E+03
     -4.429  0.1463E+03  0.3386E+03
     -4.304  0.1196E+03  0.3535E+03
     -4.180  0.6418E+02  0.3615E+03
     -4.055  0.3880E+02  0.3664E+03
     -3.930  0.2815E+02  0.3699E+03
     -3.806  0.4251E+02  0.3752E+03
     -3.681  0.2313E+02  0.3780E+03
     -3.557  0.3215E+02  0.3821E+03
     -3.432  0.2675E+02  0.3854E+03
     -3.307  0.2837E+02  0.3889E+03
     -3.183  0.3447E+02  0.3932E+03
     -3.058  0.4990E+02  0.3994E+03
     -2.933  0.4561E+02  0.4051E+03
     -2.809  0.5202E+02  0.4116E+03
     -2.684  0.3444E+02  0.4159E+03
     -2.560  0.2006E+02  0.4184E+03
     -2.435  0.5624E+01  0.4191E+03
     -2.310  0.9790E+01  0.4203E+03
     -2.186  0.6863E+01  0.4212E+03
     -2.061  0.8184E+01  0.4222E+03
     -1.936  0.1424E+02  0.4240E+03
     -1.812  0.2356E+02  0.4269E+03
     -1.687  0.6903E+01  0.4278E+03
     -1.563  0.2354E+02  0.4307E+03
     -1.438  0.6281E+01  0.4315E+03
     -1.313  0.2296E+01  0.4318E+03
     -1.189  0.1867E+01  0.4320E+03
     -1.064  0.6101E-03  0.4320E+03
     -0.939  0.1918E-11  0.4320E+03
     -0.815  0.0000E+00  0.4320E+03
     -0.690  0.0000E+00  0.4320E+03
     -0.566  0.0000E+00  0.4320E+03
     -0.441  0.4009E-14  0.4320E+03
     -0.316  0.1498E-04  0.4320E+03
     -0.192  0.4224E+00  0.4321E+03
     -0.067  0.3338E+01  0.4325E+03
      0.058  0.1559E+02  0.4344E+03
      0.182  0.1949E+02  0.4368E+03
      0.307  0.4474E+02  0.4424E+03
      0.431  0.3658E+02  0.4470E+03
      0.556  0.5136E+02  0.4534E+03
      0.681  0.3383E+02  0.4576E+03
      0.805  0.7105E+02  0.4664E+03
      0.930  0.6419E+02  0.4744E+03
      1.055  0.9016E+02  0.4857E+03
      1.179  0.9660E+02  0.4977E+03
      1.304  0.7614E+02  0.5072E+03
      1.428  0.7463E+02  0.5165E+03
      1.553  0.5844E+02  0.5238E+03
      1.678  0.1648E+02  0.5258E+03
      1.802  0.1211E+02  0.5274E+03
      1.927  0.4295E+01  0.5279E+03
      2.052  0.8523E+00  0.5280E+03
      2.176  0.2033E-03  0.5280E+03
      2.301  0.4481E-12  0.5280E+03
      2.425  0.0000E+00  0.5280E+03
      2.550  0.0000E+00  0.5280E+03
      2.675  0.0000E+00  0.5280E+03
      2.799  0.0000E+00  0.5280E+03
      2.924  0.0000E+00  0.5280E+03
      3.049  0.0000E+00  0.5280E+03
      3.173  0.0000E+00  0.5280E+03
      3.298  0.0000E+00  0.5280E+03
      3.422  0.0000E+00  0.5280E+03
      3.547  0.0000E+00  0.5280E+03
      3.672  0.0000E+00  0.5280E+03
      3.796  0.0000E+00  0.5280E+03
      3.921  0.0000E+00  0.5280E+03
      4.046  0.2328E-05  0.5280E+03
      4.170  0.3633E+00  0.5280E+03
      4.295  0.3820E+01  0.5285E+03
      4.419  0.1209E+02  0.5300E+03
      4.544  0.7867E+01  0.5310E+03
      4.669  0.5354E+01  0.5317E+03
      4.793  0.7320E+01  0.5326E+03
      4.918  0.3761E+02  0.5373E+03
      5.043  0.5392E+02  0.5440E+03
      5.167  0.2668E+02  0.5473E+03
      5.292  0.4224E+02  0.5526E+03
      5.416  0.4273E+02  0.5579E+03
      5.541  0.3179E+02  0.5619E+03
      5.666  0.3200E+02  0.5659E+03
      5.790  0.4701E+02  0.5717E+03
      5.915  0.4967E+02  0.5779E+03
      6.040  0.3474E+02  0.5822E+03
      6.164  0.2942E+02  0.5859E+03
      6.289  0.1974E+02  0.5884E+03
      6.413  0.2456E+02  0.5914E+03
      6.538  0.2748E+02  0.5948E+03
      6.663  0.2373E+02  0.5978E+03
      6.787  0.3642E+02  0.6023E+03
      6.912  0.5051E+02  0.6086E+03
      7.037  0.8045E+02  0.6187E+03
      7.161  0.6097E+02  0.6263E+03
      7.286  0.5495E+02  0.6331E+03
      7.410  0.4173E+02  0.6383E+03
      7.535  0.2891E+02  0.6419E+03
      7.660  0.2803E+02  0.6454E+03
      7.784  0.4246E+02  0.6507E+03
      7.909  0.2728E+02  0.6541E+03
      8.034  0.1693E+02  0.6562E+03
      8.158  0.2164E+02  0.6589E+03
      8.283  0.2806E+02  0.6624E+03
      8.407  0.3374E+02  0.6666E+03
      8.532  0.3151E+02  0.6705E+03
      8.657  0.2558E+02  0.6737E+03
      8.781  0.4977E+02  0.6799E+03
      8.906  0.2419E+02  0.6829E+03
      9.031  0.2733E+02  0.6864E+03
      9.155  0.1866E+02  0.6887E+03
      9.280  0.2840E+02  0.6922E+03
      9.404  0.2761E+02  0.6957E+03
      9.529  0.7605E+01  0.6966E+03
      9.654  0.6801E+01  0.6975E+03
      9.778  0.1065E+02  0.6988E+03
      9.903  0.1464E+02  0.7006E+03
     10.028  0.2340E+02  0.7035E+03
     10.152  0.1869E+02  0.7058E+03
     10.277  0.1660E+02  0.7079E+03
     10.402  0.1793E+02  0.7102E+03
     10.526  0.2106E+02  0.7128E+03
     10.651  0.3035E+02  0.7166E+03
     10.775  0.1684E+02  0.7187E+03
     10.900  0.1540E+02  0.7206E+03
     11.025  0.1460E+02  0.7224E+03
     11.149  0.3045E+02  0.7262E+03
     11.274  0.3745E+02  0.7309E+03
     11.399  0.2409E+02  0.7339E+03
     11.523  0.2561E+02  0.7371E+03
     11.648  0.2394E+02  0.7400E+03
     11.772  0.1588E+02  0.7420E+03
     11.897  0.1571E+02  0.7440E+03
     12.022  0.4455E+02  0.7495E+03
     12.146  0.4622E+02  0.7553E+03
     12.271  0.3135E+02  0.7592E+03
     12.396  0.4776E+02  0.7651E+03
     12.520  0.4642E+02  0.7709E+03
     12.645  0.4962E+02  0.7771E+03
     12.769  0.3922E+02  0.7820E+03
     12.894  0.3925E+02  0.7869E+03
     13.019  0.2951E+02  0.7906E+03
     13.143  0.8124E+01  0.7916E+03
     13.268  0.3321E+01  0.7920E+03
     13.393  0.2507E-01  0.7920E+03
     13.517  0.8041E-08  0.7920E+03
     13.642  0.0000E+00  0.7920E+03
     13.766  0.0000E+00  0.7920E+03
     13.891  0.0000E+00  0.7920E+03
     14.016  0.0000E+00  0.7920E+03
     14.140  0.0000E+00  0.7920E+03
     14.265  0.0000E+00  0.7920E+03
     14.390  0.0000E+00  0.7920E+03
     14.514  0.0000E+00  0.7920E+03
     14.639  0.0000E+00  0.7920E+03
     14.763  0.0000E+00  0.7920E+03
     14.888  0.0000E+00  0.7920E+03
