       N       E                     dE             d eps       ncg     rms          rms(c)
DAV:   1     0.649097429816E+04    0.64910E+04   -0.25627E+05  6336   0.153E+03
DAV:   2     0.578782940604E+03   -0.59122E+04   -0.53769E+04  6704   0.421E+02
DAV:   3    -0.549011535236E+03   -0.11278E+04   -0.10434E+04  7312   0.197E+02
DAV:   4    -0.652067932066E+03   -0.10306E+03   -0.10046E+03  8760   0.604E+01
DAV:   5    -0.655762193694E+03   -0.36943E+01   -0.36668E+01  8656   0.122E+01    0.483E+01
DAV:   6    -0.610986370174E+03    0.44776E+02   -0.80798E+01  8960   0.180E+01    0.241E+01
DAV:   7    -0.608088558570E+03    0.28978E+01   -0.18710E+01  8472   0.816E+00    0.127E+01
DAV:   8    -0.608012685107E+03    0.75873E-01   -0.26517E+00  7824   0.319E+00    0.335E+00
DAV:   9    -0.608010504496E+03    0.21806E-02   -0.23575E-01  8424   0.132E+00    0.825E-01
DAV:  10    -0.608017077229E+03   -0.65727E-02   -0.48130E-02  7528   0.541E-01    0.370E-01
DAV:  11    -0.608019250920E+03   -0.21737E-02   -0.58639E-03  8088   0.196E-01    0.203E-01
DAV:  12    -0.608020957023E+03   -0.17061E-02   -0.34255E-03  7400   0.112E-01    0.653E-02
DAV:  13    -0.608021030341E+03   -0.73319E-04   -0.37010E-04  9008   0.516E-02    0.292E-02
DAV:  14    -0.608021064246E+03   -0.33904E-04   -0.98323E-05  7880   0.245E-02    0.147E-02
DAV:  15    -0.608021068932E+03   -0.46865E-05   -0.15905E-05  7904   0.975E-03    0.598E-03
DAV:  16    -0.608021068864E+03    0.68598E-07   -0.25733E-06  5984   0.437E-03
   1 F= -.60802107E+03 E0= -.60802107E+03  d E =-.543783E-15
