Pb12N72
1.0
      6.7304750       0.0000000       0.0000000
      0.0000000      11.5431270       0.0000000
      0.0000000       0.0000000      16.4923960
  Pb    N   
  12    72  
Direct
      0.4415400       0.6364510       0.7500000
      0.0584600       0.1364510       0.2500000
      0.3406310       0.8767930       0.4110070
      0.8406310       0.6232070       0.0889930
      0.6593690       0.1232070       0.9110070
      0.1593690       0.3767930       0.5889930
      0.6593690       0.1232070       0.5889930
      0.9415400       0.8635490       0.7500000
      0.1593690       0.3767930       0.9110070
      0.8406310       0.6232070       0.4110070
      0.5584600       0.3635490       0.2500000
      0.3406310       0.8767930       0.0889930
      0.1488550       0.7139530       0.8659920
      0.9343290       0.2365730       0.9986970
      0.1579740       0.0011540       0.9096700
      0.1488550       0.7139530       0.6340080
      0.0075580       0.0058660       0.6279730
      0.1094520       0.7380630       0.9333910
      0.0656710       0.7634270       0.0013030
      0.8511450       0.2860470       0.1340080
      0.6579740       0.4988460       0.9096700
      0.6525520       0.7804110       0.3218020
      0.1634660       0.4074760       0.2500000
      0.3464630       0.2214610       0.7500000
      0.8082600       0.5033210       0.9465310
      0.8365340       0.5925240       0.7500000
      0.3082600       0.9966790       0.9465310
      0.8905480       0.2619370       0.4333910
      0.3905480       0.2380630       0.0666090
      0.3511450       0.2139530       0.3659920
      0.3618900       0.9860990       0.2500000
      0.1525520       0.7195890       0.3218020
      0.8511450       0.2860470       0.3659920
      0.1917400       0.4966790       0.4465310
      0.8082600       0.5033210       0.5534690
      0.0161860       0.4609770       0.2500000
      0.5075580       0.4941340       0.6279730
      0.4924420       0.5058660       0.1279730
      0.3420260       0.5011540       0.4096700
      0.8905480       0.2619370       0.0666090
      0.3474480       0.2195890       0.6781980
      0.6634660       0.0925240       0.2500000
      0.3474480       0.2195890       0.8218020
      0.8420260       0.9988460       0.0903300
      0.5656710       0.7365730       0.0013030
      0.6094520       0.7619370       0.9333910
      0.6579740       0.4988460       0.5903300
      0.1094520       0.7380630       0.5666090
      0.9838140       0.5390230       0.7500000
      0.3420260       0.5011540       0.0903300
      0.3365340       0.9074760       0.7500000
      0.4924420       0.5058660       0.3720270
      0.9924420       0.9941340       0.1279730
      0.6917400       0.0033210       0.4465310
      0.6917400       0.0033210       0.0534690
      0.1579740       0.0011540       0.5903300
      0.6381100       0.0139010       0.7500000
      0.0075580       0.0058660       0.8720270
      0.5161860       0.0390230       0.2500000
      0.1917400       0.4966790       0.0534690
      0.6094520       0.7619370       0.5666090
      0.1525520       0.7195890       0.1781980
      0.3511450       0.2139530       0.1340080
      0.8618900       0.5139010       0.2500000
      0.3905480       0.2380630       0.4333910
      0.8474480       0.2804110       0.8218020
      0.8474480       0.2804110       0.6781980
      0.1381100       0.4860990       0.7500000
      0.3082600       0.9966790       0.5534690
      0.1535370       0.7214610       0.2500000
      0.6525520       0.7804110       0.1781980
      0.4343290       0.2634270       0.5013030
      0.8464630       0.2785390       0.7500000
      0.4343290       0.2634270       0.9986970
      0.0656710       0.7634270       0.4986970
      0.5656710       0.7365730       0.4986970
      0.5075580       0.4941340       0.8720270
      0.8420260       0.9988460       0.4096700
      0.6488550       0.7860470       0.6340080
      0.4838140       0.9609770       0.7500000
      0.6488550       0.7860470       0.8659920
      0.9924420       0.9941340       0.3720270
      0.6535370       0.7785390       0.2500000
      0.9343290       0.2365730       0.5013030
