K4 S2                                   
   1.00000000000000     
     2.6513520000000002   -4.5922760000000000    0.0000000000000000
     2.6513520000000002    4.5922760000000000    0.0000000000000000
     0.0000000000000000    0.0000000000000000    7.2938830000000001
   K    S 
     4     2
Direct
     0.3333330000000032    0.6666669999999968    0.2500000000000000
     0.0000000000000000    0.0000000000000000    0.5000000000000000
     0.0000000000000000    0.0000000000000000    0.0000000000000000
     0.6666669999999968    0.3333330000000032    0.7500000000000000
     0.6666669999999968    0.3333330000000032    0.2500000000000000
     0.3333330000000032    0.6666669999999968    0.7500000000000000
 
  0.00000000E+00  0.00000000E+00  0.00000000E+00
  0.00000000E+00  0.00000000E+00  0.00000000E+00
  0.00000000E+00  0.00000000E+00  0.00000000E+00
  0.00000000E+00  0.00000000E+00  0.00000000E+00
  0.00000000E+00  0.00000000E+00  0.00000000E+00
  0.00000000E+00  0.00000000E+00  0.00000000E+00
