       N       E                     dE             d eps       ncg     rms          rms(c)
DAV:   1     0.405646263890E+03    0.40565E+03   -0.23940E+04  5600   0.172E+03
DAV:   2     0.149601070751E+02   -0.39069E+03   -0.37731E+03  6596   0.435E+02
DAV:   3    -0.195304221699E+02   -0.34491E+02   -0.34310E+02  8408   0.105E+02
DAV:   4    -0.206650095642E+02   -0.11346E+01   -0.11312E+01  7760   0.189E+01
DAV:   5    -0.207275326548E+02   -0.62523E-01   -0.62502E-01  8232   0.345E+00    0.736E+00
DAV:   6    -0.184462566421E+02    0.22813E+01   -0.56706E+00  7008   0.105E+01    0.647E+00
DAV:   7    -0.183245728297E+02    0.12168E+00   -0.17844E+00  7180   0.502E+00    0.547E+00
DAV:   8    -0.183443808626E+02   -0.19808E-01   -0.41119E-01  6984   0.267E+00    0.796E-01
DAV:   9    -0.183167136997E+02    0.27667E-01   -0.13668E-01  6296   0.129E+00    0.573E-01
DAV:  10    -0.183206229326E+02   -0.39092E-02   -0.15915E-02  7160   0.617E-01    0.306E-01
DAV:  11    -0.183201256507E+02    0.49728E-03   -0.30655E-03  9052   0.173E-01    0.715E-02
DAV:  12    -0.183201597314E+02   -0.34081E-04   -0.33695E-04  7368   0.703E-02    0.552E-02
DAV:  13    -0.183201649152E+02   -0.51838E-05   -0.16957E-05  7464   0.207E-02    0.281E-02
DAV:  14    -0.183201661810E+02   -0.12658E-05   -0.31422E-06  4904   0.110E-02    0.437E-03
DAV:  15    -0.183201659113E+02    0.26969E-06   -0.15362E-07  3928   0.298E-03
   1 F= -.18320166E+02 E0= -.18320166E+02  d E =-.248378E-15
