       N       E                     dE             d eps       ncg     rms          rms(c)
DAV:   1     0.601742648042E+03    0.60174E+03   -0.29331E+04 44600   0.210E+03
DAV:   2    -0.108277583776E+02   -0.61257E+03   -0.58678E+03 46128   0.102E+03
DAV:   3    -0.480635356450E+02   -0.37236E+02   -0.32757E+02 46136   0.335E+02
DAV:   4    -0.502196437750E+02   -0.21561E+01   -0.19550E+01 41984   0.473E+01
DAV:   5    -0.503357290893E+02   -0.11609E+00   -0.11417E+00 43844   0.130E+01    0.523E+01
DAV:   6    -0.608678406102E+02   -0.10532E+02   -0.74042E+01 35940   0.875E+01    0.457E+01
DAV:   7    -0.482509147841E+02    0.12617E+02   -0.33397E+01 42248   0.880E+01    0.178E+01
DAV:   8    -0.462429305666E+02    0.20080E+01   -0.50365E+00 40144   0.198E+01    0.532E+00
DAV:   9    -0.462254962182E+02    0.17434E-01   -0.22802E-01 40096   0.611E+00    0.392E+00
DAV:  10    -0.461835026727E+02    0.41994E-01   -0.10623E-01 38852   0.320E+00    0.203E+00
DAV:  11    -0.461829062425E+02    0.59643E-03   -0.17830E-02 43440   0.139E+00    0.712E-01
DAV:  12    -0.461817830912E+02    0.11232E-02   -0.40116E-03 42064   0.737E-01    0.580E-01
DAV:  13    -0.461815085674E+02    0.27452E-03   -0.11177E-03 44136   0.473E-01    0.392E-01
DAV:  14    -0.461814713518E+02    0.37216E-04   -0.36297E-04 44896   0.202E-01    0.140E-01
DAV:  15    -0.461814693988E+02    0.19530E-05   -0.72509E-05 43648   0.778E-02    0.849E-02
DAV:  16    -0.461814650404E+02    0.43584E-05   -0.12375E-05 40544   0.371E-02    0.209E-02
DAV:  17    -0.461814644175E+02    0.62290E-06   -0.44911E-07 18516   0.166E-02
   1 F= -.46181464E+02 E0= -.46179857E+02  d E =-.321416E-02
