  14  14   0   0
  0.5782099E+01  0.4720034E-09  0.4720034E-09  0.4720034E-09  0.5000000E-15
  1.000000000000000E-004
  CAR 
 unknown system                          
     26.53439122    -16.55518152  301     10.46557138      1.00000000
    -16.555  0.0000E+00  0.0000E+00
    -16.412  0.0000E+00  0.0000E+00
    -16.268  0.0000E+00  0.0000E+00
    -16.124  0.0000E+00  0.0000E+00
    -15.981  0.0000E+00  0.0000E+00
    -15.837  0.0000E+00  0.0000E+00
    -15.693  0.0000E+00  0.0000E+00
    -15.550  0.0000E+00  0.0000E+00
    -15.406  0.0000E+00  0.0000E+00
    -15.262  0.0000E+00  0.0000E+00
    -15.119  0.0000E+00  0.0000E+00
    -14.975  0.0000E+00  0.0000E+00
    -14.832  0.5755E-11  0.8266E-12
    -14.688  0.1882E-02  0.2703E-03
    -14.544  0.3579E+00  0.5168E-01
    -14.401  0.2446E+00  0.8682E-01
    -14.257  0.3485E+00  0.1369E+00
    -14.113  0.1476E+01  0.3489E+00
    -13.970  0.2052E-01  0.3519E+00
    -13.826  0.3270E+00  0.3988E+00
    -13.683  0.1614E+01  0.6307E+00
    -13.539  0.1446E+01  0.8384E+00
    -13.395  0.9113E+00  0.9693E+00
    -13.252  0.7293E+00  0.1074E+01
    -13.108  0.7810E-02  0.1075E+01
    -12.964  0.2752E+01  0.1471E+01
    -12.821  0.1099E+01  0.1628E+01
    -12.677  0.1044E+01  0.1778E+01
    -12.533  0.2818E+01  0.2183E+01
    -12.390  0.1486E-01  0.2185E+01
    -12.246  0.1118E+01  0.2346E+01
    -12.103  0.1202E+01  0.2519E+01
    -11.959  0.1954E+01  0.2799E+01
    -11.815  0.4250E+01  0.3410E+01
    -11.672  0.1151E+00  0.3426E+01
    -11.528  0.2116E+01  0.3730E+01
    -11.384  0.2389E+01  0.4073E+01
    -11.241  0.1758E+01  0.4326E+01
    -11.097  0.1069E+01  0.4479E+01
    -10.954  0.8636E+00  0.4603E+01
    -10.810  0.5566E+01  0.5403E+01
    -10.666  0.2904E+01  0.5820E+01
    -10.523  0.3038E+01  0.6256E+01
    -10.379  0.2676E+01  0.6641E+01
    -10.235  0.1694E+01  0.6884E+01
    -10.092  0.7201E+01  0.7918E+01
     -9.948  0.9453E+00  0.8054E+01
     -9.804  0.3086E+01  0.8497E+01
     -9.661  0.2775E+00  0.8537E+01
     -9.517  0.3781E-06  0.8537E+01
     -9.374  0.3227E-06  0.8537E+01
     -9.230  0.2464E+00  0.8572E+01
     -9.086  0.2418E+01  0.8920E+01
     -8.943  0.4367E+01  0.9547E+01
     -8.799  0.7261E+00  0.9651E+01
     -8.655  0.1908E+01  0.9925E+01
     -8.512  0.2380E+01  0.1027E+02
     -8.368  0.5507E+01  0.1106E+02
     -8.225  0.2431E+01  0.1141E+02
     -8.081  0.6199E+00  0.1150E+02
     -7.937  0.2649E+01  0.1188E+02
     -7.794  0.2969E+01  0.1230E+02
     -7.650  0.3231E+01  0.1277E+02
     -7.506  0.3770E+01  0.1331E+02
     -7.363  0.5223E+01  0.1406E+02
     -7.219  0.6537E+01  0.1500E+02
     -7.075  0.2933E+01  0.1542E+02
     -6.932  0.3618E+01  0.1594E+02
     -6.788  0.4267E+00  0.1600E+02
     -6.645  0.8577E-05  0.1600E+02
     -6.501  0.9825E-05  0.1600E+02
     -6.357  0.1950E+00  0.1603E+02
     -6.214  0.1917E+00  0.1606E+02
     -6.070  0.8970E-05  0.1606E+02
     -5.926  0.3157E-03  0.1606E+02
     -5.783  0.3545E+00  0.1611E+02
     -5.639  0.2013E+01  0.1640E+02
     -5.496  0.8531E+00  0.1652E+02
     -5.352  0.2618E-02  0.1652E+02
     -5.208  0.4710E+00  0.1659E+02
     -5.065  0.4515E+01  0.1723E+02
     -4.921  0.3015E+01  0.1767E+02
     -4.777  0.3444E+01  0.1816E+02
     -4.634  0.1319E+01  0.1835E+02
     -4.490  0.1887E-03  0.1835E+02
     -4.346  0.4534E+00  0.1842E+02
     -4.203  0.2838E+01  0.1882E+02
     -4.059  0.1941E+01  0.1910E+02
     -3.916  0.3767E+01  0.1964E+02
     -3.772  0.2331E+01  0.1998E+02
     -3.628  0.1565E-01  0.1998E+02
     -3.485  0.1470E+01  0.2019E+02
     -3.341  0.2937E+01  0.2061E+02
     -3.197  0.5179E+01  0.2136E+02
     -3.054  0.1762E+01  0.2161E+02
     -2.910  0.2889E+01  0.2203E+02
     -2.767  0.6207E+01  0.2292E+02
     -2.623  0.1858E+01  0.2318E+02
     -2.479  0.1836E+01  0.2345E+02
     -2.336  0.3368E+01  0.2393E+02
     -2.192  0.1205E+01  0.2411E+02
     -2.048  0.2471E+01  0.2446E+02
     -1.905  0.2314E+01  0.2479E+02
     -1.761  0.1700E+01  0.2504E+02
     -1.617  0.7222E+00  0.2514E+02
     -1.474  0.2459E+01  0.2549E+02
     -1.330  0.3220E+01  0.2596E+02
     -1.187  0.8198E+01  0.2713E+02
     -1.043  0.3117E+01  0.2758E+02
     -0.899  0.2234E+01  0.2790E+02
     -0.756  0.4218E+01  0.2851E+02
     -0.612  0.3631E+01  0.2903E+02
     -0.468  0.5060E+01  0.2976E+02
     -0.325  0.3766E+01  0.3030E+02
     -0.181  0.2100E+01  0.3060E+02
     -0.038  0.5129E+01  0.3134E+02
      0.106  0.1509E+01  0.3155E+02
      0.250  0.3612E+00  0.3160E+02
      0.393  0.5570E+01  0.3240E+02
      0.537  0.5516E+01  0.3320E+02
      0.681  0.3168E+01  0.3365E+02
      0.824  0.4584E+01  0.3431E+02
      0.968  0.2699E+01  0.3470E+02
      1.112  0.6011E+01  0.3556E+02
      1.255  0.8967E+01  0.3685E+02
      1.399  0.5365E+01  0.3762E+02
      1.542  0.5513E+01  0.3841E+02
      1.686  0.6306E+01  0.3932E+02
      1.830  0.3789E+01  0.3986E+02
      1.973  0.4622E+01  0.4053E+02
      2.117  0.6382E+01  0.4144E+02
      2.261  0.3791E+01  0.4199E+02
      2.404  0.5720E+01  0.4281E+02
      2.548  0.4675E+01  0.4348E+02
      2.691  0.1599E+01  0.4371E+02
      2.835  0.2787E+01  0.4411E+02
      2.979  0.2875E+01  0.4452E+02
      3.122  0.2347E+01  0.4486E+02
      3.266  0.5632E+01  0.4567E+02
      3.410  0.5174E+01  0.4641E+02
      3.553  0.4701E+01  0.4709E+02
      3.697  0.3707E+01  0.4762E+02
      3.841  0.3522E+01  0.4813E+02
      3.984  0.2407E+00  0.4816E+02
      4.128  0.1332E+01  0.4835E+02
      4.271  0.2294E-02  0.4835E+02
      4.415  0.5525E-03  0.4835E+02
      4.559  0.1162E+01  0.4852E+02
      4.702  0.3856E+00  0.4857E+02
      4.846  0.3381E+00  0.4862E+02
      4.990  0.9933E+00  0.4877E+02
      5.133  0.9097E+00  0.4890E+02
      5.277  0.2770E+01  0.4929E+02
      5.421  0.1452E+01  0.4950E+02
      5.564  0.1669E+01  0.4974E+02
      5.708  0.1750E+01  0.4999E+02
      5.851  0.4181E+01  0.5059E+02
      5.995  0.3700E+01  0.5113E+02
      6.139  0.5092E+01  0.5186E+02
      6.282  0.3638E+01  0.5238E+02
      6.426  0.6243E+01  0.5328E+02
      6.570  0.2915E+01  0.5369E+02
      6.713  0.3478E+01  0.5419E+02
      6.857  0.3165E+01  0.5465E+02
      7.000  0.8960E+00  0.5478E+02
      7.144  0.1796E+01  0.5504E+02
      7.288  0.5437E+00  0.5511E+02
      7.431  0.4297E+01  0.5573E+02
      7.575  0.2601E+01  0.5610E+02
      7.719  0.2485E+01  0.5646E+02
      7.862  0.3409E+01  0.5695E+02
      8.006  0.1299E+01  0.5714E+02
      8.150  0.1400E+01  0.5734E+02
      8.293  0.7134E+01  0.5836E+02
      8.437  0.1457E+01  0.5857E+02
      8.580  0.6639E+00  0.5867E+02
      8.724  0.3716E+00  0.5872E+02
      8.868  0.3698E+00  0.5877E+02
      9.011  0.2789E+01  0.5917E+02
      9.155  0.1399E+01  0.5938E+02
      9.299  0.8546E+01  0.6060E+02
      9.442  0.3217E+01  0.6107E+02
      9.586  0.1867E+01  0.6133E+02
      9.729  0.2550E+00  0.6137E+02
      9.873  0.6750E+00  0.6147E+02
     10.017  0.4141E+01  0.6206E+02
     10.160  0.1276E+02  0.6389E+02
     10.304  0.7378E+00  0.6400E+02
     10.448  0.1079E-05  0.6400E+02
     10.591  0.0000E+00  0.6400E+02
     10.735  0.0000E+00  0.6400E+02
     10.879  0.0000E+00  0.6400E+02
     11.022  0.0000E+00  0.6400E+02
     11.166  0.0000E+00  0.6400E+02
     11.309  0.0000E+00  0.6400E+02
     11.453  0.0000E+00  0.6400E+02
     11.597  0.0000E+00  0.6400E+02
     11.740  0.0000E+00  0.6400E+02
     11.884  0.0000E+00  0.6400E+02
     12.028  0.0000E+00  0.6400E+02
     12.171  0.0000E+00  0.6400E+02
     12.315  0.0000E+00  0.6400E+02
     12.458  0.0000E+00  0.6400E+02
     12.602  0.0000E+00  0.6400E+02
     12.746  0.0000E+00  0.6400E+02
     12.889  0.8588E-16  0.6400E+02
     13.033  0.9734E-05  0.6400E+02
     13.177  0.1947E+00  0.6403E+02
     13.320  0.1921E+00  0.6406E+02
     13.464  0.3873E+00  0.6411E+02
     13.608  0.1459E+01  0.6432E+02
     13.751  0.1527E+01  0.6454E+02
     13.895  0.2126E+01  0.6485E+02
     14.038  0.9317E+00  0.6498E+02
     14.182  0.2560E+01  0.6535E+02
     14.326  0.5472E+01  0.6613E+02
     14.469  0.4765E+01  0.6682E+02
     14.613  0.3072E+01  0.6726E+02
     14.757  0.1930E+01  0.6754E+02
     14.900  0.1167E+01  0.6770E+02
     15.044  0.2122E+01  0.6801E+02
     15.187  0.3156E+01  0.6846E+02
     15.331  0.7119E+01  0.6948E+02
     15.475  0.8263E+01  0.7067E+02
     15.618  0.9313E+01  0.7201E+02
     15.762  0.6959E+01  0.7301E+02
     15.906  0.4221E+01  0.7361E+02
     16.049  0.8272E+01  0.7480E+02
     16.193  0.4536E+01  0.7545E+02
     16.337  0.5673E+01  0.7627E+02
     16.480  0.9372E+01  0.7761E+02
     16.624  0.5009E+01  0.7833E+02
     16.767  0.1814E+01  0.7859E+02
     16.911  0.2096E+01  0.7890E+02
     17.055  0.7398E+01  0.7996E+02
     17.198  0.2325E+01  0.8029E+02
     17.342  0.9856E+01  0.8171E+02
     17.486  0.2660E+01  0.8209E+02
     17.629  0.1838E+01  0.8235E+02
     17.773  0.4790E+01  0.8304E+02
     17.916  0.5903E+01  0.8389E+02
     18.060  0.3521E+01  0.8440E+02
     18.204  0.1815E+01  0.8466E+02
     18.347  0.6791E+01  0.8563E+02
     18.491  0.4224E+01  0.8624E+02
     18.635  0.2909E+01  0.8666E+02
     18.778  0.3575E+01  0.8717E+02
     18.922  0.3939E+01  0.8774E+02
     19.066  0.3445E+01  0.8823E+02
     19.209  0.4528E+01  0.8888E+02
     19.353  0.6085E+01  0.8975E+02
     19.496  0.6765E+01  0.9073E+02
     19.640  0.6171E+01  0.9161E+02
     19.784  0.5293E+01  0.9237E+02
     19.927  0.6229E+01  0.9327E+02
     20.071  0.2669E+01  0.9365E+02
     20.215  0.2301E+01  0.9398E+02
     20.358  0.4588E+01  0.9464E+02
     20.502  0.1776E+01  0.9490E+02
     20.645  0.4156E+01  0.9549E+02
     20.789  0.3430E+01  0.9599E+02
     20.933  0.5956E+01  0.9684E+02
     21.076  0.3480E+01  0.9734E+02
     21.220  0.5201E+01  0.9809E+02
     21.364  0.3865E+01  0.9864E+02
     21.507  0.4388E+01  0.9927E+02
     21.651  0.5719E+01  0.1001E+03
     21.795  0.5170E+01  0.1008E+03
     21.938  0.4629E+01  0.1015E+03
     22.082  0.5678E+01  0.1023E+03
     22.225  0.1472E+01  0.1025E+03
     22.369  0.5073E+01  0.1033E+03
     22.513  0.6296E+01  0.1042E+03
     22.656  0.1668E+01  0.1044E+03
     22.800  0.4430E+00  0.1045E+03
     22.944  0.3608E+01  0.1050E+03
     23.087  0.3806E+01  0.1055E+03
     23.231  0.3633E+01  0.1061E+03
     23.374  0.5451E+01  0.1068E+03
     23.518  0.5216E+01  0.1076E+03
     23.662  0.4905E+01  0.1083E+03
     23.805  0.5710E+01  0.1091E+03
     23.949  0.7122E+01  0.1101E+03
     24.093  0.2572E+01  0.1105E+03
     24.236  0.1614E+01  0.1107E+03
     24.380  0.4693E+01  0.1114E+03
     24.524  0.2712E+01  0.1118E+03
     24.667  0.1420E+01  0.1120E+03
     24.811  0.1510E-02  0.1120E+03
     24.954  0.1316E-11  0.1120E+03
     25.098  0.0000E+00  0.1120E+03
     25.242  0.0000E+00  0.1120E+03
     25.385  0.0000E+00  0.1120E+03
     25.529  0.0000E+00  0.1120E+03
     25.673  0.0000E+00  0.1120E+03
     25.816  0.0000E+00  0.1120E+03
     25.960  0.0000E+00  0.1120E+03
     26.103  0.0000E+00  0.1120E+03
     26.247  0.0000E+00  0.1120E+03
     26.391  0.0000E+00  0.1120E+03
     26.534  0.0000E+00  0.1120E+03
