unknown system                          
           1
    -2.725113    2.725113    2.725113
     2.725113   -2.725113    2.725113
     2.725113    2.725113   -2.725113
   C    N 
     6     8
Direct configuration=     1
   0.12500000  0.87500000  0.25000000
   0.25000000  0.12500000  0.87500000
   0.75000000  0.37500000  0.62500000
   0.62500000  0.75000000  0.37500000
   0.87500000  0.25000000  0.12500000
   0.37500000  0.62500000  0.75000000
   0.56791600  0.56791600  0.56791600
   0.50000000  0.00000000  0.43208400
   0.43208400  0.50000000  0.00000000
   0.00000000  0.43208400  0.50000000
   0.93208400  0.50000000  0.00000000
   0.00000000  0.93208400  0.50000000
   0.50000000  0.00000000  0.93208400
   0.06791600  0.06791600  0.06791600
