  12  12   0   0
  0.9704277E+01  0.4812700E-09  0.5040995E-09  0.4871885E-09  0.5000000E-15
  1.000000000000000E-004
  CAR 
 unknown system                          
     20.05972167    -31.28723234  301      4.50587352      1.00000000
    -31.287  0.0000E+00  0.0000E+00
    -31.116  0.0000E+00  0.0000E+00
    -30.945  0.0000E+00  0.0000E+00
    -30.774  0.0000E+00  0.0000E+00
    -30.603  0.0000E+00  0.0000E+00
    -30.431  0.0000E+00  0.0000E+00
    -30.260  0.0000E+00  0.0000E+00
    -30.089  0.0000E+00  0.0000E+00
    -29.918  0.0000E+00  0.0000E+00
    -29.747  0.0000E+00  0.0000E+00
    -29.576  0.0000E+00  0.0000E+00
    -29.405  0.0000E+00  0.0000E+00
    -29.233  0.9730E-16  0.1665E-16
    -29.062  0.5656E-03  0.9681E-04
    -28.891  0.1892E+02  0.3238E+01
    -28.720  0.6241E+02  0.1392E+02
    -28.549  0.5863E+02  0.2396E+02
    -28.378  0.2600E+00  0.2400E+02
    -28.206  0.4373E-11  0.2400E+02
    -28.035  0.0000E+00  0.2400E+02
    -27.864  0.0000E+00  0.2400E+02
    -27.693  0.0000E+00  0.2400E+02
    -27.522  0.0000E+00  0.2400E+02
    -27.351  0.0000E+00  0.2400E+02
    -27.179  0.0000E+00  0.2400E+02
    -27.008  0.0000E+00  0.2400E+02
    -26.837  0.0000E+00  0.2400E+02
    -26.666  0.0000E+00  0.2400E+02
    -26.495  0.0000E+00  0.2400E+02
    -26.324  0.0000E+00  0.2400E+02
    -26.153  0.0000E+00  0.2400E+02
    -25.981  0.0000E+00  0.2400E+02
    -25.810  0.0000E+00  0.2400E+02
    -25.639  0.0000E+00  0.2400E+02
    -25.468  0.0000E+00  0.2400E+02
    -25.297  0.0000E+00  0.2400E+02
    -25.126  0.0000E+00  0.2400E+02
    -24.954  0.0000E+00  0.2400E+02
    -24.783  0.0000E+00  0.2400E+02
    -24.612  0.0000E+00  0.2400E+02
    -24.441  0.0000E+00  0.2400E+02
    -24.270  0.0000E+00  0.2400E+02
    -24.099  0.0000E+00  0.2400E+02
    -23.928  0.0000E+00  0.2400E+02
    -23.756  0.0000E+00  0.2400E+02
    -23.585  0.0000E+00  0.2400E+02
    -23.414  0.0000E+00  0.2400E+02
    -23.243  0.0000E+00  0.2400E+02
    -23.072  0.0000E+00  0.2400E+02
    -22.901  0.0000E+00  0.2400E+02
    -22.729  0.0000E+00  0.2400E+02
    -22.558  0.0000E+00  0.2400E+02
    -22.387  0.0000E+00  0.2400E+02
    -22.216  0.0000E+00  0.2400E+02
    -22.045  0.0000E+00  0.2400E+02
    -21.874  0.0000E+00  0.2400E+02
    -21.702  0.0000E+00  0.2400E+02
    -21.531  0.0000E+00  0.2400E+02
    -21.360  0.0000E+00  0.2400E+02
    -21.189  0.0000E+00  0.2400E+02
    -21.018  0.0000E+00  0.2400E+02
    -20.847  0.0000E+00  0.2400E+02
    -20.676  0.0000E+00  0.2400E+02
    -20.504  0.0000E+00  0.2400E+02
    -20.333  0.0000E+00  0.2400E+02
    -20.162  0.0000E+00  0.2400E+02
    -19.991  0.0000E+00  0.2400E+02
    -19.820  0.0000E+00  0.2400E+02
    -19.649  0.0000E+00  0.2400E+02
    -19.477  0.0000E+00  0.2400E+02
    -19.306  0.0000E+00  0.2400E+02
    -19.135  0.0000E+00  0.2400E+02
    -18.964  0.0000E+00  0.2400E+02
    -18.793  0.0000E+00  0.2400E+02
    -18.622  0.0000E+00  0.2400E+02
    -18.450  0.0000E+00  0.2400E+02
    -18.279  0.0000E+00  0.2400E+02
    -18.108  0.0000E+00  0.2400E+02
    -17.937  0.0000E+00  0.2400E+02
    -17.766  0.0000E+00  0.2400E+02
    -17.595  0.0000E+00  0.2400E+02
    -17.424  0.0000E+00  0.2400E+02
    -17.252  0.0000E+00  0.2400E+02
    -17.081  0.0000E+00  0.2400E+02
    -16.910  0.0000E+00  0.2400E+02
    -16.739  0.0000E+00  0.2400E+02
    -16.568  0.0000E+00  0.2400E+02
    -16.397  0.0000E+00  0.2400E+02
    -16.225  0.0000E+00  0.2400E+02
    -16.054  0.0000E+00  0.2400E+02
    -15.883  0.0000E+00  0.2400E+02
    -15.712  0.0000E+00  0.2400E+02
    -15.541  0.0000E+00  0.2400E+02
    -15.370  0.0000E+00  0.2400E+02
    -15.199  0.0000E+00  0.2400E+02
    -15.027  0.0000E+00  0.2400E+02
    -14.856  0.0000E+00  0.2400E+02
    -14.685  0.1081E-16  0.2400E+02
    -14.514  0.2831E-04  0.2400E+02
    -14.343  0.8201E-01  0.2401E+02
    -14.172  0.7997E+00  0.2415E+02
    -14.000  0.1003E+01  0.2432E+02
    -13.829  0.1956E+01  0.2466E+02
    -13.658  0.2513E+01  0.2509E+02
    -13.487  0.2631E+01  0.2554E+02
    -13.316  0.3596E+01  0.2615E+02
    -13.145  0.4157E+01  0.2686E+02
    -12.973  0.4724E+01  0.2767E+02
    -12.802  0.7991E+01  0.2904E+02
    -12.631  0.1033E+02  0.3081E+02
    -12.460  0.1006E+02  0.3253E+02
    -12.289  0.1857E+02  0.3571E+02
    -12.118  0.2011E+02  0.3915E+02
    -11.947  0.4920E+01  0.3999E+02
    -11.775  0.4160E-01  0.4000E+02
    -11.604  0.1684E-09  0.4000E+02
    -11.433  0.0000E+00  0.4000E+02
    -11.262  0.0000E+00  0.4000E+02
    -11.091  0.0000E+00  0.4000E+02
    -10.920  0.0000E+00  0.4000E+02
    -10.748  0.0000E+00  0.4000E+02
    -10.577  0.0000E+00  0.4000E+02
    -10.406  0.0000E+00  0.4000E+02
    -10.235  0.0000E+00  0.4000E+02
    -10.064  0.0000E+00  0.4000E+02
     -9.893  0.0000E+00  0.4000E+02
     -9.722  0.0000E+00  0.4000E+02
     -9.550  0.0000E+00  0.4000E+02
     -9.379  0.0000E+00  0.4000E+02
     -9.208  0.0000E+00  0.4000E+02
     -9.037  0.0000E+00  0.4000E+02
     -8.866  0.0000E+00  0.4000E+02
     -8.695  0.0000E+00  0.4000E+02
     -8.523  0.0000E+00  0.4000E+02
     -8.352  0.0000E+00  0.4000E+02
     -8.181  0.0000E+00  0.4000E+02
     -8.010  0.0000E+00  0.4000E+02
     -7.839  0.0000E+00  0.4000E+02
     -7.668  0.0000E+00  0.4000E+02
     -7.496  0.0000E+00  0.4000E+02
     -7.325  0.0000E+00  0.4000E+02
     -7.154  0.0000E+00  0.4000E+02
     -6.983  0.0000E+00  0.4000E+02
     -6.812  0.0000E+00  0.4000E+02
     -6.641  0.0000E+00  0.4000E+02
     -6.470  0.0000E+00  0.4000E+02
     -6.298  0.0000E+00  0.4000E+02
     -6.127  0.0000E+00  0.4000E+02
     -5.956  0.0000E+00  0.4000E+02
     -5.785  0.0000E+00  0.4000E+02
     -5.614  0.0000E+00  0.4000E+02
     -5.443  0.0000E+00  0.4000E+02
     -5.271  0.0000E+00  0.4000E+02
     -5.100  0.0000E+00  0.4000E+02
     -4.929  0.0000E+00  0.4000E+02
     -4.758  0.0000E+00  0.4000E+02
     -4.587  0.0000E+00  0.4000E+02
     -4.416  0.0000E+00  0.4000E+02
     -4.245  0.0000E+00  0.4000E+02
     -4.073  0.0000E+00  0.4000E+02
     -3.902  0.0000E+00  0.4000E+02
     -3.731  0.0000E+00  0.4000E+02
     -3.560  0.0000E+00  0.4000E+02
     -3.389  0.0000E+00  0.4000E+02
     -3.218  0.0000E+00  0.4000E+02
     -3.046  0.0000E+00  0.4000E+02
     -2.875  0.0000E+00  0.4000E+02
     -2.704  0.0000E+00  0.4000E+02
     -2.533  0.0000E+00  0.4000E+02
     -2.362  0.0000E+00  0.4000E+02
     -2.191  0.0000E+00  0.4000E+02
     -2.019  0.0000E+00  0.4000E+02
     -1.848  0.3604E-17  0.4000E+02
     -1.677  0.2174E-04  0.4000E+02
     -1.506  0.2388E+00  0.4004E+02
     -1.335  0.1377E+01  0.4028E+02
     -1.164  0.3753E+01  0.4092E+02
     -0.993  0.5358E+01  0.4184E+02
     -0.821  0.6723E+01  0.4299E+02
     -0.650  0.1181E+02  0.4501E+02
     -0.479  0.1383E+02  0.4737E+02
     -0.308  0.1204E+02  0.4944E+02
     -0.137  0.9935E+01  0.5114E+02
      0.034  0.9478E+01  0.5276E+02
      0.206  0.9779E+01  0.5443E+02
      0.377  0.7307E+01  0.5568E+02
      0.548  0.7828E+01  0.5702E+02
      0.719  0.6063E+01  0.5806E+02
      0.890  0.7294E+01  0.5931E+02
      1.061  0.7864E+01  0.6065E+02
      1.233  0.7523E+01  0.6194E+02
      1.404  0.7362E+01  0.6320E+02
      1.575  0.7351E+01  0.6446E+02
      1.746  0.1043E+02  0.6625E+02
      1.917  0.1037E+02  0.6802E+02
      2.088  0.9664E+01  0.6968E+02
      2.259  0.9777E+01  0.7135E+02
      2.431  0.1010E+02  0.7308E+02
      2.602  0.1163E+02  0.7507E+02
      2.773  0.1008E+02  0.7679E+02
      2.944  0.1153E+02  0.7877E+02
      3.115  0.1268E+02  0.8094E+02
      3.286  0.1188E+02  0.8297E+02
      3.458  0.8565E+01  0.8444E+02
      3.629  0.8386E+01  0.8587E+02
      3.800  0.5768E+01  0.8686E+02
      3.971  0.3024E+01  0.8738E+02
      4.142  0.2983E+01  0.8789E+02
      4.313  0.6526E+00  0.8800E+02
      4.484  0.1891E-03  0.8800E+02
      4.656  0.0000E+00  0.8800E+02
      4.827  0.0000E+00  0.8800E+02
      4.998  0.0000E+00  0.8800E+02
      5.169  0.0000E+00  0.8800E+02
      5.340  0.0000E+00  0.8800E+02
      5.511  0.0000E+00  0.8800E+02
      5.683  0.0000E+00  0.8800E+02
      5.854  0.0000E+00  0.8800E+02
      6.025  0.0000E+00  0.8800E+02
      6.196  0.3690E-14  0.8800E+02
      6.367  0.3481E-03  0.8800E+02
      6.538  0.1003E+01  0.8817E+02
      6.710  0.6682E+01  0.8932E+02
      6.881  0.1125E+02  0.9124E+02
      7.052  0.1051E+02  0.9304E+02
      7.223  0.1285E+02  0.9524E+02
      7.394  0.7747E+01  0.9657E+02
      7.565  0.1462E+02  0.9907E+02
      7.736  0.1219E+02  0.1012E+03
      7.908  0.1168E+02  0.1032E+03
      8.079  0.1345E+02  0.1055E+03
      8.250  0.1104E+02  0.1073E+03
      8.421  0.5868E+01  0.1084E+03
      8.592  0.7072E+01  0.1096E+03
      8.763  0.1212E+02  0.1116E+03
      8.935  0.1238E+02  0.1138E+03
      9.106  0.9409E+01  0.1154E+03
      9.277  0.5386E+01  0.1163E+03
      9.448  0.6634E+01  0.1174E+03
      9.619  0.8133E+01  0.1188E+03
      9.790  0.7986E+01  0.1202E+03
      9.961  0.8007E+01  0.1216E+03
     10.133  0.9494E+01  0.1232E+03
     10.304  0.4014E+01  0.1239E+03
     10.475  0.4569E+01  0.1246E+03
     10.646  0.9159E+01  0.1262E+03
     10.817  0.7153E+01  0.1274E+03
     10.988  0.2480E+01  0.1279E+03
     11.160  0.7982E+00  0.1280E+03
     11.331  0.2885E-02  0.1280E+03
     11.502  0.0000E+00  0.1280E+03
     11.673  0.0000E+00  0.1280E+03
     11.844  0.0000E+00  0.1280E+03
     12.015  0.2544E-13  0.1280E+03
     12.187  0.6551E-03  0.1280E+03
     12.358  0.6388E-01  0.1280E+03
     12.529  0.1402E-01  0.1280E+03
     12.700  0.3106E+00  0.1281E+03
     12.871  0.1543E+00  0.1281E+03
     13.042  0.5512E+00  0.1282E+03
     13.213  0.3066E+00  0.1282E+03
     13.385  0.4244E+00  0.1283E+03
     13.556  0.1911E+00  0.1283E+03
     13.727  0.8058E+00  0.1285E+03
     13.898  0.7001E+00  0.1286E+03
     14.069  0.1185E+01  0.1288E+03
     14.240  0.3202E+00  0.1289E+03
     14.412  0.7350E+00  0.1290E+03
     14.583  0.1225E+01  0.1292E+03
     14.754  0.1449E+01  0.1294E+03
     14.925  0.1292E+01  0.1297E+03
     15.096  0.1337E+01  0.1299E+03
     15.267  0.2072E+01  0.1302E+03
     15.438  0.1969E+01  0.1306E+03
     15.610  0.2343E+01  0.1310E+03
     15.781  0.2560E+01  0.1314E+03
     15.952  0.1759E+01  0.1317E+03
     16.123  0.1359E+01  0.1320E+03
     16.294  0.2208E+01  0.1323E+03
     16.465  0.4213E+01  0.1331E+03
     16.637  0.3588E+01  0.1337E+03
     16.808  0.3450E+01  0.1343E+03
     16.979  0.3366E+01  0.1348E+03
     17.150  0.2820E+01  0.1353E+03
     17.321  0.1625E+01  0.1356E+03
     17.492  0.1696E+01  0.1359E+03
     17.664  0.2769E+00  0.1359E+03
     17.835  0.3715E+00  0.1360E+03
     18.006  0.1582E-03  0.1360E+03
     18.177  0.0000E+00  0.1360E+03
     18.348  0.0000E+00  0.1360E+03
     18.519  0.0000E+00  0.1360E+03
     18.690  0.0000E+00  0.1360E+03
     18.862  0.0000E+00  0.1360E+03
     19.033  0.0000E+00  0.1360E+03
     19.204  0.0000E+00  0.1360E+03
     19.375  0.0000E+00  0.1360E+03
     19.546  0.0000E+00  0.1360E+03
     19.717  0.0000E+00  0.1360E+03
     19.889  0.0000E+00  0.1360E+03
     20.060  0.0000E+00  0.1360E+03
