unknown system                          
           1
     4.812434   -0.050609    0.000000
    -0.810611    4.975394    0.000000
     0.000000    0.000000    4.871884
   Ti   O 
     4     8
Direct configuration=     1
   0.72256474  0.28685173  0.55280836
   0.27743526  0.21314827  0.05280836
   0.27743526  0.71314827  0.44719164
   0.72256474  0.78685173  0.94719164
   0.55463901  0.03322814  0.25763174
   0.44536099  0.46677186  0.75763174
   0.44536099  0.96677186  0.74236826
   0.55463901  0.53322814  0.24236826
   0.93616178  0.64844326  0.67696552
   0.06383822  0.85155674  0.17696552
   0.06383822  0.35155674  0.32303448
   0.93616178  0.14844326  0.82303448
