Zn2 Sn2                                 
   1.00000000000000     
     4.3417559547432747   -0.0106826240128616    0.0066117482877284
    -2.1801304076487895    3.7539535320601423   -0.0065857936091026
     0.0075763812944179   -0.0043387847248619    5.0379150679830831
   Zn   Sn
     2     2
Direct
     0.9999999972310358    0.0000000008381417    0.0000000005452418
     0.0000000024818763    0.9999999991271269    0.5000000022729972
     0.3323353682407226    0.6677924378980962    0.2500156259898537
     0.6676646320463582    0.3322075621366276    0.7499843711919072
 
  0.00000000E+00  0.00000000E+00  0.00000000E+00
  0.00000000E+00  0.00000000E+00  0.00000000E+00
  0.00000000E+00  0.00000000E+00  0.00000000E+00
  0.00000000E+00  0.00000000E+00  0.00000000E+00
