   4   4   0   0
  0.2049853E+02  0.4341774E-09  0.4341103E-09  0.5037923E-09  0.5000000E-15
  1.000000000000000E-004
  CAR 
 unknown system                          
     20.64253240    -17.03880882  301      6.47838205      1.00000000
    -17.039  0.0000E+00  0.0000E+00
    -16.913  0.0000E+00  0.0000E+00
    -16.788  0.0000E+00  0.0000E+00
    -16.662  0.0000E+00  0.0000E+00
    -16.536  0.0000E+00  0.0000E+00
    -16.411  0.0000E+00  0.0000E+00
    -16.285  0.0000E+00  0.0000E+00
    -16.160  0.0000E+00  0.0000E+00
    -16.034  0.0000E+00  0.0000E+00
    -15.908  0.0000E+00  0.0000E+00
    -15.783  0.0000E+00  0.0000E+00
    -15.657  0.0000E+00  0.0000E+00
    -15.532  0.0000E+00  0.0000E+00
    -15.406  0.0000E+00  0.0000E+00
    -15.280  0.0000E+00  0.0000E+00
    -15.155  0.0000E+00  0.0000E+00
    -15.029  0.2455E+02  0.1289E+00
    -14.904  0.1785E+03  0.1996E+02
    -14.778  0.1169E+00  0.2000E+02
    -14.652  0.0000E+00  0.2000E+02
    -14.527  0.0000E+00  0.2000E+02
    -14.401  0.0000E+00  0.2000E+02
    -14.276  0.0000E+00  0.2000E+02
    -14.150  0.0000E+00  0.2000E+02
    -14.024  0.0000E+00  0.2000E+02
    -13.899  0.0000E+00  0.2000E+02
    -13.773  0.0000E+00  0.2000E+02
    -13.647  0.0000E+00  0.2000E+02
    -13.522  0.0000E+00  0.2000E+02
    -13.396  0.0000E+00  0.2000E+02
    -13.271  0.0000E+00  0.2000E+02
    -13.145  0.0000E+00  0.2000E+02
    -13.019  0.0000E+00  0.2000E+02
    -12.894  0.0000E+00  0.2000E+02
    -12.768  0.0000E+00  0.2000E+02
    -12.643  0.0000E+00  0.2000E+02
    -12.517  0.0000E+00  0.2000E+02
    -12.391  0.0000E+00  0.2000E+02
    -12.266  0.0000E+00  0.2000E+02
    -12.140  0.0000E+00  0.2000E+02
    -12.015  0.0000E+00  0.2000E+02
    -11.889  0.0000E+00  0.2000E+02
    -11.763  0.0000E+00  0.2000E+02
    -11.638  0.0000E+00  0.2000E+02
    -11.512  0.0000E+00  0.2000E+02
    -11.387  0.0000E+00  0.2000E+02
    -11.261  0.0000E+00  0.2000E+02
    -11.135  0.0000E+00  0.2000E+02
    -11.010  0.0000E+00  0.2000E+02
    -10.884  0.0000E+00  0.2000E+02
    -10.759  0.0000E+00  0.2000E+02
    -10.633  0.0000E+00  0.2000E+02
    -10.507  0.0000E+00  0.2000E+02
    -10.382  0.0000E+00  0.2000E+02
    -10.256  0.0000E+00  0.2000E+02
    -10.131  0.0000E+00  0.2000E+02
    -10.005  0.0000E+00  0.2000E+02
     -9.879  0.0000E+00  0.2000E+02
     -9.754  0.0000E+00  0.2000E+02
     -9.628  0.0000E+00  0.2000E+02
     -9.503  0.0000E+00  0.2000E+02
     -9.377  0.0000E+00  0.2000E+02
     -9.251  0.0000E+00  0.2000E+02
     -9.126  0.0000E+00  0.2000E+02
     -9.000  0.0000E+00  0.2000E+02
     -8.875  0.0000E+00  0.2000E+02
     -8.749  0.0000E+00  0.2000E+02
     -8.623  0.0000E+00  0.2000E+02
     -8.498  0.0000E+00  0.2000E+02
     -8.372  0.0000E+00  0.2000E+02
     -8.246  0.0000E+00  0.2000E+02
     -8.121  0.0000E+00  0.2000E+02
     -7.995  0.0000E+00  0.2000E+02
     -7.870  0.0000E+00  0.2000E+02
     -7.744  0.0000E+00  0.2000E+02
     -7.618  0.0000E+00  0.2000E+02
     -7.493  0.0000E+00  0.2000E+02
     -7.367  0.0000E+00  0.2000E+02
     -7.242  0.0000E+00  0.2000E+02
     -7.116  0.0000E+00  0.2000E+02
     -6.990  0.0000E+00  0.2000E+02
     -6.865  0.0000E+00  0.2000E+02
     -6.739  0.0000E+00  0.2000E+02
     -6.614  0.0000E+00  0.2000E+02
     -6.488  0.0000E+00  0.2000E+02
     -6.362  0.0000E+00  0.2000E+02
     -6.237  0.0000E+00  0.2000E+02
     -6.111  0.0000E+00  0.2000E+02
     -5.986  0.0000E+00  0.2000E+02
     -5.860  0.0000E+00  0.2000E+02
     -5.734  0.0000E+00  0.2000E+02
     -5.609  0.0000E+00  0.2000E+02
     -5.483  0.0000E+00  0.2000E+02
     -5.358  0.0000E+00  0.2000E+02
     -5.232  0.0000E+00  0.2000E+02
     -5.106  0.0000E+00  0.2000E+02
     -4.981  0.0000E+00  0.2000E+02
     -4.855  0.0000E+00  0.2000E+02
     -4.730  0.2117E+00  0.2001E+02
     -4.604  0.2618E+00  0.2004E+02
     -4.478  0.3221E+00  0.2008E+02
     -4.353  0.3844E+00  0.2012E+02
     -4.227  0.4307E+00  0.2017E+02
     -4.102  0.4818E+00  0.2023E+02
     -3.976  0.5254E+00  0.2029E+02
     -3.850  0.5709E+00  0.2036E+02
     -3.725  0.6137E+00  0.2044E+02
     -3.599  0.7013E+00  0.2052E+02
     -3.474  0.7559E+00  0.2061E+02
     -3.348  0.7592E+00  0.2070E+02
     -3.222  0.7868E+00  0.2080E+02
     -3.097  0.8161E+00  0.2090E+02
     -2.971  0.1001E+01  0.2102E+02
     -2.846  0.1085E+01  0.2114E+02
     -2.720  0.1322E+01  0.2129E+02
     -2.594  0.1535E+01  0.2147E+02
     -2.469  0.1608E+01  0.2167E+02
     -2.343  0.1894E+01  0.2189E+02
     -2.217  0.3301E+01  0.2217E+02
     -2.092  0.1248E+02  0.2335E+02
     -1.966  0.1347E+02  0.2423E+02
     -1.841  0.4955E+01  0.2489E+02
     -1.715  0.3328E+01  0.2531E+02
     -1.589  0.1547E+02  0.2659E+02
     -1.464  0.2500E+02  0.2844E+02
     -1.338  0.3908E+02  0.3091E+02
     -1.213  0.7492E+02  0.3593E+02
     -1.087  0.1851E+02  0.3824E+02
     -0.961  0.2448E+02  0.4012E+02
     -0.836  0.1295E+02  0.4200E+02
     -0.710  0.2039E+01  0.4228E+02
     -0.585  0.1995E+01  0.4253E+02
     -0.459  0.2240E+01  0.4279E+02
     -0.333  0.1902E+01  0.4304E+02
     -0.208  0.1712E+01  0.4326E+02
     -0.082  0.1457E+01  0.4346E+02
      0.043  0.1118E+01  0.4363E+02
      0.169  0.8735E+00  0.4374E+02
      0.295  0.7899E+00  0.4385E+02
      0.420  0.7975E+00  0.4394E+02
      0.546  0.9122E+00  0.4405E+02
      0.671  0.1138E+01  0.4417E+02
      0.797  0.1125E+01  0.4431E+02
      0.923  0.1046E+01  0.4445E+02
      1.048  0.1183E+01  0.4459E+02
      1.174  0.1080E+01  0.4473E+02
      1.299  0.1078E+01  0.4486E+02
      1.425  0.1089E+01  0.4500E+02
      1.551  0.1054E+01  0.4513E+02
      1.676  0.1057E+01  0.4526E+02
      1.802  0.1065E+01  0.4540E+02
      1.927  0.1079E+01  0.4553E+02
      2.053  0.1052E+01  0.4567E+02
      2.179  0.1033E+01  0.4580E+02
      2.304  0.9961E+00  0.4592E+02
      2.430  0.9473E+00  0.4605E+02
      2.555  0.9986E+00  0.4617E+02
      2.681  0.1132E+01  0.4630E+02
      2.807  0.1284E+01  0.4645E+02
      2.932  0.1336E+01  0.4662E+02
      3.058  0.1409E+01  0.4679E+02
      3.184  0.1509E+01  0.4698E+02
      3.309  0.1525E+01  0.4717E+02
      3.435  0.1593E+01  0.4736E+02
      3.560  0.1600E+01  0.4756E+02
      3.686  0.1622E+01  0.4777E+02
      3.812  0.1636E+01  0.4797E+02
      3.937  0.1700E+01  0.4818E+02
      4.063  0.1689E+01  0.4839E+02
      4.188  0.1701E+01  0.4860E+02
      4.314  0.1637E+01  0.4881E+02
      4.440  0.1659E+01  0.4902E+02
      4.565  0.1729E+01  0.4923E+02
      4.691  0.1620E+01  0.4944E+02
      4.816  0.1512E+01  0.4964E+02
      4.942  0.1455E+01  0.4983E+02
      5.068  0.1396E+01  0.5001E+02
      5.193  0.1342E+01  0.5018E+02
      5.319  0.1400E+01  0.5035E+02
      5.444  0.1507E+01  0.5053E+02
      5.570  0.1693E+01  0.5073E+02
      5.696  0.1852E+01  0.5095E+02
      5.821  0.1784E+01  0.5119E+02
      5.947  0.1219E+01  0.5137E+02
      6.072  0.1071E+01  0.5151E+02
      6.198  0.1094E+01  0.5164E+02
      6.324  0.1215E+01  0.5179E+02
      6.449  0.1468E+01  0.5196E+02
      6.575  0.1805E+01  0.5216E+02
      6.700  0.1636E+01  0.5238E+02
      6.826  0.1563E+01  0.5258E+02
      6.952  0.1577E+01  0.5278E+02
      7.077  0.1416E+01  0.5297E+02
      7.203  0.1469E+01  0.5315E+02
      7.328  0.1645E+01  0.5334E+02
      7.454  0.1441E+01  0.5354E+02
      7.580  0.1336E+01  0.5371E+02
      7.705  0.1457E+01  0.5389E+02
      7.831  0.1545E+01  0.5407E+02
      7.956  0.1682E+01  0.5428E+02
      8.082  0.1734E+01  0.5449E+02
      8.208  0.1714E+01  0.5471E+02
      8.333  0.1715E+01  0.5492E+02
      8.459  0.1727E+01  0.5514E+02
      8.585  0.1671E+01  0.5536E+02
      8.710  0.1594E+01  0.5555E+02
      8.836  0.1790E+01  0.5577E+02
      8.961  0.1813E+01  0.5599E+02
      9.087  0.1765E+01  0.5622E+02
      9.213  0.1714E+01  0.5644E+02
      9.338  0.1758E+01  0.5665E+02
      9.464  0.1985E+01  0.5689E+02
      9.589  0.2075E+01  0.5714E+02
      9.715  0.2117E+01  0.5741E+02
      9.841  0.2022E+01  0.5767E+02
      9.966  0.1810E+01  0.5790E+02
     10.092  0.1840E+01  0.5813E+02
     10.217  0.2013E+01  0.5837E+02
     10.343  0.2152E+01  0.5864E+02
     10.469  0.1783E+01  0.5888E+02
     10.594  0.1645E+01  0.5909E+02
     10.720  0.1579E+01  0.5930E+02
     10.845  0.1678E+01  0.5950E+02
     10.971  0.1976E+01  0.5973E+02
     11.097  0.2043E+01  0.5998E+02
     11.222  0.2237E+01  0.6025E+02
     11.348  0.2320E+01  0.6053E+02
     11.473  0.2556E+01  0.6084E+02
     11.599  0.2559E+01  0.6116E+02
     11.725  0.2309E+01  0.6146E+02
     11.850  0.2169E+01  0.6174E+02
     11.976  0.2540E+01  0.6204E+02
     12.101  0.2032E+01  0.6231E+02
     12.227  0.1979E+01  0.6255E+02
     12.353  0.2154E+01  0.6281E+02
     12.478  0.2208E+01  0.6309E+02
     12.604  0.2277E+01  0.6337E+02
     12.729  0.2214E+01  0.6365E+02
     12.855  0.2474E+01  0.6394E+02
     12.981  0.2514E+01  0.6426E+02
     13.106  0.2445E+01  0.6457E+02
     13.232  0.2172E+01  0.6486E+02
     13.357  0.2101E+01  0.6513E+02
     13.483  0.2044E+01  0.6539E+02
     13.609  0.2026E+01  0.6564E+02
     13.734  0.2028E+01  0.6590E+02
     13.860  0.1891E+01  0.6614E+02
     13.985  0.1942E+01  0.6638E+02
     14.111  0.2075E+01  0.6663E+02
     14.237  0.2245E+01  0.6690E+02
     14.362  0.1850E+01  0.6715E+02
     14.488  0.1680E+01  0.6737E+02
     14.614  0.1707E+01  0.6758E+02
     14.739  0.1874E+01  0.6780E+02
     14.865  0.2035E+01  0.6805E+02
     14.990  0.1925E+01  0.6830E+02
     15.116  0.1917E+01  0.6854E+02
     15.242  0.1986E+01  0.6878E+02
     15.367  0.2108E+01  0.6904E+02
     15.493  0.1933E+01  0.6929E+02
     15.618  0.1822E+01  0.6953E+02
     15.744  0.1720E+01  0.6976E+02
     15.870  0.1586E+01  0.6996E+02
     15.995  0.1653E+01  0.7016E+02
     16.121  0.1749E+01  0.7037E+02
     16.246  0.1678E+01  0.7058E+02
     16.372  0.1727E+01  0.7079E+02
     16.498  0.1747E+01  0.7102E+02
     16.623  0.1178E+01  0.7119E+02
     16.749  0.9621E+00  0.7133E+02
     16.874  0.8005E+00  0.7144E+02
     17.000  0.7397E+00  0.7153E+02
     17.126  0.6471E+00  0.7162E+02
     17.251  0.5998E+00  0.7170E+02
     17.377  0.6015E+00  0.7177E+02
     17.502  0.6569E+00  0.7185E+02
     17.628  0.5036E+00  0.7193E+02
     17.754  0.1864E+00  0.7196E+02
     17.879  0.8057E-01  0.7198E+02
     18.005  0.4485E-01  0.7199E+02
     18.130  0.3261E-01  0.7199E+02
     18.256  0.2282E-01  0.7200E+02
     18.382  0.1446E-01  0.7200E+02
     18.507  0.7030E-02  0.7200E+02
     18.633  0.7426E-04  0.7200E+02
     18.758  0.0000E+00  0.7200E+02
     18.884  0.0000E+00  0.7200E+02
     19.010  0.0000E+00  0.7200E+02
     19.135  0.0000E+00  0.7200E+02
     19.261  0.0000E+00  0.7200E+02
     19.386  0.0000E+00  0.7200E+02
     19.512  0.0000E+00  0.7200E+02
     19.638  0.0000E+00  0.7200E+02
     19.763  0.0000E+00  0.7200E+02
     19.889  0.0000E+00  0.7200E+02
     20.015  0.0000E+00  0.7200E+02
     20.140  0.0000E+00  0.7200E+02
     20.266  0.0000E+00  0.7200E+02
     20.391  0.0000E+00  0.7200E+02
     20.517  0.0000E+00  0.7200E+02
     20.643  0.0000E+00  0.7200E+02
