Zn2 Sn2
1.0
   4.5086080078311603   -0.0000035798094527    0.0000001073431032
  -2.2543071012503701    3.9045672067604271    0.0000000271116130
   0.0000001285373349    0.0000001014538664    5.1590139962190769
Zn Sn
2 2
direct
   0.9999999993365601    0.9999999988042593    0.9999999903938339 Zn
   0.9999999907478054    0.0000000019376515    0.4999999836832096 Zn
   0.3333333842514991    0.6666666314076232    0.2500001745318171 Sn
   0.6666666256641356    0.3333333678504660    0.7499998513911396 Sn
