Re3 N5                                  
   1.00000000000000     
    -1.4349810000000001    2.6648730000000000    7.8128159999999998
     1.4349810000000001   -2.6648730000000000    7.8128159999999998
     1.4349810000000001    2.6648730000000000   -7.8128159999999998
   Re   N 
     3     5
Direct
     0.2612239999999986    0.0000000000000000    0.2612239999999986
     0.7909360000000021    0.3115889999999979    0.4793469999999971
     0.1677570000000017    0.6884110000000021    0.4793469999999971
     0.4840700000000027    0.5000000000000000    0.9840700000000027
     0.9691600000000022    0.8984939999999995    0.0706660000000028
     0.1721720000000033    0.1015060000000005    0.0706660000000028
     0.9786709999999985    0.2332800000000006    0.7453909999999979
     0.5121109999999973    0.7667199999999994    0.7453909999999979
 
  0.00000000E+00  0.00000000E+00  0.00000000E+00
  0.00000000E+00  0.00000000E+00  0.00000000E+00
  0.00000000E+00  0.00000000E+00  0.00000000E+00
  0.00000000E+00  0.00000000E+00  0.00000000E+00
  0.00000000E+00  0.00000000E+00  0.00000000E+00
  0.00000000E+00  0.00000000E+00  0.00000000E+00
  0.00000000E+00  0.00000000E+00  0.00000000E+00
  0.00000000E+00  0.00000000E+00  0.00000000E+00
