   8   8   0   0
  0.1493827E+02  0.8378593E-09  0.8378593E-09  0.8378593E-09  0.5000000E-15
  1.000000000000000E-004
  CAR 
 unknown system                          
     16.57870575    -42.58918033  301      3.45785444      1.00000000
    -42.589  0.0000E+00  0.0000E+00
    -42.392  0.0000E+00  0.0000E+00
    -42.195  0.0000E+00  0.0000E+00
    -41.998  0.0000E+00  0.0000E+00
    -41.800  0.0000E+00  0.0000E+00
    -41.603  0.0000E+00  0.0000E+00
    -41.406  0.0000E+00  0.0000E+00
    -41.209  0.0000E+00  0.0000E+00
    -41.011  0.0000E+00  0.0000E+00
    -40.814  0.0000E+00  0.0000E+00
    -40.617  0.0000E+00  0.0000E+00
    -40.420  0.0000E+00  0.0000E+00
    -40.222  0.0000E+00  0.0000E+00
    -40.025  0.7787E-03  0.1536E-03
    -39.828  0.8105E+01  0.1599E+01
    -39.631  0.4466E+02  0.1041E+02
    -39.434  0.3171E+02  0.1666E+02
    -39.236  0.6796E+01  0.1800E+02
    -39.039  0.8939E-04  0.1800E+02
    -38.842  0.0000E+00  0.1800E+02
    -38.645  0.0000E+00  0.1800E+02
    -38.447  0.0000E+00  0.1800E+02
    -38.250  0.0000E+00  0.1800E+02
    -38.053  0.0000E+00  0.1800E+02
    -37.856  0.0000E+00  0.1800E+02
    -37.659  0.0000E+00  0.1800E+02
    -37.461  0.0000E+00  0.1800E+02
    -37.264  0.0000E+00  0.1800E+02
    -37.067  0.0000E+00  0.1800E+02
    -36.870  0.0000E+00  0.1800E+02
    -36.672  0.0000E+00  0.1800E+02
    -36.475  0.0000E+00  0.1800E+02
    -36.278  0.0000E+00  0.1800E+02
    -36.081  0.0000E+00  0.1800E+02
    -35.883  0.0000E+00  0.1800E+02
    -35.686  0.0000E+00  0.1800E+02
    -35.489  0.0000E+00  0.1800E+02
    -35.292  0.0000E+00  0.1800E+02
    -35.095  0.0000E+00  0.1800E+02
    -34.897  0.0000E+00  0.1800E+02
    -34.700  0.0000E+00  0.1800E+02
    -34.503  0.0000E+00  0.1800E+02
    -34.306  0.0000E+00  0.1800E+02
    -34.108  0.0000E+00  0.1800E+02
    -33.911  0.0000E+00  0.1800E+02
    -33.714  0.0000E+00  0.1800E+02
    -33.517  0.0000E+00  0.1800E+02
    -33.320  0.0000E+00  0.1800E+02
    -33.122  0.0000E+00  0.1800E+02
    -32.925  0.0000E+00  0.1800E+02
    -32.728  0.0000E+00  0.1800E+02
    -32.531  0.0000E+00  0.1800E+02
    -32.333  0.0000E+00  0.1800E+02
    -32.136  0.0000E+00  0.1800E+02
    -31.939  0.0000E+00  0.1800E+02
    -31.742  0.0000E+00  0.1800E+02
    -31.545  0.0000E+00  0.1800E+02
    -31.347  0.0000E+00  0.1800E+02
    -31.150  0.0000E+00  0.1800E+02
    -30.953  0.0000E+00  0.1800E+02
    -30.756  0.0000E+00  0.1800E+02
    -30.558  0.0000E+00  0.1800E+02
    -30.361  0.0000E+00  0.1800E+02
    -30.164  0.0000E+00  0.1800E+02
    -29.967  0.0000E+00  0.1800E+02
    -29.769  0.0000E+00  0.1800E+02
    -29.572  0.0000E+00  0.1800E+02
    -29.375  0.0000E+00  0.1800E+02
    -29.178  0.0000E+00  0.1800E+02
    -28.981  0.0000E+00  0.1800E+02
    -28.783  0.0000E+00  0.1800E+02
    -28.586  0.0000E+00  0.1800E+02
    -28.389  0.0000E+00  0.1800E+02
    -28.192  0.0000E+00  0.1800E+02
    -27.994  0.0000E+00  0.1800E+02
    -27.797  0.0000E+00  0.1800E+02
    -27.600  0.0000E+00  0.1800E+02
    -27.403  0.0000E+00  0.1800E+02
    -27.206  0.0000E+00  0.1800E+02
    -27.008  0.0000E+00  0.1800E+02
    -26.811  0.0000E+00  0.1800E+02
    -26.614  0.0000E+00  0.1800E+02
    -26.417  0.0000E+00  0.1800E+02
    -26.219  0.0000E+00  0.1800E+02
    -26.022  0.0000E+00  0.1800E+02
    -25.825  0.0000E+00  0.1800E+02
    -25.628  0.0000E+00  0.1800E+02
    -25.430  0.0000E+00  0.1800E+02
    -25.233  0.0000E+00  0.1800E+02
    -25.036  0.0000E+00  0.1800E+02
    -24.839  0.0000E+00  0.1800E+02
    -24.642  0.0000E+00  0.1800E+02
    -24.444  0.0000E+00  0.1800E+02
    -24.247  0.0000E+00  0.1800E+02
    -24.050  0.0000E+00  0.1800E+02
    -23.853  0.0000E+00  0.1800E+02
    -23.655  0.0000E+00  0.1800E+02
    -23.458  0.0000E+00  0.1800E+02
    -23.261  0.0000E+00  0.1800E+02
    -23.064  0.0000E+00  0.1800E+02
    -22.867  0.0000E+00  0.1800E+02
    -22.669  0.0000E+00  0.1800E+02
    -22.472  0.0000E+00  0.1800E+02
    -22.275  0.0000E+00  0.1800E+02
    -22.078  0.0000E+00  0.1800E+02
    -21.880  0.0000E+00  0.1800E+02
    -21.683  0.0000E+00  0.1800E+02
    -21.486  0.0000E+00  0.1800E+02
    -21.289  0.0000E+00  0.1800E+02
    -21.092  0.0000E+00  0.1800E+02
    -20.894  0.0000E+00  0.1800E+02
    -20.697  0.0000E+00  0.1800E+02
    -20.500  0.0000E+00  0.1800E+02
    -20.303  0.0000E+00  0.1800E+02
    -20.105  0.0000E+00  0.1800E+02
    -19.908  0.0000E+00  0.1800E+02
    -19.711  0.0000E+00  0.1800E+02
    -19.514  0.0000E+00  0.1800E+02
    -19.316  0.0000E+00  0.1800E+02
    -19.119  0.0000E+00  0.1800E+02
    -18.922  0.0000E+00  0.1800E+02
    -18.725  0.0000E+00  0.1800E+02
    -18.528  0.0000E+00  0.1800E+02
    -18.330  0.0000E+00  0.1800E+02
    -18.133  0.0000E+00  0.1800E+02
    -17.936  0.0000E+00  0.1800E+02
    -17.739  0.0000E+00  0.1800E+02
    -17.541  0.0000E+00  0.1800E+02
    -17.344  0.0000E+00  0.1800E+02
    -17.147  0.0000E+00  0.1800E+02
    -16.950  0.0000E+00  0.1800E+02
    -16.753  0.0000E+00  0.1800E+02
    -16.555  0.0000E+00  0.1800E+02
    -16.358  0.0000E+00  0.1800E+02
    -16.161  0.0000E+00  0.1800E+02
    -15.964  0.0000E+00  0.1800E+02
    -15.766  0.0000E+00  0.1800E+02
    -15.569  0.0000E+00  0.1800E+02
    -15.372  0.0000E+00  0.1800E+02
    -15.175  0.0000E+00  0.1800E+02
    -14.978  0.0000E+00  0.1800E+02
    -14.780  0.0000E+00  0.1800E+02
    -14.583  0.0000E+00  0.1800E+02
    -14.386  0.0000E+00  0.1800E+02
    -14.189  0.0000E+00  0.1800E+02
    -13.991  0.0000E+00  0.1800E+02
    -13.794  0.0000E+00  0.1800E+02
    -13.597  0.0000E+00  0.1800E+02
    -13.400  0.4397E-06  0.1800E+02
    -13.202  0.2033E+00  0.1804E+02
    -13.005  0.1048E+01  0.1825E+02
    -12.808  0.7771E+00  0.1840E+02
    -12.611  0.1763E+01  0.1875E+02
    -12.414  0.3235E+01  0.1939E+02
    -12.216  0.1920E+01  0.1976E+02
    -12.019  0.2771E+01  0.2031E+02
    -11.822  0.6757E+01  0.2164E+02
    -11.625  0.7788E+01  0.2318E+02
    -11.427  0.4024E+01  0.2397E+02
    -11.230  0.1545E+02  0.2702E+02
    -11.033  0.4965E+01  0.2800E+02
    -10.836  0.2772E-04  0.2800E+02
    -10.639  0.0000E+00  0.2800E+02
    -10.441  0.0000E+00  0.2800E+02
    -10.244  0.0000E+00  0.2800E+02
    -10.047  0.0000E+00  0.2800E+02
     -9.850  0.0000E+00  0.2800E+02
     -9.652  0.0000E+00  0.2800E+02
     -9.455  0.0000E+00  0.2800E+02
     -9.258  0.0000E+00  0.2800E+02
     -9.061  0.0000E+00  0.2800E+02
     -8.863  0.0000E+00  0.2800E+02
     -8.666  0.0000E+00  0.2800E+02
     -8.469  0.0000E+00  0.2800E+02
     -8.272  0.0000E+00  0.2800E+02
     -8.075  0.0000E+00  0.2800E+02
     -7.877  0.0000E+00  0.2800E+02
     -7.680  0.0000E+00  0.2800E+02
     -7.483  0.0000E+00  0.2800E+02
     -7.286  0.0000E+00  0.2800E+02
     -7.088  0.0000E+00  0.2800E+02
     -6.891  0.0000E+00  0.2800E+02
     -6.694  0.0000E+00  0.2800E+02
     -6.497  0.0000E+00  0.2800E+02
     -6.300  0.0000E+00  0.2800E+02
     -6.102  0.0000E+00  0.2800E+02
     -5.905  0.0000E+00  0.2800E+02
     -5.708  0.0000E+00  0.2800E+02
     -5.511  0.0000E+00  0.2800E+02
     -5.313  0.0000E+00  0.2800E+02
     -5.116  0.2727E-09  0.2800E+02
     -4.919  0.1053E+00  0.2802E+02
     -4.722  0.1806E+01  0.2838E+02
     -4.525  0.2002E+01  0.2877E+02
     -4.327  0.1427E+00  0.2880E+02
     -4.130  0.1986E+00  0.2884E+02
     -3.933  0.5379E+01  0.2990E+02
     -3.736  0.5601E+01  0.3100E+02
     -3.538  0.3385E+01  0.3167E+02
     -3.341  0.5526E+01  0.3276E+02
     -3.144  0.8846E+01  0.3451E+02
     -2.947  0.7410E+01  0.3597E+02
     -2.749  0.5445E+01  0.3704E+02
     -2.552  0.5670E+01  0.3816E+02
     -2.355  0.9929E+01  0.4012E+02
     -2.158  0.1016E+02  0.4212E+02
     -1.961  0.4446E+01  0.4300E+02
     -1.763  0.1026E+02  0.4502E+02
     -1.566  0.3836E+01  0.4578E+02
     -1.369  0.3270E+01  0.4642E+02
     -1.172  0.1992E+01  0.4682E+02
     -0.974  0.1977E+01  0.4721E+02
     -0.777  0.5091E+01  0.4821E+02
     -0.580  0.4571E+01  0.4911E+02
     -0.383  0.2585E+01  0.4962E+02
     -0.186  0.6288E+01  0.5086E+02
      0.012  0.4667E+01  0.5178E+02
      0.209  0.5942E+01  0.5295E+02
      0.406  0.5229E+01  0.5399E+02
      0.603  0.7152E+01  0.5540E+02
      0.801  0.3833E+01  0.5615E+02
      0.998  0.2327E+01  0.5661E+02
      1.195  0.3911E+01  0.5738E+02
      1.392  0.2269E+01  0.5783E+02
      1.590  0.7072E+00  0.5797E+02
      1.787  0.1287E+01  0.5822E+02
      1.984  0.8953E+00  0.5840E+02
      2.181  0.3801E+01  0.5915E+02
      2.378  0.5737E+01  0.6028E+02
      2.576  0.1595E+01  0.6060E+02
      2.773  0.1516E+01  0.6090E+02
      2.970  0.1894E+01  0.6127E+02
      3.167  0.2462E+01  0.6175E+02
      3.365  0.7009E+01  0.6314E+02
      3.562  0.7290E+01  0.6457E+02
      3.759  0.4073E+01  0.6538E+02
      3.956  0.1892E+01  0.6575E+02
      4.153  0.3712E+01  0.6648E+02
      4.351  0.2315E+01  0.6694E+02
      4.548  0.2926E+01  0.6752E+02
      4.745  0.5293E+01  0.6856E+02
      4.942  0.5701E+01  0.6968E+02
      5.140  0.4276E+01  0.7053E+02
      5.337  0.4469E+01  0.7141E+02
      5.534  0.3608E+01  0.7212E+02
      5.731  0.4444E+01  0.7300E+02
      5.928  0.4748E+01  0.7393E+02
      6.126  0.2581E+01  0.7444E+02
      6.323  0.4556E+01  0.7534E+02
      6.520  0.4376E+01  0.7620E+02
      6.717  0.4647E+01  0.7712E+02
      6.915  0.5673E+01  0.7824E+02
      7.112  0.5745E+01  0.7937E+02
      7.309  0.3021E+01  0.7997E+02
      7.506  0.1460E+01  0.8026E+02
      7.704  0.2546E+01  0.8076E+02
      7.901  0.2329E+01  0.8122E+02
      8.098  0.6667E+01  0.8253E+02
      8.295  0.3076E+01  0.8314E+02
      8.492  0.3690E+01  0.8387E+02
      8.690  0.2775E+01  0.8441E+02
      8.887  0.2926E+01  0.8499E+02
      9.084  0.1851E+01  0.8536E+02
      9.281  0.4173E+01  0.8618E+02
      9.479  0.1353E+01  0.8645E+02
      9.676  0.3034E+01  0.8705E+02
      9.873  0.5882E+01  0.8821E+02
     10.070  0.4316E+01  0.8906E+02
     10.267  0.3227E+01  0.8969E+02
     10.465  0.1489E+01  0.8999E+02
     10.662  0.6678E+00  0.9012E+02
     10.859  0.1857E+01  0.9048E+02
     11.056  0.2315E+01  0.9094E+02
     11.254  0.1830E+01  0.9130E+02
     11.451  0.2488E+01  0.9179E+02
     11.648  0.1156E+01  0.9202E+02
     11.845  0.8989E+00  0.9220E+02
     12.043  0.2348E+01  0.9266E+02
     12.240  0.2365E+01  0.9313E+02
     12.437  0.2069E+01  0.9354E+02
     12.634  0.1226E+01  0.9378E+02
     12.831  0.2787E+01  0.9433E+02
     13.029  0.2980E+01  0.9491E+02
     13.226  0.9440E+00  0.9510E+02
     13.423  0.1916E+01  0.9548E+02
     13.620  0.1519E+01  0.9578E+02
     13.818  0.9652E+00  0.9597E+02
     14.015  0.1566E+00  0.9600E+02
     14.212  0.1814E-04  0.9600E+02
     14.409  0.0000E+00  0.9600E+02
     14.606  0.0000E+00  0.9600E+02
     14.804  0.0000E+00  0.9600E+02
     15.001  0.0000E+00  0.9600E+02
     15.198  0.0000E+00  0.9600E+02
     15.395  0.0000E+00  0.9600E+02
     15.593  0.0000E+00  0.9600E+02
     15.790  0.0000E+00  0.9600E+02
     15.987  0.0000E+00  0.9600E+02
     16.184  0.0000E+00  0.9600E+02
     16.381  0.0000E+00  0.9600E+02
     16.579  0.0000E+00  0.9600E+02
