Re3N5
1.0
     -1.4349810       2.6648730       7.8128160
      1.4349810      -2.6648730       7.8128160
      1.4349810       2.6648730      -7.8128160
  Re    N   
  3     5   
Direct
      0.2612240       0.0000000       0.2612240
      0.7909360       0.3115890       0.4793470
      0.1677570       0.6884110       0.4793470
      0.4840700       0.5000000       0.9840700
      0.9691600       0.8984940       0.0706660
      0.1721720       0.1015060       0.0706660
      0.9786710       0.2332800       0.7453910
      0.5121110       0.7667200       0.7453910
