       N       E                     dE             d eps       ncg     rms          rms(c)
DAV:   1     0.442882870541E+02    0.44288E+02   -0.42266E+03 12288   0.834E+02
DAV:   2    -0.379535560807E+01   -0.48084E+02   -0.45923E+02 15348   0.142E+02
DAV:   3    -0.658652889156E+01   -0.27912E+01   -0.27822E+01 16104   0.355E+01
DAV:   4    -0.666469099346E+01   -0.78162E-01   -0.78131E-01 16924   0.569E+00
DAV:   5    -0.666561096011E+01   -0.91997E-03   -0.91995E-03 16160   0.564E-01    0.198E+00
DAV:   6    -0.663492176649E+01    0.30689E-01   -0.58507E-02 15076   0.114E+00    0.122E+00
DAV:   7    -0.663716360288E+01   -0.22418E-02   -0.37723E-02 17608   0.102E+00    0.433E-01
DAV:   8    -0.663934297562E+01   -0.21794E-02   -0.40848E-03 14844   0.410E-01    0.625E-02
DAV:   9    -0.663933797390E+01    0.50017E-05   -0.98070E-05 14612   0.702E-02    0.247E-02
DAV:  10    -0.663936823657E+01   -0.30263E-04   -0.48102E-05 14352   0.457E-02    0.136E-02
DAV:  11    -0.663936977817E+01   -0.15416E-05   -0.50647E-06 15420   0.131E-02    0.437E-03
DAV:  12    -0.663936972709E+01    0.51080E-07   -0.26363E-07 10460   0.374E-03
   1 F= -.66393697E+01 E0= -.66393697E+01  d E =-.270812E-24
