       N       E                     dE             d eps       ncg     rms          rms(c)
DAV:   1     0.145896487145E+04    0.14590E+04   -0.63710E+04 23640   0.211E+03
DAV:   2     0.209812658142E+03   -0.12492E+04   -0.11304E+04 23328   0.506E+02
DAV:   3    -0.108634200878E+02   -0.22068E+03   -0.20492E+03 24192   0.182E+02
DAV:   4    -0.221908117476E+02   -0.11327E+02   -0.11226E+02 25856   0.464E+01
DAV:   5    -0.222968733522E+02   -0.10606E+00   -0.10602E+00 25056   0.424E+00    0.142E+01
DAV:   6    -0.200311507803E+02    0.22657E+01   -0.68327E+00 27752   0.193E+01    0.100E+01
DAV:   7    -0.199662142688E+02    0.64937E-01   -0.27062E-01 24664   0.242E+00    0.557E+00
DAV:   8    -0.199262896276E+02    0.39925E-01   -0.25513E-02 25424   0.166E+00    0.263E-01
DAV:   9    -0.199259888863E+02    0.30074E-03   -0.10504E-02 26388   0.134E+00    0.170E-01
DAV:  10    -0.199259759079E+02    0.12978E-04   -0.12618E-03 25308   0.244E-01    0.129E-01
DAV:  11    -0.199260370374E+02   -0.61129E-04   -0.60584E-04 30316   0.270E-01    0.896E-02
DAV:  12    -0.199259794363E+02    0.57601E-04   -0.22711E-04 29996   0.172E-01    0.171E-02
DAV:  13    -0.199259754065E+02    0.40298E-05   -0.18814E-05 25604   0.395E-02    0.632E-03
DAV:  14    -0.199259753684E+02    0.38144E-07   -0.41813E-06 23384   0.183E-02
   1 F= -.19925975E+02 E0= -.19921058E+02  d E =-.983559E-02
