Zn8 Ag4
1.0
  -2.5473717300000001   -4.4121762999999996   -0.0000000000000000
  -2.5473717300000001    4.4121762999999996    0.0000000000000000
   0.0000000000000000   -0.0000000000000000   -8.0483834499999993
Zn Ag
8 4
direct
   0.0000000000000000   -0.0000000000000000   -0.0000000000000000 Zn
   0.0000000000000000   -0.0000000000000000    0.5000000000000000 Zn
   0.8283647000000000    0.1716353000000000    0.2500000000000000 Zn
   0.1716353000000000    0.3432716100000000    0.7500000000000000 Zn
   0.6567283900000001    0.8283647000000000    0.7500000000000000 Zn
   0.3432716100000000    0.1716353000000000    0.2500000000000000 Zn
   0.8283647000000000    0.6567283900000001    0.2500000000000000 Zn
   0.1716353000000000    0.8283647000000000    0.7500000000000000 Zn
   0.6666670000000000    0.3333340000000000    0.9382220600000000 Ag
   0.3333330000000000    0.6666660000000000    0.4382220600000000 Ag
   0.3333330000000000    0.6666660000000000    0.0617779400000000 Ag
   0.6666670000000000    0.3333340000000000    0.5617779400000000 Ag
