       N       E                     dE             d eps       ncg     rms          rms(c)
DAV:   1     0.128367520764E+04    0.12837E+04   -0.51997E+04 11048   0.234E+03
DAV:   2     0.192886333608E+03   -0.10908E+04   -0.10580E+04 10240   0.701E+02
DAV:   3    -0.103917497220E+02   -0.20328E+03   -0.19953E+03 11464   0.239E+02
DAV:   4    -0.256798399431E+02   -0.15288E+02   -0.15175E+02 13232   0.650E+01
DAV:   5    -0.263431207532E+02   -0.66328E+00   -0.66081E+00 15680   0.126E+01    0.570E+00
DAV:   6    -0.261966067148E+02    0.14651E+00   -0.45120E-01 16224   0.306E+00    0.362E+00
DAV:   7    -0.261410570754E+02    0.55550E-01   -0.22490E-01 12632   0.250E+00    0.787E-01
DAV:   8    -0.261411527897E+02   -0.95714E-04   -0.53594E-02 14944   0.110E+00    0.216E-01
DAV:   9    -0.261418135161E+02   -0.66073E-03   -0.71662E-03 14344   0.303E-01    0.137E-01
DAV:  10    -0.261418460302E+02   -0.32514E-04   -0.62388E-04 15496   0.110E-01    0.446E-02
DAV:  11    -0.261418767775E+02   -0.30747E-04   -0.10432E-04 14984   0.554E-02    0.192E-02
DAV:  12    -0.261418762309E+02    0.54657E-06   -0.16222E-05 13560   0.321E-02    0.448E-03
DAV:  13    -0.261418763490E+02   -0.11808E-06   -0.21548E-06  8816   0.179E-02
   1 F= -.26141876E+02 E0= -.26137958E+02  d E =-.783642E-02
