unknown system                          
           1
     3.768959   -6.528029    0.000000
     3.768959    6.528029    0.000000
     0.000000    0.000000    5.445591
   K    Sn
     2     6
Direct configuration=     1
   0.33333300  0.66666700  0.75000000
   0.66666700  0.33333300  0.25000000
   0.13462396  0.26924792  0.25000000
   0.73075208  0.86537604  0.25000000
   0.13462396  0.86537604  0.25000000
   0.86537604  0.73075208  0.75000000
   0.26924792  0.13462396  0.75000000
   0.86537604  0.13462396  0.75000000
