Na4 P20                                 
   1.00000000000000     
     6.5286510900000003    0.0000000000000000    0.0000000000000000
     0.0000000000000000    7.0071130699999999    0.0000000000000000
     0.0000000000000000    0.0000000000000000   10.9934508500000003
   Na   P 
     4    20
Direct
     0.2500000000000000    0.0929724800000002    0.4258146800000020
     0.7500000000000000    0.9070275199999998    0.5741853199999980
     0.7500000000000000    0.5929724800000002    0.0741853199999980
     0.2500000000000000    0.4070275199999998    0.9258146800000020
     0.0127276899999984    0.0922474799999975    0.0823004200000028
     0.5127276899999984    0.9077525200000025    0.9176995799999972
     0.9872723100000016    0.5922474799999975    0.4176995799999972
     0.4872723100000016    0.4077525200000025    0.5823004200000028
     0.9872723100000016    0.9077525200000025    0.9176995799999972
     0.4872723100000016    0.0922474799999975    0.0823004200000028
     0.0127276899999984    0.4077525200000025    0.5823004200000028
     0.5127276899999984    0.5922474799999975    0.4176995799999972
     0.2500000000000000    0.6331043200000011    0.1408544000000020
     0.7500000000000000    0.3668956799999989    0.8591455999999980
     0.7500000000000000    0.1331043200000011    0.3591455999999980
     0.2500000000000000    0.8668956799999989    0.6408544000000020
     0.2500000000000000    0.4797043599999995    0.3107507499999969
     0.7500000000000000    0.5202956400000005    0.6892492500000031
     0.7500000000000000    0.9797043599999995    0.1892492500000031
     0.2500000000000000    0.0202956400000005    0.8107507499999969
     0.2500000000000000    0.5650914000000000    0.6857785799999974
     0.7500000000000000    0.4349086000000000    0.3142214200000026
     0.7500000000000000    0.0650914000000000    0.8142214200000026
     0.2500000000000000    0.9349086000000000    0.1857785799999974
 
  0.00000000E+00  0.00000000E+00  0.00000000E+00
  0.00000000E+00  0.00000000E+00  0.00000000E+00
  0.00000000E+00  0.00000000E+00  0.00000000E+00
  0.00000000E+00  0.00000000E+00  0.00000000E+00
  0.00000000E+00  0.00000000E+00  0.00000000E+00
  0.00000000E+00  0.00000000E+00  0.00000000E+00
  0.00000000E+00  0.00000000E+00  0.00000000E+00
  0.00000000E+00  0.00000000E+00  0.00000000E+00
  0.00000000E+00  0.00000000E+00  0.00000000E+00
  0.00000000E+00  0.00000000E+00  0.00000000E+00
  0.00000000E+00  0.00000000E+00  0.00000000E+00
  0.00000000E+00  0.00000000E+00  0.00000000E+00
  0.00000000E+00  0.00000000E+00  0.00000000E+00
  0.00000000E+00  0.00000000E+00  0.00000000E+00
  0.00000000E+00  0.00000000E+00  0.00000000E+00
  0.00000000E+00  0.00000000E+00  0.00000000E+00
  0.00000000E+00  0.00000000E+00  0.00000000E+00
  0.00000000E+00  0.00000000E+00  0.00000000E+00
  0.00000000E+00  0.00000000E+00  0.00000000E+00
  0.00000000E+00  0.00000000E+00  0.00000000E+00
  0.00000000E+00  0.00000000E+00  0.00000000E+00
  0.00000000E+00  0.00000000E+00  0.00000000E+00
  0.00000000E+00  0.00000000E+00  0.00000000E+00
  0.00000000E+00  0.00000000E+00  0.00000000E+00
