  24  24   0   0
  0.2095489E+02  0.6528651E-09  0.7007113E-09  0.1099345E-08  0.5000000E-15
  1.000000000000000E-004
  CAR 
 unknown system                          
     11.70566053    -20.73258916  301      4.25837904      1.00000000
    -20.733  0.0000E+00  0.0000E+00
    -20.624  0.0000E+00  0.0000E+00
    -20.516  0.0000E+00  0.0000E+00
    -20.408  0.0000E+00  0.0000E+00
    -20.300  0.0000E+00  0.0000E+00
    -20.192  0.0000E+00  0.0000E+00
    -20.084  0.0000E+00  0.0000E+00
    -19.976  0.0000E+00  0.0000E+00
    -19.868  0.0000E+00  0.0000E+00
    -19.759  0.0000E+00  0.0000E+00
    -19.651  0.0000E+00  0.0000E+00
    -19.543  0.2670E-13  0.2887E-14
    -19.435  0.2092E-04  0.2262E-05
    -19.327  0.2368E+01  0.2560E+00
    -19.219  0.1532E+03  0.1682E+02
    -19.111  0.6634E+02  0.2399E+02
    -19.003  0.6543E-01  0.2400E+02
    -18.894  0.1441E-07  0.2400E+02
    -18.786  0.0000E+00  0.2400E+02
    -18.678  0.0000E+00  0.2400E+02
    -18.570  0.0000E+00  0.2400E+02
    -18.462  0.0000E+00  0.2400E+02
    -18.354  0.0000E+00  0.2400E+02
    -18.246  0.0000E+00  0.2400E+02
    -18.138  0.0000E+00  0.2400E+02
    -18.029  0.0000E+00  0.2400E+02
    -17.921  0.0000E+00  0.2400E+02
    -17.813  0.0000E+00  0.2400E+02
    -17.705  0.0000E+00  0.2400E+02
    -17.597  0.0000E+00  0.2400E+02
    -17.489  0.0000E+00  0.2400E+02
    -17.381  0.0000E+00  0.2400E+02
    -17.273  0.0000E+00  0.2400E+02
    -17.164  0.0000E+00  0.2400E+02
    -17.056  0.0000E+00  0.2400E+02
    -16.948  0.0000E+00  0.2400E+02
    -16.840  0.0000E+00  0.2400E+02
    -16.732  0.0000E+00  0.2400E+02
    -16.624  0.0000E+00  0.2400E+02
    -16.516  0.0000E+00  0.2400E+02
    -16.407  0.0000E+00  0.2400E+02
    -16.299  0.0000E+00  0.2400E+02
    -16.191  0.0000E+00  0.2400E+02
    -16.083  0.0000E+00  0.2400E+02
    -15.975  0.0000E+00  0.2400E+02
    -15.867  0.0000E+00  0.2400E+02
    -15.759  0.0000E+00  0.2400E+02
    -15.651  0.0000E+00  0.2400E+02
    -15.542  0.0000E+00  0.2400E+02
    -15.434  0.0000E+00  0.2400E+02
    -15.326  0.0000E+00  0.2400E+02
    -15.218  0.0000E+00  0.2400E+02
    -15.110  0.0000E+00  0.2400E+02
    -15.002  0.0000E+00  0.2400E+02
    -14.894  0.0000E+00  0.2400E+02
    -14.786  0.0000E+00  0.2400E+02
    -14.677  0.0000E+00  0.2400E+02
    -14.569  0.0000E+00  0.2400E+02
    -14.461  0.0000E+00  0.2400E+02
    -14.353  0.0000E+00  0.2400E+02
    -14.245  0.0000E+00  0.2400E+02
    -14.137  0.0000E+00  0.2400E+02
    -14.029  0.0000E+00  0.2400E+02
    -13.921  0.0000E+00  0.2400E+02
    -13.812  0.0000E+00  0.2400E+02
    -13.704  0.0000E+00  0.2400E+02
    -13.596  0.0000E+00  0.2400E+02
    -13.488  0.0000E+00  0.2400E+02
    -13.380  0.0000E+00  0.2400E+02
    -13.272  0.0000E+00  0.2400E+02
    -13.164  0.0000E+00  0.2400E+02
    -13.056  0.0000E+00  0.2400E+02
    -12.947  0.0000E+00  0.2400E+02
    -12.839  0.0000E+00  0.2400E+02
    -12.731  0.0000E+00  0.2400E+02
    -12.623  0.0000E+00  0.2400E+02
    -12.515  0.0000E+00  0.2400E+02
    -12.407  0.0000E+00  0.2400E+02
    -12.299  0.0000E+00  0.2400E+02
    -12.191  0.0000E+00  0.2400E+02
    -12.082  0.0000E+00  0.2400E+02
    -11.974  0.0000E+00  0.2400E+02
    -11.866  0.0000E+00  0.2400E+02
    -11.758  0.0000E+00  0.2400E+02
    -11.650  0.0000E+00  0.2400E+02
    -11.542  0.0000E+00  0.2400E+02
    -11.434  0.0000E+00  0.2400E+02
    -11.325  0.0000E+00  0.2400E+02
    -11.217  0.0000E+00  0.2400E+02
    -11.109  0.0000E+00  0.2400E+02
    -11.001  0.0000E+00  0.2400E+02
    -10.893  0.0000E+00  0.2400E+02
    -10.785  0.0000E+00  0.2400E+02
    -10.677  0.1086E-10  0.2400E+02
    -10.569  0.2664E-03  0.2400E+02
    -10.460  0.9878E+00  0.2411E+02
    -10.352  0.5939E+01  0.2475E+02
    -10.244  0.5579E+01  0.2535E+02
    -10.136  0.6045E+01  0.2601E+02
    -10.028  0.5210E+01  0.2657E+02
     -9.920  0.5326E+01  0.2715E+02
     -9.812  0.6856E+01  0.2789E+02
     -9.704  0.1050E+01  0.2800E+02
     -9.595  0.3002E-03  0.2800E+02
     -9.487  0.2149E-01  0.2800E+02
     -9.379  0.3354E+01  0.2837E+02
     -9.271  0.1019E+02  0.2947E+02
     -9.163  0.1107E+02  0.3066E+02
     -9.055  0.5201E+01  0.3123E+02
     -8.947  0.5534E+01  0.3182E+02
     -8.839  0.6398E+01  0.3252E+02
     -8.730  0.5132E+01  0.3307E+02
     -8.622  0.3868E+01  0.3349E+02
     -8.514  0.2873E+01  0.3380E+02
     -8.406  0.6514E+01  0.3450E+02
     -8.298  0.7008E+01  0.3526E+02
     -8.190  0.7373E+01  0.3606E+02
     -8.082  0.8468E+01  0.3698E+02
     -7.974  0.1257E+01  0.3711E+02
     -7.865  0.6248E+01  0.3779E+02
     -7.757  0.6432E+01  0.3848E+02
     -7.649  0.4705E+01  0.3899E+02
     -7.541  0.4649E+01  0.3949E+02
     -7.433  0.4661E+01  0.4000E+02
     -7.325  0.2052E-01  0.4000E+02
     -7.217  0.3191E+00  0.4003E+02
     -7.109  0.4093E+01  0.4048E+02
     -7.000  0.3851E+01  0.4089E+02
     -6.892  0.1074E+01  0.4101E+02
     -6.784  0.4395E+01  0.4148E+02
     -6.676  0.1172E+02  0.4275E+02
     -6.568  0.9514E+01  0.4378E+02
     -6.460  0.2027E+01  0.4400E+02
     -6.352  0.1848E-02  0.4400E+02
     -6.244  0.1594E+01  0.4417E+02
     -6.135  0.3011E+01  0.4450E+02
     -6.027  0.3509E-01  0.4450E+02
     -5.919  0.7430E+01  0.4531E+02
     -5.811  0.1778E+02  0.4723E+02
     -5.703  0.3103E+01  0.4756E+02
     -5.595  0.3911E+01  0.4799E+02
     -5.487  0.1278E+00  0.4800E+02
     -5.378  0.2659E+00  0.4803E+02
     -5.270  0.7832E+01  0.4888E+02
     -5.162  0.3025E+01  0.4920E+02
     -5.054  0.2768E+01  0.4950E+02
     -4.946  0.4591E+01  0.5000E+02
     -4.838  0.8288E+01  0.5089E+02
     -4.730  0.7172E+01  0.5167E+02
     -4.622  0.7996E+01  0.5253E+02
     -4.513  0.6960E+01  0.5329E+02
     -4.405  0.1966E+01  0.5350E+02
     -4.297  0.1758E-02  0.5350E+02
     -4.189  0.4236E+00  0.5355E+02
     -4.081  0.1109E+02  0.5475E+02
     -3.973  0.3257E+01  0.5510E+02
     -3.865  0.4347E+01  0.5557E+02
     -3.757  0.7787E+01  0.5641E+02
     -3.648  0.1037E+01  0.5652E+02
     -3.540  0.6365E+01  0.5721E+02
     -3.432  0.2680E+01  0.5750E+02
     -3.324  0.3025E+00  0.5753E+02
     -3.216  0.7881E+01  0.5838E+02
     -3.108  0.1110E+01  0.5850E+02
     -3.000  0.3434E+01  0.5888E+02
     -2.892  0.1254E+01  0.5901E+02
     -2.783  0.4054E+01  0.5945E+02
     -2.675  0.6666E+01  0.6017E+02
     -2.567  0.8307E+01  0.6107E+02
     -2.459  0.3941E+01  0.6149E+02
     -2.351  0.6677E-01  0.6150E+02
     -2.243  0.2946E+01  0.6182E+02
     -2.135  0.1701E+01  0.6200E+02
     -2.027  0.3455E+01  0.6238E+02
     -1.918  0.4972E+01  0.6292E+02
     -1.810  0.9481E+01  0.6394E+02
     -1.702  0.5499E+00  0.6400E+02
     -1.594  0.3827E-04  0.6400E+02
     -1.486  0.2555E+00  0.6403E+02
     -1.378  0.8917E+01  0.6499E+02
     -1.270  0.1172E+02  0.6626E+02
     -1.162  0.3946E+01  0.6669E+02
     -1.053  0.4587E+01  0.6718E+02
     -0.945  0.1142E+02  0.6842E+02
     -0.837  0.1159E+02  0.6967E+02
     -0.729  0.1288E+02  0.7106E+02
     -0.621  0.1680E+02  0.7288E+02
     -0.513  0.1239E+02  0.7422E+02
     -0.405  0.1230E+02  0.7555E+02
     -0.296  0.1254E+02  0.7690E+02
     -0.188  0.8202E+01  0.7779E+02
     -0.080  0.1096E+02  0.7898E+02
      0.028  0.1422E+02  0.8051E+02
      0.136  0.2349E+02  0.8305E+02
      0.244  0.5343E+01  0.8363E+02
      0.352  0.9142E+01  0.8462E+02
      0.460  0.1072E+02  0.8578E+02
      0.569  0.2735E+01  0.8607E+02
      0.677  0.6419E+01  0.8677E+02
      0.785  0.1454E+02  0.8834E+02
      0.893  0.1454E+02  0.8991E+02
      1.001  0.6716E+01  0.9064E+02
      1.109  0.1670E+02  0.9244E+02
      1.217  0.8962E+01  0.9341E+02
      1.325  0.8578E+01  0.9434E+02
      1.434  0.1081E+02  0.9551E+02
      1.542  0.9215E+01  0.9651E+02
      1.650  0.1240E+02  0.9785E+02
      1.758  0.1311E+02  0.9927E+02
      1.866  0.7578E+01  0.1001E+03
      1.974  0.8122E+01  0.1010E+03
      2.082  0.1886E+02  0.1030E+03
      2.190  0.1013E+02  0.1041E+03
      2.299  0.1126E+02  0.1053E+03
      2.407  0.1282E+02  0.1067E+03
      2.515  0.1195E+02  0.1080E+03
      2.623  0.6340E+01  0.1087E+03
      2.731  0.7760E+01  0.1095E+03
      2.839  0.8183E+01  0.1104E+03
      2.947  0.1411E+02  0.1119E+03
      3.055  0.1339E+02  0.1134E+03
      3.164  0.1527E+02  0.1150E+03
      3.272  0.1367E+02  0.1165E+03
      3.380  0.1948E+02  0.1186E+03
      3.488  0.1767E+02  0.1205E+03
      3.596  0.1683E+02  0.1223E+03
      3.704  0.2033E+02  0.1245E+03
      3.812  0.1817E+02  0.1265E+03
      3.920  0.7678E+01  0.1273E+03
      4.029  0.4147E+01  0.1278E+03
      4.137  0.1995E+01  0.1280E+03
      4.245  0.2864E-02  0.1280E+03
      4.353  0.7428E-09  0.1280E+03
      4.461  0.0000E+00  0.1280E+03
      4.569  0.0000E+00  0.1280E+03
      4.677  0.0000E+00  0.1280E+03
      4.786  0.0000E+00  0.1280E+03
      4.894  0.0000E+00  0.1280E+03
      5.002  0.0000E+00  0.1280E+03
      5.110  0.0000E+00  0.1280E+03
      5.218  0.0000E+00  0.1280E+03
      5.326  0.1232E-13  0.1280E+03
      5.434  0.4463E-05  0.1280E+03
      5.542  0.2051E+00  0.1280E+03
      5.651  0.4052E+01  0.1285E+03
      5.759  0.6403E+01  0.1292E+03
      5.867  0.1458E+02  0.1307E+03
      5.975  0.8944E+01  0.1317E+03
      6.083  0.1195E+02  0.1330E+03
      6.191  0.1665E+02  0.1348E+03
      6.299  0.1099E+02  0.1360E+03
      6.407  0.1556E+02  0.1377E+03
      6.516  0.1202E+02  0.1390E+03
      6.624  0.1441E+02  0.1405E+03
      6.732  0.6718E+01  0.1412E+03
      6.840  0.1715E+02  0.1431E+03
      6.948  0.1953E+02  0.1452E+03
      7.056  0.1700E+02  0.1470E+03
      7.164  0.1114E+02  0.1483E+03
      7.272  0.1295E+02  0.1497E+03
      7.381  0.1533E+02  0.1513E+03
      7.489  0.2412E+02  0.1539E+03
      7.597  0.1587E+02  0.1556E+03
      7.705  0.1241E+02  0.1570E+03
      7.813  0.1266E+02  0.1583E+03
      7.921  0.9239E+01  0.1593E+03
      8.029  0.1858E+02  0.1614E+03
      8.137  0.1707E+02  0.1632E+03
      8.246  0.1139E+02  0.1644E+03
      8.354  0.1320E+02  0.1659E+03
      8.462  0.7267E+01  0.1666E+03
      8.570  0.1449E+02  0.1682E+03
      8.678  0.1912E+02  0.1703E+03
      8.786  0.1921E+02  0.1724E+03
      8.894  0.1207E+02  0.1737E+03
      9.002  0.1279E+02  0.1750E+03
      9.111  0.1789E+02  0.1770E+03
      9.219  0.1625E+02  0.1787E+03
      9.327  0.1401E+02  0.1803E+03
      9.435  0.2354E+02  0.1828E+03
      9.543  0.1293E+02  0.1842E+03
      9.651  0.5170E+01  0.1848E+03
      9.759  0.1120E+02  0.1860E+03
      9.867  0.1299E+02  0.1874E+03
      9.976  0.1952E+02  0.1895E+03
     10.084  0.8884E+01  0.1904E+03
     10.192  0.1075E+02  0.1916E+03
     10.300  0.3651E+01  0.1920E+03
     10.408  0.1705E-01  0.1920E+03
     10.516  0.1624E-06  0.1920E+03
     10.624  0.2567E-15  0.1920E+03
     10.733  0.0000E+00  0.1920E+03
     10.841  0.0000E+00  0.1920E+03
     10.949  0.0000E+00  0.1920E+03
     11.057  0.0000E+00  0.1920E+03
     11.165  0.0000E+00  0.1920E+03
     11.273  0.0000E+00  0.1920E+03
     11.381  0.0000E+00  0.1920E+03
     11.489  0.0000E+00  0.1920E+03
     11.598  0.0000E+00  0.1920E+03
     11.706  0.0000E+00  0.1920E+03
