       N       E                     dE             d eps       ncg     rms          rms(c)
DAV:   1     0.889651091346E+03    0.88965E+03   -0.57909E+04  6144   0.136E+03
DAV:   2    -0.637238575765E+01   -0.89602E+03   -0.82501E+03  6832   0.292E+02
DAV:   3    -0.114194000565E+03   -0.10782E+03   -0.10445E+03  7832   0.112E+02
DAV:   4    -0.118984835021E+03   -0.47908E+01   -0.47209E+01  7696   0.235E+01
DAV:   5    -0.119199734164E+03   -0.21490E+00   -0.21441E+00  9008   0.488E+00    0.228E+01
DAV:   6    -0.117972733284E+03    0.12270E+01   -0.11202E+00  7504   0.305E+00    0.137E+01
DAV:   7    -0.117700716225E+03    0.27202E+00   -0.17884E+00  7848   0.308E+00    0.149E+00
DAV:   8    -0.117677209133E+03    0.23507E-01   -0.13815E-01  7312   0.118E+00    0.113E+00
DAV:   9    -0.117678846808E+03   -0.16377E-02   -0.33549E-02  7488   0.435E-01    0.363E-01
DAV:  10    -0.117679261278E+03   -0.41447E-03   -0.24679E-03  7680   0.131E-01    0.151E-01
DAV:  11    -0.117679646897E+03   -0.38562E-03   -0.47571E-04  7552   0.616E-02    0.496E-02
DAV:  12    -0.117679715410E+03   -0.68513E-04   -0.56039E-05  6936   0.253E-02    0.235E-02
DAV:  13    -0.117679730332E+03   -0.14922E-04   -0.25897E-05  7736   0.146E-02    0.543E-03
DAV:  14    -0.117679729698E+03    0.63419E-06   -0.19655E-06  5672   0.453E-03
   1 F= -.11767973E+03 E0= -.11767973E+03  d E =-.153611E-11
