Na4 P20
1.0
   6.5286510900000003    0.0000000000000000    0.0000000000000000
  -0.0000000000000000    7.0071130699999999    0.0000000000000000
   0.0000000000000000    0.0000000000000000   10.9934508500000003
Na P
4 20
direct
   0.2500000000000000    0.0929724800000000    0.4258146800000000 Na
   0.7500000000000000    0.9070275200000000    0.5741853200000000 Na
   0.7500000000000000    0.5929724800000000    0.0741853200000000 Na
   0.2500000000000000    0.4070275200000000    0.9258146800000000 Na
   0.0127276900000000    0.0922474800000000    0.0823004200000000 P
   0.5127276900000000    0.9077525200000000    0.9176995800000000 P
   0.9872723100000000    0.5922474800000000    0.4176995800000000 P
   0.4872723100000000    0.4077525200000000    0.5823004200000000 P
   0.9872723100000000    0.9077525200000000    0.9176995800000000 P
   0.4872723100000000    0.0922474800000000    0.0823004200000000 P
   0.0127276900000000    0.4077525200000000    0.5823004200000000 P
   0.5127276900000000    0.5922474800000000    0.4176995800000000 P
   0.2500000000000000    0.6331043200000001    0.1408544000000000 P
   0.7500000000000000    0.3668956800000000    0.8591456000000000 P
   0.7500000000000000    0.1331043200000000    0.3591456000000000 P
   0.2500000000000000    0.8668956799999999    0.6408544000000000 P
   0.2500000000000000    0.4797043600000000    0.3107507500000000 P
   0.7500000000000000    0.5202956399999999    0.6892492500000000 P
   0.7500000000000000    0.9797043600000001    0.1892492500000000 P
   0.2500000000000000    0.0202956400000000    0.8107507500000000 P
   0.2500000000000000    0.5650914000000000    0.6857785800000000 P
   0.7500000000000000    0.4349086000000000    0.3142214200000000 P
   0.7500000000000000    0.0650914000000000    0.8142214200000000 P
   0.2500000000000000    0.9349086000000000    0.1857785800000000 P
