Ta2 Sb4                                 
   1.00000000000000     
     3.5850978200000001    0.0023107100000000    0.9058014500000000
     1.6381488600000000    5.0984748099999999    1.0767150800000000
     0.0145663100000000   -0.0143802600000000    7.4860003300000004
   Ta   Sb
     2     4
Direct
     0.8488552600000006    0.6126807400000018    0.6889916700000001
     0.1511415000000014    0.3873141400000009    0.3110116300000030
     0.1477051099999969    0.7381160300000005    0.9647016899999983
     0.8522781699999982    0.2618879099999987    0.0353067400000029
     0.4051817400000033    0.8004614999999973    0.3896902400000002
     0.5948392100000035    0.1995386899999971    0.6102990400000010
 
  0.00000000E+00  0.00000000E+00  0.00000000E+00
  0.00000000E+00  0.00000000E+00  0.00000000E+00
  0.00000000E+00  0.00000000E+00  0.00000000E+00
  0.00000000E+00  0.00000000E+00  0.00000000E+00
  0.00000000E+00  0.00000000E+00  0.00000000E+00
  0.00000000E+00  0.00000000E+00  0.00000000E+00
