       N       E                     dE             d eps       ncg     rms          rms(c)
DAV:   1     0.324005129712E+03    0.32401E+03   -0.19734E+04 11568   0.115E+03
DAV:   2    -0.250024348608E+02   -0.34901E+03   -0.33666E+03 13736   0.284E+02
DAV:   3    -0.419551306490E+02   -0.16953E+02   -0.16544E+02 14256   0.591E+01
DAV:   4    -0.422485008498E+02   -0.29337E+00   -0.29195E+00 13612   0.821E+00
DAV:   5    -0.422525753316E+02   -0.40745E-02   -0.40741E-02 13500   0.112E+00    0.172E+01
DAV:   6    -0.412342231473E+02    0.10184E+01   -0.24501E+00 13236   0.805E+00    0.745E+00
DAV:   7    -0.410633894524E+02    0.17083E+00   -0.55664E-01 13124   0.324E+00    0.367E+00
DAV:   8    -0.410275757141E+02    0.35814E-01   -0.12416E-01 13576   0.180E+00    0.574E-01
DAV:   9    -0.410271901122E+02    0.38560E-03   -0.94501E-03 13216   0.429E-01    0.271E-01
DAV:  10    -0.410271550985E+02    0.35014E-04   -0.15961E-03 13484   0.196E-01    0.743E-02
DAV:  11    -0.410271672942E+02   -0.12196E-04   -0.20989E-04 13164   0.646E-02    0.331E-02
DAV:  12    -0.410271755550E+02   -0.82608E-05   -0.30846E-05 13572   0.388E-02    0.116E-02
DAV:  13    -0.410271752474E+02    0.30764E-06   -0.85701E-06 13724   0.226E-02
   1 F= -.41027175E+02 E0= -.41026739E+02  d E =-.872866E-03
