Ta2 Sb4
1.0
   3.5850978200000001    0.0023107100000000    0.9058014500000000
   1.6381488600000000    5.0984748099999999    1.0767150800000000
   0.0145663100000000   -0.0143802600000000    7.4860003300000004
Ta Sb
2 4
direct
   0.8488552600000000    0.6126807399999999    0.6889916699999999 Ta
   0.1511415000000000    0.3873141400000000    0.3110116300000000 Ta
   0.1477051100000000    0.7381160300000000    0.9647016899999999 Sb
   0.8522781699999999    0.2618879100000000    0.0353067400000000 Sb
   0.4051817400000000    0.8004615000000000    0.3896902400000000 Sb
   0.5948392100000000    0.1995386900000000    0.6102990400000000 Sb
