   3   3   0   0
  0.1521983E+02  0.2928552E-09  0.2928551E-09  0.5712399E-09  0.5000000E-15
  1.000000000000000E-004
  CAR 
 unknown system                          
     22.41387808    -68.30339994  301      6.40042482      1.00000000
    -68.303  0.0000E+00  0.0000E+00
    -68.001  0.0000E+00  0.0000E+00
    -67.699  0.0000E+00  0.0000E+00
    -67.396  0.0000E+00  0.0000E+00
    -67.094  0.0000E+00  0.0000E+00
    -66.791  0.0000E+00  0.0000E+00
    -66.489  0.0000E+00  0.0000E+00
    -66.187  0.0000E+00  0.0000E+00
    -65.884  0.0000E+00  0.0000E+00
    -65.582  0.0000E+00  0.0000E+00
    -65.279  0.0000E+00  0.0000E+00
    -64.977  0.0000E+00  0.0000E+00
    -64.675  0.0000E+00  0.0000E+00
    -64.372  0.1693E-06  0.5120E-07
    -64.070  0.1884E+02  0.5697E+01
    -63.768  0.9801E+00  0.6000E+01
    -63.465  0.0000E+00  0.6000E+01
    -63.163  0.0000E+00  0.6000E+01
    -62.860  0.0000E+00  0.6000E+01
    -62.558  0.0000E+00  0.6000E+01
    -62.256  0.0000E+00  0.6000E+01
    -61.953  0.0000E+00  0.6000E+01
    -61.651  0.0000E+00  0.6000E+01
    -61.348  0.0000E+00  0.6000E+01
    -61.046  0.0000E+00  0.6000E+01
    -60.744  0.0000E+00  0.6000E+01
    -60.441  0.0000E+00  0.6000E+01
    -60.139  0.0000E+00  0.6000E+01
    -59.836  0.0000E+00  0.6000E+01
    -59.534  0.0000E+00  0.6000E+01
    -59.232  0.0000E+00  0.6000E+01
    -58.929  0.0000E+00  0.6000E+01
    -58.627  0.0000E+00  0.6000E+01
    -58.324  0.0000E+00  0.6000E+01
    -58.022  0.0000E+00  0.6000E+01
    -57.720  0.0000E+00  0.6000E+01
    -57.417  0.0000E+00  0.6000E+01
    -57.115  0.0000E+00  0.6000E+01
    -56.813  0.0000E+00  0.6000E+01
    -56.510  0.0000E+00  0.6000E+01
    -56.208  0.0000E+00  0.6000E+01
    -55.905  0.0000E+00  0.6000E+01
    -55.603  0.0000E+00  0.6000E+01
    -55.301  0.0000E+00  0.6000E+01
    -54.998  0.0000E+00  0.6000E+01
    -54.696  0.0000E+00  0.6000E+01
    -54.393  0.0000E+00  0.6000E+01
    -54.091  0.0000E+00  0.6000E+01
    -53.789  0.0000E+00  0.6000E+01
    -53.486  0.0000E+00  0.6000E+01
    -53.184  0.0000E+00  0.6000E+01
    -52.881  0.0000E+00  0.6000E+01
    -52.579  0.0000E+00  0.6000E+01
    -52.277  0.0000E+00  0.6000E+01
    -51.974  0.0000E+00  0.6000E+01
    -51.672  0.0000E+00  0.6000E+01
    -51.370  0.0000E+00  0.6000E+01
    -51.067  0.0000E+00  0.6000E+01
    -50.765  0.0000E+00  0.6000E+01
    -50.462  0.0000E+00  0.6000E+01
    -50.160  0.0000E+00  0.6000E+01
    -49.858  0.0000E+00  0.6000E+01
    -49.555  0.0000E+00  0.6000E+01
    -49.253  0.0000E+00  0.6000E+01
    -48.950  0.0000E+00  0.6000E+01
    -48.648  0.0000E+00  0.6000E+01
    -48.346  0.0000E+00  0.6000E+01
    -48.043  0.0000E+00  0.6000E+01
    -47.741  0.0000E+00  0.6000E+01
    -47.438  0.0000E+00  0.6000E+01
    -47.136  0.0000E+00  0.6000E+01
    -46.834  0.0000E+00  0.6000E+01
    -46.531  0.0000E+00  0.6000E+01
    -46.229  0.0000E+00  0.6000E+01
    -45.926  0.0000E+00  0.6000E+01
    -45.624  0.0000E+00  0.6000E+01
    -45.322  0.0000E+00  0.6000E+01
    -45.019  0.0000E+00  0.6000E+01
    -44.717  0.0000E+00  0.6000E+01
    -44.415  0.0000E+00  0.6000E+01
    -44.112  0.0000E+00  0.6000E+01
    -43.810  0.0000E+00  0.6000E+01
    -43.507  0.0000E+00  0.6000E+01
    -43.205  0.0000E+00  0.6000E+01
    -42.903  0.0000E+00  0.6000E+01
    -42.600  0.0000E+00  0.6000E+01
    -42.298  0.0000E+00  0.6000E+01
    -41.995  0.0000E+00  0.6000E+01
    -41.693  0.0000E+00  0.6000E+01
    -41.391  0.0000E+00  0.6000E+01
    -41.088  0.0000E+00  0.6000E+01
    -40.786  0.0000E+00  0.6000E+01
    -40.483  0.0000E+00  0.6000E+01
    -40.181  0.0000E+00  0.6000E+01
    -39.879  0.0000E+00  0.6000E+01
    -39.576  0.0000E+00  0.6000E+01
    -39.274  0.0000E+00  0.6000E+01
    -38.971  0.0000E+00  0.6000E+01
    -38.669  0.0000E+00  0.6000E+01
    -38.367  0.0000E+00  0.6000E+01
    -38.064  0.0000E+00  0.6000E+01
    -37.762  0.0000E+00  0.6000E+01
    -37.460  0.0000E+00  0.6000E+01
    -37.157  0.0000E+00  0.6000E+01
    -36.855  0.0000E+00  0.6000E+01
    -36.552  0.0000E+00  0.6000E+01
    -36.250  0.0000E+00  0.6000E+01
    -35.948  0.0000E+00  0.6000E+01
    -35.645  0.0000E+00  0.6000E+01
    -35.343  0.0000E+00  0.6000E+01
    -35.040  0.0000E+00  0.6000E+01
    -34.738  0.0000E+00  0.6000E+01
    -34.436  0.0000E+00  0.6000E+01
    -34.133  0.0000E+00  0.6000E+01
    -33.831  0.0000E+00  0.6000E+01
    -33.528  0.0000E+00  0.6000E+01
    -33.226  0.0000E+00  0.6000E+01
    -32.924  0.0000E+00  0.6000E+01
    -32.621  0.0000E+00  0.6000E+01
    -32.319  0.0000E+00  0.6000E+01
    -32.016  0.0000E+00  0.6000E+01
    -31.714  0.0000E+00  0.6000E+01
    -31.412  0.0000E+00  0.6000E+01
    -31.109  0.0000E+00  0.6000E+01
    -30.807  0.0000E+00  0.6000E+01
    -30.505  0.0000E+00  0.6000E+01
    -30.202  0.0000E+00  0.6000E+01
    -29.900  0.0000E+00  0.6000E+01
    -29.597  0.0000E+00  0.6000E+01
    -29.295  0.0000E+00  0.6000E+01
    -28.993  0.0000E+00  0.6000E+01
    -28.690  0.0000E+00  0.6000E+01
    -28.388  0.0000E+00  0.6000E+01
    -28.085  0.0000E+00  0.6000E+01
    -27.783  0.0000E+00  0.6000E+01
    -27.481  0.0000E+00  0.6000E+01
    -27.178  0.5406E-05  0.6000E+01
    -26.876  0.1104E+02  0.9337E+01
    -26.573  0.1942E+02  0.1521E+02
    -26.271  0.9226E+01  0.1800E+02
    -25.969  0.0000E+00  0.1800E+02
    -25.666  0.0000E+00  0.1800E+02
    -25.364  0.0000E+00  0.1800E+02
    -25.061  0.0000E+00  0.1800E+02
    -24.759  0.0000E+00  0.1800E+02
    -24.457  0.0000E+00  0.1800E+02
    -24.154  0.0000E+00  0.1800E+02
    -23.852  0.0000E+00  0.1800E+02
    -23.550  0.0000E+00  0.1800E+02
    -23.247  0.0000E+00  0.1800E+02
    -22.945  0.0000E+00  0.1800E+02
    -22.642  0.0000E+00  0.1800E+02
    -22.340  0.0000E+00  0.1800E+02
    -22.038  0.0000E+00  0.1800E+02
    -21.735  0.0000E+00  0.1800E+02
    -21.433  0.0000E+00  0.1800E+02
    -21.130  0.0000E+00  0.1800E+02
    -20.828  0.0000E+00  0.1800E+02
    -20.526  0.0000E+00  0.1800E+02
    -20.223  0.0000E+00  0.1800E+02
    -19.921  0.0000E+00  0.1800E+02
    -19.618  0.0000E+00  0.1800E+02
    -19.316  0.0000E+00  0.1800E+02
    -19.014  0.0000E+00  0.1800E+02
    -18.711  0.0000E+00  0.1800E+02
    -18.409  0.0000E+00  0.1800E+02
    -18.107  0.0000E+00  0.1800E+02
    -17.804  0.0000E+00  0.1800E+02
    -17.502  0.0000E+00  0.1800E+02
    -17.199  0.0000E+00  0.1800E+02
    -16.897  0.0000E+00  0.1800E+02
    -16.595  0.0000E+00  0.1800E+02
    -16.292  0.0000E+00  0.1800E+02
    -15.990  0.0000E+00  0.1800E+02
    -15.687  0.0000E+00  0.1800E+02
    -15.385  0.0000E+00  0.1800E+02
    -15.083  0.0000E+00  0.1800E+02
    -14.780  0.0000E+00  0.1800E+02
    -14.478  0.0000E+00  0.1800E+02
    -14.175  0.0000E+00  0.1800E+02
    -13.873  0.0000E+00  0.1800E+02
    -13.571  0.0000E+00  0.1800E+02
    -13.268  0.0000E+00  0.1800E+02
    -12.966  0.0000E+00  0.1800E+02
    -12.663  0.0000E+00  0.1800E+02
    -12.361  0.0000E+00  0.1800E+02
    -12.059  0.0000E+00  0.1800E+02
    -11.756  0.0000E+00  0.1800E+02
    -11.454  0.0000E+00  0.1800E+02
    -11.152  0.0000E+00  0.1800E+02
    -10.849  0.0000E+00  0.1800E+02
    -10.547  0.0000E+00  0.1800E+02
    -10.244  0.0000E+00  0.1800E+02
     -9.942  0.0000E+00  0.1800E+02
     -9.640  0.0000E+00  0.1800E+02
     -9.337  0.0000E+00  0.1800E+02
     -9.035  0.0000E+00  0.1800E+02
     -8.732  0.0000E+00  0.1800E+02
     -8.430  0.0000E+00  0.1800E+02
     -8.128  0.0000E+00  0.1800E+02
     -7.825  0.0000E+00  0.1800E+02
     -7.523  0.0000E+00  0.1800E+02
     -7.220  0.0000E+00  0.1800E+02
     -6.918  0.0000E+00  0.1800E+02
     -6.616  0.0000E+00  0.1800E+02
     -6.313  0.0000E+00  0.1800E+02
     -6.011  0.0000E+00  0.1800E+02
     -5.708  0.0000E+00  0.1800E+02
     -5.406  0.0000E+00  0.1800E+02
     -5.104  0.0000E+00  0.1800E+02
     -4.801  0.0000E+00  0.1800E+02
     -4.499  0.0000E+00  0.1800E+02
     -4.197  0.0000E+00  0.1800E+02
     -3.894  0.0000E+00  0.1800E+02
     -3.592  0.0000E+00  0.1800E+02
     -3.289  0.0000E+00  0.1800E+02
     -2.987  0.0000E+00  0.1800E+02
     -2.685  0.0000E+00  0.1800E+02
     -2.382  0.0000E+00  0.1800E+02
     -2.080  0.0000E+00  0.1800E+02
     -1.777  0.0000E+00  0.1800E+02
     -1.475  0.0000E+00  0.1800E+02
     -1.173  0.1391E-07  0.1800E+02
     -0.870  0.1427E-01  0.1800E+02
     -0.568  0.1776E+00  0.1806E+02
     -0.265  0.1626E+00  0.1811E+02
      0.037  0.4152E+00  0.1823E+02
      0.339  0.3550E+00  0.1834E+02
      0.642  0.3941E+00  0.1846E+02
      0.944  0.4489E+00  0.1860E+02
      1.247  0.5290E+00  0.1875E+02
      1.549  0.4208E+00  0.1888E+02
      1.851  0.1214E+01  0.1925E+02
      2.154  0.1220E+01  0.1962E+02
      2.456  0.4558E+01  0.2100E+02
      2.758  0.9611E+01  0.2390E+02
      3.061  0.8244E+01  0.2640E+02
      3.363  0.8431E+01  0.2895E+02
      3.666  0.2567E+01  0.2972E+02
      3.968  0.1413E+01  0.3015E+02
      4.270  0.1349E+01  0.3056E+02
      4.573  0.2648E+01  0.3136E+02
      4.875  0.2084E+01  0.3199E+02
      5.178  0.2757E+01  0.3282E+02
      5.480  0.5104E+01  0.3437E+02
      5.782  0.5308E+01  0.3597E+02
      6.085  0.2057E+01  0.3659E+02
      6.387  0.1302E+01  0.3699E+02
      6.690  0.2906E+01  0.3787E+02
      6.992  0.4992E+01  0.3938E+02
      7.294  0.3150E+01  0.4033E+02
      7.597  0.7277E+01  0.4253E+02
      7.899  0.3979E+01  0.4373E+02
      8.202  0.3375E+01  0.4475E+02
      8.504  0.2215E+01  0.4542E+02
      8.806  0.2211E+01  0.4609E+02
      9.109  0.4859E+01  0.4756E+02
      9.411  0.4841E+01  0.4903E+02
      9.713  0.4235E+01  0.5031E+02
     10.016  0.1374E+01  0.5072E+02
     10.318  0.1642E+01  0.5122E+02
     10.621  0.1569E+01  0.5169E+02
     10.923  0.1575E+01  0.5217E+02
     11.225  0.1350E+01  0.5258E+02
     11.528  0.6611E+00  0.5278E+02
     11.830  0.1248E+01  0.5315E+02
     12.133  0.7579E+00  0.5338E+02
     12.435  0.7250E+00  0.5360E+02
     12.737  0.7137E+00  0.5382E+02
     13.040  0.4361E+00  0.5395E+02
     13.342  0.7440E+00  0.5418E+02
     13.645  0.1522E+01  0.5464E+02
     13.947  0.1191E+01  0.5500E+02
     14.249  0.1092E+01  0.5533E+02
     14.552  0.6188E+00  0.5551E+02
     14.854  0.3700E+00  0.5563E+02
     15.156  0.3040E+00  0.5572E+02
     15.459  0.4854E+00  0.5586E+02
     15.761  0.1116E+00  0.5590E+02
     16.064  0.3712E-01  0.5591E+02
     16.366  0.1030E+00  0.5594E+02
     16.668  0.1228E+00  0.5598E+02
     16.971  0.3565E-01  0.5599E+02
     17.273  0.7444E-03  0.5599E+02
     17.576  0.2571E-01  0.5600E+02
     17.878  0.0000E+00  0.5600E+02
     18.180  0.1237E-04  0.5600E+02
     18.483  0.1322E-01  0.5600E+02
     18.785  0.0000E+00  0.5600E+02
     19.088  0.0000E+00  0.5600E+02
     19.390  0.0000E+00  0.5600E+02
     19.692  0.0000E+00  0.5600E+02
     19.995  0.0000E+00  0.5600E+02
     20.297  0.0000E+00  0.5600E+02
     20.600  0.0000E+00  0.5600E+02
     20.902  0.0000E+00  0.5600E+02
     21.204  0.0000E+00  0.5600E+02
     21.507  0.0000E+00  0.5600E+02
     21.809  0.0000E+00  0.5600E+02
     22.111  0.0000E+00  0.5600E+02
     22.414  0.0000E+00  0.5600E+02
