       N       E                     dE             d eps       ncg     rms          rms(c)
DAV:   1     0.388049263852E+03    0.38805E+03   -0.22947E+04 32472   0.176E+03
DAV:   2    -0.510655766590E+01   -0.39316E+03   -0.38357E+03 28048   0.501E+02
DAV:   3    -0.233271885114E+02   -0.18221E+02   -0.17396E+02 30288   0.123E+02
DAV:   4    -0.237611013395E+02   -0.43391E+00   -0.43240E+00 32196   0.191E+01
DAV:   5    -0.237712981146E+02   -0.10197E-01   -0.10196E-01 32384   0.267E+00    0.230E+01
DAV:   6    -0.237687431308E+02    0.25550E-02   -0.62406E+01 30268   0.103E+02    0.296E+01
DAV:   7    -0.199751322536E+02    0.37936E+01   -0.13484E+01 30432   0.426E+01    0.503E+00
DAV:   8    -0.198103761236E+02    0.16476E+00   -0.23781E+00 34756   0.186E+01    0.359E+00
DAV:   9    -0.197285333319E+02    0.81843E-01   -0.54837E-01 30372   0.107E+01    0.824E-01
DAV:  10    -0.197219494860E+02    0.65838E-02   -0.33543E-02 29480   0.195E+00    0.551E-01
DAV:  11    -0.197201409048E+02    0.18086E-02   -0.41373E-03 30048   0.811E-01    0.134E-01
DAV:  12    -0.197201269274E+02    0.13977E-04   -0.75193E-04 31880   0.270E-01    0.795E-02
DAV:  13    -0.197200893053E+02    0.37622E-04   -0.21451E-04 33184   0.144E-01    0.509E-02
DAV:  14    -0.197200663086E+02    0.22997E-04   -0.47650E-05 34024   0.922E-02    0.245E-02
DAV:  15    -0.197200632537E+02    0.30549E-05   -0.10444E-05 32212   0.325E-02    0.728E-03
DAV:  16    -0.197200627332E+02    0.52056E-06   -0.12824E-06 16884   0.140E-02
   1 F= -.19720063E+02 E0= -.19719453E+02  d E =-.121946E-02
