Zr6 Fe2                                 
   1.00000000000000     
     3.2627219200000002    0.0000000000000000    0.0000000000000000
    -1.6313609600000001    5.4633729799999999    0.0001984100000000
     0.0000000000000000    0.0003089400000000    8.9567982100000005
   Zr   Fe
     6     2
Direct
     0.4193145099999995    0.8386260099999987    0.7498247400000011
     0.5807363300000006    0.1614736599999986    0.2501759100000029
     0.1383977400000020    0.2767954700000033    0.9379155199999971
     0.8615803599999978    0.7231597099999973    0.0619348999999971
     0.8615756299999973    0.7231522699999999    0.4382141500000003
     0.1383980399999984    0.2767950900000002    0.5619385899999969
     0.7327351400000026    0.4654702699999973    0.7498187099999996
     0.2672632499999992    0.5345255100000017    0.2501804799999974
 
  0.00000000E+00  0.00000000E+00  0.00000000E+00
  0.00000000E+00  0.00000000E+00  0.00000000E+00
  0.00000000E+00  0.00000000E+00  0.00000000E+00
  0.00000000E+00  0.00000000E+00  0.00000000E+00
  0.00000000E+00  0.00000000E+00  0.00000000E+00
  0.00000000E+00  0.00000000E+00  0.00000000E+00
  0.00000000E+00  0.00000000E+00  0.00000000E+00
  0.00000000E+00  0.00000000E+00  0.00000000E+00
