   8   8   0   0
  0.1995739E+02  0.3262722E-09  0.5701735E-09  0.8956798E-09  0.5000000E-15
  1.000000000000000E-004
  CAR 
 unknown system                          
     22.22973399    -46.72702211  301      9.08793120      1.00000000
    -46.727  0.0000E+00  0.0000E+00
    -46.497  0.0000E+00  0.0000E+00
    -46.267  0.0000E+00  0.0000E+00
    -46.037  0.0000E+00  0.0000E+00
    -45.808  0.0000E+00  0.0000E+00
    -45.578  0.0000E+00  0.0000E+00
    -45.348  0.0000E+00  0.0000E+00
    -45.118  0.0000E+00  0.0000E+00
    -44.888  0.0000E+00  0.0000E+00
    -44.658  0.0000E+00  0.0000E+00
    -44.428  0.0000E+00  0.0000E+00
    -44.199  0.0000E+00  0.0000E+00
    -43.969  0.0000E+00  0.0000E+00
    -43.739  0.1299E-03  0.2985E-04
    -43.509  0.3371E+02  0.7748E+01
    -43.279  0.1850E+02  0.1200E+02
    -43.049  0.0000E+00  0.1200E+02
    -42.819  0.0000E+00  0.1200E+02
    -42.590  0.0000E+00  0.1200E+02
    -42.360  0.0000E+00  0.1200E+02
    -42.130  0.0000E+00  0.1200E+02
    -41.900  0.0000E+00  0.1200E+02
    -41.670  0.0000E+00  0.1200E+02
    -41.440  0.0000E+00  0.1200E+02
    -41.210  0.0000E+00  0.1200E+02
    -40.981  0.0000E+00  0.1200E+02
    -40.751  0.0000E+00  0.1200E+02
    -40.521  0.0000E+00  0.1200E+02
    -40.291  0.0000E+00  0.1200E+02
    -40.061  0.0000E+00  0.1200E+02
    -39.831  0.0000E+00  0.1200E+02
    -39.601  0.4411E-02  0.1200E+02
    -39.372  0.2023E+02  0.1665E+02
    -39.142  0.3197E+02  0.2400E+02
    -38.912  0.4698E-03  0.2400E+02
    -38.682  0.0000E+00  0.2400E+02
    -38.452  0.0000E+00  0.2400E+02
    -38.222  0.0000E+00  0.2400E+02
    -37.992  0.0000E+00  0.2400E+02
    -37.763  0.0000E+00  0.2400E+02
    -37.533  0.0000E+00  0.2400E+02
    -37.303  0.0000E+00  0.2400E+02
    -37.073  0.0000E+00  0.2400E+02
    -36.843  0.0000E+00  0.2400E+02
    -36.613  0.0000E+00  0.2400E+02
    -36.384  0.0000E+00  0.2400E+02
    -36.154  0.0000E+00  0.2400E+02
    -35.924  0.0000E+00  0.2400E+02
    -35.694  0.0000E+00  0.2400E+02
    -35.464  0.0000E+00  0.2400E+02
    -35.234  0.0000E+00  0.2400E+02
    -35.004  0.0000E+00  0.2400E+02
    -34.775  0.0000E+00  0.2400E+02
    -34.545  0.0000E+00  0.2400E+02
    -34.315  0.0000E+00  0.2400E+02
    -34.085  0.0000E+00  0.2400E+02
    -33.855  0.0000E+00  0.2400E+02
    -33.625  0.0000E+00  0.2400E+02
    -33.395  0.0000E+00  0.2400E+02
    -33.166  0.0000E+00  0.2400E+02
    -32.936  0.0000E+00  0.2400E+02
    -32.706  0.0000E+00  0.2400E+02
    -32.476  0.0000E+00  0.2400E+02
    -32.246  0.0000E+00  0.2400E+02
    -32.016  0.0000E+00  0.2400E+02
    -31.786  0.0000E+00  0.2400E+02
    -31.557  0.0000E+00  0.2400E+02
    -31.327  0.0000E+00  0.2400E+02
    -31.097  0.0000E+00  0.2400E+02
    -30.867  0.0000E+00  0.2400E+02
    -30.637  0.0000E+00  0.2400E+02
    -30.407  0.0000E+00  0.2400E+02
    -30.177  0.0000E+00  0.2400E+02
    -29.948  0.0000E+00  0.2400E+02
    -29.718  0.0000E+00  0.2400E+02
    -29.488  0.0000E+00  0.2400E+02
    -29.258  0.0000E+00  0.2400E+02
    -29.028  0.0000E+00  0.2400E+02
    -28.798  0.0000E+00  0.2400E+02
    -28.568  0.0000E+00  0.2400E+02
    -28.339  0.0000E+00  0.2400E+02
    -28.109  0.0000E+00  0.2400E+02
    -27.879  0.0000E+00  0.2400E+02
    -27.649  0.0000E+00  0.2400E+02
    -27.419  0.0000E+00  0.2400E+02
    -27.189  0.0000E+00  0.2400E+02
    -26.959  0.0000E+00  0.2400E+02
    -26.730  0.0000E+00  0.2400E+02
    -26.500  0.0000E+00  0.2400E+02
    -26.270  0.0000E+00  0.2400E+02
    -26.040  0.0000E+00  0.2400E+02
    -25.810  0.0000E+00  0.2400E+02
    -25.580  0.0000E+00  0.2400E+02
    -25.350  0.0000E+00  0.2400E+02
    -25.121  0.0000E+00  0.2400E+02
    -24.891  0.0000E+00  0.2400E+02
    -24.661  0.0000E+00  0.2400E+02
    -24.431  0.0000E+00  0.2400E+02
    -24.201  0.0000E+00  0.2400E+02
    -23.971  0.0000E+00  0.2400E+02
    -23.741  0.0000E+00  0.2400E+02
    -23.512  0.0000E+00  0.2400E+02
    -23.282  0.0000E+00  0.2400E+02
    -23.052  0.0000E+00  0.2400E+02
    -22.822  0.0000E+00  0.2400E+02
    -22.592  0.0000E+00  0.2400E+02
    -22.362  0.0000E+00  0.2400E+02
    -22.132  0.0000E+00  0.2400E+02
    -21.903  0.0000E+00  0.2400E+02
    -21.673  0.0000E+00  0.2400E+02
    -21.443  0.0000E+00  0.2400E+02
    -21.213  0.0000E+00  0.2400E+02
    -20.983  0.0000E+00  0.2400E+02
    -20.753  0.0000E+00  0.2400E+02
    -20.523  0.0000E+00  0.2400E+02
    -20.294  0.0000E+00  0.2400E+02
    -20.064  0.0000E+00  0.2400E+02
    -19.834  0.0000E+00  0.2400E+02
    -19.604  0.0000E+00  0.2400E+02
    -19.374  0.0000E+00  0.2400E+02
    -19.144  0.0000E+00  0.2400E+02
    -18.914  0.0000E+00  0.2400E+02
    -18.685  0.0000E+00  0.2400E+02
    -18.455  0.0000E+00  0.2400E+02
    -18.225  0.0000E+00  0.2400E+02
    -17.995  0.6936E-05  0.2400E+02
    -17.765  0.1344E+02  0.2709E+02
    -17.535  0.3960E+02  0.3619E+02
    -17.305  0.5169E+02  0.4807E+02
    -17.076  0.5031E+02  0.5964E+02
    -16.846  0.1582E+01  0.6000E+02
    -16.616  0.0000E+00  0.6000E+02
    -16.386  0.0000E+00  0.6000E+02
    -16.156  0.0000E+00  0.6000E+02
    -15.926  0.0000E+00  0.6000E+02
    -15.696  0.0000E+00  0.6000E+02
    -15.467  0.0000E+00  0.6000E+02
    -15.237  0.0000E+00  0.6000E+02
    -15.007  0.0000E+00  0.6000E+02
    -14.777  0.0000E+00  0.6000E+02
    -14.547  0.0000E+00  0.6000E+02
    -14.317  0.0000E+00  0.6000E+02
    -14.087  0.0000E+00  0.6000E+02
    -13.858  0.0000E+00  0.6000E+02
    -13.628  0.0000E+00  0.6000E+02
    -13.398  0.0000E+00  0.6000E+02
    -13.168  0.0000E+00  0.6000E+02
    -12.938  0.0000E+00  0.6000E+02
    -12.708  0.0000E+00  0.6000E+02
    -12.478  0.0000E+00  0.6000E+02
    -12.249  0.0000E+00  0.6000E+02
    -12.019  0.0000E+00  0.6000E+02
    -11.789  0.0000E+00  0.6000E+02
    -11.559  0.0000E+00  0.6000E+02
    -11.329  0.0000E+00  0.6000E+02
    -11.099  0.0000E+00  0.6000E+02
    -10.870  0.0000E+00  0.6000E+02
    -10.640  0.0000E+00  0.6000E+02
    -10.410  0.0000E+00  0.6000E+02
    -10.180  0.0000E+00  0.6000E+02
     -9.950  0.0000E+00  0.6000E+02
     -9.720  0.0000E+00  0.6000E+02
     -9.490  0.0000E+00  0.6000E+02
     -9.261  0.0000E+00  0.6000E+02
     -9.031  0.0000E+00  0.6000E+02
     -8.801  0.0000E+00  0.6000E+02
     -8.571  0.0000E+00  0.6000E+02
     -8.341  0.0000E+00  0.6000E+02
     -8.111  0.0000E+00  0.6000E+02
     -7.881  0.0000E+00  0.6000E+02
     -7.652  0.0000E+00  0.6000E+02
     -7.422  0.0000E+00  0.6000E+02
     -7.192  0.0000E+00  0.6000E+02
     -6.962  0.0000E+00  0.6000E+02
     -6.732  0.0000E+00  0.6000E+02
     -6.502  0.0000E+00  0.6000E+02
     -6.272  0.0000E+00  0.6000E+02
     -6.043  0.0000E+00  0.6000E+02
     -5.813  0.0000E+00  0.6000E+02
     -5.583  0.0000E+00  0.6000E+02
     -5.353  0.0000E+00  0.6000E+02
     -5.123  0.0000E+00  0.6000E+02
     -4.893  0.0000E+00  0.6000E+02
     -4.663  0.0000E+00  0.6000E+02
     -4.434  0.0000E+00  0.6000E+02
     -4.204  0.0000E+00  0.6000E+02
     -3.974  0.0000E+00  0.6000E+02
     -3.744  0.0000E+00  0.6000E+02
     -3.514  0.0000E+00  0.6000E+02
     -3.284  0.0000E+00  0.6000E+02
     -3.054  0.0000E+00  0.6000E+02
     -2.825  0.0000E+00  0.6000E+02
     -2.595  0.0000E+00  0.6000E+02
     -2.365  0.0000E+00  0.6000E+02
     -2.135  0.0000E+00  0.6000E+02
     -1.905  0.0000E+00  0.6000E+02
     -1.675  0.0000E+00  0.6000E+02
     -1.445  0.0000E+00  0.6000E+02
     -1.216  0.0000E+00  0.6000E+02
     -0.986  0.0000E+00  0.6000E+02
     -0.756  0.0000E+00  0.6000E+02
     -0.526  0.0000E+00  0.6000E+02
     -0.296  0.0000E+00  0.6000E+02
     -0.066  0.0000E+00  0.6000E+02
      0.164  0.0000E+00  0.6000E+02
      0.393  0.0000E+00  0.6000E+02
      0.623  0.0000E+00  0.6000E+02
      0.853  0.0000E+00  0.6000E+02
      1.083  0.0000E+00  0.6000E+02
      1.313  0.0000E+00  0.6000E+02
      1.543  0.0000E+00  0.6000E+02
      1.773  0.0000E+00  0.6000E+02
      2.002  0.0000E+00  0.6000E+02
      2.232  0.0000E+00  0.6000E+02
      2.462  0.0000E+00  0.6000E+02
      2.692  0.0000E+00  0.6000E+02
      2.922  0.6930E-13  0.6000E+02
      3.152  0.1937E-01  0.6000E+02
      3.382  0.6001E-01  0.6002E+02
      3.611  0.4951E+00  0.6013E+02
      3.841  0.7646E+00  0.6031E+02
      4.071  0.2089E+00  0.6036E+02
      4.301  0.8398E+00  0.6055E+02
      4.531  0.1658E+01  0.6093E+02
      4.761  0.8043E+00  0.6111E+02
      4.991  0.1186E+01  0.6139E+02
      5.220  0.1517E+01  0.6174E+02
      5.450  0.2587E+01  0.6233E+02
      5.680  0.2278E+01  0.6285E+02
      5.910  0.3905E+01  0.6375E+02
      6.140  0.7867E+01  0.6556E+02
      6.370  0.9267E+01  0.6769E+02
      6.600  0.1174E+02  0.7039E+02
      6.829  0.1097E+02  0.7291E+02
      7.059  0.1251E+02  0.7579E+02
      7.289  0.1129E+02  0.7838E+02
      7.519  0.1167E+02  0.8106E+02
      7.749  0.1836E+02  0.8528E+02
      7.979  0.1550E+02  0.8885E+02
      8.209  0.1010E+02  0.9117E+02
      8.438  0.8632E+01  0.9315E+02
      8.668  0.1057E+02  0.9558E+02
      8.898  0.1279E+02  0.9852E+02
      9.128  0.8457E+01  0.1005E+03
      9.358  0.1096E+02  0.1030E+03
      9.588  0.9929E+01  0.1053E+03
      9.818  0.7807E+01  0.1071E+03
     10.047  0.5890E+01  0.1084E+03
     10.277  0.7744E+01  0.1102E+03
     10.507  0.8935E+01  0.1122E+03
     10.737  0.1131E+02  0.1148E+03
     10.967  0.1123E+02  0.1174E+03
     11.197  0.1344E+02  0.1205E+03
     11.427  0.9922E+01  0.1228E+03
     11.656  0.7028E+01  0.1244E+03
     11.886  0.5792E+01  0.1257E+03
     12.116  0.5681E+01  0.1271E+03
     12.346  0.6209E+01  0.1285E+03
     12.576  0.7331E+01  0.1302E+03
     12.806  0.7243E+01  0.1318E+03
     13.035  0.6502E+01  0.1333E+03
     13.265  0.1059E+02  0.1358E+03
     13.495  0.1051E+02  0.1382E+03
     13.725  0.9518E+01  0.1404E+03
     13.955  0.9260E+01  0.1425E+03
     14.185  0.1037E+02  0.1449E+03
     14.415  0.6832E+01  0.1464E+03
     14.644  0.4013E+01  0.1474E+03
     14.874  0.4290E+01  0.1484E+03
     15.104  0.3133E+01  0.1491E+03
     15.334  0.3122E+01  0.1498E+03
     15.564  0.3615E+01  0.1506E+03
     15.794  0.2126E+01  0.1511E+03
     16.024  0.2116E+01  0.1516E+03
     16.253  0.2206E+01  0.1521E+03
     16.483  0.1658E+01  0.1525E+03
     16.713  0.2960E+01  0.1532E+03
     16.943  0.3575E+01  0.1540E+03
     17.173  0.3864E+01  0.1549E+03
     17.403  0.3735E+01  0.1557E+03
     17.633  0.3877E+01  0.1566E+03
     17.862  0.3850E+01  0.1575E+03
     18.092  0.3047E+01  0.1582E+03
     18.322  0.3121E+01  0.1589E+03
     18.552  0.2302E+01  0.1595E+03
     18.782  0.1769E+01  0.1599E+03
     19.012  0.3899E+00  0.1600E+03
     19.242  0.1998E+00  0.1600E+03
     19.471  0.1397E-05  0.1600E+03
     19.701  0.0000E+00  0.1600E+03
     19.931  0.0000E+00  0.1600E+03
     20.161  0.0000E+00  0.1600E+03
     20.391  0.0000E+00  0.1600E+03
     20.621  0.0000E+00  0.1600E+03
     20.851  0.0000E+00  0.1600E+03
     21.080  0.0000E+00  0.1600E+03
     21.310  0.0000E+00  0.1600E+03
     21.540  0.0000E+00  0.1600E+03
     21.770  0.0000E+00  0.1600E+03
     22.000  0.0000E+00  0.1600E+03
     22.230  0.0000E+00  0.1600E+03
