       N       E                     dE             d eps       ncg     rms          rms(c)
DAV:   1     0.137499662352E+04    0.13750E+04   -0.54373E+04 21768   0.155E+03
DAV:   2     0.650656197814E+02   -0.13099E+04   -0.12499E+04 21720   0.469E+02
DAV:   3    -0.577603463608E+02   -0.12283E+03   -0.11526E+03 27424   0.141E+02
DAV:   4    -0.726626738890E+02   -0.14902E+02   -0.14616E+02 32768   0.342E+01
DAV:   5    -0.731049827187E+02   -0.44231E+00   -0.44152E+00 28200   0.629E+00    0.321E+01
DAV:   6    -0.741090819696E+02   -0.10041E+01   -0.24736E+01 25216   0.271E+01    0.253E+01
DAV:   7    -0.819145182665E+02   -0.78054E+01   -0.32151E+01 29440   0.391E+01    0.470E+01
DAV:   8    -0.689372397146E+02    0.12977E+02   -0.21801E+01 26256   0.231E+01    0.595E+00
DAV:   9    -0.687270865861E+02    0.21015E+00   -0.10091E+00 25304   0.466E+00    0.311E+00
DAV:  10    -0.687124819828E+02    0.14605E-01   -0.10035E-01 28288   0.138E+00    0.260E+00
DAV:  11    -0.687781403861E+02   -0.65658E-01   -0.20744E-01 28648   0.299E+00    0.422E+00
DAV:  12    -0.687035340792E+02    0.74606E-01   -0.24215E-01 29264   0.302E+00    0.848E-01
DAV:  13    -0.686992009914E+02    0.43331E-02   -0.21249E-02 26024   0.742E-01    0.510E-01
DAV:  14    -0.686962044180E+02    0.29966E-02   -0.42112E-03 24544   0.311E-01    0.285E-01
DAV:  15    -0.686944819597E+02    0.17225E-02   -0.47914E-03 24496   0.264E-01    0.941E-02
DAV:  16    -0.686945120096E+02   -0.30050E-04   -0.37826E-04 27224   0.953E-02    0.586E-02
DAV:  17    -0.686944761113E+02    0.35898E-04   -0.39260E-05 25224   0.327E-02    0.240E-02
DAV:  18    -0.686944660327E+02    0.10079E-04   -0.21594E-05 25224   0.204E-02    0.694E-03
DAV:  19    -0.686944650652E+02    0.96743E-06   -0.29982E-06 20568   0.843E-03
   1 F= -.68694465E+02 E0= -.68687886E+02  d E =-.131591E-01
