Zr6Fe2
1.0
      3.2627219       0.0000000       0.0000000
     -1.6313610       5.4633730       0.0001984
      0.0000000       0.0003089       8.9567982
  Zr    Fe  
  6     2   
Direct
      0.4193145       0.8386260       0.7498247
      0.5807363       0.1614737       0.2501759
      0.1383977       0.2767955       0.9379155
      0.8615804       0.7231597       0.0619349
      0.8615756       0.7231523       0.4382142
      0.1383980       0.2767951       0.5619386
      0.7327351       0.4654703       0.7498187
      0.2672632       0.5345255       0.2501805
