Ti1 W1                                  
   1.00000000000000     
    -1.5937252200000001   -1.5942672300000000    1.5942672300000000
    -1.5937252200000001    1.5942672300000000   -1.5942672300000000
     0.0000000000000000   -3.1594356900000000   -3.1594356900000000
   Ti   W 
     1     1
Direct
     0.0000000000000000    0.0000000000000000    0.0000000000000000
     0.5000000000000000    0.5000000000000000    0.5000000000000000
 
  0.00000000E+00  0.00000000E+00  0.00000000E+00
  0.00000000E+00  0.00000000E+00  0.00000000E+00
