       N       E                     dE             d eps       ncg     rms          rms(c)
DAV:   1     0.777338820487E+02    0.77734E+02   -0.13429E+04 12936   0.936E+02
DAV:   2    -0.592139911194E+02   -0.13695E+03   -0.12989E+03 16684   0.199E+02
DAV:   3    -0.663262225975E+02   -0.71122E+01   -0.70474E+01 16588   0.410E+01
DAV:   4    -0.664024356355E+02   -0.76213E-01   -0.76149E-01 16656   0.499E+00
DAV:   5    -0.664035314164E+02   -0.10958E-02   -0.10956E-02 16640   0.564E-01    0.120E+01
DAV:   6    -0.627227490013E+02    0.36808E+01   -0.28016E+00 15504   0.784E+00    0.678E+00
DAV:   7    -0.617191760207E+02    0.10036E+01   -0.25867E+00 16340   0.767E+00    0.226E+00
DAV:   8    -0.617240105402E+02   -0.48345E-02   -0.12266E-01 15544   0.173E+00    0.660E-01
DAV:   9    -0.617261533698E+02   -0.21428E-02   -0.94354E-03 15920   0.534E-01    0.129E-01
DAV:  10    -0.617263638563E+02   -0.21049E-03   -0.91821E-04 16040   0.168E-01    0.581E-02
DAV:  11    -0.617266029002E+02   -0.23904E-03   -0.19469E-04 14592   0.793E-02    0.237E-02
DAV:  12    -0.617266442624E+02   -0.41362E-04   -0.38136E-05 15124   0.356E-02    0.705E-03
DAV:  13    -0.617266467557E+02   -0.24933E-05   -0.35948E-06 15060   0.991E-03    0.218E-03
DAV:  14    -0.617266466543E+02    0.10144E-06   -0.17460E-07 12660   0.248E-03
   1 F= -.61726647E+02 E0= -.61725974E+02  d E =-.134577E-02
