N2                                      
   1.00000000000000     
     3.0910690000000001    0.0000000000000000    0.0000000000000000
     0.0000000000000000    2.1771129999999999    0.0000000000000000
    -1.5455340000000000   -1.0885560000000001    2.8111679999999999
   N 
     2
Direct
     0.1138029999999972    0.7500000000000000    0.5000000000000000
     0.8861970000000028    0.2500000000000000    0.5000000000000000
 
  0.00000000E+00  0.00000000E+00  0.00000000E+00
  0.00000000E+00  0.00000000E+00  0.00000000E+00
