       N       E                     dE             d eps       ncg     rms          rms(c)
DAV:   1     0.456526233375E+03    0.45653E+03   -0.21500E+04 17940   0.236E+03
DAV:   2     0.834998396696E+01   -0.44818E+03   -0.43096E+03 16896   0.538E+02
DAV:   3    -0.277022184608E+02   -0.36052E+02   -0.34840E+02 24296   0.930E+01
DAV:   4    -0.303916194755E+02   -0.26894E+01   -0.26530E+01 20924   0.237E+01
DAV:   5    -0.304809155220E+02   -0.89296E-01   -0.89229E-01 21532   0.418E+00    0.196E+01
DAV:   6    -0.291151522880E+02    0.13658E+01   -0.21585E+00 19424   0.789E+00    0.784E+00
DAV:   7    -0.290499472193E+02    0.65205E-01   -0.55233E-01 20844   0.378E+00    0.206E+00
DAV:   8    -0.290571451905E+02   -0.71980E-02   -0.10375E-01 20768   0.205E+00    0.923E-01
DAV:   9    -0.290571624357E+02   -0.17245E-04   -0.20763E-02 20004   0.997E-01    0.352E-01
DAV:  10    -0.290579853221E+02   -0.82289E-03   -0.39847E-03 18560   0.417E-01    0.984E-02
DAV:  11    -0.290579743351E+02    0.10987E-04   -0.25228E-04 20952   0.803E-02    0.281E-02
DAV:  12    -0.290579754121E+02   -0.10770E-05   -0.18685E-05 20296   0.309E-02    0.820E-03
DAV:  13    -0.290579731346E+02    0.22775E-05   -0.11673E-06 12104   0.668E-03    0.292E-03
DAV:  14    -0.290579729306E+02    0.20408E-06   -0.23010E-07 10176   0.330E-03
   1 F= -.29057973E+02 E0= -.29056974E+02  d E =-.199869E-02
