Zn7Tc1
1.0
     -3.8229097      -3.8229097       0.0000000
     -3.8229097       0.0000000      -3.8229097
      0.0000000      -3.8229097      -3.8229097
  Zn    Tc  
  7     1   
Direct
      0.0000000       0.0000000       0.5000000
      0.5000000       0.5000000       0.0000000
      0.0000000       0.5000000       0.0000000
      0.5000000       0.0000000       0.5000000
      0.5000000       0.0000000       0.0000000
      0.0000000       0.5000000       0.5000000
      0.5000000       0.5000000       0.5000000
      0.0000000       0.0000000       0.0000000
