Zn7 Tc1
1.0
  -3.8229096800000000   -3.8229096800000000   -0.0000000000000000
  -3.8229096800000000    0.0000000000000000   -3.8229096800000000
   0.0000000000000000   -3.8229096800000000   -3.8229096800000000
Zn Tc
7 1
direct
  -0.0000000000000000    0.0000000000000000    0.5000000000000000 Zn
   0.5000000000000000    0.5000000000000000   -0.0000000000000000 Zn
   0.0000000000000000    0.5000000000000000   -0.0000000000000000 Zn
   0.5000000000000000   -0.0000000000000000    0.5000000000000000 Zn
   0.5000000000000000    0.0000000000000000   -0.0000000000000000 Zn
   0.0000000000000000    0.5000000000000000    0.5000000000000000 Zn
   0.5000000000000000    0.5000000000000000    0.5000000000000000 Zn
  -0.0000000000000000    0.0000000000000000    0.0000000000000000 Tc
