unknown system                          
           1
    -3.822910   -3.822910    0.000000
    -3.822910    0.000000   -3.822910
     0.000000   -3.822910   -3.822910
   Zn   Tc
     7     1
Direct configuration=     1
   0.00000000  0.00000000  0.50000000
   0.50000000  0.50000000  0.00000000
   0.00000000  0.50000000  0.00000000
   0.50000000  0.00000000  0.50000000
   0.50000000  0.00000000  0.00000000
   0.00000000  0.50000000  0.50000000
   0.50000000  0.50000000  0.50000000
   0.00000000  0.00000000  0.00000000
