B4 W4                                   
   1.00000000000000     
     3.0811080799999999   -0.0003384600000000   -0.5573788200000001
    -0.1012296100000000    3.0794437800000001   -0.5573783900000000
    -0.0080202000000000   -0.0082838300000000    8.7452978899999998
   B    W 
     4     4
Direct
     0.7813008899999971    0.0312747299999998    0.0623837600000030
     0.5312793100000022    0.2813072800000000    0.5623933099999974
     0.2186918199999965    0.9687206700000033    0.9376042100000035
     0.4687268200000005    0.7186981099999983    0.4376178400000015
     0.9279595900000004    0.1778322600000024    0.3560046799999981
     0.6778378500000031    0.4279653800000034    0.8560146900000021
     0.0720364000000018    0.8221636700000019    0.6439877500000009
     0.3221653100000026    0.5720389100000034    0.1439927699999970
 
  0.00000000E+00  0.00000000E+00  0.00000000E+00
  0.00000000E+00  0.00000000E+00  0.00000000E+00
  0.00000000E+00  0.00000000E+00  0.00000000E+00
  0.00000000E+00  0.00000000E+00  0.00000000E+00
  0.00000000E+00  0.00000000E+00  0.00000000E+00
  0.00000000E+00  0.00000000E+00  0.00000000E+00
  0.00000000E+00  0.00000000E+00  0.00000000E+00
  0.00000000E+00  0.00000000E+00  0.00000000E+00
