       N       E                     dE             d eps       ncg     rms          rms(c)
DAV:   1     0.126889636578E+03    0.12689E+03   -0.16286E+04 25272   0.711E+02
DAV:   2    -0.811385341019E+02   -0.20803E+03   -0.18810E+03 28660   0.196E+02
DAV:   3    -0.901497114479E+02   -0.90112E+01   -0.87676E+01 30132   0.353E+01
DAV:   4    -0.902050468018E+02   -0.55335E-01   -0.55243E-01 28644   0.281E+00
DAV:   5    -0.902052754585E+02   -0.22866E-03   -0.22865E-03 28860   0.179E-01    0.585E+01
DAV:   6    -0.822656666710E+02    0.79396E+01   -0.55611E+00 32696   0.131E+01    0.193E+01
DAV:   7    -0.819715257400E+02    0.29414E+00   -0.18984E+00 27176   0.455E+00    0.100E+01
DAV:   8    -0.819022112741E+02    0.69314E-01   -0.10474E-01 28284   0.125E+00    0.795E-01
DAV:   9    -0.818919121373E+02    0.10299E-01   -0.20702E-02 26760   0.530E-01    0.888E-01
DAV:  10    -0.818916858575E+02    0.22628E-03   -0.12589E-03 30172   0.124E-01    0.347E-01
DAV:  11    -0.818916749875E+02    0.10870E-04   -0.10922E-04 32364   0.423E-02    0.870E-02
DAV:  12    -0.818916543609E+02    0.20627E-04   -0.53288E-05 34096   0.312E-02    0.456E-02
DAV:  13    -0.818916514282E+02    0.29326E-05   -0.11436E-05 27712   0.120E-02    0.887E-03
DAV:  14    -0.818916513767E+02    0.51531E-07   -0.52080E-07 15184   0.278E-03
   1 F= -.81891651E+02 E0= -.81889710E+02  d E =-.388338E-02
