   1   1   0   0
  0.1144600E+02  0.2529625E-09  0.2529626E-09  0.2529625E-09  0.5000000E-15
  1.000000000000000E-004
  CAR 
 unknown system                          
     37.97867857    -67.65654526  301      7.19602346      1.00000000
    -67.657  0.0000E+00  0.0000E+00
    -67.304  0.0000E+00  0.0000E+00
    -66.952  0.0000E+00  0.0000E+00
    -66.600  0.0000E+00  0.0000E+00
    -66.248  0.0000E+00  0.0000E+00
    -65.896  0.0000E+00  0.0000E+00
    -65.544  0.0000E+00  0.0000E+00
    -65.192  0.0000E+00  0.0000E+00
    -64.840  0.0000E+00  0.0000E+00
    -64.487  0.0000E+00  0.0000E+00
    -64.135  0.0000E+00  0.0000E+00
    -63.783  0.0000E+00  0.0000E+00
    -63.431  0.0000E+00  0.0000E+00
    -63.079  0.2241E-10  0.7891E-11
    -62.727  0.1521E+02  0.5355E+01
    -62.375  0.1629E+01  0.6000E+01
    -62.023  0.0000E+00  0.6000E+01
    -61.671  0.0000E+00  0.6000E+01
    -61.318  0.0000E+00  0.6000E+01
    -60.966  0.0000E+00  0.6000E+01
    -60.614  0.0000E+00  0.6000E+01
    -60.262  0.0000E+00  0.6000E+01
    -59.910  0.0000E+00  0.6000E+01
    -59.558  0.0000E+00  0.6000E+01
    -59.206  0.0000E+00  0.6000E+01
    -58.854  0.0000E+00  0.6000E+01
    -58.501  0.0000E+00  0.6000E+01
    -58.149  0.0000E+00  0.6000E+01
    -57.797  0.0000E+00  0.6000E+01
    -57.445  0.0000E+00  0.6000E+01
    -57.093  0.0000E+00  0.6000E+01
    -56.741  0.0000E+00  0.6000E+01
    -56.389  0.0000E+00  0.6000E+01
    -56.037  0.0000E+00  0.6000E+01
    -55.685  0.0000E+00  0.6000E+01
    -55.332  0.0000E+00  0.6000E+01
    -54.980  0.0000E+00  0.6000E+01
    -54.628  0.0000E+00  0.6000E+01
    -54.276  0.0000E+00  0.6000E+01
    -53.924  0.0000E+00  0.6000E+01
    -53.572  0.0000E+00  0.6000E+01
    -53.220  0.0000E+00  0.6000E+01
    -52.868  0.0000E+00  0.6000E+01
    -52.515  0.0000E+00  0.6000E+01
    -52.163  0.0000E+00  0.6000E+01
    -51.811  0.0000E+00  0.6000E+01
    -51.459  0.0000E+00  0.6000E+01
    -51.107  0.0000E+00  0.6000E+01
    -50.755  0.0000E+00  0.6000E+01
    -50.403  0.0000E+00  0.6000E+01
    -50.051  0.0000E+00  0.6000E+01
    -49.699  0.0000E+00  0.6000E+01
    -49.346  0.0000E+00  0.6000E+01
    -48.994  0.0000E+00  0.6000E+01
    -48.642  0.0000E+00  0.6000E+01
    -48.290  0.0000E+00  0.6000E+01
    -47.938  0.0000E+00  0.6000E+01
    -47.586  0.0000E+00  0.6000E+01
    -47.234  0.0000E+00  0.6000E+01
    -46.882  0.0000E+00  0.6000E+01
    -46.530  0.0000E+00  0.6000E+01
    -46.177  0.0000E+00  0.6000E+01
    -45.825  0.0000E+00  0.6000E+01
    -45.473  0.0000E+00  0.6000E+01
    -45.121  0.0000E+00  0.6000E+01
    -44.769  0.0000E+00  0.6000E+01
    -44.417  0.0000E+00  0.6000E+01
    -44.065  0.0000E+00  0.6000E+01
    -43.713  0.0000E+00  0.6000E+01
    -43.360  0.0000E+00  0.6000E+01
    -43.008  0.0000E+00  0.6000E+01
    -42.656  0.0000E+00  0.6000E+01
    -42.304  0.0000E+00  0.6000E+01
    -41.952  0.0000E+00  0.6000E+01
    -41.600  0.0000E+00  0.6000E+01
    -41.248  0.0000E+00  0.6000E+01
    -40.896  0.0000E+00  0.6000E+01
    -40.544  0.0000E+00  0.6000E+01
    -40.191  0.0000E+00  0.6000E+01
    -39.839  0.0000E+00  0.6000E+01
    -39.487  0.0000E+00  0.6000E+01
    -39.135  0.0000E+00  0.6000E+01
    -38.783  0.0000E+00  0.6000E+01
    -38.431  0.0000E+00  0.6000E+01
    -38.079  0.0000E+00  0.6000E+01
    -37.727  0.0000E+00  0.6000E+01
    -37.374  0.0000E+00  0.6000E+01
    -37.022  0.0000E+00  0.6000E+01
    -36.670  0.0000E+00  0.6000E+01
    -36.318  0.0000E+00  0.6000E+01
    -35.966  0.0000E+00  0.6000E+01
    -35.614  0.0000E+00  0.6000E+01
    -35.262  0.0000E+00  0.6000E+01
    -34.910  0.0000E+00  0.6000E+01
    -34.558  0.0000E+00  0.6000E+01
    -34.205  0.0000E+00  0.6000E+01
    -33.853  0.0000E+00  0.6000E+01
    -33.501  0.0000E+00  0.6000E+01
    -33.149  0.0000E+00  0.6000E+01
    -32.797  0.0000E+00  0.6000E+01
    -32.445  0.0000E+00  0.6000E+01
    -32.093  0.0000E+00  0.6000E+01
    -31.741  0.0000E+00  0.6000E+01
    -31.388  0.0000E+00  0.6000E+01
    -31.036  0.0000E+00  0.6000E+01
    -30.684  0.0000E+00  0.6000E+01
    -30.332  0.0000E+00  0.6000E+01
    -29.980  0.0000E+00  0.6000E+01
    -29.628  0.0000E+00  0.6000E+01
    -29.276  0.0000E+00  0.6000E+01
    -28.924  0.0000E+00  0.6000E+01
    -28.572  0.0000E+00  0.6000E+01
    -28.219  0.0000E+00  0.6000E+01
    -27.867  0.0000E+00  0.6000E+01
    -27.515  0.0000E+00  0.6000E+01
    -27.163  0.0000E+00  0.6000E+01
    -26.811  0.0000E+00  0.6000E+01
    -26.459  0.0000E+00  0.6000E+01
    -26.107  0.0000E+00  0.6000E+01
    -25.755  0.0000E+00  0.6000E+01
    -25.402  0.0000E+00  0.6000E+01
    -25.050  0.0000E+00  0.6000E+01
    -24.698  0.0000E+00  0.6000E+01
    -24.346  0.0000E+00  0.6000E+01
    -23.994  0.0000E+00  0.6000E+01
    -23.642  0.0000E+00  0.6000E+01
    -23.290  0.0000E+00  0.6000E+01
    -22.938  0.0000E+00  0.6000E+01
    -22.586  0.0000E+00  0.6000E+01
    -22.233  0.0000E+00  0.6000E+01
    -21.881  0.0000E+00  0.6000E+01
    -21.529  0.0000E+00  0.6000E+01
    -21.177  0.0000E+00  0.6000E+01
    -20.825  0.0000E+00  0.6000E+01
    -20.473  0.0000E+00  0.6000E+01
    -20.121  0.0000E+00  0.6000E+01
    -19.769  0.0000E+00  0.6000E+01
    -19.416  0.0000E+00  0.6000E+01
    -19.064  0.0000E+00  0.6000E+01
    -18.712  0.0000E+00  0.6000E+01
    -18.360  0.0000E+00  0.6000E+01
    -18.008  0.0000E+00  0.6000E+01
    -17.656  0.0000E+00  0.6000E+01
    -17.304  0.0000E+00  0.6000E+01
    -16.952  0.0000E+00  0.6000E+01
    -16.600  0.0000E+00  0.6000E+01
    -16.247  0.0000E+00  0.6000E+01
    -15.895  0.0000E+00  0.6000E+01
    -15.543  0.0000E+00  0.6000E+01
    -15.191  0.0000E+00  0.6000E+01
    -14.839  0.0000E+00  0.6000E+01
    -14.487  0.0000E+00  0.6000E+01
    -14.135  0.0000E+00  0.6000E+01
    -13.783  0.0000E+00  0.6000E+01
    -13.430  0.0000E+00  0.6000E+01
    -13.078  0.0000E+00  0.6000E+01
    -12.726  0.0000E+00  0.6000E+01
    -12.374  0.0000E+00  0.6000E+01
    -12.022  0.0000E+00  0.6000E+01
    -11.670  0.0000E+00  0.6000E+01
    -11.318  0.0000E+00  0.6000E+01
    -10.966  0.0000E+00  0.6000E+01
    -10.614  0.0000E+00  0.6000E+01
    -10.261  0.0000E+00  0.6000E+01
     -9.909  0.0000E+00  0.6000E+01
     -9.557  0.0000E+00  0.6000E+01
     -9.205  0.0000E+00  0.6000E+01
     -8.853  0.0000E+00  0.6000E+01
     -8.501  0.0000E+00  0.6000E+01
     -8.149  0.0000E+00  0.6000E+01
     -7.797  0.0000E+00  0.6000E+01
     -7.444  0.0000E+00  0.6000E+01
     -7.092  0.0000E+00  0.6000E+01
     -6.740  0.0000E+00  0.6000E+01
     -6.388  0.0000E+00  0.6000E+01
     -6.036  0.0000E+00  0.6000E+01
     -5.684  0.0000E+00  0.6000E+01
     -5.332  0.0000E+00  0.6000E+01
     -4.980  0.0000E+00  0.6000E+01
     -4.628  0.0000E+00  0.6000E+01
     -4.275  0.0000E+00  0.6000E+01
     -3.923  0.0000E+00  0.6000E+01
     -3.571  0.0000E+00  0.6000E+01
     -3.219  0.0000E+00  0.6000E+01
     -2.867  0.0000E+00  0.6000E+01
     -2.515  0.7065E-07  0.6000E+01
     -2.163  0.5252E-02  0.6002E+01
     -1.811  0.4406E-01  0.6017E+01
     -1.458  0.6188E-01  0.6039E+01
     -1.106  0.8303E-01  0.6068E+01
     -0.754  0.9749E-01  0.6103E+01
     -0.402  0.1270E+00  0.6147E+01
     -0.050  0.1368E+00  0.6196E+01
      0.302  0.4015E-01  0.6210E+01
      0.654  0.2572E+00  0.6300E+01
      1.006  0.2255E+00  0.6380E+01
      1.358  0.1116E+00  0.6419E+01
      1.711  0.4032E+00  0.6561E+01
      2.063  0.4780E+00  0.6729E+01
      2.415  0.9130E+00  0.7053E+01
      2.767  0.1301E+01  0.7512E+01
      3.119  0.2184E+01  0.8281E+01
      3.471  0.1965E+01  0.8976E+01
      3.823  0.2419E+01  0.9828E+01
      4.175  0.3248E+01  0.1098E+02
      4.528  0.3781E+01  0.1231E+02
      4.880  0.2595E+01  0.1322E+02
      5.232  0.3185E+01  0.1435E+02
      5.584  0.3990E+01  0.1576E+02
      5.936  0.2044E+01  0.1648E+02
      6.288  0.6426E+00  0.1671E+02
      6.640  0.2108E+00  0.1679E+02
      6.992  0.3022E+00  0.1689E+02
      7.344  0.4383E+00  0.1705E+02
      7.697  0.2388E+00  0.1713E+02
      8.049  0.1784E+00  0.1719E+02
      8.401  0.2068E+00  0.1727E+02
      8.753  0.4812E+00  0.1744E+02
      9.105  0.1717E+00  0.1750E+02
      9.457  0.2213E+00  0.1758E+02
      9.809  0.1957E+00  0.1765E+02
     10.161  0.2368E+00  0.1773E+02
     10.514  0.4013E-01  0.1774E+02
     10.866  0.2619E+00  0.1784E+02
     11.218  0.1816E+00  0.1790E+02
     11.570  0.1988E+00  0.1797E+02
     11.922  0.3824E+00  0.1810E+02
     12.274  0.3256E+00  0.1822E+02
     12.626  0.8209E-01  0.1825E+02
     12.978  0.3386E+00  0.1837E+02
     13.330  0.3263E+00  0.1848E+02
     13.683  0.6381E-01  0.1851E+02
     14.035  0.4311E+00  0.1866E+02
     14.387  0.2054E+00  0.1873E+02
     14.739  0.2692E+00  0.1883E+02
     15.091  0.2761E+00  0.1892E+02
     15.443  0.2782E+00  0.1902E+02
     15.795  0.2630E+00  0.1911E+02
     16.147  0.3002E+00  0.1922E+02
     16.500  0.4228E+00  0.1937E+02
     16.852  0.3861E+00  0.1951E+02
     17.204  0.5190E+00  0.1969E+02
     17.556  0.2207E+00  0.1977E+02
     17.908  0.2180E+00  0.1985E+02
     18.260  0.5437E+00  0.2004E+02
     18.612  0.2309E+00  0.2012E+02
     18.964  0.4138E+00  0.2026E+02
     19.316  0.4096E+00  0.2041E+02
     19.669  0.4059E+00  0.2055E+02
     20.021  0.4942E+00  0.2073E+02
     20.373  0.2701E+00  0.2082E+02
     20.725  0.5244E+00  0.2101E+02
     21.077  0.3268E+00  0.2113E+02
     21.429  0.4316E+00  0.2128E+02
     21.781  0.3317E+00  0.2140E+02
     22.133  0.5499E+00  0.2159E+02
     22.486  0.4768E+00  0.2176E+02
     22.838  0.3346E+00  0.2188E+02
     23.190  0.2930E+00  0.2198E+02
     23.542  0.2343E+00  0.2206E+02
     23.894  0.4714E+00  0.2223E+02
     24.246  0.4812E+00  0.2240E+02
     24.598  0.3740E+00  0.2253E+02
     24.950  0.1967E+00  0.2260E+02
     25.302  0.1581E+00  0.2266E+02
     25.655  0.3149E+00  0.2277E+02
     26.007  0.3174E+00  0.2288E+02
     26.359  0.4098E+00  0.2302E+02
     26.711  0.2363E+00  0.2311E+02
     27.063  0.1866E+00  0.2317E+02
     27.415  0.2511E-01  0.2318E+02
     27.767  0.5298E+00  0.2337E+02
     28.119  0.1011E+00  0.2341E+02
     28.472  0.2764E+00  0.2350E+02
     28.824  0.1166E+00  0.2355E+02
     29.176  0.1073E+00  0.2358E+02
     29.528  0.2506E+00  0.2367E+02
     29.880  0.1871E+00  0.2374E+02
     30.232  0.1640E+00  0.2380E+02
     30.584  0.1063E-01  0.2380E+02
     30.936  0.1698E+00  0.2386E+02
     31.288  0.1072E+00  0.2390E+02
     31.641  0.1032E+00  0.2393E+02
     31.993  0.0000E+00  0.2393E+02
     32.345  0.6287E-02  0.2394E+02
     32.697  0.1778E+00  0.2400E+02
     33.049  0.9633E-06  0.2400E+02
     33.401  0.6573E-02  0.2400E+02
     33.753  0.0000E+00  0.2400E+02
     34.105  0.0000E+00  0.2400E+02
     34.458  0.0000E+00  0.2400E+02
     34.810  0.0000E+00  0.2400E+02
     35.162  0.0000E+00  0.2400E+02
     35.514  0.0000E+00  0.2400E+02
     35.866  0.0000E+00  0.2400E+02
     36.218  0.0000E+00  0.2400E+02
     36.570  0.0000E+00  0.2400E+02
     36.922  0.0000E+00  0.2400E+02
     37.274  0.0000E+00  0.2400E+02
     37.627  0.0000E+00  0.2400E+02
     37.979  0.0000E+00  0.2400E+02
