   2   2   0   0
  0.8384018E+01  0.2559533E-09  0.2559533E-09  0.2559533E-09  0.5000000E-15
  1.000000000000000E-004
  CAR 
 unknown system                          
     42.44774178    -46.83804050  301      0.52062652      1.00000000
    -46.838  0.0000E+00  0.0000E+00
    -46.540  0.0000E+00  0.0000E+00
    -46.243  0.0000E+00  0.0000E+00
    -45.945  0.0000E+00  0.0000E+00
    -45.648  0.0000E+00  0.0000E+00
    -45.350  0.0000E+00  0.0000E+00
    -45.052  0.0000E+00  0.0000E+00
    -44.755  0.0000E+00  0.0000E+00
    -44.457  0.0000E+00  0.0000E+00
    -44.159  0.0000E+00  0.0000E+00
    -43.862  0.0000E+00  0.0000E+00
    -43.564  0.0000E+00  0.0000E+00
    -43.267  0.0000E+00  0.0000E+00
    -42.969  0.2716E-08  0.8085E-09
    -42.671  0.5673E+01  0.1688E+01
    -42.374  0.1047E+01  0.2000E+01
    -42.076  0.0000E+00  0.2000E+01
    -41.779  0.0000E+00  0.2000E+01
    -41.481  0.0000E+00  0.2000E+01
    -41.183  0.0000E+00  0.2000E+01
    -40.886  0.0000E+00  0.2000E+01
    -40.588  0.0000E+00  0.2000E+01
    -40.290  0.0000E+00  0.2000E+01
    -39.993  0.0000E+00  0.2000E+01
    -39.695  0.0000E+00  0.2000E+01
    -39.398  0.0000E+00  0.2000E+01
    -39.100  0.0000E+00  0.2000E+01
    -38.802  0.0000E+00  0.2000E+01
    -38.505  0.0000E+00  0.2000E+01
    -38.207  0.0000E+00  0.2000E+01
    -37.909  0.0000E+00  0.2000E+01
    -37.612  0.0000E+00  0.2000E+01
    -37.314  0.0000E+00  0.2000E+01
    -37.017  0.0000E+00  0.2000E+01
    -36.719  0.0000E+00  0.2000E+01
    -36.421  0.0000E+00  0.2000E+01
    -36.124  0.0000E+00  0.2000E+01
    -35.826  0.0000E+00  0.2000E+01
    -35.529  0.0000E+00  0.2000E+01
    -35.231  0.0000E+00  0.2000E+01
    -34.933  0.0000E+00  0.2000E+01
    -34.636  0.0000E+00  0.2000E+01
    -34.338  0.0000E+00  0.2000E+01
    -34.040  0.0000E+00  0.2000E+01
    -33.743  0.0000E+00  0.2000E+01
    -33.445  0.0000E+00  0.2000E+01
    -33.148  0.0000E+00  0.2000E+01
    -32.850  0.0000E+00  0.2000E+01
    -32.552  0.0000E+00  0.2000E+01
    -32.255  0.0000E+00  0.2000E+01
    -31.957  0.0000E+00  0.2000E+01
    -31.659  0.0000E+00  0.2000E+01
    -31.362  0.0000E+00  0.2000E+01
    -31.064  0.0000E+00  0.2000E+01
    -30.767  0.0000E+00  0.2000E+01
    -30.469  0.0000E+00  0.2000E+01
    -30.171  0.0000E+00  0.2000E+01
    -29.874  0.0000E+00  0.2000E+01
    -29.576  0.0000E+00  0.2000E+01
    -29.279  0.0000E+00  0.2000E+01
    -28.981  0.0000E+00  0.2000E+01
    -28.683  0.0000E+00  0.2000E+01
    -28.386  0.0000E+00  0.2000E+01
    -28.088  0.0000E+00  0.2000E+01
    -27.790  0.0000E+00  0.2000E+01
    -27.493  0.0000E+00  0.2000E+01
    -27.195  0.0000E+00  0.2000E+01
    -26.898  0.0000E+00  0.2000E+01
    -26.600  0.0000E+00  0.2000E+01
    -26.302  0.0000E+00  0.2000E+01
    -26.005  0.0000E+00  0.2000E+01
    -25.707  0.0000E+00  0.2000E+01
    -25.409  0.0000E+00  0.2000E+01
    -25.112  0.0000E+00  0.2000E+01
    -24.814  0.0000E+00  0.2000E+01
    -24.517  0.0000E+00  0.2000E+01
    -24.219  0.0000E+00  0.2000E+01
    -23.921  0.0000E+00  0.2000E+01
    -23.624  0.0000E+00  0.2000E+01
    -23.326  0.0000E+00  0.2000E+01
    -23.028  0.0000E+00  0.2000E+01
    -22.731  0.0000E+00  0.2000E+01
    -22.433  0.0000E+00  0.2000E+01
    -22.136  0.0000E+00  0.2000E+01
    -21.838  0.0000E+00  0.2000E+01
    -21.540  0.0000E+00  0.2000E+01
    -21.243  0.0000E+00  0.2000E+01
    -20.945  0.3412E-12  0.2000E+01
    -20.648  0.7067E-01  0.2021E+01
    -20.350  0.8469E+00  0.2273E+01
    -20.052  0.2147E+01  0.2912E+01
    -19.755  0.2247E+01  0.3581E+01
    -19.457  0.1212E+01  0.3942E+01
    -19.159  0.1960E+00  0.4000E+01
    -18.862  0.0000E+00  0.4000E+01
    -18.564  0.0000E+00  0.4000E+01
    -18.267  0.0000E+00  0.4000E+01
    -17.969  0.0000E+00  0.4000E+01
    -17.671  0.0000E+00  0.4000E+01
    -17.374  0.0000E+00  0.4000E+01
    -17.076  0.0000E+00  0.4000E+01
    -16.778  0.0000E+00  0.4000E+01
    -16.481  0.0000E+00  0.4000E+01
    -16.183  0.0000E+00  0.4000E+01
    -15.886  0.0000E+00  0.4000E+01
    -15.588  0.0000E+00  0.4000E+01
    -15.290  0.0000E+00  0.4000E+01
    -14.993  0.0000E+00  0.4000E+01
    -14.695  0.0000E+00  0.4000E+01
    -14.398  0.0000E+00  0.4000E+01
    -14.100  0.0000E+00  0.4000E+01
    -13.802  0.0000E+00  0.4000E+01
    -13.505  0.0000E+00  0.4000E+01
    -13.207  0.0000E+00  0.4000E+01
    -12.909  0.0000E+00  0.4000E+01
    -12.612  0.0000E+00  0.4000E+01
    -12.314  0.0000E+00  0.4000E+01
    -12.017  0.0000E+00  0.4000E+01
    -11.719  0.0000E+00  0.4000E+01
    -11.421  0.0000E+00  0.4000E+01
    -11.124  0.0000E+00  0.4000E+01
    -10.826  0.0000E+00  0.4000E+01
    -10.528  0.0000E+00  0.4000E+01
    -10.231  0.0000E+00  0.4000E+01
     -9.933  0.0000E+00  0.4000E+01
     -9.636  0.0000E+00  0.4000E+01
     -9.338  0.0000E+00  0.4000E+01
     -9.040  0.0000E+00  0.4000E+01
     -8.743  0.0000E+00  0.4000E+01
     -8.445  0.0000E+00  0.4000E+01
     -8.148  0.0000E+00  0.4000E+01
     -7.850  0.0000E+00  0.4000E+01
     -7.552  0.0000E+00  0.4000E+01
     -7.255  0.0000E+00  0.4000E+01
     -6.957  0.0000E+00  0.4000E+01
     -6.659  0.0000E+00  0.4000E+01
     -6.362  0.0000E+00  0.4000E+01
     -6.064  0.0000E+00  0.4000E+01
     -5.767  0.0000E+00  0.4000E+01
     -5.469  0.0000E+00  0.4000E+01
     -5.171  0.0000E+00  0.4000E+01
     -4.874  0.0000E+00  0.4000E+01
     -4.576  0.0000E+00  0.4000E+01
     -4.278  0.0000E+00  0.4000E+01
     -3.981  0.0000E+00  0.4000E+01
     -3.683  0.8513E-06  0.4000E+01
     -3.386  0.4761E+00  0.4142E+01
     -3.088  0.1480E+01  0.4582E+01
     -2.790  0.2011E+01  0.5181E+01
     -2.493  0.1904E+01  0.5748E+01
     -2.195  0.1904E+01  0.6314E+01
     -1.898  0.1801E+01  0.6851E+01
     -1.600  0.7964E+00  0.7088E+01
     -1.302  0.1801E+01  0.7624E+01
     -1.005  0.1275E+01  0.8003E+01
     -0.707  0.1670E+01  0.8500E+01
     -0.409  0.2186E+01  0.9151E+01
     -0.112  0.2354E+01  0.9852E+01
      0.186  0.4984E+00  0.1000E+02
      0.483  0.0000E+00  0.1000E+02
      0.781  0.0000E+00  0.1000E+02
      1.079  0.0000E+00  0.1000E+02
      1.376  0.0000E+00  0.1000E+02
      1.674  0.0000E+00  0.1000E+02
      1.972  0.0000E+00  0.1000E+02
      2.269  0.0000E+00  0.1000E+02
      2.567  0.0000E+00  0.1000E+02
      2.864  0.0000E+00  0.1000E+02
      3.162  0.0000E+00  0.1000E+02
      3.460  0.0000E+00  0.1000E+02
      3.757  0.0000E+00  0.1000E+02
      4.055  0.0000E+00  0.1000E+02
      4.352  0.0000E+00  0.1000E+02
      4.650  0.0000E+00  0.1000E+02
      4.948  0.0000E+00  0.1000E+02
      5.245  0.0000E+00  0.1000E+02
      5.543  0.0000E+00  0.1000E+02
      5.841  0.0000E+00  0.1000E+02
      6.138  0.0000E+00  0.1000E+02
      6.436  0.0000E+00  0.1000E+02
      6.733  0.0000E+00  0.1000E+02
      7.031  0.0000E+00  0.1000E+02
      7.329  0.8360E-15  0.1000E+02
      7.626  0.4404E-02  0.1000E+02
      7.924  0.3175E-01  0.1001E+02
      8.222  0.8652E-01  0.1004E+02
      8.519  0.1397E+00  0.1008E+02
      8.817  0.1764E+00  0.1013E+02
      9.114  0.2116E+00  0.1019E+02
      9.412  0.3921E+00  0.1031E+02
      9.710  0.3588E+00  0.1042E+02
     10.007  0.4113E+00  0.1054E+02
     10.305  0.1762E+00  0.1059E+02
     10.602  0.7361E+00  0.1081E+02
     10.900  0.1970E+00  0.1087E+02
     11.198  0.4596E+00  0.1101E+02
     11.495  0.4796E+00  0.1115E+02
     11.793  0.8507E+00  0.1140E+02
     12.091  0.1143E+01  0.1174E+02
     12.388  0.6991E+00  0.1195E+02
     12.686  0.1041E+01  0.1226E+02
     12.983  0.6019E+00  0.1244E+02
     13.281  0.8583E+00  0.1269E+02
     13.579  0.1371E+01  0.1310E+02
     13.876  0.1366E+01  0.1351E+02
     14.174  0.1222E+01  0.1387E+02
     14.472  0.1169E+01  0.1422E+02
     14.769  0.7201E+00  0.1444E+02
     15.067  0.7778E+00  0.1467E+02
     15.364  0.5007E+00  0.1482E+02
     15.662  0.4328E+00  0.1494E+02
     15.960  0.6365E+00  0.1513E+02
     16.257  0.2735E+00  0.1522E+02
     16.555  0.5051E-02  0.1522E+02
     16.852  0.8406E+00  0.1547E+02
     17.150  0.2158E+00  0.1553E+02
     17.448  0.3264E+00  0.1563E+02
     17.745  0.1768E+00  0.1568E+02
     18.043  0.1215E+00  0.1572E+02
     18.341  0.3360E+00  0.1582E+02
     18.638  0.1142E+00  0.1585E+02
     18.936  0.1132E+00  0.1589E+02
     19.233  0.2631E+00  0.1596E+02
     19.531  0.1486E-02  0.1596E+02
     19.829  0.8327E-01  0.1599E+02
     20.126  0.8444E-01  0.1601E+02
     20.424  0.1025E+00  0.1604E+02
     20.722  0.8030E+00  0.1628E+02
     21.019  0.1601E+01  0.1676E+02
     21.317  0.1303E+01  0.1715E+02
     21.614  0.5227E+00  0.1730E+02
     21.912  0.1072E+01  0.1762E+02
     22.210  0.4839E+00  0.1777E+02
     22.507  0.6399E+00  0.1796E+02
     22.805  0.9538E+00  0.1824E+02
     23.102  0.4367E+00  0.1837E+02
     23.400  0.1218E+01  0.1873E+02
     23.698  0.8508E+00  0.1899E+02
     23.995  0.1321E+01  0.1938E+02
     24.293  0.1347E+01  0.1978E+02
     24.591  0.6529E+00  0.1997E+02
     24.888  0.6367E+00  0.2016E+02
     25.186  0.9466E-01  0.2019E+02
     25.483  0.6988E+00  0.2040E+02
     25.781  0.1006E+00  0.2043E+02
     26.079  0.6428E+00  0.2062E+02
     26.376  0.4045E+00  0.2074E+02
     26.674  0.6037E+00  0.2092E+02
     26.972  0.5707E+00  0.2109E+02
     27.269  0.4109E+00  0.2121E+02
     27.567  0.1769E+00  0.2127E+02
     27.864  0.2125E-02  0.2127E+02
     28.162  0.8677E+00  0.2153E+02
     28.460  0.7453E+00  0.2175E+02
     28.757  0.5977E+00  0.2193E+02
     29.055  0.9222E+00  0.2220E+02
     29.352  0.5002E+00  0.2235E+02
     29.650  0.3356E+00  0.2245E+02
     29.948  0.7746E+00  0.2268E+02
     30.245  0.8994E+00  0.2295E+02
     30.543  0.9712E+00  0.2324E+02
     30.841  0.4228E+00  0.2336E+02
     31.138  0.3142E+00  0.2346E+02
     31.436  0.2395E+00  0.2353E+02
     31.733  0.6337E+00  0.2372E+02
     32.031  0.2453E+00  0.2379E+02
     32.329  0.2512E+00  0.2386E+02
     32.626  0.2461E+00  0.2394E+02
     32.924  0.4774E-01  0.2395E+02
     33.222  0.0000E+00  0.2395E+02
     33.519  0.0000E+00  0.2395E+02
     33.817  0.0000E+00  0.2395E+02
     34.114  0.1318E-05  0.2395E+02
     34.412  0.4404E-01  0.2396E+02
     34.710  0.2665E-01  0.2397E+02
     35.007  0.5959E-01  0.2399E+02
     35.305  0.9949E-03  0.2399E+02
     35.602  0.0000E+00  0.2399E+02
     35.900  0.0000E+00  0.2399E+02
     36.198  0.0000E+00  0.2399E+02
     36.495  0.0000E+00  0.2399E+02
     36.793  0.0000E+00  0.2399E+02
     37.091  0.7643E-02  0.2399E+02
     37.388  0.2265E-01  0.2400E+02
     37.686  0.0000E+00  0.2400E+02
     37.983  0.0000E+00  0.2400E+02
     38.281  0.5568E-05  0.2400E+02
     38.579  0.5043E-02  0.2400E+02
     38.876  0.0000E+00  0.2400E+02
     39.174  0.0000E+00  0.2400E+02
     39.472  0.0000E+00  0.2400E+02
     39.769  0.0000E+00  0.2400E+02
     40.067  0.0000E+00  0.2400E+02
     40.364  0.0000E+00  0.2400E+02
     40.662  0.0000E+00  0.2400E+02
     40.960  0.0000E+00  0.2400E+02
     41.257  0.0000E+00  0.2400E+02
     41.555  0.0000E+00  0.2400E+02
     41.853  0.0000E+00  0.2400E+02
     42.150  0.0000E+00  0.2400E+02
     42.448  0.0000E+00  0.2400E+02
