       N       E                     dE             d eps       ncg     rms          rms(c)
DAV:   1     0.363797226764E+02    0.36380E+02   -0.58133E+03 32596   0.940E+02
DAV:   2    -0.835222369792E+01   -0.44732E+02   -0.43645E+02 39636   0.198E+02
DAV:   3    -0.958420767605E+01   -0.12320E+01   -0.12301E+01 40400   0.288E+01
DAV:   4    -0.959511478126E+01   -0.10907E-01   -0.10906E-01 35576   0.295E+00
DAV:   5    -0.959525646875E+01   -0.14169E-03   -0.14169E-03 39868   0.261E-01    0.449E+00
DAV:   6    -0.906354587514E+01    0.53171E+00   -0.25128E+00 33484   0.960E+00    0.143E+00
DAV:   7    -0.905357174680E+01    0.99741E-02   -0.17466E-02 40628   0.118E+00    0.858E-01
DAV:   8    -0.905014175885E+01    0.34300E-02   -0.15662E-02 41060   0.135E+00    0.117E-01
DAV:   9    -0.905018356319E+01   -0.41804E-04   -0.69494E-04 37812   0.247E-01    0.500E-02
DAV:  10    -0.905025549229E+01   -0.71929E-04   -0.10846E-04 34952   0.874E-02    0.733E-03
DAV:  11    -0.905025550300E+01   -0.10713E-07   -0.12637E-06 43988   0.113E-02
   1 F= -.90502555E+01 E0= -.90502555E+01  d E =-.959216E-40
