S16 N16                                 
   1.00000000000000     
     8.2954801663886464   -0.0000000038201606   -0.5388469680990130
    -0.0000000965584505    6.8519471781369763    0.0000003707177974
    -0.0437021541210253    0.0000003067472448    8.4362922014803008
   S    N 
    16    16
Direct
     0.5998266721543786    0.2057016178059285    0.1578057080571327
     0.9001732557465871    0.7057016349471112    0.3421942999802283
     0.4001733279196173    0.7942983824011307    0.8421942920682781
     0.0998267442857141    0.2942983649003281    0.6578056999547854
     0.5484171276000325    0.3031588589952605    0.8466269504347537
     0.9515829227456720    0.8031588541747965    0.6533730362775074
     0.4515828722583848    0.6968411410400677    0.1533730496781232
     0.0484170771957864    0.1968411456421322    0.3466269636869583
     0.7694026453252079    0.0329513181378260    0.9530987251137333
     0.7305973897594242    0.5329512817754534    0.5469013825501463
     0.2305973548206168    0.9670486821641759    0.0469012749272792
     0.2694026102876421    0.4670487179935918    0.4530986173092941
     0.8113002693841693    0.4210110298278451    0.9991322479865232
     0.6886997192887350    0.9210109906821984    0.5008678480982383
     0.1886997305176124    0.5789889705285276    0.0008677519780917
     0.3113002806981697    0.0789890090754213    0.4991321518103362
     0.7284089499907509    0.3831203438630268    0.1656821156307160
     0.7715909614826089    0.8831203379330432    0.3343179411826966
     0.2715910499973333    0.6168796564695782    0.8343178844745651
     0.2284090385602511    0.1168796618141812    0.6656820586952037
     0.8960304743875938    0.2132538047716253    0.9635175442938717
     0.6039695449605844    0.7132537480962284    0.5364825995770914
     0.1039695256353852    0.7867461956056090    0.0364824557659347
     0.3960304550317915    0.2867462515459351    0.4635174002804732
     0.6358727868541365    0.0979505708631478    0.8117864615296781
     0.8641273033387336    0.5979505471430215    0.6882135860070804
     0.3641272131810780    0.9020494292554702    0.1882135386598378
     0.1358726966011545    0.4020494525965219    0.3117864138488073
     0.4685241407061511    0.2689978491709795    0.0145035525258521
     0.0314758410673548    0.7689978748780320    0.4854963977533586
     0.5314758592822670    0.7310021509415492    0.9854964476988854
     0.9685241589350824    0.2310021249602556    0.5145036021645240
 
  0.00000000E+00  0.00000000E+00  0.00000000E+00
  0.00000000E+00  0.00000000E+00  0.00000000E+00
  0.00000000E+00  0.00000000E+00  0.00000000E+00
  0.00000000E+00  0.00000000E+00  0.00000000E+00
  0.00000000E+00  0.00000000E+00  0.00000000E+00
  0.00000000E+00  0.00000000E+00  0.00000000E+00
  0.00000000E+00  0.00000000E+00  0.00000000E+00
  0.00000000E+00  0.00000000E+00  0.00000000E+00
  0.00000000E+00  0.00000000E+00  0.00000000E+00
  0.00000000E+00  0.00000000E+00  0.00000000E+00
  0.00000000E+00  0.00000000E+00  0.00000000E+00
  0.00000000E+00  0.00000000E+00  0.00000000E+00
  0.00000000E+00  0.00000000E+00  0.00000000E+00
  0.00000000E+00  0.00000000E+00  0.00000000E+00
  0.00000000E+00  0.00000000E+00  0.00000000E+00
  0.00000000E+00  0.00000000E+00  0.00000000E+00
  0.00000000E+00  0.00000000E+00  0.00000000E+00
  0.00000000E+00  0.00000000E+00  0.00000000E+00
  0.00000000E+00  0.00000000E+00  0.00000000E+00
  0.00000000E+00  0.00000000E+00  0.00000000E+00
  0.00000000E+00  0.00000000E+00  0.00000000E+00
  0.00000000E+00  0.00000000E+00  0.00000000E+00
  0.00000000E+00  0.00000000E+00  0.00000000E+00
  0.00000000E+00  0.00000000E+00  0.00000000E+00
  0.00000000E+00  0.00000000E+00  0.00000000E+00
  0.00000000E+00  0.00000000E+00  0.00000000E+00
  0.00000000E+00  0.00000000E+00  0.00000000E+00
  0.00000000E+00  0.00000000E+00  0.00000000E+00
  0.00000000E+00  0.00000000E+00  0.00000000E+00
  0.00000000E+00  0.00000000E+00  0.00000000E+00
  0.00000000E+00  0.00000000E+00  0.00000000E+00
  0.00000000E+00  0.00000000E+00  0.00000000E+00
