  32  32   0   0
  0.1497997E+02  0.8312963E-09  0.6851947E-09  0.8436406E-09  0.5000000E-15
  1.000000000000000E-004
  CAR 
 unknown system                          
     13.62353416    -19.32467284  301      3.21739211      1.00000000
    -19.325  0.0000E+00  0.0000E+00
    -19.215  0.0000E+00  0.0000E+00
    -19.105  0.0000E+00  0.0000E+00
    -18.995  0.0000E+00  0.0000E+00
    -18.885  0.0000E+00  0.0000E+00
    -18.776  0.0000E+00  0.0000E+00
    -18.666  0.0000E+00  0.0000E+00
    -18.556  0.0000E+00  0.0000E+00
    -18.446  0.0000E+00  0.0000E+00
    -18.336  0.0000E+00  0.0000E+00
    -18.226  0.0000E+00  0.0000E+00
    -18.117  0.0000E+00  0.0000E+00
    -18.007  0.0000E+00  0.0000E+00
    -17.897  0.0000E+00  0.0000E+00
    -17.787  0.0000E+00  0.0000E+00
    -17.677  0.0000E+00  0.0000E+00
    -17.567  0.0000E+00  0.0000E+00
    -17.458  0.0000E+00  0.0000E+00
    -17.348  0.0000E+00  0.0000E+00
    -17.238  0.3665E+02  0.1204E+01
    -17.128  0.6662E+02  0.4872E+01
    -17.018  0.2406E+02  0.8000E+01
    -16.908  0.0000E+00  0.8000E+01
    -16.799  0.0000E+00  0.8000E+01
    -16.689  0.0000E+00  0.8000E+01
    -16.579  0.0000E+00  0.8000E+01
    -16.469  0.0000E+00  0.8000E+01
    -16.359  0.0000E+00  0.8000E+01
    -16.250  0.0000E+00  0.8000E+01
    -16.140  0.0000E+00  0.8000E+01
    -16.030  0.0000E+00  0.8000E+01
    -15.920  0.0000E+00  0.8000E+01
    -15.810  0.0000E+00  0.8000E+01
    -15.700  0.0000E+00  0.8000E+01
    -15.591  0.0000E+00  0.8000E+01
    -15.481  0.0000E+00  0.8000E+01
    -15.371  0.0000E+00  0.8000E+01
    -15.261  0.0000E+00  0.8000E+01
    -15.151  0.0000E+00  0.8000E+01
    -15.041  0.1220E+03  0.1441E+02
    -14.932  0.1655E+03  0.2178E+02
    -14.822  0.1404E+02  0.2400E+02
    -14.712  0.0000E+00  0.2400E+02
    -14.602  0.0000E+00  0.2400E+02
    -14.492  0.0000E+00  0.2400E+02
    -14.382  0.0000E+00  0.2400E+02
    -14.273  0.0000E+00  0.2400E+02
    -14.163  0.0000E+00  0.2400E+02
    -14.053  0.0000E+00  0.2400E+02
    -13.943  0.0000E+00  0.2400E+02
    -13.833  0.0000E+00  0.2400E+02
    -13.723  0.0000E+00  0.2400E+02
    -13.614  0.0000E+00  0.2400E+02
    -13.504  0.0000E+00  0.2400E+02
    -13.394  0.0000E+00  0.2400E+02
    -13.284  0.0000E+00  0.2400E+02
    -13.174  0.0000E+00  0.2400E+02
    -13.065  0.0000E+00  0.2400E+02
    -12.955  0.0000E+00  0.2400E+02
    -12.845  0.0000E+00  0.2400E+02
    -12.735  0.0000E+00  0.2400E+02
    -12.625  0.0000E+00  0.2400E+02
    -12.515  0.0000E+00  0.2400E+02
    -12.406  0.0000E+00  0.2400E+02
    -12.296  0.0000E+00  0.2400E+02
    -12.186  0.9975E+02  0.2690E+02
    -12.076  0.1101E+03  0.3033E+02
    -11.966  0.1085E+02  0.3200E+02
    -11.856  0.0000E+00  0.3200E+02
    -11.747  0.0000E+00  0.3200E+02
    -11.637  0.0000E+00  0.3200E+02
    -11.527  0.0000E+00  0.3200E+02
    -11.417  0.4705E+02  0.3288E+02
    -11.307  0.9631E+02  0.3888E+02
    -11.197  0.5932E+01  0.4000E+02
    -11.088  0.0000E+00  0.4000E+02
    -10.978  0.0000E+00  0.4000E+02
    -10.868  0.0000E+00  0.4000E+02
    -10.758  0.0000E+00  0.4000E+02
    -10.648  0.0000E+00  0.4000E+02
    -10.538  0.0000E+00  0.4000E+02
    -10.429  0.0000E+00  0.4000E+02
    -10.319  0.0000E+00  0.4000E+02
    -10.209  0.0000E+00  0.4000E+02
    -10.099  0.0000E+00  0.4000E+02
     -9.989  0.0000E+00  0.4000E+02
     -9.880  0.0000E+00  0.4000E+02
     -9.770  0.0000E+00  0.4000E+02
     -9.660  0.0000E+00  0.4000E+02
     -9.550  0.0000E+00  0.4000E+02
     -9.440  0.0000E+00  0.4000E+02
     -9.330  0.0000E+00  0.4000E+02
     -9.221  0.0000E+00  0.4000E+02
     -9.111  0.0000E+00  0.4000E+02
     -9.001  0.0000E+00  0.4000E+02
     -8.891  0.0000E+00  0.4000E+02
     -8.781  0.0000E+00  0.4000E+02
     -8.671  0.0000E+00  0.4000E+02
     -8.562  0.0000E+00  0.4000E+02
     -8.452  0.0000E+00  0.4000E+02
     -8.342  0.0000E+00  0.4000E+02
     -8.232  0.0000E+00  0.4000E+02
     -8.122  0.0000E+00  0.4000E+02
     -8.012  0.0000E+00  0.4000E+02
     -7.903  0.2450E+02  0.4056E+02
     -7.793  0.7395E+02  0.4398E+02
     -7.683  0.3770E+02  0.4796E+02
     -7.573  0.5063E+02  0.5094E+02
     -7.463  0.5216E+02  0.5550E+02
     -7.353  0.1913E+01  0.5600E+02
     -7.244  0.0000E+00  0.5600E+02
     -7.134  0.0000E+00  0.5600E+02
     -7.024  0.0000E+00  0.5600E+02
     -6.914  0.0000E+00  0.5600E+02
     -6.804  0.0000E+00  0.5600E+02
     -6.695  0.0000E+00  0.5600E+02
     -6.585  0.0000E+00  0.5600E+02
     -6.475  0.0000E+00  0.5600E+02
     -6.365  0.0000E+00  0.5600E+02
     -6.255  0.0000E+00  0.5600E+02
     -6.145  0.0000E+00  0.5600E+02
     -6.036  0.0000E+00  0.5600E+02
     -5.926  0.0000E+00  0.5600E+02
     -5.816  0.0000E+00  0.5600E+02
     -5.706  0.0000E+00  0.5600E+02
     -5.596  0.0000E+00  0.5600E+02
     -5.486  0.0000E+00  0.5600E+02
     -5.377  0.2386E-02  0.5600E+02
     -5.267  0.3287E+01  0.5618E+02
     -5.157  0.6289E+01  0.5665E+02
     -5.047  0.1014E+02  0.5741E+02
     -4.937  0.1634E+02  0.5868E+02
     -4.827  0.7323E+01  0.6000E+02
     -4.718  0.1970E+02  0.6084E+02
     -4.608  0.5010E+02  0.6330E+02
     -4.498  0.3913E+02  0.6712E+02
     -4.388  0.6139E+02  0.6929E+02
     -4.278  0.1855E+02  0.7200E+02
     -4.168  0.1072E+02  0.7234E+02
     -4.059  0.1973E+02  0.7361E+02
     -3.949  0.2308E+02  0.7550E+02
     -3.839  0.1717E+02  0.7683E+02
     -3.729  0.1668E+02  0.7826E+02
     -3.619  0.8161E+01  0.7917E+02
     -3.510  0.4840E+01  0.7979E+02
     -3.400  0.3867E+01  0.8009E+02
     -3.290  0.9260E+01  0.8086E+02
     -3.180  0.1197E+02  0.8195E+02
     -3.070  0.1937E+02  0.8345E+02
     -2.960  0.1992E+02  0.8482E+02
     -2.851  0.2310E+02  0.8664E+02
     -2.741  0.6491E+01  0.8754E+02
     -2.631  0.2104E+01  0.8786E+02
     -2.521  0.5097E+00  0.8800E+02
     -2.411  0.0000E+00  0.8800E+02
     -2.301  0.0000E+00  0.8800E+02
     -2.192  0.0000E+00  0.8800E+02
     -2.082  0.0000E+00  0.8800E+02
     -1.972  0.0000E+00  0.8800E+02
     -1.862  0.2058E+02  0.8848E+02
     -1.752  0.2469E+02  0.9055E+02
     -1.642  0.1157E+02  0.9188E+02
     -1.533  0.3781E+02  0.9303E+02
     -1.423  0.2888E+02  0.9566E+02
     -1.313  0.2405E+02  0.9725E+02
     -1.203  0.2208E+02  0.9902E+02
     -1.093  0.5367E+02  0.1015E+03
     -0.984  0.1869E+02  0.1033E+03
     -0.874  0.4564E+01  0.1040E+03
     -0.764  0.5423E+01  0.1042E+03
     -0.654  0.2907E+02  0.1055E+03
     -0.544  0.5391E+02  0.1089E+03
     -0.434  0.4342E+02  0.1123E+03
     -0.325  0.4350E+02  0.1156E+03
     -0.215  0.4541E+02  0.1188E+03
     -0.105  0.7524E+01  0.1200E+03
      0.005  0.1646E+01  0.1200E+03
      0.115  0.9337E+01  0.1206E+03
      0.225  0.1287E+02  0.1216E+03
      0.334  0.2987E+02  0.1235E+03
      0.444  0.3527E+02  0.1261E+03
      0.554  0.1053E+02  0.1278E+03
      0.664  0.5454E+01  0.1281E+03
      0.774  0.2936E+02  0.1304E+03
      0.884  0.1948E+02  0.1324E+03
      0.993  0.1425E+02  0.1338E+03
      1.103  0.1218E+02  0.1351E+03
      1.213  0.2790E+02  0.1368E+03
      1.323  0.2321E+02  0.1389E+03
      1.433  0.3099E+02  0.1408E+03
      1.543  0.3194E+02  0.1432E+03
      1.652  0.3899E+02  0.1458E+03
      1.762  0.3623E+02  0.1484E+03
      1.872  0.2249E+02  0.1504E+03
      1.982  0.3880E+02  0.1526E+03
      2.092  0.3032E+02  0.1548E+03
      2.201  0.3479E+02  0.1570E+03
      2.311  0.2615E+02  0.1594E+03
      2.421  0.4759E+02  0.1608E+03
      2.531  0.4784E+02  0.1641E+03
      2.641  0.3676E+02  0.1672E+03
      2.751  0.2628E+02  0.1683E+03
      2.860  0.3118E+02  0.1719E+03
      2.970  0.2348E+01  0.1720E+03
      3.080  0.8702E+02  0.1743E+03
      3.190  0.7515E+01  0.1760E+03
      3.300  0.0000E+00  0.1760E+03
      3.410  0.0000E+00  0.1760E+03
      3.519  0.0000E+00  0.1760E+03
      3.629  0.0000E+00  0.1760E+03
      3.739  0.0000E+00  0.1760E+03
      3.849  0.0000E+00  0.1760E+03
      3.959  0.0000E+00  0.1760E+03
      4.069  0.0000E+00  0.1760E+03
      4.178  0.0000E+00  0.1760E+03
      4.288  0.0000E+00  0.1760E+03
      4.398  0.0000E+00  0.1760E+03
      4.508  0.0000E+00  0.1760E+03
      4.618  0.0000E+00  0.1760E+03
      4.728  0.0000E+00  0.1760E+03
      4.837  0.0000E+00  0.1760E+03
      4.947  0.0000E+00  0.1760E+03
      5.057  0.0000E+00  0.1760E+03
      5.167  0.0000E+00  0.1760E+03
      5.277  0.2060E+01  0.1761E+03
      5.386  0.1496E+02  0.1767E+03
      5.496  0.2101E+02  0.1782E+03
      5.606  0.4224E+02  0.1809E+03
      5.716  0.3067E+02  0.1837E+03
      5.826  0.1658E+02  0.1854E+03
      5.936  0.2640E+02  0.1871E+03
      6.045  0.1627E+02  0.1886E+03
      6.155  0.1806E+02  0.1898E+03
      6.265  0.1880E+02  0.1913E+03
      6.375  0.3209E+01  0.1919E+03
      6.485  0.3579E+00  0.1920E+03
      6.595  0.0000E+00  0.1920E+03
      6.704  0.0000E+00  0.1920E+03
      6.814  0.0000E+00  0.1920E+03
      6.924  0.2648E+00  0.1920E+03
      7.034  0.2225E+01  0.1921E+03
      7.144  0.1473E+02  0.1928E+03
      7.254  0.2331E+02  0.1943E+03
      7.363  0.2331E+02  0.1967E+03
      7.473  0.2955E+02  0.1984E+03
      7.583  0.1128E+02  0.1998E+03
      7.693  0.1033E+02  0.2007E+03
      7.803  0.1630E+02  0.2017E+03
      7.913  0.9894E+01  0.2027E+03
      8.022  0.1001E+02  0.2037E+03
      8.132  0.1567E+02  0.2047E+03
      8.242  0.1666E+02  0.2066E+03
      8.352  0.1198E+02  0.2075E+03
      8.462  0.1076E+02  0.2085E+03
      8.571  0.2169E+02  0.2098E+03
      8.681  0.2811E+02  0.2120E+03
      8.791  0.2016E+02  0.2139E+03
      8.901  0.2005E+02  0.2160E+03
      9.011  0.1764E+02  0.2176E+03
      9.121  0.1580E+02  0.2190E+03
      9.230  0.2685E+02  0.2213E+03
      9.340  0.1662E+02  0.2231E+03
      9.450  0.4122E+01  0.2239E+03
      9.560  0.7999E+01  0.2245E+03
      9.670  0.8137E+01  0.2252E+03
      9.780  0.2091E+02  0.2264E+03
      9.889  0.1258E+02  0.2279E+03
      9.999  0.1745E+02  0.2291E+03
     10.109  0.3512E+02  0.2313E+03
     10.219  0.2768E+02  0.2331E+03
     10.329  0.3156E+02  0.2358E+03
     10.439  0.2460E+02  0.2381E+03
     10.548  0.1791E+02  0.2400E+03
     10.658  0.4567E+02  0.2426E+03
     10.768  0.3177E+02  0.2445E+03
     10.878  0.3344E+02  0.2471E+03
     10.988  0.4920E+01  0.2480E+03
     11.098  0.2134E+02  0.2488E+03
     11.207  0.2227E+02  0.2510E+03
     11.317  0.1659E+02  0.2525E+03
     11.427  0.2104E+02  0.2543E+03
     11.537  0.1032E+02  0.2557E+03
     11.647  0.1211E+01  0.2560E+03
     11.756  0.0000E+00  0.2560E+03
     11.866  0.0000E+00  0.2560E+03
     11.976  0.0000E+00  0.2560E+03
     12.086  0.0000E+00  0.2560E+03
     12.196  0.0000E+00  0.2560E+03
     12.306  0.0000E+00  0.2560E+03
     12.415  0.0000E+00  0.2560E+03
     12.525  0.0000E+00  0.2560E+03
     12.635  0.0000E+00  0.2560E+03
     12.745  0.0000E+00  0.2560E+03
     12.855  0.0000E+00  0.2560E+03
     12.965  0.0000E+00  0.2560E+03
     13.074  0.0000E+00  0.2560E+03
     13.184  0.0000E+00  0.2560E+03
     13.294  0.0000E+00  0.2560E+03
     13.404  0.0000E+00  0.2560E+03
     13.514  0.0000E+00  0.2560E+03
     13.624  0.0000E+00  0.2560E+03
