   2   2   0   0
  0.5000000E+03  0.1000000E-08  0.1000000E-08  0.1000000E-08  0.5000000E-15
  1.000000000000000E-004
  CAR 
 unknown system                          
      4.54192901    -35.60814022  301     -9.09236533      1.00000000
    -35.608  0.0000E+00  0.0000E+00
    -35.474  0.0000E+00  0.0000E+00
    -35.340  0.0000E+00  0.0000E+00
    -35.207  0.0000E+00  0.0000E+00
    -35.073  0.0000E+00  0.0000E+00
    -34.939  0.0000E+00  0.0000E+00
    -34.805  0.0000E+00  0.0000E+00
    -34.671  0.0000E+00  0.0000E+00
    -34.537  0.0000E+00  0.0000E+00
    -34.404  0.0000E+00  0.0000E+00
    -34.270  0.0000E+00  0.0000E+00
    -34.136  0.0000E+00  0.0000E+00
    -34.002  0.8751E-10  0.1171E-10
    -33.868  0.2391E-02  0.3200E-03
    -33.734  0.2713E+00  0.3663E-01
    -33.601  0.2521E-01  0.4000E-01
    -33.467  0.3653E-07  0.4000E-01
    -33.333  0.0000E+00  0.4000E-01
    -33.199  0.0000E+00  0.4000E-01
    -33.065  0.0000E+00  0.4000E-01
    -32.931  0.0000E+00  0.4000E-01
    -32.798  0.0000E+00  0.4000E-01
    -32.664  0.0000E+00  0.4000E-01
    -32.530  0.0000E+00  0.4000E-01
    -32.396  0.0000E+00  0.4000E-01
    -32.262  0.0000E+00  0.4000E-01
    -32.128  0.0000E+00  0.4000E-01
    -31.995  0.0000E+00  0.4000E-01
    -31.861  0.0000E+00  0.4000E-01
    -31.727  0.0000E+00  0.4000E-01
    -31.593  0.0000E+00  0.4000E-01
    -31.459  0.0000E+00  0.4000E-01
    -31.325  0.0000E+00  0.4000E-01
    -31.192  0.0000E+00  0.4000E-01
    -31.058  0.0000E+00  0.4000E-01
    -30.924  0.0000E+00  0.4000E-01
    -30.790  0.0000E+00  0.4000E-01
    -30.656  0.0000E+00  0.4000E-01
    -30.522  0.0000E+00  0.4000E-01
    -30.389  0.0000E+00  0.4000E-01
    -30.255  0.0000E+00  0.4000E-01
    -30.121  0.0000E+00  0.4000E-01
    -29.987  0.0000E+00  0.4000E-01
    -29.853  0.0000E+00  0.4000E-01
    -29.719  0.0000E+00  0.4000E-01
    -29.586  0.0000E+00  0.4000E-01
    -29.452  0.0000E+00  0.4000E-01
    -29.318  0.0000E+00  0.4000E-01
    -29.184  0.0000E+00  0.4000E-01
    -29.050  0.0000E+00  0.4000E-01
    -28.916  0.0000E+00  0.4000E-01
    -28.783  0.0000E+00  0.4000E-01
    -28.649  0.0000E+00  0.4000E-01
    -28.515  0.0000E+00  0.4000E-01
    -28.381  0.0000E+00  0.4000E-01
    -28.247  0.0000E+00  0.4000E-01
    -28.113  0.0000E+00  0.4000E-01
    -27.980  0.0000E+00  0.4000E-01
    -27.846  0.2108E-07  0.4000E-01
    -27.712  0.2082E-01  0.4279E-01
    -27.578  0.2749E+00  0.7958E-01
    -27.444  0.3147E-02  0.8000E-01
    -27.310  0.1663E-09  0.8000E-01
    -27.177  0.0000E+00  0.8000E-01
    -27.043  0.0000E+00  0.8000E-01
    -26.909  0.0000E+00  0.8000E-01
    -26.775  0.0000E+00  0.8000E-01
    -26.641  0.0000E+00  0.8000E-01
    -26.507  0.0000E+00  0.8000E-01
    -26.374  0.0000E+00  0.8000E-01
    -26.240  0.0000E+00  0.8000E-01
    -26.106  0.0000E+00  0.8000E-01
    -25.972  0.0000E+00  0.8000E-01
    -25.838  0.0000E+00  0.8000E-01
    -25.704  0.0000E+00  0.8000E-01
    -25.571  0.0000E+00  0.8000E-01
    -25.437  0.0000E+00  0.8000E-01
    -25.303  0.0000E+00  0.8000E-01
    -25.169  0.0000E+00  0.8000E-01
    -25.035  0.0000E+00  0.8000E-01
    -24.901  0.0000E+00  0.8000E-01
    -24.768  0.0000E+00  0.8000E-01
    -24.634  0.0000E+00  0.8000E-01
    -24.500  0.0000E+00  0.8000E-01
    -24.366  0.0000E+00  0.8000E-01
    -24.232  0.0000E+00  0.8000E-01
    -24.098  0.0000E+00  0.8000E-01
    -23.965  0.0000E+00  0.8000E-01
    -23.831  0.0000E+00  0.8000E-01
    -23.697  0.0000E+00  0.8000E-01
    -23.563  0.0000E+00  0.8000E-01
    -23.429  0.0000E+00  0.8000E-01
    -23.295  0.0000E+00  0.8000E-01
    -23.162  0.0000E+00  0.8000E-01
    -23.028  0.0000E+00  0.8000E-01
    -22.894  0.0000E+00  0.8000E-01
    -22.760  0.0000E+00  0.8000E-01
    -22.626  0.0000E+00  0.8000E-01
    -22.492  0.0000E+00  0.8000E-01
    -22.359  0.0000E+00  0.8000E-01
    -22.225  0.0000E+00  0.8000E-01
    -22.091  0.0000E+00  0.8000E-01
    -21.957  0.0000E+00  0.8000E-01
    -21.823  0.0000E+00  0.8000E-01
    -21.689  0.0000E+00  0.8000E-01
    -21.556  0.0000E+00  0.8000E-01
    -21.422  0.0000E+00  0.8000E-01
    -21.288  0.0000E+00  0.8000E-01
    -21.154  0.0000E+00  0.8000E-01
    -21.020  0.0000E+00  0.8000E-01
    -20.886  0.0000E+00  0.8000E-01
    -20.753  0.0000E+00  0.8000E-01
    -20.619  0.0000E+00  0.8000E-01
    -20.485  0.0000E+00  0.8000E-01
    -20.351  0.0000E+00  0.8000E-01
    -20.217  0.0000E+00  0.8000E-01
    -20.083  0.0000E+00  0.8000E-01
    -19.950  0.0000E+00  0.8000E-01
    -19.816  0.0000E+00  0.8000E-01
    -19.682  0.0000E+00  0.8000E-01
    -19.548  0.0000E+00  0.8000E-01
    -19.414  0.0000E+00  0.8000E-01
    -19.280  0.0000E+00  0.8000E-01
    -19.147  0.0000E+00  0.8000E-01
    -19.013  0.0000E+00  0.8000E-01
    -18.879  0.0000E+00  0.8000E-01
    -18.745  0.0000E+00  0.8000E-01
    -18.611  0.0000E+00  0.8000E-01
    -18.477  0.0000E+00  0.8000E-01
    -18.344  0.0000E+00  0.8000E-01
    -18.210  0.0000E+00  0.8000E-01
    -18.076  0.0000E+00  0.8000E-01
    -17.942  0.0000E+00  0.8000E-01
    -17.808  0.0000E+00  0.8000E-01
    -17.674  0.0000E+00  0.8000E-01
    -17.541  0.0000E+00  0.8000E-01
    -17.407  0.0000E+00  0.8000E-01
    -17.273  0.0000E+00  0.8000E-01
    -17.139  0.0000E+00  0.8000E-01
    -17.005  0.0000E+00  0.8000E-01
    -16.871  0.0000E+00  0.8000E-01
    -16.738  0.0000E+00  0.8000E-01
    -16.604  0.0000E+00  0.8000E-01
    -16.470  0.0000E+00  0.8000E-01
    -16.336  0.0000E+00  0.8000E-01
    -16.202  0.0000E+00  0.8000E-01
    -16.068  0.0000E+00  0.8000E-01
    -15.935  0.0000E+00  0.8000E-01
    -15.801  0.0000E+00  0.8000E-01
    -15.667  0.0000E+00  0.8000E-01
    -15.533  0.1659E-16  0.8000E-01
    -15.399  0.1074E-05  0.8000E-01
    -15.265  0.7206E-01  0.8964E-01
    -15.132  0.2265E+00  0.1200E+00
    -14.998  0.3066E-03  0.1200E+00
    -14.864  0.9728E-12  0.1200E+00
    -14.730  0.0000E+00  0.1200E+00
    -14.596  0.0000E+00  0.1200E+00
    -14.462  0.0000E+00  0.1200E+00
    -14.329  0.0000E+00  0.1200E+00
    -14.195  0.0000E+00  0.1200E+00
    -14.061  0.0000E+00  0.1200E+00
    -13.927  0.0000E+00  0.1200E+00
    -13.793  0.0000E+00  0.1200E+00
    -13.659  0.0000E+00  0.1200E+00
    -13.526  0.0000E+00  0.1200E+00
    -13.392  0.0000E+00  0.1200E+00
    -13.258  0.0000E+00  0.1200E+00
    -13.124  0.0000E+00  0.1200E+00
    -12.990  0.0000E+00  0.1200E+00
    -12.856  0.1865E-08  0.1200E+00
    -12.723  0.1282E-01  0.1217E+00
    -12.589  0.5615E+00  0.1969E+00
    -12.455  0.2341E-01  0.2000E+00
    -12.321  0.8737E-08  0.2000E+00
    -12.187  0.0000E+00  0.2000E+00
    -12.053  0.0000E+00  0.2000E+00
    -11.920  0.0000E+00  0.2000E+00
    -11.786  0.0000E+00  0.2000E+00
    -11.652  0.0000E+00  0.2000E+00
    -11.518  0.0000E+00  0.2000E+00
    -11.384  0.0000E+00  0.2000E+00
    -11.250  0.0000E+00  0.2000E+00
    -11.117  0.0000E+00  0.2000E+00
    -10.983  0.0000E+00  0.2000E+00
    -10.849  0.0000E+00  0.2000E+00
    -10.715  0.0000E+00  0.2000E+00
    -10.581  0.0000E+00  0.2000E+00
    -10.447  0.0000E+00  0.2000E+00
    -10.314  0.0000E+00  0.2000E+00
    -10.180  0.0000E+00  0.2000E+00
    -10.046  0.0000E+00  0.2000E+00
     -9.912  0.0000E+00  0.2000E+00
     -9.778  0.0000E+00  0.2000E+00
     -9.644  0.2854E-14  0.2000E+00
     -9.511  0.2239E-04  0.2000E+00
     -9.377  0.2574E+00  0.2345E+00
     -9.243  0.3403E+00  0.2800E+00
     -9.109  0.9129E-04  0.2800E+00
     -8.975  0.4194E-13  0.2800E+00
     -8.841  0.0000E+00  0.2800E+00
     -8.708  0.0000E+00  0.2800E+00
     -8.574  0.0000E+00  0.2800E+00
     -8.440  0.0000E+00  0.2800E+00
     -8.306  0.0000E+00  0.2800E+00
     -8.172  0.0000E+00  0.2800E+00
     -8.038  0.0000E+00  0.2800E+00
     -7.905  0.0000E+00  0.2800E+00
     -7.771  0.0000E+00  0.2800E+00
     -7.637  0.0000E+00  0.2800E+00
     -7.503  0.0000E+00  0.2800E+00
     -7.369  0.0000E+00  0.2800E+00
     -7.235  0.0000E+00  0.2800E+00
     -7.102  0.0000E+00  0.2800E+00
     -6.968  0.0000E+00  0.2800E+00
     -6.834  0.0000E+00  0.2800E+00
     -6.700  0.0000E+00  0.2800E+00
     -6.566  0.0000E+00  0.2800E+00
     -6.432  0.0000E+00  0.2800E+00
     -6.299  0.0000E+00  0.2800E+00
     -6.165  0.6150E-09  0.2800E+00
     -6.031  0.5417E-02  0.2807E+00
     -5.897  0.2799E+00  0.3182E+00
     -5.763  0.1357E-01  0.3200E+00
     -5.629  0.6477E-08  0.3200E+00
     -5.496  0.0000E+00  0.3200E+00
     -5.362  0.0000E+00  0.3200E+00
     -5.228  0.0000E+00  0.3200E+00
     -5.094  0.0000E+00  0.3200E+00
     -4.960  0.0000E+00  0.3200E+00
     -4.826  0.0000E+00  0.3200E+00
     -4.693  0.0000E+00  0.3200E+00
     -4.559  0.0000E+00  0.3200E+00
     -4.425  0.0000E+00  0.3200E+00
     -4.291  0.0000E+00  0.3200E+00
     -4.157  0.0000E+00  0.3200E+00
     -4.023  0.0000E+00  0.3200E+00
     -3.890  0.0000E+00  0.3200E+00
     -3.756  0.0000E+00  0.3200E+00
     -3.622  0.0000E+00  0.3200E+00
     -3.488  0.0000E+00  0.3200E+00
     -3.354  0.0000E+00  0.3200E+00
     -3.220  0.0000E+00  0.3200E+00
     -3.087  0.0000E+00  0.3200E+00
     -2.953  0.0000E+00  0.3200E+00
     -2.819  0.0000E+00  0.3200E+00
     -2.685  0.0000E+00  0.3200E+00
     -2.551  0.0000E+00  0.3200E+00
     -2.417  0.0000E+00  0.3200E+00
     -2.284  0.0000E+00  0.3200E+00
     -2.150  0.0000E+00  0.3200E+00
     -2.016  0.0000E+00  0.3200E+00
     -1.882  0.0000E+00  0.3200E+00
     -1.748  0.0000E+00  0.3200E+00
     -1.614  0.0000E+00  0.3200E+00
     -1.481  0.0000E+00  0.3200E+00
     -1.347  0.0000E+00  0.3200E+00
     -1.213  0.0000E+00  0.3200E+00
     -1.079  0.0000E+00  0.3200E+00
     -0.945  0.0000E+00  0.3200E+00
     -0.811  0.0000E+00  0.3200E+00
     -0.678  0.0000E+00  0.3200E+00
     -0.544  0.3907E-12  0.3200E+00
     -0.410  0.1972E-03  0.3200E+00
     -0.276  0.2141E+00  0.3487E+00
     -0.142  0.8460E-01  0.3600E+00
     -0.008  0.1952E-05  0.3600E+00
      0.125  0.0000E+00  0.3600E+00
      0.259  0.0000E+00  0.3600E+00
      0.393  0.0000E+00  0.3600E+00
      0.527  0.0000E+00  0.3600E+00
      0.661  0.0000E+00  0.3600E+00
      0.795  0.0000E+00  0.3600E+00
      0.928  0.1069E-09  0.3600E+00
      1.062  0.2619E-02  0.3604E+00
      1.196  0.5292E+00  0.4312E+00
      1.330  0.6791E+00  0.5221E+00
      1.464  0.4147E+00  0.5776E+00
      1.598  0.1676E+00  0.6000E+00
      1.731  0.3637E-04  0.6000E+00
      1.865  0.1347E-13  0.6000E+00
      1.999  0.0000E+00  0.6000E+00
      2.133  0.0000E+00  0.6000E+00
      2.267  0.0000E+00  0.6000E+00
      2.401  0.2292E-11  0.6000E+00
      2.534  0.5421E-03  0.6001E+00
      2.668  0.6232E+00  0.6835E+00
      2.802  0.8658E+00  0.7994E+00
      2.936  0.4807E-02  0.8000E+00
      3.070  0.1750E-09  0.8000E+00
      3.204  0.0000E+00  0.8000E+00
      3.337  0.0000E+00  0.8000E+00
      3.471  0.0000E+00  0.8000E+00
      3.605  0.0000E+00  0.8000E+00
      3.739  0.0000E+00  0.8000E+00
      3.873  0.0000E+00  0.8000E+00
      4.007  0.0000E+00  0.8000E+00
      4.140  0.0000E+00  0.8000E+00
      4.274  0.0000E+00  0.8000E+00
      4.408  0.0000E+00  0.8000E+00
      4.542  0.0000E+00  0.8000E+00
