   3   3   0   0
  0.2115104E+02  0.3300356E-09  0.3300357E-09  0.6275535E-09  0.5000000E-15
  1.000000000000000E-004
  CAR 
 unknown system                          
     27.35534795    -42.92710086  301      9.36782757      1.00000000
    -42.927  0.0000E+00  0.0000E+00
    -42.693  0.0000E+00  0.0000E+00
    -42.459  0.0000E+00  0.0000E+00
    -42.224  0.0000E+00  0.0000E+00
    -41.990  0.0000E+00  0.0000E+00
    -41.756  0.0000E+00  0.0000E+00
    -41.521  0.0000E+00  0.0000E+00
    -41.287  0.0000E+00  0.0000E+00
    -41.053  0.0000E+00  0.0000E+00
    -40.819  0.0000E+00  0.0000E+00
    -40.584  0.0000E+00  0.0000E+00
    -40.350  0.0000E+00  0.0000E+00
    -40.116  0.0000E+00  0.0000E+00
    -39.882  0.3440E-05  0.8059E-06
    -39.647  0.7103E+01  0.1664E+01
    -39.413  0.9971E+01  0.4000E+01
    -39.179  0.0000E+00  0.4000E+01
    -38.944  0.0000E+00  0.4000E+01
    -38.710  0.0000E+00  0.4000E+01
    -38.476  0.0000E+00  0.4000E+01
    -38.242  0.0000E+00  0.4000E+01
    -38.007  0.0000E+00  0.4000E+01
    -37.773  0.0000E+00  0.4000E+01
    -37.539  0.0000E+00  0.4000E+01
    -37.305  0.0000E+00  0.4000E+01
    -37.070  0.0000E+00  0.4000E+01
    -36.836  0.0000E+00  0.4000E+01
    -36.602  0.0000E+00  0.4000E+01
    -36.367  0.0000E+00  0.4000E+01
    -36.133  0.0000E+00  0.4000E+01
    -35.899  0.0000E+00  0.4000E+01
    -35.665  0.0000E+00  0.4000E+01
    -35.430  0.0000E+00  0.4000E+01
    -35.196  0.0000E+00  0.4000E+01
    -34.962  0.0000E+00  0.4000E+01
    -34.727  0.0000E+00  0.4000E+01
    -34.493  0.0000E+00  0.4000E+01
    -34.259  0.0000E+00  0.4000E+01
    -34.025  0.0000E+00  0.4000E+01
    -33.790  0.0000E+00  0.4000E+01
    -33.556  0.0000E+00  0.4000E+01
    -33.322  0.0000E+00  0.4000E+01
    -33.088  0.0000E+00  0.4000E+01
    -32.853  0.0000E+00  0.4000E+01
    -32.619  0.0000E+00  0.4000E+01
    -32.385  0.0000E+00  0.4000E+01
    -32.150  0.0000E+00  0.4000E+01
    -31.916  0.0000E+00  0.4000E+01
    -31.682  0.0000E+00  0.4000E+01
    -31.448  0.0000E+00  0.4000E+01
    -31.213  0.0000E+00  0.4000E+01
    -30.979  0.0000E+00  0.4000E+01
    -30.745  0.0000E+00  0.4000E+01
    -30.511  0.0000E+00  0.4000E+01
    -30.276  0.0000E+00  0.4000E+01
    -30.042  0.0000E+00  0.4000E+01
    -29.808  0.0000E+00  0.4000E+01
    -29.573  0.0000E+00  0.4000E+01
    -29.339  0.0000E+00  0.4000E+01
    -29.105  0.0000E+00  0.4000E+01
    -28.871  0.0000E+00  0.4000E+01
    -28.636  0.0000E+00  0.4000E+01
    -28.402  0.0000E+00  0.4000E+01
    -28.168  0.0000E+00  0.4000E+01
    -27.934  0.0000E+00  0.4000E+01
    -27.699  0.0000E+00  0.4000E+01
    -27.465  0.0000E+00  0.4000E+01
    -27.231  0.0000E+00  0.4000E+01
    -26.996  0.0000E+00  0.4000E+01
    -26.762  0.0000E+00  0.4000E+01
    -26.528  0.0000E+00  0.4000E+01
    -26.294  0.0000E+00  0.4000E+01
    -26.059  0.0000E+00  0.4000E+01
    -25.825  0.0000E+00  0.4000E+01
    -25.591  0.0000E+00  0.4000E+01
    -25.356  0.0000E+00  0.4000E+01
    -25.122  0.0000E+00  0.4000E+01
    -24.888  0.0000E+00  0.4000E+01
    -24.654  0.0000E+00  0.4000E+01
    -24.419  0.0000E+00  0.4000E+01
    -24.185  0.0000E+00  0.4000E+01
    -23.951  0.0000E+00  0.4000E+01
    -23.717  0.0000E+00  0.4000E+01
    -23.482  0.0000E+00  0.4000E+01
    -23.248  0.0000E+00  0.4000E+01
    -23.014  0.0000E+00  0.4000E+01
    -22.779  0.0000E+00  0.4000E+01
    -22.545  0.0000E+00  0.4000E+01
    -22.311  0.0000E+00  0.4000E+01
    -22.077  0.0000E+00  0.4000E+01
    -21.842  0.0000E+00  0.4000E+01
    -21.608  0.0000E+00  0.4000E+01
    -21.374  0.0000E+00  0.4000E+01
    -21.140  0.0000E+00  0.4000E+01
    -20.905  0.0000E+00  0.4000E+01
    -20.671  0.0000E+00  0.4000E+01
    -20.437  0.0000E+00  0.4000E+01
    -20.202  0.0000E+00  0.4000E+01
    -19.968  0.0000E+00  0.4000E+01
    -19.734  0.0000E+00  0.4000E+01
    -19.500  0.0000E+00  0.4000E+01
    -19.265  0.0000E+00  0.4000E+01
    -19.031  0.0000E+00  0.4000E+01
    -18.797  0.0000E+00  0.4000E+01
    -18.563  0.0000E+00  0.4000E+01
    -18.328  0.9946E-16  0.4000E+01
    -18.094  0.8136E-01  0.4019E+01
    -17.860  0.1434E+02  0.7378E+01
    -17.625  0.1057E+02  0.9855E+01
    -17.391  0.2500E+02  0.1571E+02
    -17.157  0.1226E+01  0.1600E+02
    -16.923  0.0000E+00  0.1600E+02
    -16.688  0.0000E+00  0.1600E+02
    -16.454  0.0000E+00  0.1600E+02
    -16.220  0.0000E+00  0.1600E+02
    -15.985  0.0000E+00  0.1600E+02
    -15.751  0.0000E+00  0.1600E+02
    -15.517  0.0000E+00  0.1600E+02
    -15.283  0.0000E+00  0.1600E+02
    -15.048  0.0000E+00  0.1600E+02
    -14.814  0.0000E+00  0.1600E+02
    -14.580  0.0000E+00  0.1600E+02
    -14.346  0.0000E+00  0.1600E+02
    -14.111  0.0000E+00  0.1600E+02
    -13.877  0.0000E+00  0.1600E+02
    -13.643  0.0000E+00  0.1600E+02
    -13.408  0.0000E+00  0.1600E+02
    -13.174  0.0000E+00  0.1600E+02
    -12.940  0.0000E+00  0.1600E+02
    -12.706  0.0000E+00  0.1600E+02
    -12.471  0.0000E+00  0.1600E+02
    -12.237  0.0000E+00  0.1600E+02
    -12.003  0.0000E+00  0.1600E+02
    -11.769  0.0000E+00  0.1600E+02
    -11.534  0.0000E+00  0.1600E+02
    -11.300  0.0000E+00  0.1600E+02
    -11.066  0.0000E+00  0.1600E+02
    -10.831  0.0000E+00  0.1600E+02
    -10.597  0.0000E+00  0.1600E+02
    -10.363  0.0000E+00  0.1600E+02
    -10.129  0.0000E+00  0.1600E+02
     -9.894  0.0000E+00  0.1600E+02
     -9.660  0.0000E+00  0.1600E+02
     -9.426  0.0000E+00  0.1600E+02
     -9.192  0.0000E+00  0.1600E+02
     -8.957  0.0000E+00  0.1600E+02
     -8.723  0.0000E+00  0.1600E+02
     -8.489  0.0000E+00  0.1600E+02
     -8.254  0.0000E+00  0.1600E+02
     -8.020  0.0000E+00  0.1600E+02
     -7.786  0.0000E+00  0.1600E+02
     -7.552  0.0000E+00  0.1600E+02
     -7.317  0.0000E+00  0.1600E+02
     -7.083  0.0000E+00  0.1600E+02
     -6.849  0.0000E+00  0.1600E+02
     -6.615  0.0000E+00  0.1600E+02
     -6.380  0.0000E+00  0.1600E+02
     -6.146  0.0000E+00  0.1600E+02
     -5.912  0.0000E+00  0.1600E+02
     -5.677  0.0000E+00  0.1600E+02
     -5.443  0.0000E+00  0.1600E+02
     -5.209  0.0000E+00  0.1600E+02
     -4.975  0.0000E+00  0.1600E+02
     -4.740  0.0000E+00  0.1600E+02
     -4.506  0.0000E+00  0.1600E+02
     -4.272  0.0000E+00  0.1600E+02
     -4.037  0.0000E+00  0.1600E+02
     -3.803  0.0000E+00  0.1600E+02
     -3.569  0.0000E+00  0.1600E+02
     -3.335  0.0000E+00  0.1600E+02
     -3.100  0.0000E+00  0.1600E+02
     -2.866  0.0000E+00  0.1600E+02
     -2.632  0.0000E+00  0.1600E+02
     -2.398  0.0000E+00  0.1600E+02
     -2.163  0.0000E+00  0.1600E+02
     -1.929  0.0000E+00  0.1600E+02
     -1.695  0.0000E+00  0.1600E+02
     -1.460  0.0000E+00  0.1600E+02
     -1.226  0.0000E+00  0.1600E+02
     -0.992  0.0000E+00  0.1600E+02
     -0.758  0.0000E+00  0.1600E+02
     -0.523  0.0000E+00  0.1600E+02
     -0.289  0.0000E+00  0.1600E+02
     -0.055  0.0000E+00  0.1600E+02
      0.179  0.0000E+00  0.1600E+02
      0.414  0.0000E+00  0.1600E+02
      0.648  0.0000E+00  0.1600E+02
      0.882  0.0000E+00  0.1600E+02
      1.117  0.0000E+00  0.1600E+02
      1.351  0.0000E+00  0.1600E+02
      1.585  0.1680E-06  0.1600E+02
      1.819  0.2604E-01  0.1601E+02
      2.054  0.1591E+00  0.1604E+02
      2.288  0.3047E+00  0.1611E+02
      2.522  0.3101E+00  0.1619E+02
      2.756  0.4939E+00  0.1630E+02
      2.991  0.6701E+00  0.1646E+02
      3.225  0.9393E+00  0.1668E+02
      3.459  0.2044E+01  0.1716E+02
      3.694  0.2495E+01  0.1774E+02
      3.928  0.6648E+01  0.1930E+02
      4.162  0.7185E+01  0.2098E+02
      4.396  0.9449E+01  0.2320E+02
      4.631  0.8150E+01  0.2511E+02
      4.865  0.4889E+01  0.2625E+02
      5.099  0.3139E+01  0.2699E+02
      5.334  0.4845E+00  0.2710E+02
      5.568  0.2298E+00  0.2716E+02
      5.802  0.9398E+00  0.2738E+02
      6.036  0.1025E+01  0.2762E+02
      6.271  0.1216E+01  0.2790E+02
      6.505  0.1276E+01  0.2820E+02
      6.739  0.5601E+00  0.2833E+02
      6.973  0.1053E+01  0.2858E+02
      7.208  0.1854E+01  0.2901E+02
      7.442  0.2745E+01  0.2965E+02
      7.676  0.1508E+01  0.3001E+02
      7.911  0.2179E+01  0.3052E+02
      8.145  0.4405E+01  0.3155E+02
      8.379  0.4144E+01  0.3252E+02
      8.613  0.3599E+01  0.3336E+02
      8.848  0.3696E+01  0.3423E+02
      9.082  0.1724E+01  0.3463E+02
      9.316  0.1219E+01  0.3492E+02
      9.550  0.1759E+01  0.3533E+02
      9.785  0.3742E+01  0.3621E+02
     10.019  0.4584E+01  0.3728E+02
     10.253  0.3247E+01  0.3804E+02
     10.488  0.3158E+01  0.3878E+02
     10.722  0.5451E+01  0.4006E+02
     10.956  0.4287E+01  0.4106E+02
     11.190  0.3006E+01  0.4177E+02
     11.425  0.2495E+01  0.4235E+02
     11.659  0.1665E+01  0.4274E+02
     11.893  0.1340E+01  0.4306E+02
     12.127  0.2413E+01  0.4362E+02
     12.362  0.2568E+01  0.4422E+02
     12.596  0.1734E+01  0.4463E+02
     12.830  0.2500E+01  0.4522E+02
     13.065  0.3824E+01  0.4611E+02
     13.299  0.3046E+01  0.4683E+02
     13.533  0.2658E+01  0.4745E+02
     13.767  0.3123E+01  0.4818E+02
     14.002  0.2437E+01  0.4875E+02
     14.236  0.1957E+01  0.4921E+02
     14.470  0.2221E+01  0.4973E+02
     14.705  0.2762E+01  0.5038E+02
     14.939  0.1291E+01  0.5068E+02
     15.173  0.1811E+01  0.5110E+02
     15.407  0.1432E+01  0.5144E+02
     15.642  0.1174E+01  0.5171E+02
     15.876  0.1125E+01  0.5198E+02
     16.110  0.7084E+00  0.5214E+02
     16.344  0.1143E+01  0.5241E+02
     16.579  0.1600E+01  0.5279E+02
     16.813  0.8674E+00  0.5299E+02
     17.047  0.1392E+01  0.5332E+02
     17.282  0.8793E+00  0.5352E+02
     17.516  0.1353E+01  0.5384E+02
     17.750  0.1427E+01  0.5417E+02
     17.984  0.9018E+00  0.5438E+02
     18.219  0.1168E+01  0.5466E+02
     18.453  0.1922E+01  0.5511E+02
     18.687  0.1691E+01  0.5550E+02
     18.921  0.2401E+01  0.5607E+02
     19.156  0.9428E+00  0.5629E+02
     19.390  0.1585E+01  0.5666E+02
     19.624  0.1849E+01  0.5709E+02
     19.859  0.2496E+01  0.5768E+02
     20.093  0.2209E+01  0.5819E+02
     20.327  0.1496E+01  0.5855E+02
     20.561  0.1776E+01  0.5896E+02
     20.796  0.2478E+01  0.5954E+02
     21.030  0.2996E+01  0.6024E+02
     21.264  0.1716E+01  0.6065E+02
     21.498  0.2420E+01  0.6121E+02
     21.733  0.2547E+01  0.6181E+02
     21.967  0.2111E+01  0.6230E+02
     22.201  0.1580E+01  0.6267E+02
     22.436  0.1789E+01  0.6309E+02
     22.670  0.6879E+00  0.6325E+02
     22.904  0.7565E+00  0.6343E+02
     23.138  0.1032E+01  0.6367E+02
     23.373  0.7463E+00  0.6385E+02
     23.607  0.5512E+00  0.6398E+02
     23.841  0.6970E-01  0.6399E+02
     24.076  0.2104E-03  0.6399E+02
     24.310  0.2614E-01  0.6400E+02
     24.544  0.3266E-06  0.6400E+02
     24.778  0.0000E+00  0.6400E+02
     25.013  0.0000E+00  0.6400E+02
     25.247  0.0000E+00  0.6400E+02
     25.481  0.0000E+00  0.6400E+02
     25.715  0.0000E+00  0.6400E+02
     25.950  0.0000E+00  0.6400E+02
     26.184  0.0000E+00  0.6400E+02
     26.418  0.0000E+00  0.6400E+02
     26.653  0.0000E+00  0.6400E+02
     26.887  0.0000E+00  0.6400E+02
     27.121  0.0000E+00  0.6400E+02
     27.355  0.0000E+00  0.6400E+02
