Ge12 Rh3                                
   1.00000000000000     
     3.1075967900000001   -5.3832601699999998   -0.0000794900000000
     3.1076773700000002    5.3833067500000000    0.0000670300000000
    -0.0000157400000000    0.0001070500000000    7.8250369400000004
   Ge   Rh
    12     3
Direct
     0.0703819399999972    0.9999795599999999    0.3333301699999964
     0.9295860599999983    0.9295874000000026    0.9999992700000035
     0.9999775599999978    0.0703778299999982    0.6666699900000026
     0.6132279899999986    0.0000013800000005    0.3334235900000024
     0.3868046300000003    0.3868021400000003    0.9999958599999985
     0.0000042699999980    0.6132371899999995    0.6665804000000009
     0.2606267099999968    0.7778764600000017    0.1149865800000001
     0.5172039400000017    0.7394120800000010    0.7816142499999970
     0.2221514800000008    0.4827354900000032    0.4483053599999991
     0.7394143000000000    0.5172045600000033    0.2183798000000010
     0.7778842900000029    0.2606301799999997    0.8850120800000028
     0.4827411500000025    0.2221595199999982    0.5517007699999965
     0.3177262199999973    0.0000044399999979    0.8333257399999994
     0.6822655400000031    0.6822652500000004    0.5000030599999974
     0.0000059099999987    0.3177255299999970    0.1666730700000016
 
  0.00000000E+00  0.00000000E+00  0.00000000E+00
  0.00000000E+00  0.00000000E+00  0.00000000E+00
  0.00000000E+00  0.00000000E+00  0.00000000E+00
  0.00000000E+00  0.00000000E+00  0.00000000E+00
  0.00000000E+00  0.00000000E+00  0.00000000E+00
  0.00000000E+00  0.00000000E+00  0.00000000E+00
  0.00000000E+00  0.00000000E+00  0.00000000E+00
  0.00000000E+00  0.00000000E+00  0.00000000E+00
  0.00000000E+00  0.00000000E+00  0.00000000E+00
  0.00000000E+00  0.00000000E+00  0.00000000E+00
  0.00000000E+00  0.00000000E+00  0.00000000E+00
  0.00000000E+00  0.00000000E+00  0.00000000E+00
  0.00000000E+00  0.00000000E+00  0.00000000E+00
  0.00000000E+00  0.00000000E+00  0.00000000E+00
  0.00000000E+00  0.00000000E+00  0.00000000E+00
