       N       E                     dE             d eps       ncg     rms          rms(c)
DAV:   1     0.399685875285E+04    0.39969E+04   -0.83056E+04 16296   0.481E+03
DAV:   2     0.804843917659E+03   -0.31920E+04   -0.30245E+04 13056   0.138E+03
DAV:   3     0.202436510109E+02   -0.78460E+03   -0.74551E+03 13056   0.350E+02
DAV:   4    -0.749980884660E+02   -0.95242E+02   -0.90373E+02 14752   0.124E+02
DAV:   5    -0.799625310716E+02   -0.49644E+01   -0.48789E+01 14664   0.315E+01    0.168E+01
DAV:   6    -0.794836411571E+02    0.47889E+00   -0.62086E+00 16592   0.116E+01    0.714E+00
DAV:   7    -0.790137852364E+02    0.46986E+00   -0.25310E+00 14184   0.875E+00    0.611E+00
DAV:   8    -0.787237887355E+02    0.29000E+00   -0.70930E-01 14808   0.411E+00    0.798E-01
DAV:   9    -0.787238924100E+02   -0.10367E-03   -0.74791E-02 15112   0.156E+00    0.370E-01
DAV:  10    -0.787234480208E+02    0.44439E-03   -0.13029E-02 14232   0.115E+00    0.110E-01
DAV:  11    -0.787235551385E+02   -0.10712E-03   -0.15745E-03 15528   0.493E-01    0.518E-02
DAV:  12    -0.787235758398E+02   -0.20701E-04   -0.42758E-04 15160   0.178E-01    0.351E-02
DAV:  13    -0.787235617635E+02    0.14076E-04   -0.65439E-05 15904   0.782E-02    0.117E-02
DAV:  14    -0.787235644087E+02   -0.26452E-05   -0.32858E-05 13504   0.731E-02    0.440E-03
DAV:  15    -0.787235646507E+02   -0.24201E-06   -0.44805E-06 12360   0.397E-02
   1 F= -.78723565E+02 E0= -.78720454E+02  d E =-.622119E-02
