unknown system                          
           1
     3.107597   -5.383260   -0.000079
     3.107677    5.383307    0.000067
    -0.000016    0.000107    7.825037
   Ge   Rh
    12     3
Direct configuration=     1
   0.07038194  0.99997956  0.33333017
   0.92958606  0.92958740  0.99999927
   0.99997756  0.07037783  0.66666999
   0.61322799  0.00000138  0.33342359
   0.38680463  0.38680214  0.99999586
   0.00000427  0.61323719  0.66658040
   0.26062671  0.77787646  0.11498658
   0.51720394  0.73941208  0.78161425
   0.22215148  0.48273549  0.44830536
   0.73941430  0.51720456  0.21837980
   0.77788429  0.26063018  0.88501208
   0.48274115  0.22215952  0.55170077
   0.31772622  0.00000444  0.83332574
   0.68226554  0.68226525  0.50000306
   0.00000591  0.31772553  0.16667307
