   2   2   0   0
  0.2032587E+02  0.3111935E-09  0.3111935E-09  0.4197765E-09  0.5000000E-15
  1.000000000000000E-004
  CAR 
 unknown system                          
     23.64165339    -43.92492531  301      7.56025740      1.00000000
    -43.925  0.0000E+00  0.0000E+00
    -43.700  0.0000E+00  0.0000E+00
    -43.474  0.0000E+00  0.0000E+00
    -43.249  0.0000E+00  0.0000E+00
    -43.024  0.0000E+00  0.0000E+00
    -42.799  0.0000E+00  0.0000E+00
    -42.574  0.0000E+00  0.0000E+00
    -42.348  0.0000E+00  0.0000E+00
    -42.123  0.0000E+00  0.0000E+00
    -41.898  0.0000E+00  0.0000E+00
    -41.673  0.0000E+00  0.0000E+00
    -41.447  0.0000E+00  0.0000E+00
    -41.222  0.0000E+00  0.0000E+00
    -40.997  0.8809E-05  0.1984E-05
    -40.772  0.5452E+01  0.1228E+01
    -40.547  0.3428E+01  0.2000E+01
    -40.321  0.0000E+00  0.2000E+01
    -40.096  0.0000E+00  0.2000E+01
    -39.871  0.0000E+00  0.2000E+01
    -39.646  0.0000E+00  0.2000E+01
    -39.420  0.0000E+00  0.2000E+01
    -39.195  0.0000E+00  0.2000E+01
    -38.970  0.0000E+00  0.2000E+01
    -38.745  0.0000E+00  0.2000E+01
    -38.520  0.0000E+00  0.2000E+01
    -38.294  0.0000E+00  0.2000E+01
    -38.069  0.0000E+00  0.2000E+01
    -37.844  0.0000E+00  0.2000E+01
    -37.619  0.0000E+00  0.2000E+01
    -37.393  0.0000E+00  0.2000E+01
    -37.168  0.0000E+00  0.2000E+01
    -36.943  0.0000E+00  0.2000E+01
    -36.718  0.0000E+00  0.2000E+01
    -36.493  0.0000E+00  0.2000E+01
    -36.267  0.0000E+00  0.2000E+01
    -36.042  0.0000E+00  0.2000E+01
    -35.817  0.0000E+00  0.2000E+01
    -35.592  0.0000E+00  0.2000E+01
    -35.366  0.0000E+00  0.2000E+01
    -35.141  0.0000E+00  0.2000E+01
    -34.916  0.0000E+00  0.2000E+01
    -34.691  0.0000E+00  0.2000E+01
    -34.466  0.0000E+00  0.2000E+01
    -34.240  0.0000E+00  0.2000E+01
    -34.015  0.0000E+00  0.2000E+01
    -33.790  0.0000E+00  0.2000E+01
    -33.565  0.0000E+00  0.2000E+01
    -33.339  0.0000E+00  0.2000E+01
    -33.114  0.0000E+00  0.2000E+01
    -32.889  0.0000E+00  0.2000E+01
    -32.664  0.0000E+00  0.2000E+01
    -32.439  0.0000E+00  0.2000E+01
    -32.213  0.0000E+00  0.2000E+01
    -31.988  0.0000E+00  0.2000E+01
    -31.763  0.0000E+00  0.2000E+01
    -31.538  0.0000E+00  0.2000E+01
    -31.312  0.0000E+00  0.2000E+01
    -31.087  0.0000E+00  0.2000E+01
    -30.862  0.0000E+00  0.2000E+01
    -30.637  0.0000E+00  0.2000E+01
    -30.412  0.0000E+00  0.2000E+01
    -30.186  0.0000E+00  0.2000E+01
    -29.961  0.0000E+00  0.2000E+01
    -29.736  0.0000E+00  0.2000E+01
    -29.511  0.0000E+00  0.2000E+01
    -29.285  0.0000E+00  0.2000E+01
    -29.060  0.0000E+00  0.2000E+01
    -28.835  0.0000E+00  0.2000E+01
    -28.610  0.0000E+00  0.2000E+01
    -28.385  0.0000E+00  0.2000E+01
    -28.159  0.0000E+00  0.2000E+01
    -27.934  0.0000E+00  0.2000E+01
    -27.709  0.0000E+00  0.2000E+01
    -27.484  0.0000E+00  0.2000E+01
    -27.259  0.0000E+00  0.2000E+01
    -27.033  0.0000E+00  0.2000E+01
    -26.808  0.0000E+00  0.2000E+01
    -26.583  0.0000E+00  0.2000E+01
    -26.358  0.0000E+00  0.2000E+01
    -26.132  0.0000E+00  0.2000E+01
    -25.907  0.8504E-13  0.2000E+01
    -25.682  0.4049E+00  0.2091E+01
    -25.457  0.2383E+02  0.7459E+01
    -25.232  0.2403E+01  0.8000E+01
    -25.006  0.0000E+00  0.8000E+01
    -24.781  0.0000E+00  0.8000E+01
    -24.556  0.0000E+00  0.8000E+01
    -24.331  0.0000E+00  0.8000E+01
    -24.105  0.0000E+00  0.8000E+01
    -23.880  0.0000E+00  0.8000E+01
    -23.655  0.0000E+00  0.8000E+01
    -23.430  0.0000E+00  0.8000E+01
    -23.205  0.0000E+00  0.8000E+01
    -22.979  0.0000E+00  0.8000E+01
    -22.754  0.0000E+00  0.8000E+01
    -22.529  0.0000E+00  0.8000E+01
    -22.304  0.0000E+00  0.8000E+01
    -22.078  0.0000E+00  0.8000E+01
    -21.853  0.0000E+00  0.8000E+01
    -21.628  0.0000E+00  0.8000E+01
    -21.403  0.0000E+00  0.8000E+01
    -21.178  0.0000E+00  0.8000E+01
    -20.952  0.0000E+00  0.8000E+01
    -20.727  0.0000E+00  0.8000E+01
    -20.502  0.0000E+00  0.8000E+01
    -20.277  0.0000E+00  0.8000E+01
    -20.051  0.0000E+00  0.8000E+01
    -19.826  0.0000E+00  0.8000E+01
    -19.601  0.0000E+00  0.8000E+01
    -19.376  0.3109E-04  0.8000E+01
    -19.151  0.3103E+01  0.8699E+01
    -18.925  0.5444E+01  0.9925E+01
    -18.700  0.1231E+02  0.1270E+02
    -18.475  0.5696E+01  0.1398E+02
    -18.250  0.8504E-01  0.1400E+02
    -18.024  0.0000E+00  0.1400E+02
    -17.799  0.0000E+00  0.1400E+02
    -17.574  0.0000E+00  0.1400E+02
    -17.349  0.0000E+00  0.1400E+02
    -17.124  0.0000E+00  0.1400E+02
    -16.898  0.0000E+00  0.1400E+02
    -16.673  0.0000E+00  0.1400E+02
    -16.448  0.0000E+00  0.1400E+02
    -16.223  0.0000E+00  0.1400E+02
    -15.997  0.0000E+00  0.1400E+02
    -15.772  0.0000E+00  0.1400E+02
    -15.547  0.0000E+00  0.1400E+02
    -15.322  0.0000E+00  0.1400E+02
    -15.097  0.0000E+00  0.1400E+02
    -14.871  0.0000E+00  0.1400E+02
    -14.646  0.0000E+00  0.1400E+02
    -14.421  0.0000E+00  0.1400E+02
    -14.196  0.0000E+00  0.1400E+02
    -13.970  0.0000E+00  0.1400E+02
    -13.745  0.0000E+00  0.1400E+02
    -13.520  0.0000E+00  0.1400E+02
    -13.295  0.0000E+00  0.1400E+02
    -13.070  0.0000E+00  0.1400E+02
    -12.844  0.0000E+00  0.1400E+02
    -12.619  0.0000E+00  0.1400E+02
    -12.394  0.0000E+00  0.1400E+02
    -12.169  0.0000E+00  0.1400E+02
    -11.943  0.0000E+00  0.1400E+02
    -11.718  0.0000E+00  0.1400E+02
    -11.493  0.0000E+00  0.1400E+02
    -11.268  0.0000E+00  0.1400E+02
    -11.043  0.0000E+00  0.1400E+02
    -10.817  0.0000E+00  0.1400E+02
    -10.592  0.0000E+00  0.1400E+02
    -10.367  0.0000E+00  0.1400E+02
    -10.142  0.0000E+00  0.1400E+02
     -9.916  0.0000E+00  0.1400E+02
     -9.691  0.0000E+00  0.1400E+02
     -9.466  0.0000E+00  0.1400E+02
     -9.241  0.0000E+00  0.1400E+02
     -9.016  0.0000E+00  0.1400E+02
     -8.790  0.0000E+00  0.1400E+02
     -8.565  0.0000E+00  0.1400E+02
     -8.340  0.0000E+00  0.1400E+02
     -8.115  0.0000E+00  0.1400E+02
     -7.889  0.0000E+00  0.1400E+02
     -7.664  0.0000E+00  0.1400E+02
     -7.439  0.0000E+00  0.1400E+02
     -7.214  0.0000E+00  0.1400E+02
     -6.989  0.0000E+00  0.1400E+02
     -6.763  0.0000E+00  0.1400E+02
     -6.538  0.0000E+00  0.1400E+02
     -6.313  0.0000E+00  0.1400E+02
     -6.088  0.0000E+00  0.1400E+02
     -5.862  0.0000E+00  0.1400E+02
     -5.637  0.0000E+00  0.1400E+02
     -5.412  0.0000E+00  0.1400E+02
     -5.187  0.0000E+00  0.1400E+02
     -4.962  0.0000E+00  0.1400E+02
     -4.736  0.0000E+00  0.1400E+02
     -4.511  0.0000E+00  0.1400E+02
     -4.286  0.0000E+00  0.1400E+02
     -4.061  0.0000E+00  0.1400E+02
     -3.835  0.0000E+00  0.1400E+02
     -3.610  0.0000E+00  0.1400E+02
     -3.385  0.0000E+00  0.1400E+02
     -3.160  0.0000E+00  0.1400E+02
     -2.935  0.0000E+00  0.1400E+02
     -2.709  0.0000E+00  0.1400E+02
     -2.484  0.0000E+00  0.1400E+02
     -2.259  0.0000E+00  0.1400E+02
     -2.034  0.0000E+00  0.1400E+02
     -1.808  0.0000E+00  0.1400E+02
     -1.583  0.0000E+00  0.1400E+02
     -1.358  0.0000E+00  0.1400E+02
     -1.133  0.0000E+00  0.1400E+02
     -0.908  0.0000E+00  0.1400E+02
     -0.682  0.0000E+00  0.1400E+02
     -0.457  0.0000E+00  0.1400E+02
     -0.232  0.0000E+00  0.1400E+02
     -0.007  0.0000E+00  0.1400E+02
      0.219  0.0000E+00  0.1400E+02
      0.444  0.0000E+00  0.1400E+02
      0.669  0.0000E+00  0.1400E+02
      0.894  0.0000E+00  0.1400E+02
      1.119  0.0000E+00  0.1400E+02
      1.345  0.0000E+00  0.1400E+02
      1.570  0.3330E-11  0.1400E+02
      1.795  0.9876E-02  0.1400E+02
      2.020  0.2384E-01  0.1401E+02
      2.246  0.9898E-01  0.1403E+02
      2.471  0.2144E+00  0.1408E+02
      2.696  0.1480E+00  0.1411E+02
      2.921  0.7818E-01  0.1413E+02
      3.146  0.3401E+00  0.1421E+02
      3.372  0.4451E+00  0.1431E+02
      3.597  0.1651E+00  0.1434E+02
      3.822  0.2866E+00  0.1441E+02
      4.047  0.7128E+00  0.1457E+02
      4.273  0.4109E+00  0.1466E+02
      4.498  0.6677E+00  0.1481E+02
      4.723  0.1326E+01  0.1511E+02
      4.948  0.1517E+01  0.1545E+02
      5.173  0.1887E+01  0.1588E+02
      5.399  0.2109E+01  0.1635E+02
      5.624  0.2123E+01  0.1683E+02
      5.849  0.2075E+01  0.1730E+02
      6.074  0.2494E+01  0.1786E+02
      6.300  0.3463E+01  0.1864E+02
      6.525  0.2145E+01  0.1912E+02
      6.750  0.2733E+01  0.1974E+02
      6.975  0.2374E+01  0.2027E+02
      7.200  0.3120E+01  0.2097E+02
      7.426  0.2215E+01  0.2147E+02
      7.651  0.3867E+01  0.2234E+02
      7.876  0.3544E+01  0.2314E+02
      8.101  0.4473E+01  0.2415E+02
      8.327  0.2885E+01  0.2480E+02
      8.552  0.3395E+01  0.2556E+02
      8.777  0.2752E+01  0.2618E+02
      9.002  0.3470E+01  0.2697E+02
      9.227  0.3525E+01  0.2776E+02
      9.453  0.2319E+01  0.2828E+02
      9.678  0.2382E+01  0.2882E+02
      9.903  0.2107E+01  0.2929E+02
     10.128  0.1308E+01  0.2959E+02
     10.354  0.1719E+01  0.2997E+02
     10.579  0.3160E+01  0.3069E+02
     10.804  0.3568E+01  0.3149E+02
     11.029  0.3632E+01  0.3231E+02
     11.254  0.2286E+01  0.3282E+02
     11.480  0.2636E+01  0.3342E+02
     11.705  0.1208E+01  0.3369E+02
     11.930  0.3367E+01  0.3445E+02
     12.155  0.2018E+01  0.3490E+02
     12.381  0.2955E+01  0.3557E+02
     12.606  0.1118E+01  0.3582E+02
     12.831  0.1014E+01  0.3605E+02
     13.056  0.4702E+00  0.3615E+02
     13.281  0.6563E+00  0.3630E+02
     13.507  0.1000E+01  0.3653E+02
     13.732  0.5552E+00  0.3665E+02
     13.957  0.3605E+00  0.3673E+02
     14.182  0.1152E+01  0.3699E+02
     14.408  0.1469E+01  0.3732E+02
     14.633  0.1209E+01  0.3759E+02
     14.858  0.3245E+00  0.3767E+02
     15.083  0.3059E+00  0.3774E+02
     15.308  0.7080E+00  0.3790E+02
     15.534  0.4000E+00  0.3799E+02
     15.759  0.4774E+00  0.3809E+02
     15.984  0.8079E+00  0.3828E+02
     16.209  0.9597E+00  0.3849E+02
     16.435  0.8753E+00  0.3869E+02
     16.660  0.1032E+01  0.3892E+02
     16.885  0.1371E+01  0.3923E+02
     17.110  0.3246E+00  0.3930E+02
     17.335  0.5152E+00  0.3942E+02
     17.561  0.3861E+00  0.3951E+02
     17.786  0.6855E+00  0.3966E+02
     18.011  0.3533E+00  0.3974E+02
     18.236  0.3227E+00  0.3981E+02
     18.462  0.8539E-02  0.3981E+02
     18.687  0.1439E+00  0.3985E+02
     18.912  0.4770E-01  0.3986E+02
     19.137  0.1378E+00  0.3989E+02
     19.362  0.2805E+00  0.3995E+02
     19.588  0.1102E-01  0.3995E+02
     19.813  0.0000E+00  0.3995E+02
     20.038  0.1005E-03  0.3995E+02
     20.263  0.9666E-01  0.3998E+02
     20.489  0.8523E-01  0.4000E+02
     20.714  0.1900E-01  0.4000E+02
     20.939  0.4604E-06  0.4000E+02
     21.164  0.0000E+00  0.4000E+02
     21.389  0.0000E+00  0.4000E+02
     21.615  0.0000E+00  0.4000E+02
     21.840  0.0000E+00  0.4000E+02
     22.065  0.0000E+00  0.4000E+02
     22.290  0.0000E+00  0.4000E+02
     22.516  0.0000E+00  0.4000E+02
     22.741  0.0000E+00  0.4000E+02
     22.966  0.0000E+00  0.4000E+02
     23.191  0.0000E+00  0.4000E+02
     23.416  0.0000E+00  0.4000E+02
     23.642  0.0000E+00  0.4000E+02
