  40  40   0   0
  0.6710916E+01  0.7038627E-09  0.7038625E-09  0.7038627E-09  0.5000000E-15
  1.000000000000000E-004
  CAR 
 unknown system                          
     31.20444750    -99.60219635  301      4.71610212      1.00000000
    -99.602  0.0000E+00  0.0000E+00
    -99.166  0.0000E+00  0.0000E+00
    -98.730  0.0000E+00  0.0000E+00
    -98.294  0.0000E+00  0.0000E+00
    -97.858  0.0000E+00  0.0000E+00
    -97.422  0.0000E+00  0.0000E+00
    -96.986  0.0000E+00  0.0000E+00
    -96.550  0.0000E+00  0.0000E+00
    -96.114  0.0000E+00  0.0000E+00
    -95.678  0.0000E+00  0.0000E+00
    -95.242  0.0000E+00  0.0000E+00
    -94.806  0.0000E+00  0.0000E+00
    -94.370  0.0000E+00  0.0000E+00
    -93.934  0.2874E-13  0.1253E-13
    -93.498  0.1101E+03  0.4800E+02
    -93.062  0.0000E+00  0.4800E+02
    -92.626  0.0000E+00  0.4800E+02
    -92.190  0.0000E+00  0.4800E+02
    -91.754  0.0000E+00  0.4800E+02
    -91.318  0.0000E+00  0.4800E+02
    -90.882  0.0000E+00  0.4800E+02
    -90.446  0.0000E+00  0.4800E+02
    -90.010  0.0000E+00  0.4800E+02
    -89.574  0.0000E+00  0.4800E+02
    -89.138  0.0000E+00  0.4800E+02
    -88.702  0.0000E+00  0.4800E+02
    -88.266  0.0000E+00  0.4800E+02
    -87.830  0.0000E+00  0.4800E+02
    -87.394  0.0000E+00  0.4800E+02
    -86.958  0.0000E+00  0.4800E+02
    -86.522  0.0000E+00  0.4800E+02
    -86.086  0.0000E+00  0.4800E+02
    -85.649  0.0000E+00  0.4800E+02
    -85.213  0.0000E+00  0.4800E+02
    -84.777  0.0000E+00  0.4800E+02
    -84.341  0.0000E+00  0.4800E+02
    -83.905  0.0000E+00  0.4800E+02
    -83.469  0.0000E+00  0.4800E+02
    -83.033  0.0000E+00  0.4800E+02
    -82.597  0.0000E+00  0.4800E+02
    -82.161  0.0000E+00  0.4800E+02
    -81.725  0.0000E+00  0.4800E+02
    -81.289  0.0000E+00  0.4800E+02
    -80.853  0.0000E+00  0.4800E+02
    -80.417  0.0000E+00  0.4800E+02
    -79.981  0.0000E+00  0.4800E+02
    -79.545  0.0000E+00  0.4800E+02
    -79.109  0.0000E+00  0.4800E+02
    -78.673  0.0000E+00  0.4800E+02
    -78.237  0.0000E+00  0.4800E+02
    -77.801  0.0000E+00  0.4800E+02
    -77.365  0.0000E+00  0.4800E+02
    -76.929  0.0000E+00  0.4800E+02
    -76.493  0.0000E+00  0.4800E+02
    -76.057  0.0000E+00  0.4800E+02
    -75.621  0.0000E+00  0.4800E+02
    -75.185  0.0000E+00  0.4800E+02
    -74.749  0.0000E+00  0.4800E+02
    -74.313  0.0000E+00  0.4800E+02
    -73.877  0.0000E+00  0.4800E+02
    -73.441  0.0000E+00  0.4800E+02
    -73.005  0.0000E+00  0.4800E+02
    -72.569  0.0000E+00  0.4800E+02
    -72.133  0.0000E+00  0.4800E+02
    -71.697  0.0000E+00  0.4800E+02
    -71.261  0.0000E+00  0.4800E+02
    -70.825  0.0000E+00  0.4800E+02
    -70.389  0.0000E+00  0.4800E+02
    -69.953  0.0000E+00  0.4800E+02
    -69.517  0.0000E+00  0.4800E+02
    -69.081  0.0000E+00  0.4800E+02
    -68.645  0.0000E+00  0.4800E+02
    -68.209  0.0000E+00  0.4800E+02
    -67.773  0.0000E+00  0.4800E+02
    -67.337  0.0000E+00  0.4800E+02
    -66.901  0.0000E+00  0.4800E+02
    -66.465  0.0000E+00  0.4800E+02
    -66.028  0.0000E+00  0.4800E+02
    -65.592  0.0000E+00  0.4800E+02
    -65.156  0.0000E+00  0.4800E+02
    -64.720  0.0000E+00  0.4800E+02
    -64.284  0.0000E+00  0.4800E+02
    -63.848  0.0000E+00  0.4800E+02
    -63.412  0.0000E+00  0.4800E+02
    -62.976  0.0000E+00  0.4800E+02
    -62.540  0.0000E+00  0.4800E+02
    -62.104  0.0000E+00  0.4800E+02
    -61.668  0.0000E+00  0.4800E+02
    -61.232  0.0000E+00  0.4800E+02
    -60.796  0.0000E+00  0.4800E+02
    -60.360  0.0000E+00  0.4800E+02
    -59.924  0.0000E+00  0.4800E+02
    -59.488  0.0000E+00  0.4800E+02
    -59.052  0.0000E+00  0.4800E+02
    -58.616  0.0000E+00  0.4800E+02
    -58.180  0.0000E+00  0.4800E+02
    -57.744  0.0000E+00  0.4800E+02
    -57.308  0.0000E+00  0.4800E+02
    -56.872  0.0000E+00  0.4800E+02
    -56.436  0.0000E+00  0.4800E+02
    -56.000  0.0000E+00  0.4800E+02
    -55.564  0.0000E+00  0.4800E+02
    -55.128  0.0000E+00  0.4800E+02
    -54.692  0.0000E+00  0.4800E+02
    -54.256  0.0000E+00  0.4800E+02
    -53.820  0.0000E+00  0.4800E+02
    -53.384  0.0000E+00  0.4800E+02
    -52.948  0.0000E+00  0.4800E+02
    -52.512  0.0000E+00  0.4800E+02
    -52.076  0.0000E+00  0.4800E+02
    -51.640  0.0000E+00  0.4800E+02
    -51.204  0.0000E+00  0.4800E+02
    -50.768  0.0000E+00  0.4800E+02
    -50.332  0.0000E+00  0.4800E+02
    -49.896  0.0000E+00  0.4800E+02
    -49.460  0.0000E+00  0.4800E+02
    -49.024  0.0000E+00  0.4800E+02
    -48.588  0.0000E+00  0.4800E+02
    -48.152  0.0000E+00  0.4800E+02
    -47.716  0.0000E+00  0.4800E+02
    -47.280  0.0000E+00  0.4800E+02
    -46.844  0.0000E+00  0.4800E+02
    -46.407  0.0000E+00  0.4800E+02
    -45.971  0.0000E+00  0.4800E+02
    -45.535  0.0000E+00  0.4800E+02
    -45.099  0.0000E+00  0.4800E+02
    -44.663  0.0000E+00  0.4800E+02
    -44.227  0.0000E+00  0.4800E+02
    -43.791  0.0000E+00  0.4800E+02
    -43.355  0.0000E+00  0.4800E+02
    -42.919  0.0000E+00  0.4800E+02
    -42.483  0.0000E+00  0.4800E+02
    -42.047  0.0000E+00  0.4800E+02
    -41.611  0.0000E+00  0.4800E+02
    -41.175  0.0000E+00  0.4800E+02
    -40.739  0.0000E+00  0.4800E+02
    -40.303  0.0000E+00  0.4800E+02
    -39.867  0.0000E+00  0.4800E+02
    -39.431  0.0000E+00  0.4800E+02
    -38.995  0.0000E+00  0.4800E+02
    -38.559  0.0000E+00  0.4800E+02
    -38.123  0.0000E+00  0.4800E+02
    -37.687  0.0000E+00  0.4800E+02
    -37.251  0.0000E+00  0.4800E+02
    -36.815  0.0000E+00  0.4800E+02
    -36.379  0.0000E+00  0.4800E+02
    -35.943  0.0000E+00  0.4800E+02
    -35.507  0.0000E+00  0.4800E+02
    -35.071  0.0000E+00  0.4800E+02
    -34.635  0.0000E+00  0.4800E+02
    -34.199  0.0000E+00  0.4800E+02
    -33.763  0.0000E+00  0.4800E+02
    -33.327  0.0000E+00  0.4800E+02
    -32.891  0.0000E+00  0.4800E+02
    -32.455  0.0000E+00  0.4800E+02
    -32.019  0.0000E+00  0.4800E+02
    -31.583  0.0000E+00  0.4800E+02
    -31.147  0.0000E+00  0.4800E+02
    -30.711  0.0000E+00  0.4800E+02
    -30.275  0.0000E+00  0.4800E+02
    -29.839  0.0000E+00  0.4800E+02
    -29.403  0.0000E+00  0.4800E+02
    -28.967  0.0000E+00  0.4800E+02
    -28.531  0.0000E+00  0.4800E+02
    -28.095  0.0000E+00  0.4800E+02
    -27.659  0.0000E+00  0.4800E+02
    -27.223  0.0000E+00  0.4800E+02
    -26.786  0.0000E+00  0.4800E+02
    -26.350  0.0000E+00  0.4800E+02
    -25.914  0.0000E+00  0.4800E+02
    -25.478  0.0000E+00  0.4800E+02
    -25.042  0.0000E+00  0.4800E+02
    -24.606  0.0000E+00  0.4800E+02
    -24.170  0.0000E+00  0.4800E+02
    -23.734  0.0000E+00  0.4800E+02
    -23.298  0.0000E+00  0.4800E+02
    -22.862  0.0000E+00  0.4800E+02
    -22.426  0.0000E+00  0.4800E+02
    -21.990  0.0000E+00  0.4800E+02
    -21.554  0.0000E+00  0.4800E+02
    -21.118  0.0000E+00  0.4800E+02
    -20.682  0.0000E+00  0.4800E+02
    -20.246  0.0000E+00  0.4800E+02
    -19.810  0.0000E+00  0.4800E+02
    -19.374  0.0000E+00  0.4800E+02
    -18.938  0.0000E+00  0.4800E+02
    -18.502  0.0000E+00  0.4800E+02
    -18.066  0.0000E+00  0.4800E+02
    -17.630  0.0000E+00  0.4800E+02
    -17.194  0.0000E+00  0.4800E+02
    -16.758  0.0000E+00  0.4800E+02
    -16.322  0.0000E+00  0.4800E+02
    -15.886  0.0000E+00  0.4800E+02
    -15.450  0.0000E+00  0.4800E+02
    -15.014  0.0000E+00  0.4800E+02
    -14.578  0.0000E+00  0.4800E+02
    -14.142  0.0000E+00  0.4800E+02
    -13.706  0.0000E+00  0.4800E+02
    -13.270  0.0000E+00  0.4800E+02
    -12.834  0.0000E+00  0.4800E+02
    -12.398  0.0000E+00  0.4800E+02
    -11.962  0.4127E-06  0.4800E+02
    -11.526  0.1319E+01  0.4858E+02
    -11.090  0.2678E+01  0.5036E+02
    -10.654  0.4245E+01  0.5273E+02
    -10.218  0.7988E+01  0.5628E+02
     -9.782  0.7901E+01  0.6001E+02
     -9.346  0.1295E+02  0.6666E+02
     -8.910  0.1931E+02  0.7549E+02
     -8.474  0.7322E+01  0.8000E+02
     -8.038  0.0000E+00  0.8000E+02
     -7.602  0.0000E+00  0.8000E+02
     -7.166  0.0000E+00  0.8000E+02
     -6.729  0.0000E+00  0.8000E+02
     -6.293  0.0000E+00  0.8000E+02
     -5.857  0.0000E+00  0.8000E+02
     -5.421  0.0000E+00  0.8000E+02
     -4.985  0.0000E+00  0.8000E+02
     -4.549  0.0000E+00  0.8000E+02
     -4.113  0.0000E+00  0.8000E+02
     -3.677  0.0000E+00  0.8000E+02
     -3.241  0.0000E+00  0.8000E+02
     -2.805  0.4013E-01  0.8002E+02
     -2.369  0.6514E+01  0.8286E+02
     -1.933  0.7334E+01  0.8620E+02
     -1.497  0.1188E+02  0.9218E+02
     -1.061  0.1298E+02  0.9857E+02
     -0.625  0.9213E+01  0.1033E+03
     -0.189  0.1158E+02  0.1084E+03
      0.247  0.9026E+01  0.1129E+03
      0.683  0.9832E+01  0.1176E+03
      1.119  0.1434E+02  0.1241E+03
      1.555  0.1517E+02  0.1312E+03
      1.991  0.1265E+02  0.1377E+03
      2.427  0.1632E+02  0.1461E+03
      2.863  0.1711E+02  0.1543E+03
      3.299  0.1336E+02  0.1614E+03
      3.735  0.1714E+02  0.1693E+03
      4.171  0.8480E+01  0.1735E+03
      4.607  0.5834E+01  0.1760E+03
      5.043  0.0000E+00  0.1760E+03
      5.479  0.0000E+00  0.1760E+03
      5.915  0.0000E+00  0.1760E+03
      6.351  0.0000E+00  0.1760E+03
      6.787  0.0000E+00  0.1760E+03
      7.223  0.0000E+00  0.1760E+03
      7.659  0.0000E+00  0.1760E+03
      8.095  0.3689E-02  0.1760E+03
      8.531  0.1010E+01  0.1764E+03
      8.967  0.1056E+01  0.1770E+03
      9.403  0.2293E+01  0.1781E+03
      9.839  0.2446E+01  0.1791E+03
     10.275  0.2042E+00  0.1798E+03
     10.711  0.6668E+01  0.1827E+03
     11.147  0.5337E+01  0.1851E+03
     11.583  0.8349E+01  0.1890E+03
     12.019  0.1287E+02  0.1951E+03
     12.455  0.9464E+01  0.1996E+03
     12.892  0.4086E+01  0.2018E+03
     13.328  0.7765E+01  0.2058E+03
     13.764  0.5360E+01  0.2082E+03
     14.200  0.6521E+01  0.2110E+03
     14.636  0.1699E+02  0.2191E+03
     15.072  0.2178E+02  0.2292E+03
     15.508  0.1943E+02  0.2381E+03
     15.944  0.1513E+02  0.2459E+03
     16.380  0.1675E+02  0.2542E+03
     16.816  0.1765E+02  0.2626E+03
     17.252  0.1527E+02  0.2700E+03
     17.688  0.1364E+02  0.2762E+03
     18.124  0.1259E+02  0.2832E+03
     18.560  0.1456E+02  0.2901E+03
     18.996  0.1764E+02  0.2982E+03
     19.432  0.1082E+02  0.3037E+03
     19.868  0.1486E+02  0.3104E+03
     20.304  0.1196E+02  0.3161E+03
     20.740  0.1447E+02  0.3228E+03
     21.176  0.1004E+02  0.3285E+03
     21.612  0.1351E+02  0.3350E+03
     22.048  0.9593E+01  0.3398E+03
     22.484  0.6715E+01  0.3436E+03
     22.920  0.9228E+01  0.3477E+03
     23.356  0.9683E+01  0.3520E+03
     23.792  0.7392E+01  0.3553E+03
     24.228  0.8482E+01  0.3590E+03
     24.664  0.1284E+02  0.3650E+03
     25.100  0.5642E+01  0.3676E+03
     25.536  0.4909E+00  0.3680E+03
     25.972  0.0000E+00  0.3680E+03
     26.408  0.0000E+00  0.3680E+03
     26.844  0.0000E+00  0.3680E+03
     27.280  0.0000E+00  0.3680E+03
     27.716  0.0000E+00  0.3680E+03
     28.152  0.0000E+00  0.3680E+03
     28.588  0.0000E+00  0.3680E+03
     29.024  0.0000E+00  0.3680E+03
     29.460  0.0000E+00  0.3680E+03
     29.896  0.0000E+00  0.3680E+03
     30.332  0.0000E+00  0.3680E+03
     30.768  0.0000E+00  0.3680E+03
     31.204  0.0000E+00  0.3680E+03
