       N       E                     dE             d eps       ncg     rms          rms(c)
DAV:   1     0.295676384237E+04    0.29568E+04   -0.64785E+04 36704   0.471E+03
DAV:   2     0.177036703434E+03   -0.27797E+04   -0.24181E+04 23624   0.811E+02
DAV:   3    -0.246667008748E+03   -0.42370E+03   -0.40072E+03 26328   0.194E+02
DAV:   4    -0.287622868175E+03   -0.40956E+02   -0.40656E+02 30864   0.521E+01
DAV:   5    -0.289316570253E+03   -0.16937E+01   -0.16922E+01 31640   0.149E+01    0.281E+01
DAV:   6    -0.265929337770E+03    0.23387E+02   -0.26814E+01 31928   0.176E+01    0.995E+00
DAV:   7    -0.266352741313E+03   -0.42340E+00   -0.70028E+00 26944   0.626E+00    0.793E+00
DAV:   8    -0.266463659461E+03   -0.11092E+00   -0.76292E-01 30344   0.326E+00    0.184E+00
DAV:   9    -0.266397732742E+03    0.65927E-01   -0.10013E-01 28056   0.130E+00    0.614E-01
DAV:  10    -0.266401962019E+03   -0.42293E-02   -0.26725E-02 30192   0.358E-01    0.250E-01
DAV:  11    -0.266401670704E+03    0.29131E-03   -0.13250E-03 29896   0.142E-01    0.635E-02
DAV:  12    -0.266401706524E+03   -0.35819E-04   -0.11048E-04 29928   0.358E-02    0.317E-02
DAV:  13    -0.266401694357E+03    0.12167E-04   -0.22895E-05 27016   0.173E-02    0.327E-03
DAV:  14    -0.266401695478E+03   -0.11216E-05   -0.34268E-06 24112   0.560E-03    0.272E-03
DAV:  15    -0.266401696241E+03   -0.76253E-06   -0.22163E-07 13544   0.170E-03
   1 F= -.26640170E+03 E0= -.26640170E+03  d E =-.273931E-15
