Be24N16
1.0
      6.6360807       0.0000000      -2.3462097
     -3.3180393       5.7470131      -2.3462097
      0.0000000       0.0000000       7.0386270
  Be    N   
  24    16  
Direct
      0.5265372       0.7662163       0.5309327
      0.9956046       0.9690673       0.7352837
      0.2603219       0.7647163       0.7337837
      0.5043954       0.2396781       0.9734628
      0.9690673       0.7352837       0.9956046
      0.7337837       0.2603219       0.7647163
      0.2396781       0.9734628       0.5043954
      0.5309327       0.5265372       0.7662163
      0.7662163       0.5309327       0.5265372
      0.7352837       0.9956046       0.9690673
      0.7647163       0.7337837       0.2603219
      0.9734628       0.5043954       0.2396781
      0.4734628       0.2337837       0.4690673
      0.0043954       0.0309327       0.2647163
      0.7396781       0.2352837       0.2662163
      0.4956046       0.7603219       0.0265372
      0.0309327       0.2647163       0.0043954
      0.2662163       0.7396781       0.2352837
      0.7603219       0.0265372       0.4956046
      0.4690673       0.4734628       0.2337837
      0.2337837       0.4690673       0.4734628
      0.2647163       0.0043954       0.0309327
      0.2352837       0.2662163       0.7396781
      0.0265372       0.4956046       0.7603219
      0.2500000       0.2287565       0.9787565
      0.2712435       0.5212435       0.7500000
      0.5212435       0.7500000       0.2712435
      0.2287565       0.9787565       0.2500000
      0.9787565       0.2500000       0.2287565
      0.7500000       0.2712435       0.5212435
      0.7500000       0.7712435       0.0212435
      0.7287565       0.4787565       0.2500000
      0.4787565       0.2500000       0.7287565
      0.7712435       0.0212435       0.7500000
      0.0212435       0.7500000       0.7712435
      0.2500000       0.7287565       0.4787565
      0.5000000       0.5000000       0.5000000
      0.0000000       0.0000000       0.5000000
      0.5000000       0.0000000       0.0000000
      0.0000000       0.5000000       0.0000000
