Br4                                     
   1.00000000000000     
     0.0000000000000000   -4.2552089200000003    0.0000000000000000
    -3.5697486600000001    2.1276044600000001    0.0000000000000000
     0.0000000000000000    0.0000000000000000   -8.7453684799999998
   Br
     4
Direct
     0.8598593899999969    0.0000000000000000    0.3841086799999971
     0.1401406100000031    0.0000000000000000    0.6158913200000029
     0.6401406100000031    0.0000000000000000    0.8841086799999971
     0.3598593899999969    0.0000000000000000    0.1158913200000029
 
  0.00000000E+00  0.00000000E+00  0.00000000E+00
  0.00000000E+00  0.00000000E+00  0.00000000E+00
  0.00000000E+00  0.00000000E+00  0.00000000E+00
  0.00000000E+00  0.00000000E+00  0.00000000E+00
