   4   4   0   0
  0.3321059E+02  0.4255209E-09  0.4155696E-09  0.8745369E-09  0.5000000E-15
  1.000000000000000E-004
  CAR 
 unknown system                          
      3.29985168    -16.89633953  301      0.13788549      1.00000000
    -16.896  0.0000E+00  0.0000E+00
    -16.829  0.0000E+00  0.0000E+00
    -16.762  0.0000E+00  0.0000E+00
    -16.694  0.0000E+00  0.0000E+00
    -16.627  0.0000E+00  0.0000E+00
    -16.560  0.0000E+00  0.0000E+00
    -16.492  0.0000E+00  0.0000E+00
    -16.425  0.0000E+00  0.0000E+00
    -16.358  0.0000E+00  0.0000E+00
    -16.290  0.0000E+00  0.0000E+00
    -16.223  0.4443E-12  0.2991E-13
    -16.156  0.5279E-07  0.3554E-08
    -16.088  0.1968E-03  0.1325E-04
    -16.021  0.3107E-01  0.2105E-02
    -15.954  0.4472E+00  0.3221E-01
    -15.887  0.1518E+01  0.1344E+00
    -15.819  0.3377E+01  0.3618E+00
    -15.752  0.4998E+01  0.6982E+00
    -15.685  0.5851E+01  0.1092E+01
    -15.617  0.6731E+01  0.1545E+01
    -15.550  0.1109E+02  0.2292E+01
    -15.483  0.1394E+02  0.3230E+01
    -15.415  0.8098E+01  0.3775E+01
    -15.348  0.2812E+01  0.3965E+01
    -15.281  0.5129E+00  0.3999E+01
    -15.213  0.1103E-01  0.4000E+01
    -15.146  0.1208E-04  0.4000E+01
    -15.079  0.4581E-09  0.4000E+01
    -15.011  0.5385E-15  0.4000E+01
    -14.944  0.0000E+00  0.4000E+01
    -14.877  0.0000E+00  0.4000E+01
    -14.809  0.0000E+00  0.4000E+01
    -14.742  0.0000E+00  0.4000E+01
    -14.675  0.0000E+00  0.4000E+01
    -14.607  0.0000E+00  0.4000E+01
    -14.540  0.0000E+00  0.4000E+01
    -14.473  0.0000E+00  0.4000E+01
    -14.405  0.0000E+00  0.4000E+01
    -14.338  0.0000E+00  0.4000E+01
    -14.271  0.0000E+00  0.4000E+01
    -14.204  0.0000E+00  0.4000E+01
    -14.136  0.0000E+00  0.4000E+01
    -14.069  0.0000E+00  0.4000E+01
    -14.002  0.0000E+00  0.4000E+01
    -13.934  0.0000E+00  0.4000E+01
    -13.867  0.5591E-13  0.4000E+01
    -13.800  0.1141E-07  0.4000E+01
    -13.732  0.7312E-04  0.4000E+01
    -13.665  0.1963E-01  0.4001E+01
    -13.598  0.4114E+00  0.4029E+01
    -13.530  0.1287E+01  0.4116E+01
    -13.463  0.1809E+01  0.4237E+01
    -13.396  0.2163E+01  0.4383E+01
    -13.328  0.3125E+01  0.4593E+01
    -13.261  0.7323E+01  0.5086E+01
    -13.194  0.9537E+01  0.5729E+01
    -13.126  0.5194E+01  0.6078E+01
    -13.059  0.5029E+01  0.6417E+01
    -12.992  0.3983E+01  0.6685E+01
    -12.924  0.4151E+01  0.6964E+01
    -12.857  0.5348E+01  0.7324E+01
    -12.790  0.5107E+01  0.7668E+01
    -12.722  0.1022E+01  0.7737E+01
    -12.655  0.2045E+01  0.7875E+01
    -12.588  0.1562E+01  0.7980E+01
    -12.520  0.2933E+00  0.8000E+01
    -12.453  0.5277E-02  0.8000E+01
    -12.386  0.4191E-05  0.8000E+01
    -12.319  0.1135E-09  0.8000E+01
    -12.251  0.8975E-16  0.8000E+01
    -12.184  0.0000E+00  0.8000E+01
    -12.117  0.0000E+00  0.8000E+01
    -12.049  0.0000E+00  0.8000E+01
    -11.982  0.0000E+00  0.8000E+01
    -11.915  0.0000E+00  0.8000E+01
    -11.847  0.0000E+00  0.8000E+01
    -11.780  0.0000E+00  0.8000E+01
    -11.713  0.0000E+00  0.8000E+01
    -11.645  0.0000E+00  0.8000E+01
    -11.578  0.0000E+00  0.8000E+01
    -11.511  0.0000E+00  0.8000E+01
    -11.443  0.0000E+00  0.8000E+01
    -11.376  0.0000E+00  0.8000E+01
    -11.309  0.0000E+00  0.8000E+01
    -11.241  0.0000E+00  0.8000E+01
    -11.174  0.0000E+00  0.8000E+01
    -11.107  0.0000E+00  0.8000E+01
    -11.039  0.0000E+00  0.8000E+01
    -10.972  0.0000E+00  0.8000E+01
    -10.905  0.0000E+00  0.8000E+01
    -10.837  0.0000E+00  0.8000E+01
    -10.770  0.0000E+00  0.8000E+01
    -10.703  0.0000E+00  0.8000E+01
    -10.636  0.0000E+00  0.8000E+01
    -10.568  0.0000E+00  0.8000E+01
    -10.501  0.0000E+00  0.8000E+01
    -10.434  0.0000E+00  0.8000E+01
    -10.366  0.0000E+00  0.8000E+01
    -10.299  0.0000E+00  0.8000E+01
    -10.232  0.0000E+00  0.8000E+01
    -10.164  0.0000E+00  0.8000E+01
    -10.097  0.0000E+00  0.8000E+01
    -10.030  0.0000E+00  0.8000E+01
     -9.962  0.0000E+00  0.8000E+01
     -9.895  0.0000E+00  0.8000E+01
     -9.828  0.0000E+00  0.8000E+01
     -9.760  0.0000E+00  0.8000E+01
     -9.693  0.0000E+00  0.8000E+01
     -9.626  0.0000E+00  0.8000E+01
     -9.558  0.0000E+00  0.8000E+01
     -9.491  0.0000E+00  0.8000E+01
     -9.424  0.0000E+00  0.8000E+01
     -9.356  0.0000E+00  0.8000E+01
     -9.289  0.0000E+00  0.8000E+01
     -9.222  0.0000E+00  0.8000E+01
     -9.154  0.0000E+00  0.8000E+01
     -9.087  0.0000E+00  0.8000E+01
     -9.020  0.0000E+00  0.8000E+01
     -8.953  0.0000E+00  0.8000E+01
     -8.885  0.0000E+00  0.8000E+01
     -8.818  0.0000E+00  0.8000E+01
     -8.751  0.0000E+00  0.8000E+01
     -8.683  0.0000E+00  0.8000E+01
     -8.616  0.0000E+00  0.8000E+01
     -8.549  0.0000E+00  0.8000E+01
     -8.481  0.0000E+00  0.8000E+01
     -8.414  0.0000E+00  0.8000E+01
     -8.347  0.0000E+00  0.8000E+01
     -8.279  0.0000E+00  0.8000E+01
     -8.212  0.0000E+00  0.8000E+01
     -8.145  0.0000E+00  0.8000E+01
     -8.077  0.0000E+00  0.8000E+01
     -8.010  0.0000E+00  0.8000E+01
     -7.943  0.0000E+00  0.8000E+01
     -7.875  0.0000E+00  0.8000E+01
     -7.808  0.0000E+00  0.8000E+01
     -7.741  0.0000E+00  0.8000E+01
     -7.673  0.0000E+00  0.8000E+01
     -7.606  0.0000E+00  0.8000E+01
     -7.539  0.0000E+00  0.8000E+01
     -7.471  0.0000E+00  0.8000E+01
     -7.404  0.0000E+00  0.8000E+01
     -7.337  0.0000E+00  0.8000E+01
     -7.269  0.0000E+00  0.8000E+01
     -7.202  0.0000E+00  0.8000E+01
     -7.135  0.0000E+00  0.8000E+01
     -7.068  0.0000E+00  0.8000E+01
     -7.000  0.0000E+00  0.8000E+01
     -6.933  0.0000E+00  0.8000E+01
     -6.866  0.0000E+00  0.8000E+01
     -6.798  0.0000E+00  0.8000E+01
     -6.731  0.0000E+00  0.8000E+01
     -6.664  0.0000E+00  0.8000E+01
     -6.596  0.0000E+00  0.8000E+01
     -6.529  0.0000E+00  0.8000E+01
     -6.462  0.0000E+00  0.8000E+01
     -6.394  0.0000E+00  0.8000E+01
     -6.327  0.0000E+00  0.8000E+01
     -6.260  0.0000E+00  0.8000E+01
     -6.192  0.0000E+00  0.8000E+01
     -6.125  0.0000E+00  0.8000E+01
     -6.058  0.0000E+00  0.8000E+01
     -5.990  0.0000E+00  0.8000E+01
     -5.923  0.0000E+00  0.8000E+01
     -5.856  0.0000E+00  0.8000E+01
     -5.788  0.0000E+00  0.8000E+01
     -5.721  0.0000E+00  0.8000E+01
     -5.654  0.0000E+00  0.8000E+01
     -5.586  0.0000E+00  0.8000E+01
     -5.519  0.0000E+00  0.8000E+01
     -5.452  0.5723E-12  0.8000E+01
     -5.385  0.9219E-07  0.8000E+01
     -5.317  0.5223E-03  0.8000E+01
     -5.250  0.1270E+00  0.8009E+01
     -5.183  0.1939E+01  0.8139E+01
     -5.115  0.3678E+01  0.8387E+01
     -5.048  0.3079E+01  0.8594E+01
     -4.981  0.5147E+01  0.8940E+01
     -4.913  0.8939E+01  0.9542E+01
     -4.846  0.7215E+01  0.1003E+02
     -4.779  0.5703E+01  0.1041E+02
     -4.711  0.2210E+01  0.1056E+02
     -4.644  0.5456E+00  0.1060E+02
     -4.577  0.3193E+01  0.1081E+02
     -4.509  0.3079E+01  0.1102E+02
     -4.442  0.1166E+01  0.1110E+02
     -4.375  0.3111E+01  0.1131E+02
     -4.307  0.3221E+01  0.1152E+02
     -4.240  0.1933E+01  0.1165E+02
     -4.173  0.8707E+00  0.1171E+02
     -4.105  0.4815E+00  0.1175E+02
     -4.038  0.9292E+00  0.1181E+02
     -3.971  0.9631E+00  0.1187E+02
     -3.903  0.8956E+00  0.1193E+02
     -3.836  0.4959E+00  0.1197E+02
     -3.769  0.4108E+00  0.1199E+02
     -3.701  0.2574E+00  0.1201E+02
     -3.634  0.5115E+00  0.1205E+02
     -3.567  0.4114E+00  0.1207E+02
     -3.500  0.1258E+01  0.1216E+02
     -3.432  0.2159E+01  0.1230E+02
     -3.365  0.2725E+01  0.1249E+02
     -3.298  0.3290E+01  0.1271E+02
     -3.230  0.5356E+01  0.1307E+02
     -3.163  0.4309E+01  0.1336E+02
     -3.096  0.4073E+01  0.1363E+02
     -3.028  0.2820E+01  0.1382E+02
     -2.961  0.3934E+01  0.1409E+02
     -2.894  0.3752E+01  0.1434E+02
     -2.826  0.4600E+01  0.1465E+02
     -2.759  0.4837E+01  0.1498E+02
     -2.692  0.5425E+01  0.1534E+02
     -2.624  0.4910E+01  0.1567E+02
     -2.557  0.4770E+01  0.1599E+02
     -2.490  0.5712E+01  0.1638E+02
     -2.422  0.4765E+01  0.1670E+02
     -2.355  0.5874E+01  0.1709E+02
     -2.288  0.4863E+01  0.1742E+02
     -2.220  0.6254E+01  0.1784E+02
     -2.153  0.8981E+01  0.1845E+02
     -2.086  0.7044E+01  0.1892E+02
     -2.018  0.6232E+01  0.1934E+02
     -1.951  0.3320E+01  0.1956E+02
     -1.884  0.2681E+01  0.1974E+02
     -1.817  0.1813E+01  0.1987E+02
     -1.749  0.1621E+01  0.1998E+02
     -1.682  0.9181E+00  0.2004E+02
     -1.615  0.2451E+00  0.2005E+02
     -1.547  0.1591E+00  0.2006E+02
     -1.480  0.1475E+01  0.2016E+02
     -1.413  0.2253E+01  0.2032E+02
     -1.345  0.2628E+01  0.2049E+02
     -1.278  0.4712E+01  0.2081E+02
     -1.211  0.5552E+01  0.2118E+02
     -1.143  0.5462E+01  0.2155E+02
     -1.076  0.4797E+01  0.2187E+02
     -1.009  0.4959E+01  0.2221E+02
     -0.941  0.5572E+01  0.2258E+02
     -0.874  0.5139E+01  0.2293E+02
     -0.807  0.4706E+01  0.2325E+02
     -0.739  0.7766E+01  0.2377E+02
     -0.672  0.6996E+01  0.2424E+02
     -0.605  0.6526E+01  0.2468E+02
     -0.537  0.8947E+01  0.2528E+02
     -0.470  0.1031E+02  0.2598E+02
     -0.403  0.8430E+01  0.2654E+02
     -0.335  0.8195E+01  0.2709E+02
     -0.268  0.7703E+01  0.2761E+02
     -0.201  0.3967E+01  0.2788E+02
     -0.134  0.1247E+01  0.2796E+02
     -0.066  0.4492E+00  0.2799E+02
      0.001  0.8098E-01  0.2800E+02
      0.068  0.1840E-02  0.2800E+02
      0.136  0.1925E-05  0.2800E+02
      0.203  0.6457E-10  0.2800E+02
      0.270  0.6731E-16  0.2800E+02
      0.338  0.0000E+00  0.2800E+02
      0.405  0.0000E+00  0.2800E+02
      0.472  0.0000E+00  0.2800E+02
      0.540  0.0000E+00  0.2800E+02
      0.607  0.0000E+00  0.2800E+02
      0.674  0.0000E+00  0.2800E+02
      0.742  0.0000E+00  0.2800E+02
      0.809  0.0000E+00  0.2800E+02
      0.876  0.0000E+00  0.2800E+02
      0.944  0.0000E+00  0.2800E+02
      1.011  0.0000E+00  0.2800E+02
      1.078  0.1451E-13  0.2800E+02
      1.146  0.4749E-08  0.2800E+02
      1.213  0.5588E-04  0.2800E+02
      1.280  0.2883E-01  0.2800E+02
      1.348  0.8297E+00  0.2806E+02
      1.415  0.2350E+01  0.2822E+02
      1.482  0.1707E+01  0.2833E+02
      1.550  0.1812E+01  0.2845E+02
      1.617  0.1761E+01  0.2857E+02
      1.684  0.3563E+01  0.2881E+02
      1.751  0.2510E+01  0.2898E+02
      1.819  0.6089E+01  0.2939E+02
      1.886  0.5454E+01  0.2976E+02
      1.953  0.2767E+01  0.2994E+02
      2.021  0.3787E+01  0.3020E+02
      2.088  0.6913E+01  0.3066E+02
      2.155  0.6750E+01  0.3112E+02
      2.223  0.5295E+01  0.3147E+02
      2.290  0.4105E+01  0.3175E+02
      2.357  0.2305E+01  0.3191E+02
      2.425  0.1267E+01  0.3199E+02
      2.492  0.1238E+00  0.3200E+02
      2.559  0.8228E-03  0.3200E+02
      2.627  0.2161E-06  0.3200E+02
      2.694  0.1793E-11  0.3200E+02
      2.761  0.0000E+00  0.3200E+02
      2.829  0.0000E+00  0.3200E+02
      2.896  0.0000E+00  0.3200E+02
      2.963  0.0000E+00  0.3200E+02
      3.031  0.0000E+00  0.3200E+02
      3.098  0.0000E+00  0.3200E+02
      3.165  0.0000E+00  0.3200E+02
      3.233  0.0000E+00  0.3200E+02
      3.300  0.0000E+00  0.3200E+02
