   3   3   0   0
  0.1399474E+02  0.3544241E-09  0.3544240E-09  0.4177499E-09  0.5000000E-15
  1.000000000000000E-004
  CAR 
 unknown system                          
     15.03959544    -33.04149224  301      2.87908701      1.00000000
    -33.041  0.0000E+00  0.0000E+00
    -32.881  0.0000E+00  0.0000E+00
    -32.721  0.0000E+00  0.0000E+00
    -32.561  0.0000E+00  0.0000E+00
    -32.400  0.0000E+00  0.0000E+00
    -32.240  0.0000E+00  0.0000E+00
    -32.080  0.0000E+00  0.0000E+00
    -31.920  0.0000E+00  0.0000E+00
    -31.759  0.0000E+00  0.0000E+00
    -31.599  0.0000E+00  0.0000E+00
    -31.439  0.0000E+00  0.0000E+00
    -31.279  0.0000E+00  0.0000E+00
    -31.118  0.2836E-14  0.4545E-15
    -30.958  0.3041E-03  0.4874E-04
    -30.798  0.3131E+01  0.5019E+00
    -30.637  0.9318E+01  0.1995E+01
    -30.477  0.2982E-01  0.2000E+01
    -30.317  0.1860E-10  0.2000E+01
    -30.157  0.0000E+00  0.2000E+01
    -29.996  0.0000E+00  0.2000E+01
    -29.836  0.0000E+00  0.2000E+01
    -29.676  0.0000E+00  0.2000E+01
    -29.516  0.0000E+00  0.2000E+01
    -29.355  0.0000E+00  0.2000E+01
    -29.195  0.0000E+00  0.2000E+01
    -29.035  0.0000E+00  0.2000E+01
    -28.874  0.0000E+00  0.2000E+01
    -28.714  0.0000E+00  0.2000E+01
    -28.554  0.0000E+00  0.2000E+01
    -28.394  0.0000E+00  0.2000E+01
    -28.233  0.0000E+00  0.2000E+01
    -28.073  0.0000E+00  0.2000E+01
    -27.913  0.0000E+00  0.2000E+01
    -27.753  0.0000E+00  0.2000E+01
    -27.592  0.0000E+00  0.2000E+01
    -27.432  0.0000E+00  0.2000E+01
    -27.272  0.0000E+00  0.2000E+01
    -27.111  0.0000E+00  0.2000E+01
    -26.951  0.0000E+00  0.2000E+01
    -26.791  0.0000E+00  0.2000E+01
    -26.631  0.0000E+00  0.2000E+01
    -26.470  0.0000E+00  0.2000E+01
    -26.310  0.0000E+00  0.2000E+01
    -26.150  0.0000E+00  0.2000E+01
    -25.990  0.0000E+00  0.2000E+01
    -25.829  0.0000E+00  0.2000E+01
    -25.669  0.0000E+00  0.2000E+01
    -25.509  0.0000E+00  0.2000E+01
    -25.349  0.0000E+00  0.2000E+01
    -25.188  0.0000E+00  0.2000E+01
    -25.028  0.0000E+00  0.2000E+01
    -24.868  0.0000E+00  0.2000E+01
    -24.707  0.0000E+00  0.2000E+01
    -24.547  0.0000E+00  0.2000E+01
    -24.387  0.0000E+00  0.2000E+01
    -24.227  0.0000E+00  0.2000E+01
    -24.066  0.0000E+00  0.2000E+01
    -23.906  0.0000E+00  0.2000E+01
    -23.746  0.0000E+00  0.2000E+01
    -23.586  0.0000E+00  0.2000E+01
    -23.425  0.0000E+00  0.2000E+01
    -23.265  0.0000E+00  0.2000E+01
    -23.105  0.0000E+00  0.2000E+01
    -22.944  0.0000E+00  0.2000E+01
    -22.784  0.0000E+00  0.2000E+01
    -22.624  0.0000E+00  0.2000E+01
    -22.464  0.0000E+00  0.2000E+01
    -22.303  0.0000E+00  0.2000E+01
    -22.143  0.0000E+00  0.2000E+01
    -21.983  0.0000E+00  0.2000E+01
    -21.823  0.0000E+00  0.2000E+01
    -21.662  0.0000E+00  0.2000E+01
    -21.502  0.0000E+00  0.2000E+01
    -21.342  0.0000E+00  0.2000E+01
    -21.181  0.0000E+00  0.2000E+01
    -21.021  0.0000E+00  0.2000E+01
    -20.861  0.0000E+00  0.2000E+01
    -20.701  0.0000E+00  0.2000E+01
    -20.540  0.0000E+00  0.2000E+01
    -20.380  0.0000E+00  0.2000E+01
    -20.220  0.0000E+00  0.2000E+01
    -20.060  0.0000E+00  0.2000E+01
    -19.899  0.0000E+00  0.2000E+01
    -19.739  0.0000E+00  0.2000E+01
    -19.579  0.0000E+00  0.2000E+01
    -19.419  0.0000E+00  0.2000E+01
    -19.258  0.0000E+00  0.2000E+01
    -19.098  0.0000E+00  0.2000E+01
    -18.938  0.0000E+00  0.2000E+01
    -18.777  0.4664E-10  0.2000E+01
    -18.617  0.1287E-01  0.2002E+01
    -18.457  0.2873E+01  0.2463E+01
    -18.297  0.7196E+01  0.3616E+01
    -18.136  0.2366E+01  0.3995E+01
    -17.976  0.3034E-01  0.4000E+01
    -17.816  0.2871E-07  0.4000E+01
    -17.656  0.0000E+00  0.4000E+01
    -17.495  0.0000E+00  0.4000E+01
    -17.335  0.0000E+00  0.4000E+01
    -17.175  0.0000E+00  0.4000E+01
    -17.014  0.0000E+00  0.4000E+01
    -16.854  0.0000E+00  0.4000E+01
    -16.694  0.0000E+00  0.4000E+01
    -16.534  0.0000E+00  0.4000E+01
    -16.373  0.0000E+00  0.4000E+01
    -16.213  0.0000E+00  0.4000E+01
    -16.053  0.0000E+00  0.4000E+01
    -15.893  0.0000E+00  0.4000E+01
    -15.732  0.0000E+00  0.4000E+01
    -15.572  0.0000E+00  0.4000E+01
    -15.412  0.0000E+00  0.4000E+01
    -15.251  0.0000E+00  0.4000E+01
    -15.091  0.0000E+00  0.4000E+01
    -14.931  0.0000E+00  0.4000E+01
    -14.771  0.0000E+00  0.4000E+01
    -14.610  0.0000E+00  0.4000E+01
    -14.450  0.8121E-13  0.4000E+01
    -14.290  0.6913E-03  0.4000E+01
    -14.130  0.1679E+00  0.4027E+01
    -13.969  0.2864E+00  0.4073E+01
    -13.809  0.5813E+00  0.4166E+01
    -13.649  0.5281E+00  0.4251E+01
    -13.489  0.1041E+01  0.4418E+01
    -13.328  0.9464E+00  0.4569E+01
    -13.168  0.3558E+01  0.5139E+01
    -13.008  0.4506E+01  0.5862E+01
    -12.847  0.6241E+01  0.6862E+01
    -12.687  0.8062E+01  0.8154E+01
    -12.527  0.8325E+01  0.9488E+01
    -12.367  0.3194E+01  0.1000E+02
    -12.206  0.2965E-03  0.1000E+02
    -12.046  0.2314E-01  0.1000E+02
    -11.886  0.1506E+01  0.1024E+02
    -11.726  0.3062E+01  0.1074E+02
    -11.565  0.2530E+01  0.1114E+02
    -11.405  0.1592E+01  0.1140E+02
    -11.245  0.1650E+01  0.1166E+02
    -11.084  0.1006E+01  0.1182E+02
    -10.924  0.6091E+00  0.1192E+02
    -10.764  0.3752E+00  0.1198E+02
    -10.604  0.1267E+00  0.1200E+02
    -10.443  0.1685E-04  0.1200E+02
    -10.283  0.0000E+00  0.1200E+02
    -10.123  0.0000E+00  0.1200E+02
     -9.963  0.0000E+00  0.1200E+02
     -9.802  0.0000E+00  0.1200E+02
     -9.642  0.0000E+00  0.1200E+02
     -9.482  0.0000E+00  0.1200E+02
     -9.321  0.0000E+00  0.1200E+02
     -9.161  0.0000E+00  0.1200E+02
     -9.001  0.0000E+00  0.1200E+02
     -8.841  0.0000E+00  0.1200E+02
     -8.680  0.0000E+00  0.1200E+02
     -8.520  0.0000E+00  0.1200E+02
     -8.360  0.0000E+00  0.1200E+02
     -8.200  0.0000E+00  0.1200E+02
     -8.039  0.0000E+00  0.1200E+02
     -7.879  0.0000E+00  0.1200E+02
     -7.719  0.0000E+00  0.1200E+02
     -7.559  0.0000E+00  0.1200E+02
     -7.398  0.0000E+00  0.1200E+02
     -7.238  0.0000E+00  0.1200E+02
     -7.078  0.0000E+00  0.1200E+02
     -6.917  0.0000E+00  0.1200E+02
     -6.757  0.0000E+00  0.1200E+02
     -6.597  0.0000E+00  0.1200E+02
     -6.437  0.0000E+00  0.1200E+02
     -6.276  0.0000E+00  0.1200E+02
     -6.116  0.0000E+00  0.1200E+02
     -5.956  0.0000E+00  0.1200E+02
     -5.796  0.0000E+00  0.1200E+02
     -5.635  0.0000E+00  0.1200E+02
     -5.475  0.0000E+00  0.1200E+02
     -5.315  0.0000E+00  0.1200E+02
     -5.154  0.0000E+00  0.1200E+02
     -4.994  0.0000E+00  0.1200E+02
     -4.834  0.0000E+00  0.1200E+02
     -4.674  0.0000E+00  0.1200E+02
     -4.513  0.0000E+00  0.1200E+02
     -4.353  0.0000E+00  0.1200E+02
     -4.193  0.0000E+00  0.1200E+02
     -4.033  0.1519E-10  0.1200E+02
     -3.872  0.1648E-02  0.1200E+02
     -3.712  0.1080E+00  0.1202E+02
     -3.552  0.4337E+00  0.1209E+02
     -3.391  0.6413E+00  0.1219E+02
     -3.231  0.8296E+00  0.1232E+02
     -3.071  0.1222E+01  0.1252E+02
     -2.911  0.1609E+01  0.1278E+02
     -2.750  0.2407E+01  0.1316E+02
     -2.590  0.3483E+01  0.1372E+02
     -2.430  0.1651E+01  0.1399E+02
     -2.270  0.1952E+00  0.1402E+02
     -2.109  0.8244E+00  0.1415E+02
     -1.949  0.2650E+01  0.1457E+02
     -1.789  0.3212E+01  0.1509E+02
     -1.629  0.4010E+01  0.1573E+02
     -1.468  0.2594E+01  0.1615E+02
     -1.308  0.4495E+01  0.1687E+02
     -1.148  0.3081E+01  0.1736E+02
     -0.987  0.2579E+01  0.1777E+02
     -0.827  0.1203E+01  0.1797E+02
     -0.667  0.2090E+00  0.1800E+02
     -0.507  0.4177E-04  0.1800E+02
     -0.346  0.0000E+00  0.1800E+02
     -0.186  0.0000E+00  0.1800E+02
     -0.026  0.1021E-12  0.1800E+02
      0.134  0.2849E-03  0.1800E+02
      0.295  0.2932E-01  0.1800E+02
      0.455  0.2628E+00  0.1805E+02
      0.615  0.2798E+00  0.1809E+02
      0.776  0.3744E+00  0.1815E+02
      0.936  0.8769E+00  0.1829E+02
      1.096  0.3612E+00  0.1835E+02
      1.256  0.1212E+01  0.1854E+02
      1.417  0.1128E+01  0.1873E+02
      1.577  0.1587E+01  0.1898E+02
      1.737  0.1969E+01  0.1930E+02
      1.897  0.2205E+01  0.1965E+02
      2.058  0.2670E+01  0.2008E+02
      2.218  0.3260E+01  0.2060E+02
      2.378  0.4829E+01  0.2137E+02
      2.539  0.2896E+01  0.2184E+02
      2.699  0.9846E+00  0.2199E+02
      2.859  0.3237E-01  0.2200E+02
      3.019  0.9897E-08  0.2200E+02
      3.180  0.0000E+00  0.2200E+02
      3.340  0.0000E+00  0.2200E+02
      3.500  0.0000E+00  0.2200E+02
      3.660  0.0000E+00  0.2200E+02
      3.821  0.0000E+00  0.2200E+02
      3.981  0.0000E+00  0.2200E+02
      4.141  0.0000E+00  0.2200E+02
      4.301  0.0000E+00  0.2200E+02
      4.462  0.0000E+00  0.2200E+02
      4.622  0.0000E+00  0.2200E+02
      4.782  0.0000E+00  0.2200E+02
      4.943  0.0000E+00  0.2200E+02
      5.103  0.0000E+00  0.2200E+02
      5.263  0.0000E+00  0.2200E+02
      5.423  0.1344E-12  0.2200E+02
      5.584  0.4968E-03  0.2200E+02
      5.744  0.2946E+00  0.2205E+02
      5.904  0.1661E+01  0.2231E+02
      6.064  0.2242E+01  0.2267E+02
      6.225  0.1484E+01  0.2291E+02
      6.385  0.1370E+01  0.2313E+02
      6.545  0.1714E+01  0.2341E+02
      6.706  0.1266E+01  0.2361E+02
      6.866  0.1266E+01  0.2381E+02
      7.026  0.1322E+01  0.2402E+02
      7.186  0.1137E+01  0.2420E+02
      7.347  0.5196E+00  0.2429E+02
      7.507  0.5008E+00  0.2437E+02
      7.667  0.4773E+00  0.2445E+02
      7.827  0.2554E+00  0.2449E+02
      7.988  0.4465E+00  0.2456E+02
      8.148  0.2835E+00  0.2460E+02
      8.308  0.4903E+00  0.2468E+02
      8.469  0.3863E+00  0.2474E+02
      8.629  0.9822E+00  0.2490E+02
      8.789  0.7427E+00  0.2502E+02
      8.949  0.1611E+01  0.2528E+02
      9.110  0.1733E+01  0.2556E+02
      9.270  0.1564E+01  0.2581E+02
      9.430  0.3511E+01  0.2637E+02
      9.590  0.2788E+01  0.2682E+02
      9.751  0.1212E+01  0.2701E+02
      9.911  0.1424E+01  0.2724E+02
     10.071  0.1619E+01  0.2750E+02
     10.231  0.2710E+01  0.2793E+02
     10.392  0.2872E+01  0.2839E+02
     10.552  0.3092E+01  0.2889E+02
     10.712  0.4110E+01  0.2955E+02
     10.873  0.4522E+01  0.3027E+02
     11.033  0.2718E+01  0.3071E+02
     11.193  0.3062E+01  0.3120E+02
     11.353  0.2175E+01  0.3155E+02
     11.514  0.7321E+00  0.3166E+02
     11.674  0.6774E+00  0.3177E+02
     11.834  0.4686E+00  0.3185E+02
     11.994  0.3046E+00  0.3190E+02
     12.155  0.5232E+00  0.3198E+02
     12.315  0.1208E-01  0.3198E+02
     12.475  0.7608E-02  0.3198E+02
     12.636  0.4809E-01  0.3199E+02
     12.796  0.2782E-02  0.3199E+02
     12.956  0.5284E-01  0.3200E+02
     13.116  0.1091E-03  0.3200E+02
     13.277  0.0000E+00  0.3200E+02
     13.437  0.0000E+00  0.3200E+02
     13.597  0.0000E+00  0.3200E+02
     13.757  0.0000E+00  0.3200E+02
     13.918  0.0000E+00  0.3200E+02
     14.078  0.0000E+00  0.3200E+02
     14.238  0.0000E+00  0.3200E+02
     14.399  0.0000E+00  0.3200E+02
     14.559  0.0000E+00  0.3200E+02
     14.719  0.0000E+00  0.3200E+02
     14.879  0.0000E+00  0.3200E+02
     15.040  0.0000E+00  0.3200E+02
