K4 O2                                   
   1.00000000000000     
     6.3750094900000001    0.0000000000000000    0.0000000000000000
     0.0000000000000000    4.5156542799999997    0.0000000000000000
     0.0000000000000000    0.0000000000000000    4.5020130900000002
   K    O 
     4     2
Direct
     0.2499017700000010    0.9975429300000016    0.5000000000000000
     0.2500982299999990    0.4975429300000016    0.0000000000000000
     0.7499017700000010    0.5024570699999984    0.0000000000000000
     0.7500982299999990    0.0024570699999984    0.5000000000000000
     0.0000000000000000    0.0000000000000000    0.0000000000000000
     0.5000000000000000    0.5000000000000000    0.5000000000000000
 
  0.00000000E+00  0.00000000E+00  0.00000000E+00
  0.00000000E+00  0.00000000E+00  0.00000000E+00
  0.00000000E+00  0.00000000E+00  0.00000000E+00
  0.00000000E+00  0.00000000E+00  0.00000000E+00
  0.00000000E+00  0.00000000E+00  0.00000000E+00
  0.00000000E+00  0.00000000E+00  0.00000000E+00
