       N       E                     dE             d eps       ncg     rms          rms(c)
DAV:   1     0.440811036175E+03    0.44081E+03   -0.25355E+04  8064   0.179E+03
DAV:   2     0.451575471706E+01   -0.43630E+03   -0.42130E+03 10212   0.478E+02
DAV:   3    -0.274327181974E+02   -0.31948E+02   -0.31820E+02 11172   0.110E+02
DAV:   4    -0.290098876405E+02   -0.15772E+01   -0.15738E+01 11800   0.201E+01
DAV:   5    -0.290592125994E+02   -0.49325E-01   -0.49317E-01 11696   0.318E+00    0.150E+01
DAV:   6    -0.206538097843E+02    0.84054E+01   -0.52754E+01  8748   0.276E+01    0.102E+01
DAV:   7    -0.203858002886E+02    0.26801E+00   -0.53115E+00 10644   0.110E+01    0.782E+00
DAV:   8    -0.202216740001E+02    0.16413E+00   -0.32168E-01  9456   0.342E+00    0.340E+00
DAV:   9    -0.202077730095E+02    0.13901E-01   -0.11139E-01 10676   0.206E+00    0.299E-01
DAV:  10    -0.202155928058E+02   -0.78198E-02   -0.12381E-02 11208   0.702E-01    0.251E-01
DAV:  11    -0.202173407673E+02   -0.17480E-02   -0.95527E-03  9624   0.434E-01    0.737E-02
DAV:  12    -0.202171533345E+02    0.18743E-03   -0.13552E-03 11596   0.184E-01    0.295E-02
DAV:  13    -0.202172320099E+02   -0.78675E-04   -0.16201E-04  9228   0.650E-02    0.244E-02
DAV:  14    -0.202172316613E+02    0.34852E-06   -0.16023E-05  8880   0.217E-02    0.774E-03
DAV:  15    -0.202172322872E+02   -0.62583E-06   -0.20847E-06  8412   0.824E-03
   1 F= -.20217232E+02 E0= -.20217232E+02  d E =-.340687E-17
