   6   6   0   0
  0.2830873E+02  0.7841569E-09  0.7841569E-09  0.6886357E-09  0.5000000E-15
  1.000000000000000E-004
  CAR 
 unknown system                          
     14.06612215    -39.90688725  301      5.78509067      1.00000000
    -39.907  0.0000E+00  0.0000E+00
    -39.727  0.0000E+00  0.0000E+00
    -39.547  0.0000E+00  0.0000E+00
    -39.367  0.0000E+00  0.0000E+00
    -39.187  0.0000E+00  0.0000E+00
    -39.007  0.0000E+00  0.0000E+00
    -38.827  0.0000E+00  0.0000E+00
    -38.648  0.0000E+00  0.0000E+00
    -38.468  0.0000E+00  0.0000E+00
    -38.288  0.0000E+00  0.0000E+00
    -38.108  0.0000E+00  0.0000E+00
    -37.928  0.0000E+00  0.0000E+00
    -37.748  0.1382E-14  0.2487E-15
    -37.568  0.2640E-01  0.4750E-02
    -37.388  0.6368E+02  0.1146E+02
    -37.208  0.2995E+01  0.1200E+02
    -37.028  0.0000E+00  0.1200E+02
    -36.848  0.0000E+00  0.1200E+02
    -36.669  0.0000E+00  0.1200E+02
    -36.489  0.0000E+00  0.1200E+02
    -36.309  0.0000E+00  0.1200E+02
    -36.129  0.0000E+00  0.1200E+02
    -35.949  0.0000E+00  0.1200E+02
    -35.769  0.0000E+00  0.1200E+02
    -35.589  0.0000E+00  0.1200E+02
    -35.409  0.0000E+00  0.1200E+02
    -35.229  0.0000E+00  0.1200E+02
    -35.049  0.0000E+00  0.1200E+02
    -34.869  0.0000E+00  0.1200E+02
    -34.689  0.0000E+00  0.1200E+02
    -34.510  0.0000E+00  0.1200E+02
    -34.330  0.0000E+00  0.1200E+02
    -34.150  0.0000E+00  0.1200E+02
    -33.970  0.0000E+00  0.1200E+02
    -33.790  0.0000E+00  0.1200E+02
    -33.610  0.0000E+00  0.1200E+02
    -33.430  0.0000E+00  0.1200E+02
    -33.250  0.0000E+00  0.1200E+02
    -33.070  0.0000E+00  0.1200E+02
    -32.890  0.0000E+00  0.1200E+02
    -32.710  0.0000E+00  0.1200E+02
    -32.531  0.0000E+00  0.1200E+02
    -32.351  0.0000E+00  0.1200E+02
    -32.171  0.0000E+00  0.1200E+02
    -31.991  0.0000E+00  0.1200E+02
    -31.811  0.0000E+00  0.1200E+02
    -31.631  0.0000E+00  0.1200E+02
    -31.451  0.0000E+00  0.1200E+02
    -31.271  0.0000E+00  0.1200E+02
    -31.091  0.0000E+00  0.1200E+02
    -30.911  0.0000E+00  0.1200E+02
    -30.731  0.0000E+00  0.1200E+02
    -30.552  0.0000E+00  0.1200E+02
    -30.372  0.0000E+00  0.1200E+02
    -30.192  0.0000E+00  0.1200E+02
    -30.012  0.0000E+00  0.1200E+02
    -29.832  0.0000E+00  0.1200E+02
    -29.652  0.0000E+00  0.1200E+02
    -29.472  0.0000E+00  0.1200E+02
    -29.292  0.0000E+00  0.1200E+02
    -29.112  0.0000E+00  0.1200E+02
    -28.932  0.0000E+00  0.1200E+02
    -28.752  0.0000E+00  0.1200E+02
    -28.573  0.0000E+00  0.1200E+02
    -28.393  0.0000E+00  0.1200E+02
    -28.213  0.0000E+00  0.1200E+02
    -28.033  0.0000E+00  0.1200E+02
    -27.853  0.0000E+00  0.1200E+02
    -27.673  0.0000E+00  0.1200E+02
    -27.493  0.0000E+00  0.1200E+02
    -27.313  0.0000E+00  0.1200E+02
    -27.133  0.0000E+00  0.1200E+02
    -26.953  0.0000E+00  0.1200E+02
    -26.773  0.0000E+00  0.1200E+02
    -26.594  0.0000E+00  0.1200E+02
    -26.414  0.0000E+00  0.1200E+02
    -26.234  0.0000E+00  0.1200E+02
    -26.054  0.0000E+00  0.1200E+02
    -25.874  0.0000E+00  0.1200E+02
    -25.694  0.0000E+00  0.1200E+02
    -25.514  0.0000E+00  0.1200E+02
    -25.334  0.0000E+00  0.1200E+02
    -25.154  0.0000E+00  0.1200E+02
    -24.974  0.0000E+00  0.1200E+02
    -24.794  0.0000E+00  0.1200E+02
    -24.615  0.0000E+00  0.1200E+02
    -24.435  0.0000E+00  0.1200E+02
    -24.255  0.0000E+00  0.1200E+02
    -24.075  0.0000E+00  0.1200E+02
    -23.895  0.0000E+00  0.1200E+02
    -23.715  0.0000E+00  0.1200E+02
    -23.535  0.0000E+00  0.1200E+02
    -23.355  0.0000E+00  0.1200E+02
    -23.175  0.0000E+00  0.1200E+02
    -22.995  0.0000E+00  0.1200E+02
    -22.815  0.0000E+00  0.1200E+02
    -22.636  0.0000E+00  0.1200E+02
    -22.456  0.0000E+00  0.1200E+02
    -22.276  0.0000E+00  0.1200E+02
    -22.096  0.0000E+00  0.1200E+02
    -21.916  0.0000E+00  0.1200E+02
    -21.736  0.0000E+00  0.1200E+02
    -21.556  0.0000E+00  0.1200E+02
    -21.376  0.0000E+00  0.1200E+02
    -21.196  0.0000E+00  0.1200E+02
    -21.016  0.0000E+00  0.1200E+02
    -20.836  0.0000E+00  0.1200E+02
    -20.657  0.0000E+00  0.1200E+02
    -20.477  0.0000E+00  0.1200E+02
    -20.297  0.0000E+00  0.1200E+02
    -20.117  0.0000E+00  0.1200E+02
    -19.937  0.0000E+00  0.1200E+02
    -19.757  0.0000E+00  0.1200E+02
    -19.577  0.0000E+00  0.1200E+02
    -19.397  0.0000E+00  0.1200E+02
    -19.217  0.0000E+00  0.1200E+02
    -19.037  0.0000E+00  0.1200E+02
    -18.857  0.0000E+00  0.1200E+02
    -18.678  0.0000E+00  0.1200E+02
    -18.498  0.0000E+00  0.1200E+02
    -18.318  0.0000E+00  0.1200E+02
    -18.138  0.0000E+00  0.1200E+02
    -17.958  0.0000E+00  0.1200E+02
    -17.778  0.0000E+00  0.1200E+02
    -17.598  0.0000E+00  0.1200E+02
    -17.418  0.0000E+00  0.1200E+02
    -17.238  0.0000E+00  0.1200E+02
    -17.058  0.0000E+00  0.1200E+02
    -16.878  0.0000E+00  0.1200E+02
    -16.698  0.0000E+00  0.1200E+02
    -16.519  0.0000E+00  0.1200E+02
    -16.339  0.0000E+00  0.1200E+02
    -16.159  0.0000E+00  0.1200E+02
    -15.979  0.0000E+00  0.1200E+02
    -15.799  0.0000E+00  0.1200E+02
    -15.619  0.0000E+00  0.1200E+02
    -15.439  0.0000E+00  0.1200E+02
    -15.259  0.0000E+00  0.1200E+02
    -15.079  0.0000E+00  0.1200E+02
    -14.899  0.0000E+00  0.1200E+02
    -14.719  0.0000E+00  0.1200E+02
    -14.540  0.0000E+00  0.1200E+02
    -14.360  0.0000E+00  0.1200E+02
    -14.180  0.0000E+00  0.1200E+02
    -14.000  0.0000E+00  0.1200E+02
    -13.820  0.0000E+00  0.1200E+02
    -13.640  0.0000E+00  0.1200E+02
    -13.460  0.0000E+00  0.1200E+02
    -13.280  0.0000E+00  0.1200E+02
    -13.100  0.0000E+00  0.1200E+02
    -12.920  0.0000E+00  0.1200E+02
    -12.740  0.0000E+00  0.1200E+02
    -12.561  0.0000E+00  0.1200E+02
    -12.381  0.0000E+00  0.1200E+02
    -12.201  0.0000E+00  0.1200E+02
    -12.021  0.0000E+00  0.1200E+02
    -11.841  0.0000E+00  0.1200E+02
    -11.661  0.0000E+00  0.1200E+02
    -11.481  0.1104E-04  0.1200E+02
    -11.301  0.4829E+01  0.1287E+02
    -11.121  0.1031E+03  0.3142E+02
    -10.941  0.1079E+03  0.5083E+02
    -10.761  0.6495E+01  0.5200E+02
    -10.582  0.3235E-04  0.5200E+02
    -10.402  0.0000E+00  0.5200E+02
    -10.222  0.0000E+00  0.5200E+02
    -10.042  0.0000E+00  0.5200E+02
     -9.862  0.0000E+00  0.5200E+02
     -9.682  0.0000E+00  0.5200E+02
     -9.502  0.0000E+00  0.5200E+02
     -9.322  0.0000E+00  0.5200E+02
     -9.142  0.0000E+00  0.5200E+02
     -8.962  0.0000E+00  0.5200E+02
     -8.782  0.0000E+00  0.5200E+02
     -8.603  0.0000E+00  0.5200E+02
     -8.423  0.0000E+00  0.5200E+02
     -8.243  0.0000E+00  0.5200E+02
     -8.063  0.0000E+00  0.5200E+02
     -7.883  0.0000E+00  0.5200E+02
     -7.703  0.0000E+00  0.5200E+02
     -7.523  0.0000E+00  0.5200E+02
     -7.343  0.0000E+00  0.5200E+02
     -7.163  0.0000E+00  0.5200E+02
     -6.983  0.0000E+00  0.5200E+02
     -6.803  0.0000E+00  0.5200E+02
     -6.624  0.0000E+00  0.5200E+02
     -6.444  0.0000E+00  0.5200E+02
     -6.264  0.0000E+00  0.5200E+02
     -6.084  0.0000E+00  0.5200E+02
     -5.904  0.0000E+00  0.5200E+02
     -5.724  0.0000E+00  0.5200E+02
     -5.544  0.0000E+00  0.5200E+02
     -5.364  0.3405E-06  0.5200E+02
     -5.184  0.6731E-01  0.5201E+02
     -5.004  0.5352E+00  0.5211E+02
     -4.824  0.4687E+00  0.5219E+02
     -4.645  0.9483E+00  0.5236E+02
     -4.465  0.1567E+01  0.5265E+02
     -4.285  0.8603E+00  0.5280E+02
     -4.105  0.1709E+01  0.5311E+02
     -3.925  0.1198E+01  0.5332E+02
     -3.745  0.9556E+00  0.5349E+02
     -3.565  0.1963E+01  0.5385E+02
     -3.385  0.2213E+01  0.5425E+02
     -3.205  0.2611E+01  0.5472E+02
     -3.025  0.3525E+01  0.5535E+02
     -2.845  0.3363E+01  0.5596E+02
     -2.666  0.2845E+01  0.5647E+02
     -2.486  0.2192E+01  0.5686E+02
     -2.306  0.2753E+01  0.5736E+02
     -2.126  0.2580E+01  0.5782E+02
     -1.946  0.1880E+01  0.5816E+02
     -1.766  0.2780E+01  0.5866E+02
     -1.586  0.1729E+01  0.5897E+02
     -1.406  0.1795E+01  0.5929E+02
     -1.226  0.1324E+01  0.5953E+02
     -1.046  0.6623E+00  0.5965E+02
     -0.866  0.7736E+00  0.5979E+02
     -0.687  0.8057E+00  0.5994E+02
     -0.507  0.2863E+00  0.5999E+02
     -0.327  0.7477E-01  0.6000E+02
     -0.147  0.6688E-09  0.6000E+02
      0.033  0.0000E+00  0.6000E+02
      0.213  0.0000E+00  0.6000E+02
      0.393  0.0000E+00  0.6000E+02
      0.573  0.9116E-11  0.6000E+02
      0.753  0.9092E-02  0.6000E+02
      0.933  0.7999E-01  0.6002E+02
      1.113  0.3097E+00  0.6007E+02
      1.293  0.3152E+00  0.6013E+02
      1.472  0.8203E+00  0.6028E+02
      1.652  0.1334E+01  0.6052E+02
      1.832  0.1756E+01  0.6083E+02
      2.012  0.2687E+01  0.6132E+02
      2.192  0.2267E+01  0.6172E+02
      2.372  0.2107E+01  0.6210E+02
      2.552  0.1078E+01  0.6230E+02
      2.732  0.3789E+01  0.6298E+02
      2.912  0.1995E+01  0.6334E+02
      3.092  0.2993E+01  0.6388E+02
      3.272  0.3789E+01  0.6456E+02
      3.451  0.3638E+01  0.6521E+02
      3.631  0.3461E+01  0.6583E+02
      3.811  0.3143E+01  0.6640E+02
      3.991  0.2616E+01  0.6687E+02
      4.171  0.3595E+01  0.6752E+02
      4.351  0.3106E+01  0.6808E+02
      4.531  0.2787E+01  0.6858E+02
      4.711  0.2532E+01  0.6903E+02
      4.891  0.2532E+01  0.6949E+02
      5.071  0.3421E+01  0.7010E+02
      5.251  0.3869E+01  0.7080E+02
      5.430  0.1439E+01  0.7106E+02
      5.610  0.2840E+01  0.7157E+02
      5.790  0.2474E+01  0.7202E+02
      5.970  0.3914E+01  0.7272E+02
      6.150  0.1579E+01  0.7300E+02
      6.330  0.2969E+01  0.7354E+02
      6.510  0.4609E+01  0.7437E+02
      6.690  0.2102E+01  0.7474E+02
      6.870  0.2670E+01  0.7523E+02
      7.050  0.3690E+01  0.7589E+02
      7.230  0.2940E+01  0.7642E+02
      7.409  0.4151E+01  0.7716E+02
      7.589  0.4445E+01  0.7796E+02
      7.769  0.3346E+01  0.7857E+02
      7.949  0.2586E+01  0.7903E+02
      8.129  0.2546E+01  0.7949E+02
      8.309  0.3894E+01  0.8019E+02
      8.489  0.4052E+01  0.8092E+02
      8.669  0.2570E+01  0.8138E+02
      8.849  0.3775E+01  0.8206E+02
      9.029  0.4024E+01  0.8278E+02
      9.209  0.3986E+01  0.8350E+02
      9.388  0.2818E+01  0.8401E+02
      9.568  0.3240E+01  0.8459E+02
      9.748  0.2457E+01  0.8503E+02
      9.928  0.2808E+01  0.8554E+02
     10.108  0.2494E+01  0.8599E+02
     10.288  0.2053E+01  0.8636E+02
     10.468  0.1697E+01  0.8666E+02
     10.648  0.2444E+01  0.8710E+02
     10.828  0.1594E+01  0.8739E+02
     11.008  0.9959E+00  0.8757E+02
     11.188  0.9282E+00  0.8774E+02
     11.367  0.9340E+00  0.8790E+02
     11.547  0.1926E+00  0.8794E+02
     11.727  0.3458E+00  0.8800E+02
     11.907  0.1576E-03  0.8800E+02
     12.087  0.0000E+00  0.8800E+02
     12.267  0.0000E+00  0.8800E+02
     12.447  0.0000E+00  0.8800E+02
     12.627  0.0000E+00  0.8800E+02
     12.807  0.0000E+00  0.8800E+02
     12.987  0.0000E+00  0.8800E+02
     13.167  0.0000E+00  0.8800E+02
     13.346  0.0000E+00  0.8800E+02
     13.526  0.0000E+00  0.8800E+02
     13.706  0.0000E+00  0.8800E+02
     13.886  0.0000E+00  0.8800E+02
     14.066  0.0000E+00  0.8800E+02
