       N       E                     dE             d eps       ncg     rms          rms(c)
DAV:   1     0.497323247189E+03    0.49732E+03   -0.29928E+04  4232   0.141E+03
DAV:   2     0.134977525354E+02   -0.48383E+03   -0.46570E+03  5064   0.368E+02
DAV:   3    -0.276661621545E+02   -0.41164E+02   -0.40795E+02  5968   0.868E+01
DAV:   4    -0.293663592648E+02   -0.17002E+01   -0.16926E+01  6368   0.174E+01
DAV:   5    -0.294707411267E+02   -0.10438E+00   -0.10436E+00  6160   0.292E+00    0.845E+00
DAV:   6    -0.278005207498E+02    0.16702E+01   -0.20909E+00  4956   0.481E+00    0.611E+00
DAV:   7    -0.274467501165E+02    0.35377E+00   -0.16470E+00  5008   0.379E+00    0.328E+00
DAV:   8    -0.274620050476E+02   -0.15255E-01   -0.34088E-01  5460   0.185E+00    0.451E-01
DAV:   9    -0.274633169000E+02   -0.13119E-02   -0.20994E-02  5392   0.556E-01    0.275E-01
DAV:  10    -0.274665864072E+02   -0.32695E-02   -0.83787E-03  4704   0.333E-01    0.157E-01
DAV:  11    -0.274668431219E+02   -0.25671E-03   -0.92611E-04  5840   0.116E-01    0.104E-01
DAV:  12    -0.274671002053E+02   -0.25708E-03   -0.14869E-03  4644   0.123E-01    0.366E-02
DAV:  13    -0.274671447308E+02   -0.44525E-04   -0.19827E-04  5552   0.484E-02    0.128E-02
DAV:  14    -0.274671589176E+02   -0.14187E-04   -0.22343E-05  4928   0.160E-02    0.527E-03
DAV:  15    -0.274671641170E+02   -0.51994E-05   -0.10260E-05  4460   0.105E-02    0.351E-03
DAV:  16    -0.274671646858E+02   -0.56881E-06   -0.10623E-06  3944   0.362E-03
   1 F= -.27467165E+02 E0= -.27463901E+02  d E =-.652704E-02
