K5As4
1.0
      6.2369141      -0.2558862       0.0247908
      0.2833614       6.4793680      -0.2448473
      0.3641272       2.7659159       7.5149200
  K     As  
  5     4   
Direct
      0.7373690       0.1979429       0.9736194
      0.8265809       0.4938016       0.2899093
      0.5000000       0.0000000       0.5000000
      0.1734191       0.5061984       0.7100907
      0.2626310       0.8020571       0.0263806
      0.9870079       0.0309009       0.6451211
      0.2405243       0.2515867       0.1588161
      0.7594757       0.7484133       0.8411839
      0.0129921       0.9690991       0.3548789
