I2 F14                                  
   1.00000000000000     
     5.2368215200000003    0.0399375100000000    0.0000000000000000
    -1.8065564100000000    4.9155114199999996    0.0000000000000000
     0.0000000000000000    0.0000000000000000    8.9070774299999993
   I    F 
     2    14
Direct
     0.6332367099999985    0.6332367099999985    0.0000000000000000
     0.1332367099999985    0.1332367099999985    0.5000000000000000
     0.9005402800000013    0.5492885600000008    0.8912307599999991
     0.7997300600000017    0.9646859300000017    0.4040331300000020
     0.2997300600000017    0.4646859300000017    0.0959668699999980
     0.2684700599999985    0.0123541399999993    0.3373628599999989
     0.0123541399999993    0.2684700599999985    0.6626371400000011
     0.5123541399999993    0.7684700599999985    0.8373628599999989
     0.7684700599999985    0.5123541399999993    0.1626371400000011
     0.0492885600000008    0.4005402800000013    0.3912307599999991
     0.9434932500000031    0.9434932500000031    0.0000000000000000
     0.4646869299999992    0.2997300600000017    0.9040331300000020
     0.4434932500000031    0.4434932500000031    0.5000000000000000
     0.4005402800000013    0.0492885600000008    0.6087692400000009
     0.5492885600000008    0.9005402800000013    0.1087692400000009
     0.9646869299999992    0.7997300600000017    0.5959668699999980
 
  0.00000000E+00  0.00000000E+00  0.00000000E+00
  0.00000000E+00  0.00000000E+00  0.00000000E+00
  0.00000000E+00  0.00000000E+00  0.00000000E+00
  0.00000000E+00  0.00000000E+00  0.00000000E+00
  0.00000000E+00  0.00000000E+00  0.00000000E+00
  0.00000000E+00  0.00000000E+00  0.00000000E+00
  0.00000000E+00  0.00000000E+00  0.00000000E+00
  0.00000000E+00  0.00000000E+00  0.00000000E+00
  0.00000000E+00  0.00000000E+00  0.00000000E+00
  0.00000000E+00  0.00000000E+00  0.00000000E+00
  0.00000000E+00  0.00000000E+00  0.00000000E+00
  0.00000000E+00  0.00000000E+00  0.00000000E+00
  0.00000000E+00  0.00000000E+00  0.00000000E+00
  0.00000000E+00  0.00000000E+00  0.00000000E+00
  0.00000000E+00  0.00000000E+00  0.00000000E+00
  0.00000000E+00  0.00000000E+00  0.00000000E+00
