       N       E                     dE             d eps       ncg     rms          rms(c)
DAV:   1     0.989167010238E+03    0.98917E+03   -0.68846E+04  9600   0.185E+03
DAV:   2    -0.918241091887E+00   -0.99009E+03   -0.97504E+03 11952   0.420E+02
DAV:   3    -0.629185794348E+02   -0.62000E+02   -0.61425E+02 10656   0.111E+02
DAV:   4    -0.638179665778E+02   -0.89939E+00   -0.89602E+00 10984   0.145E+01
DAV:   5    -0.638347777955E+02   -0.16811E-01   -0.16797E-01 10544   0.190E+00    0.405E+01
DAV:   6    -0.494484562640E+02    0.14386E+02   -0.41020E+01 10632   0.304E+01    0.228E+01
DAV:   7    -0.490719591325E+02    0.37650E+00   -0.45519E+00 10704   0.864E+00    0.109E+01
DAV:   8    -0.490034855234E+02    0.68474E-01   -0.16757E-01 10656   0.201E+00    0.651E+00
DAV:   9    -0.489880872301E+02    0.15398E-01   -0.63406E-02 10752   0.149E+00    0.969E-01
DAV:  10    -0.489875560341E+02    0.53120E-03   -0.50749E-03 10192   0.360E-01    0.494E-01
DAV:  11    -0.489871103665E+02    0.44567E-03   -0.22231E-03 10504   0.256E-01    0.917E-02
DAV:  12    -0.489870968938E+02    0.13473E-04   -0.24842E-04 10184   0.865E-02    0.421E-02
DAV:  13    -0.489870975658E+02   -0.67209E-06   -0.21064E-05 10280   0.241E-02    0.380E-02
DAV:  14    -0.489871026031E+02   -0.50372E-05   -0.85770E-06  9608   0.194E-02    0.131E-02
DAV:  15    -0.489871031759E+02   -0.57280E-06   -0.70679E-07  4800   0.493E-03
   1 F= -.48987103E+02 E0= -.48987103E+02  d E =-.194806E-10
