I2F14
1.0
      5.2368215       0.0399375       0.0000000
     -1.8065564       4.9155114       0.0000000
      0.0000000       0.0000000       8.9070774
  I     F   
  2     14  
Direct
      0.6332367       0.6332367       0.0000000
      0.1332367       0.1332367       0.5000000
      0.9005403       0.5492886       0.8912308
      0.7997301       0.9646859       0.4040331
      0.2997301       0.4646859       0.0959669
      0.2684701       0.0123541       0.3373629
      0.0123541       0.2684701       0.6626371
      0.5123541       0.7684701       0.8373629
      0.7684701       0.5123541       0.1626371
      0.0492886       0.4005403       0.3912308
      0.9434933       0.9434933       0.0000000
      0.4646869       0.2997301       0.9040331
      0.4434933       0.4434933       0.5000000
      0.4005403       0.0492886       0.6087692
      0.5492886       0.9005403       0.1087692
      0.9646869       0.7997301       0.5959669
