   4   4   0   0
  0.1052193E+02  0.3200089E-09  0.3200089E-09  0.4840212E-09  0.5000000E-15
  1.000000000000000E-004
  CAR 
 unknown system                          
     26.31184384    -45.93914700  301      1.77661154      1.00000000
    -45.939  0.0000E+00  0.0000E+00
    -45.698  0.0000E+00  0.0000E+00
    -45.457  0.0000E+00  0.0000E+00
    -45.217  0.0000E+00  0.0000E+00
    -44.976  0.0000E+00  0.0000E+00
    -44.735  0.0000E+00  0.0000E+00
    -44.494  0.0000E+00  0.0000E+00
    -44.253  0.0000E+00  0.0000E+00
    -44.012  0.0000E+00  0.0000E+00
    -43.772  0.0000E+00  0.0000E+00
    -43.531  0.0000E+00  0.0000E+00
    -43.290  0.0000E+00  0.0000E+00
    -43.049  0.0000E+00  0.0000E+00
    -42.808  0.2849E-04  0.6861E-05
    -42.567  0.8214E+01  0.1978E+01
    -42.327  0.9001E-01  0.2000E+01
    -42.086  0.0000E+00  0.2000E+01
    -41.845  0.0000E+00  0.2000E+01
    -41.604  0.0000E+00  0.2000E+01
    -41.363  0.0000E+00  0.2000E+01
    -41.122  0.0000E+00  0.2000E+01
    -40.882  0.0000E+00  0.2000E+01
    -40.641  0.0000E+00  0.2000E+01
    -40.400  0.0000E+00  0.2000E+01
    -40.159  0.0000E+00  0.2000E+01
    -39.918  0.0000E+00  0.2000E+01
    -39.677  0.0000E+00  0.2000E+01
    -39.437  0.0000E+00  0.2000E+01
    -39.196  0.0000E+00  0.2000E+01
    -38.955  0.0000E+00  0.2000E+01
    -38.714  0.0000E+00  0.2000E+01
    -38.473  0.0000E+00  0.2000E+01
    -38.232  0.0000E+00  0.2000E+01
    -37.992  0.0000E+00  0.2000E+01
    -37.751  0.0000E+00  0.2000E+01
    -37.510  0.0000E+00  0.2000E+01
    -37.269  0.0000E+00  0.2000E+01
    -37.028  0.0000E+00  0.2000E+01
    -36.787  0.0000E+00  0.2000E+01
    -36.547  0.0000E+00  0.2000E+01
    -36.306  0.0000E+00  0.2000E+01
    -36.065  0.0000E+00  0.2000E+01
    -35.824  0.0000E+00  0.2000E+01
    -35.583  0.0000E+00  0.2000E+01
    -35.342  0.0000E+00  0.2000E+01
    -35.101  0.0000E+00  0.2000E+01
    -34.861  0.0000E+00  0.2000E+01
    -34.620  0.0000E+00  0.2000E+01
    -34.379  0.0000E+00  0.2000E+01
    -34.138  0.0000E+00  0.2000E+01
    -33.897  0.0000E+00  0.2000E+01
    -33.656  0.0000E+00  0.2000E+01
    -33.416  0.0000E+00  0.2000E+01
    -33.175  0.0000E+00  0.2000E+01
    -32.934  0.0000E+00  0.2000E+01
    -32.693  0.0000E+00  0.2000E+01
    -32.452  0.0000E+00  0.2000E+01
    -32.211  0.0000E+00  0.2000E+01
    -31.971  0.0000E+00  0.2000E+01
    -31.730  0.0000E+00  0.2000E+01
    -31.489  0.0000E+00  0.2000E+01
    -31.248  0.0000E+00  0.2000E+01
    -31.007  0.0000E+00  0.2000E+01
    -30.766  0.0000E+00  0.2000E+01
    -30.526  0.0000E+00  0.2000E+01
    -30.285  0.0000E+00  0.2000E+01
    -30.044  0.0000E+00  0.2000E+01
    -29.803  0.0000E+00  0.2000E+01
    -29.562  0.0000E+00  0.2000E+01
    -29.321  0.0000E+00  0.2000E+01
    -29.081  0.0000E+00  0.2000E+01
    -28.840  0.0000E+00  0.2000E+01
    -28.599  0.0000E+00  0.2000E+01
    -28.358  0.0000E+00  0.2000E+01
    -28.117  0.0000E+00  0.2000E+01
    -27.876  0.0000E+00  0.2000E+01
    -27.636  0.0000E+00  0.2000E+01
    -27.395  0.0000E+00  0.2000E+01
    -27.154  0.0000E+00  0.2000E+01
    -26.913  0.0000E+00  0.2000E+01
    -26.672  0.0000E+00  0.2000E+01
    -26.431  0.0000E+00  0.2000E+01
    -26.191  0.0000E+00  0.2000E+01
    -25.950  0.0000E+00  0.2000E+01
    -25.709  0.0000E+00  0.2000E+01
    -25.468  0.0000E+00  0.2000E+01
    -25.227  0.0000E+00  0.2000E+01
    -24.986  0.0000E+00  0.2000E+01
    -24.746  0.0000E+00  0.2000E+01
    -24.505  0.0000E+00  0.2000E+01
    -24.264  0.0000E+00  0.2000E+01
    -24.023  0.0000E+00  0.2000E+01
    -23.782  0.0000E+00  0.2000E+01
    -23.541  0.0000E+00  0.2000E+01
    -23.301  0.0000E+00  0.2000E+01
    -23.060  0.0000E+00  0.2000E+01
    -22.819  0.0000E+00  0.2000E+01
    -22.578  0.0000E+00  0.2000E+01
    -22.337  0.0000E+00  0.2000E+01
    -22.096  0.0000E+00  0.2000E+01
    -21.855  0.0000E+00  0.2000E+01
    -21.615  0.1107E-03  0.2000E+01
    -21.374  0.1780E+01  0.2429E+01
    -21.133  0.6448E+01  0.3982E+01
    -20.892  0.7553E-01  0.4000E+01
    -20.651  0.0000E+00  0.4000E+01
    -20.410  0.0000E+00  0.4000E+01
    -20.170  0.0000E+00  0.4000E+01
    -19.929  0.0000E+00  0.4000E+01
    -19.688  0.0000E+00  0.4000E+01
    -19.447  0.0000E+00  0.4000E+01
    -19.206  0.0000E+00  0.4000E+01
    -18.965  0.0000E+00  0.4000E+01
    -18.725  0.0000E+00  0.4000E+01
    -18.484  0.0000E+00  0.4000E+01
    -18.243  0.0000E+00  0.4000E+01
    -18.002  0.0000E+00  0.4000E+01
    -17.761  0.0000E+00  0.4000E+01
    -17.520  0.0000E+00  0.4000E+01
    -17.280  0.2673E-04  0.4000E+01
    -17.039  0.2826E+01  0.4681E+01
    -16.798  0.5479E+01  0.6000E+01
    -16.557  0.2402E-06  0.6000E+01
    -16.316  0.0000E+00  0.6000E+01
    -16.075  0.0000E+00  0.6000E+01
    -15.835  0.0000E+00  0.6000E+01
    -15.594  0.0000E+00  0.6000E+01
    -15.353  0.0000E+00  0.6000E+01
    -15.112  0.0000E+00  0.6000E+01
    -14.871  0.0000E+00  0.6000E+01
    -14.630  0.0000E+00  0.6000E+01
    -14.390  0.0000E+00  0.6000E+01
    -14.149  0.0000E+00  0.6000E+01
    -13.908  0.0000E+00  0.6000E+01
    -13.667  0.0000E+00  0.6000E+01
    -13.426  0.0000E+00  0.6000E+01
    -13.185  0.0000E+00  0.6000E+01
    -12.945  0.0000E+00  0.6000E+01
    -12.704  0.0000E+00  0.6000E+01
    -12.463  0.0000E+00  0.6000E+01
    -12.222  0.0000E+00  0.6000E+01
    -11.981  0.0000E+00  0.6000E+01
    -11.740  0.0000E+00  0.6000E+01
    -11.500  0.0000E+00  0.6000E+01
    -11.259  0.0000E+00  0.6000E+01
    -11.018  0.0000E+00  0.6000E+01
    -10.777  0.0000E+00  0.6000E+01
    -10.536  0.0000E+00  0.6000E+01
    -10.295  0.0000E+00  0.6000E+01
    -10.054  0.0000E+00  0.6000E+01
     -9.814  0.0000E+00  0.6000E+01
     -9.573  0.0000E+00  0.6000E+01
     -9.332  0.0000E+00  0.6000E+01
     -9.091  0.0000E+00  0.6000E+01
     -8.850  0.0000E+00  0.6000E+01
     -8.609  0.0000E+00  0.6000E+01
     -8.369  0.0000E+00  0.6000E+01
     -8.128  0.0000E+00  0.6000E+01
     -7.887  0.0000E+00  0.6000E+01
     -7.646  0.0000E+00  0.6000E+01
     -7.405  0.0000E+00  0.6000E+01
     -7.164  0.0000E+00  0.6000E+01
     -6.924  0.0000E+00  0.6000E+01
     -6.683  0.4562E-11  0.6000E+01
     -6.442  0.1944E+00  0.6047E+01
     -6.201  0.4049E+01  0.7022E+01
     -5.960  0.2580E+01  0.7643E+01
     -5.719  0.1126E+01  0.7914E+01
     -5.479  0.2082E+01  0.8416E+01
     -5.238  0.3961E+01  0.9370E+01
     -4.997  0.4961E+01  0.1056E+02
     -4.756  0.4637E+01  0.1168E+02
     -4.515  0.1451E+01  0.1203E+02
     -4.274  0.7970E+00  0.1222E+02
     -4.034  0.1170E+01  0.1250E+02
     -3.793  0.1434E+01  0.1285E+02
     -3.552  0.1766E+01  0.1328E+02
     -3.311  0.1916E+01  0.1374E+02
     -3.070  0.1092E+01  0.1400E+02
     -2.829  0.1627E-02  0.1400E+02
     -2.589  0.0000E+00  0.1400E+02
     -2.348  0.0000E+00  0.1400E+02
     -2.107  0.0000E+00  0.1400E+02
     -1.866  0.0000E+00  0.1400E+02
     -1.625  0.0000E+00  0.1400E+02
     -1.384  0.0000E+00  0.1400E+02
     -1.144  0.0000E+00  0.1400E+02
     -0.903  0.2429E-05  0.1400E+02
     -0.662  0.1453E+00  0.1403E+02
     -0.421  0.1260E+01  0.1434E+02
     -0.180  0.2079E+01  0.1484E+02
      0.061  0.1861E+01  0.1529E+02
      0.301  0.1396E+01  0.1562E+02
      0.542  0.1889E+01  0.1608E+02
      0.783  0.2642E+01  0.1671E+02
      1.024  0.2912E+01  0.1742E+02
      1.265  0.2148E+01  0.1793E+02
      1.506  0.2782E+00  0.1800E+02
      1.747  0.5743E-04  0.1800E+02
      1.987  0.0000E+00  0.1800E+02
      2.228  0.0000E+00  0.1800E+02
      2.469  0.0000E+00  0.1800E+02
      2.710  0.0000E+00  0.1800E+02
      2.951  0.0000E+00  0.1800E+02
      3.192  0.0000E+00  0.1800E+02
      3.432  0.0000E+00  0.1800E+02
      3.673  0.0000E+00  0.1800E+02
      3.914  0.0000E+00  0.1800E+02
      4.155  0.0000E+00  0.1800E+02
      4.396  0.0000E+00  0.1800E+02
      4.637  0.0000E+00  0.1800E+02
      4.877  0.2500E-14  0.1800E+02
      5.118  0.1719E-01  0.1800E+02
      5.359  0.7036E+00  0.1817E+02
      5.600  0.2491E+01  0.1877E+02
      5.841  0.1828E+01  0.1921E+02
      6.082  0.2105E+01  0.1972E+02
      6.322  0.2516E+01  0.2033E+02
      6.563  0.2435E+01  0.2091E+02
      6.804  0.2380E+01  0.2149E+02
      7.045  0.1561E+01  0.2186E+02
      7.286  0.5207E+00  0.2199E+02
      7.527  0.1557E+00  0.2202E+02
      7.767  0.2542E+00  0.2209E+02
      8.008  0.3608E+00  0.2217E+02
      8.249  0.1099E-03  0.2217E+02
      8.490  0.3289E+00  0.2225E+02
      8.731  0.5951E+00  0.2240E+02
      8.972  0.2875E+00  0.2246E+02
      9.212  0.1477E+00  0.2250E+02
      9.453  0.6186E+00  0.2265E+02
      9.694  0.9240E+00  0.2287E+02
      9.935  0.6022E+00  0.2302E+02
     10.176  0.6273E+00  0.2317E+02
     10.417  0.8491E+00  0.2337E+02
     10.657  0.7149E+00  0.2354E+02
     10.898  0.5725E+00  0.2368E+02
     11.139  0.5310E+00  0.2381E+02
     11.380  0.7649E+00  0.2399E+02
     11.621  0.1184E+01  0.2428E+02
     11.862  0.1577E+01  0.2466E+02
     12.102  0.1555E+01  0.2503E+02
     12.343  0.2109E+01  0.2554E+02
     12.584  0.1638E+01  0.2594E+02
     12.825  0.2231E+01  0.2647E+02
     13.066  0.2320E+01  0.2703E+02
     13.307  0.3138E+01  0.2779E+02
     13.548  0.2315E+01  0.2835E+02
     13.788  0.2798E+01  0.2902E+02
     14.029  0.1635E+01  0.2941E+02
     14.270  0.1353E+01  0.2974E+02
     14.511  0.2122E+01  0.3025E+02
     14.752  0.2456E+01  0.3084E+02
     14.993  0.2046E+01  0.3133E+02
     15.233  0.1991E+01  0.3181E+02
     15.474  0.9044E+00  0.3203E+02
     15.715  0.1270E+01  0.3234E+02
     15.956  0.1914E+01  0.3280E+02
     16.197  0.1987E+01  0.3328E+02
     16.438  0.2116E+01  0.3379E+02
     16.678  0.2228E+01  0.3432E+02
     16.919  0.2103E+01  0.3483E+02
     17.160  0.1322E+01  0.3515E+02
     17.401  0.8908E+00  0.3536E+02
     17.642  0.1086E+01  0.3562E+02
     17.883  0.1468E+01  0.3598E+02
     18.123  0.8143E+00  0.3617E+02
     18.364  0.7560E+00  0.3636E+02
     18.605  0.8283E+00  0.3656E+02
     18.846  0.5558E+00  0.3669E+02
     19.087  0.8863E+00  0.3690E+02
     19.328  0.7301E+00  0.3708E+02
     19.568  0.1468E+01  0.3743E+02
     19.809  0.1256E+01  0.3773E+02
     20.050  0.7611E+00  0.3792E+02
     20.291  0.1078E+01  0.3818E+02
     20.532  0.1217E+01  0.3847E+02
     20.773  0.1084E+01  0.3873E+02
     21.013  0.9250E+00  0.3895E+02
     21.254  0.1429E+01  0.3930E+02
     21.495  0.1009E+01  0.3954E+02
     21.736  0.7820E+00  0.3973E+02
     21.977  0.3890E+00  0.3982E+02
     22.218  0.3410E+00  0.3991E+02
     22.458  0.1246E+00  0.3994E+02
     22.699  0.7277E-01  0.3995E+02
     22.940  0.6912E-01  0.3997E+02
     23.181  0.1246E+00  0.4000E+02
     23.422  0.4222E-06  0.4000E+02
     23.663  0.0000E+00  0.4000E+02
     23.903  0.0000E+00  0.4000E+02
     24.144  0.0000E+00  0.4000E+02
     24.385  0.0000E+00  0.4000E+02
     24.626  0.0000E+00  0.4000E+02
     24.867  0.0000E+00  0.4000E+02
     25.108  0.0000E+00  0.4000E+02
     25.348  0.0000E+00  0.4000E+02
     25.589  0.0000E+00  0.4000E+02
     25.830  0.0000E+00  0.4000E+02
     26.071  0.0000E+00  0.4000E+02
     26.312  0.0000E+00  0.4000E+02
