       N       E                     dE             d eps       ncg     rms          rms(c)
DAV:   1     0.800586490192E+02    0.80059E+02   -0.91296E+03 19440   0.961E+02
DAV:   2    -0.240127930693E+02   -0.10407E+03   -0.99049E+02 24972   0.242E+02
DAV:   3    -0.293081108291E+02   -0.52953E+01   -0.52383E+01 26604   0.506E+01
DAV:   4    -0.294739813153E+02   -0.16587E+00   -0.16554E+00 26972   0.772E+00
DAV:   5    -0.294752468875E+02   -0.12656E-02   -0.12655E-02 24148   0.651E-01    0.101E+01
DAV:   6    -0.276499704141E+02    0.18253E+01   -0.24856E+00 21568   0.131E+01    0.512E+00
DAV:   7    -0.274713753975E+02    0.17860E+00   -0.49808E-01 23664   0.551E+00    0.308E+00
DAV:   8    -0.274341045151E+02    0.37271E-01   -0.16020E-01 23640   0.239E+00    0.112E+00
DAV:   9    -0.274339758446E+02    0.12867E-03   -0.70791E-03 24172   0.753E-01    0.310E-01
DAV:  10    -0.274346624701E+02   -0.68663E-03   -0.16589E-03 21352   0.387E-01    0.775E-02
DAV:  11    -0.274347524803E+02   -0.90010E-04   -0.21885E-04 22516   0.108E-01    0.263E-02
DAV:  12    -0.274347846222E+02   -0.32142E-04   -0.31950E-05 21612   0.471E-02    0.116E-02
DAV:  13    -0.274347854677E+02   -0.84551E-06   -0.39796E-06 23664   0.177E-02
   1 F= -.27434785E+02 E0= -.27434785E+02  d E =-.528042E-28
