  11  11   0   0
  0.1365851E+02  0.5237133E-09  0.5237133E-09  0.5477834E-09  0.5000000E-15
  1.000000000000000E-004
  CAR 
 unknown system                          
     10.61478885    -35.18864073  301      0.56540963      1.00000000
    -35.189  0.0000E+00  0.0000E+00
    -35.036  0.0000E+00  0.0000E+00
    -34.883  0.0000E+00  0.0000E+00
    -34.731  0.0000E+00  0.0000E+00
    -34.578  0.0000E+00  0.0000E+00
    -34.425  0.0000E+00  0.0000E+00
    -34.273  0.0000E+00  0.0000E+00
    -34.120  0.0000E+00  0.0000E+00
    -33.967  0.0000E+00  0.0000E+00
    -33.815  0.0000E+00  0.0000E+00
    -33.662  0.0000E+00  0.0000E+00
    -33.509  0.0000E+00  0.0000E+00
    -33.357  0.8196E-11  0.1251E-11
    -33.204  0.3541E-01  0.5407E-02
    -33.051  0.1225E+02  0.1875E+01
    -32.898  0.8156E+00  0.2000E+01
    -32.746  0.3145E-07  0.2000E+01
    -32.593  0.0000E+00  0.2000E+01
    -32.440  0.0000E+00  0.2000E+01
    -32.288  0.0000E+00  0.2000E+01
    -32.135  0.0000E+00  0.2000E+01
    -31.982  0.0000E+00  0.2000E+01
    -31.830  0.0000E+00  0.2000E+01
    -31.677  0.0000E+00  0.2000E+01
    -31.524  0.0000E+00  0.2000E+01
    -31.372  0.0000E+00  0.2000E+01
    -31.219  0.0000E+00  0.2000E+01
    -31.066  0.0000E+00  0.2000E+01
    -30.914  0.0000E+00  0.2000E+01
    -30.761  0.0000E+00  0.2000E+01
    -30.608  0.0000E+00  0.2000E+01
    -30.456  0.0000E+00  0.2000E+01
    -30.303  0.0000E+00  0.2000E+01
    -30.150  0.0000E+00  0.2000E+01
    -29.998  0.0000E+00  0.2000E+01
    -29.845  0.0000E+00  0.2000E+01
    -29.692  0.0000E+00  0.2000E+01
    -29.540  0.0000E+00  0.2000E+01
    -29.387  0.0000E+00  0.2000E+01
    -29.234  0.0000E+00  0.2000E+01
    -29.082  0.0000E+00  0.2000E+01
    -28.929  0.0000E+00  0.2000E+01
    -28.776  0.0000E+00  0.2000E+01
    -28.623  0.0000E+00  0.2000E+01
    -28.471  0.0000E+00  0.2000E+01
    -28.318  0.0000E+00  0.2000E+01
    -28.165  0.0000E+00  0.2000E+01
    -28.013  0.0000E+00  0.2000E+01
    -27.860  0.0000E+00  0.2000E+01
    -27.707  0.0000E+00  0.2000E+01
    -27.555  0.0000E+00  0.2000E+01
    -27.402  0.0000E+00  0.2000E+01
    -27.249  0.0000E+00  0.2000E+01
    -27.097  0.0000E+00  0.2000E+01
    -26.944  0.0000E+00  0.2000E+01
    -26.791  0.0000E+00  0.2000E+01
    -26.639  0.0000E+00  0.2000E+01
    -26.486  0.0000E+00  0.2000E+01
    -26.333  0.0000E+00  0.2000E+01
    -26.181  0.0000E+00  0.2000E+01
    -26.028  0.0000E+00  0.2000E+01
    -25.875  0.0000E+00  0.2000E+01
    -25.723  0.0000E+00  0.2000E+01
    -25.570  0.0000E+00  0.2000E+01
    -25.417  0.6399E-16  0.2000E+01
    -25.265  0.5589E-04  0.2000E+01
    -25.112  0.2680E+01  0.2409E+01
    -24.959  0.9779E+01  0.3902E+01
    -24.807  0.7716E+01  0.5080E+01
    -24.654  0.6018E+01  0.5999E+01
    -24.501  0.6155E-02  0.6000E+01
    -24.348  0.0000E+00  0.6000E+01
    -24.196  0.0000E+00  0.6000E+01
    -24.043  0.0000E+00  0.6000E+01
    -23.890  0.0000E+00  0.6000E+01
    -23.738  0.0000E+00  0.6000E+01
    -23.585  0.0000E+00  0.6000E+01
    -23.432  0.0000E+00  0.6000E+01
    -23.280  0.0000E+00  0.6000E+01
    -23.127  0.0000E+00  0.6000E+01
    -22.974  0.0000E+00  0.6000E+01
    -22.822  0.0000E+00  0.6000E+01
    -22.669  0.0000E+00  0.6000E+01
    -22.516  0.0000E+00  0.6000E+01
    -22.364  0.0000E+00  0.6000E+01
    -22.211  0.0000E+00  0.6000E+01
    -22.058  0.0000E+00  0.6000E+01
    -21.906  0.0000E+00  0.6000E+01
    -21.753  0.0000E+00  0.6000E+01
    -21.600  0.0000E+00  0.6000E+01
    -21.448  0.0000E+00  0.6000E+01
    -21.295  0.0000E+00  0.6000E+01
    -21.142  0.0000E+00  0.6000E+01
    -20.990  0.0000E+00  0.6000E+01
    -20.837  0.0000E+00  0.6000E+01
    -20.684  0.0000E+00  0.6000E+01
    -20.532  0.0000E+00  0.6000E+01
    -20.379  0.0000E+00  0.6000E+01
    -20.226  0.0000E+00  0.6000E+01
    -20.074  0.0000E+00  0.6000E+01
    -19.921  0.1163E-15  0.6000E+01
    -19.768  0.6366E-04  0.6000E+01
    -19.615  0.2413E+01  0.6368E+01
    -19.463  0.1784E+02  0.9092E+01
    -19.310  0.1212E+02  0.1094E+02
    -19.157  0.1840E+02  0.1375E+02
    -19.005  0.1619E+01  0.1400E+02
    -18.852  0.2731E-05  0.1400E+02
    -18.699  0.0000E+00  0.1400E+02
    -18.547  0.0000E+00  0.1400E+02
    -18.394  0.0000E+00  0.1400E+02
    -18.241  0.0000E+00  0.1400E+02
    -18.089  0.0000E+00  0.1400E+02
    -17.936  0.0000E+00  0.1400E+02
    -17.783  0.0000E+00  0.1400E+02
    -17.631  0.0000E+00  0.1400E+02
    -17.478  0.0000E+00  0.1400E+02
    -17.325  0.0000E+00  0.1400E+02
    -17.173  0.0000E+00  0.1400E+02
    -17.020  0.0000E+00  0.1400E+02
    -16.867  0.0000E+00  0.1400E+02
    -16.715  0.0000E+00  0.1400E+02
    -16.562  0.0000E+00  0.1400E+02
    -16.409  0.0000E+00  0.1400E+02
    -16.257  0.0000E+00  0.1400E+02
    -16.104  0.0000E+00  0.1400E+02
    -15.951  0.2355E-04  0.1400E+02
    -15.799  0.1286E+01  0.1420E+02
    -15.646  0.6567E+01  0.1520E+02
    -15.493  0.5266E+01  0.1600E+02
    -15.340  0.1680E+02  0.1857E+02
    -15.188  0.4289E+01  0.1922E+02
    -15.035  0.3721E+01  0.1979E+02
    -14.882  0.3309E+01  0.2030E+02
    -14.730  0.2657E+01  0.2070E+02
    -14.577  0.6393E+00  0.2080E+02
    -14.424  0.2390E+01  0.2116E+02
    -14.272  0.8087E+01  0.2240E+02
    -14.119  0.8615E-02  0.2240E+02
    -13.966  0.7792E+01  0.2359E+02
    -13.814  0.2683E+01  0.2400E+02
    -13.661  0.2296E+01  0.2435E+02
    -13.508  0.1138E+02  0.2609E+02
    -13.356  0.1128E+02  0.2781E+02
    -13.203  0.1244E+01  0.2800E+02
    -13.050  0.4665E-05  0.2800E+02
    -12.898  0.0000E+00  0.2800E+02
    -12.745  0.0000E+00  0.2800E+02
    -12.592  0.0000E+00  0.2800E+02
    -12.440  0.0000E+00  0.2800E+02
    -12.287  0.0000E+00  0.2800E+02
    -12.134  0.0000E+00  0.2800E+02
    -11.982  0.0000E+00  0.2800E+02
    -11.829  0.0000E+00  0.2800E+02
    -11.676  0.0000E+00  0.2800E+02
    -11.524  0.0000E+00  0.2800E+02
    -11.371  0.0000E+00  0.2800E+02
    -11.218  0.0000E+00  0.2800E+02
    -11.066  0.0000E+00  0.2800E+02
    -10.913  0.0000E+00  0.2800E+02
    -10.760  0.0000E+00  0.2800E+02
    -10.607  0.0000E+00  0.2800E+02
    -10.455  0.0000E+00  0.2800E+02
    -10.302  0.0000E+00  0.2800E+02
    -10.149  0.0000E+00  0.2800E+02
     -9.997  0.0000E+00  0.2800E+02
     -9.844  0.0000E+00  0.2800E+02
     -9.691  0.0000E+00  0.2800E+02
     -9.539  0.0000E+00  0.2800E+02
     -9.386  0.0000E+00  0.2800E+02
     -9.233  0.0000E+00  0.2800E+02
     -9.081  0.3490E-16  0.2800E+02
     -8.928  0.1774E-04  0.2800E+02
     -8.775  0.1015E+01  0.2816E+02
     -8.623  0.1189E+02  0.2997E+02
     -8.470  0.1156E+02  0.3174E+02
     -8.317  0.1726E+01  0.3200E+02
     -8.165  0.5967E-02  0.3200E+02
     -8.012  0.4797E-10  0.3200E+02
     -7.859  0.1901E-03  0.3200E+02
     -7.707  0.7100E+00  0.3211E+02
     -7.554  0.8180E+01  0.3336E+02
     -7.401  0.7708E+01  0.3453E+02
     -7.249  0.1077E+02  0.3618E+02
     -7.096  0.2079E+01  0.3650E+02
     -6.943  0.4240E+01  0.3714E+02
     -6.791  0.3721E+00  0.3720E+02
     -6.638  0.1443E-01  0.3720E+02
     -6.485  0.3904E+01  0.3780E+02
     -6.332  0.1321E+01  0.3800E+02
     -6.180  0.3380E-03  0.3800E+02
     -6.027  0.4263E-09  0.3800E+02
     -5.874  0.8184E-01  0.3801E+02
     -5.722  0.5015E+01  0.3878E+02
     -5.569  0.1433E+00  0.3880E+02
     -5.416  0.2955E-07  0.3880E+02
     -5.264  0.8397E-01  0.3881E+02
     -5.111  0.8071E+01  0.4005E+02
     -4.958  0.1226E+02  0.4192E+02
     -4.806  0.2252E+02  0.4535E+02
     -4.653  0.1657E+02  0.4788E+02
     -4.500  0.7549E+00  0.4800E+02
     -4.348  0.1928E-05  0.4800E+02
     -4.195  0.2473E-13  0.4800E+02
     -4.042  0.6437E-03  0.4800E+02
     -3.890  0.9036E+00  0.4814E+02
     -3.737  0.3511E+01  0.4867E+02
     -3.584  0.5396E+01  0.4950E+02
     -3.432  0.4085E+01  0.5012E+02
     -3.279  0.3873E+01  0.5071E+02
     -3.126  0.4064E+01  0.5133E+02
     -2.974  0.3903E+01  0.5193E+02
     -2.821  0.4626E+00  0.5200E+02
     -2.668  0.5435E-03  0.5200E+02
     -2.516  0.6071E+01  0.5293E+02
     -2.363  0.4408E+01  0.5360E+02
     -2.210  0.1578E-02  0.5360E+02
     -2.057  0.5169E+01  0.5439E+02
     -1.905  0.6984E+01  0.5546E+02
     -1.752  0.3350E+01  0.5597E+02
     -1.599  0.2212E+00  0.5600E+02
     -1.447  0.9311E+00  0.5614E+02
     -1.294  0.1091E+01  0.5631E+02
     -1.141  0.3458E+00  0.5636E+02
     -0.989  0.2177E+01  0.5669E+02
     -0.836  0.5950E+01  0.5760E+02
     -0.683  0.8303E+01  0.5887E+02
     -0.531  0.7968E+01  0.6009E+02
     -0.378  0.3791E+01  0.6067E+02
     -0.225  0.9388E+01  0.6210E+02
     -0.073  0.9770E+01  0.6359E+02
      0.080  0.6023E+01  0.6451E+02
      0.233  0.7618E+01  0.6567E+02
      0.385  0.1878E+02  0.6854E+02
      0.538  0.8665E+01  0.6986E+02
      0.691  0.3615E+01  0.7042E+02
      0.843  0.7630E+01  0.7158E+02
      0.996  0.2743E+01  0.7200E+02
      1.149  0.4051E-03  0.7200E+02
      1.301  0.6466E-01  0.7201E+02
      1.454  0.3472E+01  0.7254E+02
      1.607  0.7073E+01  0.7362E+02
      1.759  0.5082E+01  0.7440E+02
      1.912  0.7723E-01  0.7441E+02
      2.065  0.7514E+01  0.7555E+02
      2.217  0.7452E+01  0.7669E+02
      2.370  0.6261E+01  0.7765E+02
      2.523  0.9711E+01  0.7913E+02
      2.676  0.5684E+01  0.8000E+02
      2.828  0.6730E-02  0.8000E+02
      2.981  0.0000E+00  0.8000E+02
      3.134  0.1301E-12  0.8000E+02
      3.286  0.8541E-03  0.8000E+02
      3.439  0.9381E+00  0.8014E+02
      3.592  0.4397E+01  0.8081E+02
      3.744  0.3595E+01  0.8136E+02
      3.897  0.1227E+02  0.8324E+02
      4.050  0.2325E+02  0.8679E+02
      4.202  0.7226E+01  0.8789E+02
      4.355  0.6983E+00  0.8800E+02
      4.508  0.2061E-01  0.8800E+02
      4.660  0.8311E-01  0.8801E+02
      4.813  0.1737E+00  0.8804E+02
      4.966  0.4272E+00  0.8810E+02
      5.118  0.9013E+00  0.8824E+02
      5.271  0.8283E+00  0.8837E+02
      5.424  0.1427E+01  0.8859E+02
      5.576  0.1068E+01  0.8875E+02
      5.729  0.9235E+00  0.8889E+02
      5.882  0.9760E+00  0.8904E+02
      6.034  0.1214E+01  0.8922E+02
      6.187  0.1544E+01  0.8946E+02
      6.340  0.1020E+01  0.8962E+02
      6.492  0.1552E+01  0.8985E+02
      6.645  0.1223E+00  0.8987E+02
      6.798  0.5874E+00  0.8996E+02
      6.951  0.2509E+00  0.9000E+02
      7.103  0.1557E-01  0.9000E+02
      7.256  0.2158E+01  0.9033E+02
      7.409  0.5495E+01  0.9117E+02
      7.561  0.6707E+01  0.9219E+02
      7.714  0.6738E+01  0.9322E+02
      7.867  0.5056E+01  0.9400E+02
      8.019  0.4393E+01  0.9467E+02
      8.172  0.7694E+00  0.9478E+02
      8.325  0.2214E+00  0.9482E+02
      8.477  0.4192E+01  0.9546E+02
      8.630  0.3550E+01  0.9600E+02
      8.783  0.3137E-02  0.9600E+02
      8.935  0.0000E+00  0.9600E+02
      9.088  0.0000E+00  0.9600E+02
      9.241  0.0000E+00  0.9600E+02
      9.393  0.0000E+00  0.9600E+02
      9.546  0.0000E+00  0.9600E+02
      9.699  0.0000E+00  0.9600E+02
      9.851  0.0000E+00  0.9600E+02
     10.004  0.0000E+00  0.9600E+02
     10.157  0.0000E+00  0.9600E+02
     10.309  0.0000E+00  0.9600E+02
     10.462  0.0000E+00  0.9600E+02
     10.615  0.0000E+00  0.9600E+02
