Sr1O10
1.0
      5.2371330       0.0000000       0.0000000
      0.0000000       5.2371330       0.0000000
      0.0000000       0.0000000       5.4778340
  Sr    O   
  1     10  
Direct
      0.0000000       0.0000000       0.0000000
      0.3546880       0.3546880       0.2479430
      0.6453120       0.6453120       0.7520570
      0.6453120       0.6453120       0.2479430
      0.6453120       0.3546880       0.2479430
      0.6453120       0.3546880       0.7520570
      0.3546880       0.3546880       0.7520570
      0.3546880       0.6453120       0.7520570
      0.3546880       0.6453120       0.2479430
      0.0000000       0.5000000       0.0000000
      0.5000000       0.0000000       0.0000000
