K1 Mg15                                 
   1.00000000000000     
     3.2946520000000001   -5.7065039999999998    0.0000000000000000
     3.2946520000000001    5.7065039999999998    0.0000000000000000
     0.0000000000000000    0.0000000000000000   10.4874630000000000
   K    Mg
     1    15
Direct
     0.6666669999999968    0.3333330000000032    0.0000000000000000
     0.6666669999999968    0.3333330000000032    0.5000000000000000
     0.1699940000000026    0.3399879999999982    0.0000000000000000
     0.1652139999999989    0.3304279999999977    0.5000000000000000
     0.1699940000000026    0.8300059999999974    0.0000000000000000
     0.1652139999999989    0.8347860000000011    0.5000000000000000
     0.6600120000000018    0.8300059999999974    0.0000000000000000
     0.6695720000000023    0.8347860000000011    0.5000000000000000
     0.0097219999999965    0.5048609999999982    0.2631859999999975
     0.0097219999999965    0.5048609999999982    0.7368140000000025
     0.4951390000000018    0.5048609999999982    0.2631859999999975
     0.4951390000000018    0.5048609999999982    0.7368140000000025
     0.4951390000000018    0.9902780000000035    0.2631859999999975
     0.4951390000000018    0.9902780000000035    0.7368140000000025
     0.0000000000000000    0.0000000000000000    0.2474289999999968
     0.0000000000000000    0.0000000000000000    0.7525710000000032
 
  0.00000000E+00  0.00000000E+00  0.00000000E+00
  0.00000000E+00  0.00000000E+00  0.00000000E+00
  0.00000000E+00  0.00000000E+00  0.00000000E+00
  0.00000000E+00  0.00000000E+00  0.00000000E+00
  0.00000000E+00  0.00000000E+00  0.00000000E+00
  0.00000000E+00  0.00000000E+00  0.00000000E+00
  0.00000000E+00  0.00000000E+00  0.00000000E+00
  0.00000000E+00  0.00000000E+00  0.00000000E+00
  0.00000000E+00  0.00000000E+00  0.00000000E+00
  0.00000000E+00  0.00000000E+00  0.00000000E+00
  0.00000000E+00  0.00000000E+00  0.00000000E+00
  0.00000000E+00  0.00000000E+00  0.00000000E+00
  0.00000000E+00  0.00000000E+00  0.00000000E+00
  0.00000000E+00  0.00000000E+00  0.00000000E+00
  0.00000000E+00  0.00000000E+00  0.00000000E+00
  0.00000000E+00  0.00000000E+00  0.00000000E+00
