  13  13   0   0
  0.8508987E+01  0.5551766E-09  0.5551766E-09  0.5551766E-09  0.5000000E-15
  1.000000000000000E-004
  CAR 
 unknown system                          
     33.85831711   -100.63309828  301      5.91344823      1.00000000
   -100.633  0.0000E+00  0.0000E+00
   -100.185  0.0000E+00  0.0000E+00
    -99.736  0.0000E+00  0.0000E+00
    -99.288  0.0000E+00  0.0000E+00
    -98.840  0.0000E+00  0.0000E+00
    -98.392  0.0000E+00  0.0000E+00
    -97.943  0.0000E+00  0.0000E+00
    -97.495  0.0000E+00  0.0000E+00
    -97.047  0.0000E+00  0.0000E+00
    -96.598  0.0000E+00  0.0000E+00
    -96.150  0.0000E+00  0.0000E+00
    -95.702  0.0000E+00  0.0000E+00
    -95.253  0.0000E+00  0.0000E+00
    -94.805  0.3440E-14  0.1542E-14
    -94.357  0.1787E+02  0.8010E+01
    -93.909  0.1931E+02  0.1667E+02
    -93.460  0.9752E+01  0.2400E+02
    -93.012  0.0000E+00  0.2400E+02
    -92.564  0.0000E+00  0.2400E+02
    -92.115  0.0000E+00  0.2400E+02
    -91.667  0.0000E+00  0.2400E+02
    -91.219  0.0000E+00  0.2400E+02
    -90.770  0.0000E+00  0.2400E+02
    -90.322  0.0000E+00  0.2400E+02
    -89.874  0.0000E+00  0.2400E+02
    -89.425  0.0000E+00  0.2400E+02
    -88.977  0.0000E+00  0.2400E+02
    -88.529  0.0000E+00  0.2400E+02
    -88.081  0.0000E+00  0.2400E+02
    -87.632  0.0000E+00  0.2400E+02
    -87.184  0.0000E+00  0.2400E+02
    -86.736  0.0000E+00  0.2400E+02
    -86.287  0.0000E+00  0.2400E+02
    -85.839  0.0000E+00  0.2400E+02
    -85.391  0.0000E+00  0.2400E+02
    -84.942  0.0000E+00  0.2400E+02
    -84.494  0.0000E+00  0.2400E+02
    -84.046  0.0000E+00  0.2400E+02
    -83.598  0.0000E+00  0.2400E+02
    -83.149  0.0000E+00  0.2400E+02
    -82.701  0.0000E+00  0.2400E+02
    -82.253  0.0000E+00  0.2400E+02
    -81.804  0.0000E+00  0.2400E+02
    -81.356  0.0000E+00  0.2400E+02
    -80.908  0.0000E+00  0.2400E+02
    -80.459  0.0000E+00  0.2400E+02
    -80.011  0.0000E+00  0.2400E+02
    -79.563  0.0000E+00  0.2400E+02
    -79.114  0.0000E+00  0.2400E+02
    -78.666  0.0000E+00  0.2400E+02
    -78.218  0.0000E+00  0.2400E+02
    -77.770  0.0000E+00  0.2400E+02
    -77.321  0.0000E+00  0.2400E+02
    -76.873  0.0000E+00  0.2400E+02
    -76.425  0.0000E+00  0.2400E+02
    -75.976  0.0000E+00  0.2400E+02
    -75.528  0.0000E+00  0.2400E+02
    -75.080  0.0000E+00  0.2400E+02
    -74.631  0.0000E+00  0.2400E+02
    -74.183  0.0000E+00  0.2400E+02
    -73.735  0.0000E+00  0.2400E+02
    -73.287  0.0000E+00  0.2400E+02
    -72.838  0.0000E+00  0.2400E+02
    -72.390  0.0000E+00  0.2400E+02
    -71.942  0.0000E+00  0.2400E+02
    -71.493  0.0000E+00  0.2400E+02
    -71.045  0.0000E+00  0.2400E+02
    -70.597  0.0000E+00  0.2400E+02
    -70.148  0.0000E+00  0.2400E+02
    -69.700  0.0000E+00  0.2400E+02
    -69.252  0.0000E+00  0.2400E+02
    -68.803  0.0000E+00  0.2400E+02
    -68.355  0.0000E+00  0.2400E+02
    -67.907  0.0000E+00  0.2400E+02
    -67.459  0.0000E+00  0.2400E+02
    -67.010  0.0000E+00  0.2400E+02
    -66.562  0.0000E+00  0.2400E+02
    -66.114  0.0000E+00  0.2400E+02
    -65.665  0.0000E+00  0.2400E+02
    -65.217  0.0000E+00  0.2400E+02
    -64.769  0.0000E+00  0.2400E+02
    -64.320  0.0000E+00  0.2400E+02
    -63.872  0.0000E+00  0.2400E+02
    -63.424  0.0000E+00  0.2400E+02
    -62.976  0.0000E+00  0.2400E+02
    -62.527  0.0000E+00  0.2400E+02
    -62.079  0.0000E+00  0.2400E+02
    -61.631  0.0000E+00  0.2400E+02
    -61.182  0.0000E+00  0.2400E+02
    -60.734  0.0000E+00  0.2400E+02
    -60.286  0.0000E+00  0.2400E+02
    -59.837  0.0000E+00  0.2400E+02
    -59.389  0.0000E+00  0.2400E+02
    -58.941  0.0000E+00  0.2400E+02
    -58.492  0.0000E+00  0.2400E+02
    -58.044  0.0000E+00  0.2400E+02
    -57.596  0.0000E+00  0.2400E+02
    -57.148  0.0000E+00  0.2400E+02
    -56.699  0.0000E+00  0.2400E+02
    -56.251  0.0000E+00  0.2400E+02
    -55.803  0.0000E+00  0.2400E+02
    -55.354  0.0000E+00  0.2400E+02
    -54.906  0.0000E+00  0.2400E+02
    -54.458  0.0000E+00  0.2400E+02
    -54.009  0.0000E+00  0.2400E+02
    -53.561  0.0000E+00  0.2400E+02
    -53.113  0.0000E+00  0.2400E+02
    -52.664  0.0000E+00  0.2400E+02
    -52.216  0.0000E+00  0.2400E+02
    -51.768  0.0000E+00  0.2400E+02
    -51.320  0.0000E+00  0.2400E+02
    -50.871  0.0000E+00  0.2400E+02
    -50.423  0.0000E+00  0.2400E+02
    -49.975  0.0000E+00  0.2400E+02
    -49.526  0.0000E+00  0.2400E+02
    -49.078  0.0000E+00  0.2400E+02
    -48.630  0.0000E+00  0.2400E+02
    -48.181  0.0000E+00  0.2400E+02
    -47.733  0.0000E+00  0.2400E+02
    -47.285  0.0000E+00  0.2400E+02
    -46.837  0.0000E+00  0.2400E+02
    -46.388  0.0000E+00  0.2400E+02
    -45.940  0.0000E+00  0.2400E+02
    -45.492  0.0000E+00  0.2400E+02
    -45.043  0.0000E+00  0.2400E+02
    -44.595  0.0000E+00  0.2400E+02
    -44.147  0.0000E+00  0.2400E+02
    -43.698  0.0000E+00  0.2400E+02
    -43.250  0.0000E+00  0.2400E+02
    -42.802  0.0000E+00  0.2400E+02
    -42.353  0.0000E+00  0.2400E+02
    -41.905  0.0000E+00  0.2400E+02
    -41.457  0.0000E+00  0.2400E+02
    -41.009  0.0000E+00  0.2400E+02
    -40.560  0.0000E+00  0.2400E+02
    -40.112  0.0000E+00  0.2400E+02
    -39.664  0.0000E+00  0.2400E+02
    -39.215  0.0000E+00  0.2400E+02
    -38.767  0.0000E+00  0.2400E+02
    -38.319  0.0000E+00  0.2400E+02
    -37.870  0.0000E+00  0.2400E+02
    -37.422  0.0000E+00  0.2400E+02
    -36.974  0.0000E+00  0.2400E+02
    -36.526  0.0000E+00  0.2400E+02
    -36.077  0.0000E+00  0.2400E+02
    -35.629  0.0000E+00  0.2400E+02
    -35.181  0.0000E+00  0.2400E+02
    -34.732  0.0000E+00  0.2400E+02
    -34.284  0.0000E+00  0.2400E+02
    -33.836  0.0000E+00  0.2400E+02
    -33.387  0.0000E+00  0.2400E+02
    -32.939  0.0000E+00  0.2400E+02
    -32.491  0.0000E+00  0.2400E+02
    -32.042  0.0000E+00  0.2400E+02
    -31.594  0.0000E+00  0.2400E+02
    -31.146  0.0000E+00  0.2400E+02
    -30.698  0.0000E+00  0.2400E+02
    -30.249  0.0000E+00  0.2400E+02
    -29.801  0.0000E+00  0.2400E+02
    -29.353  0.0000E+00  0.2400E+02
    -28.904  0.0000E+00  0.2400E+02
    -28.456  0.0000E+00  0.2400E+02
    -28.008  0.0000E+00  0.2400E+02
    -27.559  0.0000E+00  0.2400E+02
    -27.111  0.0000E+00  0.2400E+02
    -26.663  0.0000E+00  0.2400E+02
    -26.215  0.0000E+00  0.2400E+02
    -25.766  0.0000E+00  0.2400E+02
    -25.318  0.0000E+00  0.2400E+02
    -24.870  0.0000E+00  0.2400E+02
    -24.421  0.0000E+00  0.2400E+02
    -23.973  0.0000E+00  0.2400E+02
    -23.525  0.0000E+00  0.2400E+02
    -23.076  0.0000E+00  0.2400E+02
    -22.628  0.0000E+00  0.2400E+02
    -22.180  0.0000E+00  0.2400E+02
    -21.731  0.0000E+00  0.2400E+02
    -21.283  0.0000E+00  0.2400E+02
    -20.835  0.0000E+00  0.2400E+02
    -20.387  0.0000E+00  0.2400E+02
    -19.938  0.0000E+00  0.2400E+02
    -19.490  0.0000E+00  0.2400E+02
    -19.042  0.0000E+00  0.2400E+02
    -18.593  0.0000E+00  0.2400E+02
    -18.145  0.0000E+00  0.2400E+02
    -17.697  0.0000E+00  0.2400E+02
    -17.248  0.0000E+00  0.2400E+02
    -16.800  0.0000E+00  0.2400E+02
    -16.352  0.0000E+00  0.2400E+02
    -15.904  0.0000E+00  0.2400E+02
    -15.455  0.0000E+00  0.2400E+02
    -15.007  0.0000E+00  0.2400E+02
    -14.559  0.0000E+00  0.2400E+02
    -14.110  0.0000E+00  0.2400E+02
    -13.662  0.0000E+00  0.2400E+02
    -13.214  0.0000E+00  0.2400E+02
    -12.765  0.0000E+00  0.2400E+02
    -12.317  0.0000E+00  0.2400E+02
    -11.869  0.0000E+00  0.2400E+02
    -11.420  0.0000E+00  0.2400E+02
    -10.972  0.0000E+00  0.2400E+02
    -10.524  0.0000E+00  0.2400E+02
    -10.076  0.0000E+00  0.2400E+02
     -9.627  0.0000E+00  0.2400E+02
     -9.179  0.0000E+00  0.2400E+02
     -8.731  0.0000E+00  0.2400E+02
     -8.282  0.0000E+00  0.2400E+02
     -7.834  0.0000E+00  0.2400E+02
     -7.386  0.0000E+00  0.2400E+02
     -6.937  0.0000E+00  0.2400E+02
     -6.489  0.0000E+00  0.2400E+02
     -6.041  0.0000E+00  0.2400E+02
     -5.592  0.0000E+00  0.2400E+02
     -5.144  0.9930E-02  0.2400E+02
     -4.696  0.5226E+00  0.2427E+02
     -4.248  0.9092E+00  0.2469E+02
     -3.799  0.1109E+01  0.2518E+02
     -3.351  0.1679E+01  0.2596E+02
     -2.903  0.1726E+01  0.2685E+02
     -2.454  0.1442E+01  0.2752E+02
     -2.006  0.2591E+01  0.2872E+02
     -1.558  0.2121E+01  0.2969E+02
     -1.109  0.1843E+01  0.3061E+02
     -0.661  0.2635E+01  0.3182E+02
     -0.213  0.2938E+01  0.3356E+02
      0.235  0.2254E+01  0.3483E+02
      0.684  0.4724E+01  0.3732E+02
      1.132  0.5487E+01  0.4025E+02
      1.580  0.5962E+01  0.4321E+02
      2.029  0.6529E+01  0.4636E+02
      2.477  0.3751E+01  0.4869E+02
      2.925  0.3915E+01  0.5083E+02
      3.374  0.3295E+01  0.5252E+02
      3.822  0.3189E+01  0.5429E+02
      4.270  0.2404E+01  0.5549E+02
      4.719  0.1016E+01  0.5598E+02
      5.167  0.9602E+00  0.5650E+02
      5.615  0.1999E+01  0.5760E+02
      6.063  0.1597E+01  0.5835E+02
      6.512  0.3356E+01  0.5997E+02
      6.960  0.2899E+01  0.6144E+02
      7.408  0.2466E+01  0.6265E+02
      7.857  0.1964E+01  0.6365E+02
      8.305  0.9978E+00  0.6423E+02
      8.753  0.2384E+01  0.6533E+02
      9.202  0.3712E+01  0.6715E+02
      9.650  0.4261E+01  0.6922E+02
     10.098  0.3338E+01  0.7096E+02
     10.546  0.4132E+01  0.7297E+02
     10.995  0.4073E+01  0.7492E+02
     11.443  0.3683E+01  0.7676E+02
     11.891  0.3921E+01  0.7870E+02
     12.340  0.2689E+01  0.7999E+02
     12.788  0.3316E+01  0.8162E+02
     13.236  0.2423E+01  0.8304E+02
     13.685  0.3148E+01  0.8463E+02
     14.133  0.3608E+01  0.8651E+02
     14.581  0.3214E+01  0.8799E+02
     15.030  0.3637E+01  0.8963E+02
     15.478  0.4368E+01  0.9225E+02
     15.926  0.2967E+01  0.9376E+02
     16.374  0.3507E+01  0.9569E+02
     16.823  0.4341E+01  0.9777E+02
     17.271  0.4676E+01  0.1003E+03
     17.719  0.3875E+01  0.1023E+03
     18.168  0.4732E+01  0.1048E+03
     18.616  0.6358E+01  0.1079E+03
     19.064  0.6167E+01  0.1108E+03
     19.513  0.4954E+01  0.1134E+03
     19.961  0.5657E+01  0.1163E+03
     20.409  0.6528E+01  0.1196E+03
     20.857  0.4547E+01  0.1221E+03
     21.306  0.6800E+01  0.1254E+03
     21.754  0.3152E+01  0.1272E+03
     22.202  0.4704E+01  0.1296E+03
     22.651  0.2135E+01  0.1308E+03
     23.099  0.3351E+01  0.1324E+03
     23.547  0.2597E+01  0.1338E+03
     23.996  0.1596E+01  0.1347E+03
     24.444  0.2011E+01  0.1356E+03
     24.892  0.2139E+01  0.1368E+03
     25.341  0.1881E+01  0.1378E+03
     25.789  0.2771E+01  0.1392E+03
     26.237  0.3304E+01  0.1407E+03
     26.685  0.4569E+01  0.1430E+03
     27.134  0.1058E+01  0.1436E+03
     27.582  0.6249E+00  0.1439E+03
     28.030  0.8262E-01  0.1440E+03
     28.479  0.0000E+00  0.1440E+03
     28.927  0.0000E+00  0.1440E+03
     29.375  0.0000E+00  0.1440E+03
     29.824  0.0000E+00  0.1440E+03
     30.272  0.0000E+00  0.1440E+03
     30.720  0.0000E+00  0.1440E+03
     31.168  0.0000E+00  0.1440E+03
     31.617  0.0000E+00  0.1440E+03
     32.065  0.0000E+00  0.1440E+03
     32.513  0.0000E+00  0.1440E+03
     32.962  0.0000E+00  0.1440E+03
     33.410  0.0000E+00  0.1440E+03
     33.858  0.0000E+00  0.1440E+03
