unknown system                          
           1
     6.573828    0.000000    0.000000
     0.000000    6.668672    0.000000
     0.000000    0.000000   10.493471
   Li   P 
     4    20
Direct configuration=     1
   0.05593617  0.45555443  0.07784698
   0.55593617  0.54444557  0.92215302
   0.05593617  0.04444557  0.57784698
   0.55593617  0.95555443  0.42215302
   0.42585107  0.91666407  0.08490768
   0.92585107  0.08333593  0.91509232
   0.42585107  0.58333593  0.58490768
   0.92585107  0.41666407  0.41509232
   0.90939854  0.90371111  0.09271368
   0.40939854  0.09628889  0.90728632
   0.90939854  0.59628889  0.59271368
   0.40939854  0.40371111  0.40728632
   0.16720346  0.92207457  0.80824528
   0.66720346  0.07792543  0.19175472
   0.16720346  0.57792543  0.30824528
   0.66720346  0.42207457  0.69175472
   0.16722104  0.44748534  0.69107643
   0.66722104  0.55251466  0.30892257
   0.16722104  0.05251466  0.19107643
   0.66722104  0.94748534  0.80892357
   0.18338871  0.61097969  0.86930057
   0.68338871  0.38902031  0.13069943
   0.18338871  0.88902031  0.36930057
   0.68338871  0.11097969  0.63069943
