   2   2   0   0
  0.2239950E+02  0.3172024E-09  0.3172023E-09  0.5141205E-09  0.5000000E-15
  1.000000000000000E-004
  CAR 
 unknown system                          
      5.63200708    -42.48904518  301      3.72721543      1.00000000
    -42.489  0.0000E+00  0.0000E+00
    -42.329  0.0000E+00  0.0000E+00
    -42.168  0.0000E+00  0.0000E+00
    -42.008  0.0000E+00  0.0000E+00
    -41.847  0.0000E+00  0.0000E+00
    -41.687  0.0000E+00  0.0000E+00
    -41.527  0.0000E+00  0.0000E+00
    -41.366  0.0000E+00  0.0000E+00
    -41.206  0.0000E+00  0.0000E+00
    -41.045  0.0000E+00  0.0000E+00
    -40.885  0.0000E+00  0.0000E+00
    -40.725  0.0000E+00  0.0000E+00
    -40.564  0.3980E-12  0.6384E-13
    -40.404  0.3266E-01  0.5238E-02
    -40.243  0.6288E+02  0.1009E+02
    -40.083  0.1190E+02  0.1200E+02
    -39.923  0.3176E-05  0.1200E+02
    -39.762  0.0000E+00  0.1200E+02
    -39.602  0.0000E+00  0.1200E+02
    -39.441  0.0000E+00  0.1200E+02
    -39.281  0.0000E+00  0.1200E+02
    -39.121  0.0000E+00  0.1200E+02
    -38.960  0.0000E+00  0.1200E+02
    -38.800  0.0000E+00  0.1200E+02
    -38.639  0.0000E+00  0.1200E+02
    -38.479  0.0000E+00  0.1200E+02
    -38.319  0.0000E+00  0.1200E+02
    -38.158  0.0000E+00  0.1200E+02
    -37.998  0.0000E+00  0.1200E+02
    -37.837  0.0000E+00  0.1200E+02
    -37.677  0.0000E+00  0.1200E+02
    -37.517  0.0000E+00  0.1200E+02
    -37.356  0.0000E+00  0.1200E+02
    -37.196  0.0000E+00  0.1200E+02
    -37.035  0.0000E+00  0.1200E+02
    -36.875  0.0000E+00  0.1200E+02
    -36.715  0.0000E+00  0.1200E+02
    -36.554  0.0000E+00  0.1200E+02
    -36.394  0.0000E+00  0.1200E+02
    -36.233  0.0000E+00  0.1200E+02
    -36.073  0.0000E+00  0.1200E+02
    -35.913  0.0000E+00  0.1200E+02
    -35.752  0.0000E+00  0.1200E+02
    -35.592  0.0000E+00  0.1200E+02
    -35.431  0.0000E+00  0.1200E+02
    -35.271  0.0000E+00  0.1200E+02
    -35.110  0.0000E+00  0.1200E+02
    -34.950  0.0000E+00  0.1200E+02
    -34.790  0.0000E+00  0.1200E+02
    -34.629  0.0000E+00  0.1200E+02
    -34.469  0.0000E+00  0.1200E+02
    -34.308  0.0000E+00  0.1200E+02
    -34.148  0.0000E+00  0.1200E+02
    -33.988  0.0000E+00  0.1200E+02
    -33.827  0.0000E+00  0.1200E+02
    -33.667  0.0000E+00  0.1200E+02
    -33.506  0.0000E+00  0.1200E+02
    -33.346  0.0000E+00  0.1200E+02
    -33.186  0.0000E+00  0.1200E+02
    -33.025  0.0000E+00  0.1200E+02
    -32.865  0.0000E+00  0.1200E+02
    -32.704  0.0000E+00  0.1200E+02
    -32.544  0.0000E+00  0.1200E+02
    -32.384  0.0000E+00  0.1200E+02
    -32.223  0.0000E+00  0.1200E+02
    -32.063  0.0000E+00  0.1200E+02
    -31.902  0.0000E+00  0.1200E+02
    -31.742  0.0000E+00  0.1200E+02
    -31.582  0.0000E+00  0.1200E+02
    -31.421  0.0000E+00  0.1200E+02
    -31.261  0.0000E+00  0.1200E+02
    -31.100  0.0000E+00  0.1200E+02
    -30.940  0.0000E+00  0.1200E+02
    -30.780  0.0000E+00  0.1200E+02
    -30.619  0.0000E+00  0.1200E+02
    -30.459  0.0000E+00  0.1200E+02
    -30.298  0.0000E+00  0.1200E+02
    -30.138  0.0000E+00  0.1200E+02
    -29.978  0.0000E+00  0.1200E+02
    -29.817  0.0000E+00  0.1200E+02
    -29.657  0.0000E+00  0.1200E+02
    -29.496  0.0000E+00  0.1200E+02
    -29.336  0.0000E+00  0.1200E+02
    -29.176  0.0000E+00  0.1200E+02
    -29.015  0.0000E+00  0.1200E+02
    -28.855  0.0000E+00  0.1200E+02
    -28.694  0.0000E+00  0.1200E+02
    -28.534  0.0000E+00  0.1200E+02
    -28.374  0.0000E+00  0.1200E+02
    -28.213  0.0000E+00  0.1200E+02
    -28.053  0.0000E+00  0.1200E+02
    -27.892  0.0000E+00  0.1200E+02
    -27.732  0.0000E+00  0.1200E+02
    -27.572  0.0000E+00  0.1200E+02
    -27.411  0.0000E+00  0.1200E+02
    -27.251  0.0000E+00  0.1200E+02
    -27.090  0.0000E+00  0.1200E+02
    -26.930  0.0000E+00  0.1200E+02
    -26.770  0.0000E+00  0.1200E+02
    -26.609  0.0000E+00  0.1200E+02
    -26.449  0.0000E+00  0.1200E+02
    -26.288  0.0000E+00  0.1200E+02
    -26.128  0.0000E+00  0.1200E+02
    -25.967  0.0000E+00  0.1200E+02
    -25.807  0.0000E+00  0.1200E+02
    -25.647  0.0000E+00  0.1200E+02
    -25.486  0.0000E+00  0.1200E+02
    -25.326  0.0000E+00  0.1200E+02
    -25.165  0.0000E+00  0.1200E+02
    -25.005  0.0000E+00  0.1200E+02
    -24.845  0.0000E+00  0.1200E+02
    -24.684  0.0000E+00  0.1200E+02
    -24.524  0.0000E+00  0.1200E+02
    -24.363  0.0000E+00  0.1200E+02
    -24.203  0.0000E+00  0.1200E+02
    -24.043  0.0000E+00  0.1200E+02
    -23.882  0.0000E+00  0.1200E+02
    -23.722  0.0000E+00  0.1200E+02
    -23.561  0.0000E+00  0.1200E+02
    -23.401  0.0000E+00  0.1200E+02
    -23.241  0.0000E+00  0.1200E+02
    -23.080  0.0000E+00  0.1200E+02
    -22.920  0.0000E+00  0.1200E+02
    -22.759  0.0000E+00  0.1200E+02
    -22.599  0.0000E+00  0.1200E+02
    -22.439  0.0000E+00  0.1200E+02
    -22.278  0.0000E+00  0.1200E+02
    -22.118  0.0000E+00  0.1200E+02
    -21.957  0.0000E+00  0.1200E+02
    -21.797  0.0000E+00  0.1200E+02
    -21.637  0.0000E+00  0.1200E+02
    -21.476  0.0000E+00  0.1200E+02
    -21.316  0.0000E+00  0.1200E+02
    -21.155  0.0000E+00  0.1200E+02
    -20.995  0.0000E+00  0.1200E+02
    -20.835  0.0000E+00  0.1200E+02
    -20.674  0.0000E+00  0.1200E+02
    -20.514  0.0000E+00  0.1200E+02
    -20.353  0.0000E+00  0.1200E+02
    -20.193  0.0000E+00  0.1200E+02
    -20.033  0.0000E+00  0.1200E+02
    -19.872  0.0000E+00  0.1200E+02
    -19.712  0.0000E+00  0.1200E+02
    -19.551  0.0000E+00  0.1200E+02
    -19.391  0.0000E+00  0.1200E+02
    -19.231  0.0000E+00  0.1200E+02
    -19.070  0.0000E+00  0.1200E+02
    -18.910  0.0000E+00  0.1200E+02
    -18.749  0.0000E+00  0.1200E+02
    -18.589  0.0000E+00  0.1200E+02
    -18.429  0.0000E+00  0.1200E+02
    -18.268  0.0000E+00  0.1200E+02
    -18.108  0.0000E+00  0.1200E+02
    -17.947  0.0000E+00  0.1200E+02
    -17.787  0.0000E+00  0.1200E+02
    -17.627  0.0000E+00  0.1200E+02
    -17.466  0.0000E+00  0.1200E+02
    -17.306  0.0000E+00  0.1200E+02
    -17.145  0.0000E+00  0.1200E+02
    -16.985  0.0000E+00  0.1200E+02
    -16.824  0.0000E+00  0.1200E+02
    -16.664  0.0000E+00  0.1200E+02
    -16.504  0.0000E+00  0.1200E+02
    -16.343  0.0000E+00  0.1200E+02
    -16.183  0.0000E+00  0.1200E+02
    -16.022  0.0000E+00  0.1200E+02
    -15.862  0.0000E+00  0.1200E+02
    -15.702  0.0000E+00  0.1200E+02
    -15.541  0.0000E+00  0.1200E+02
    -15.381  0.0000E+00  0.1200E+02
    -15.220  0.0000E+00  0.1200E+02
    -15.060  0.0000E+00  0.1200E+02
    -14.900  0.0000E+00  0.1200E+02
    -14.739  0.0000E+00  0.1200E+02
    -14.579  0.0000E+00  0.1200E+02
    -14.418  0.0000E+00  0.1200E+02
    -14.258  0.0000E+00  0.1200E+02
    -14.098  0.0000E+00  0.1200E+02
    -13.937  0.0000E+00  0.1200E+02
    -13.777  0.0000E+00  0.1200E+02
    -13.616  0.0000E+00  0.1200E+02
    -13.456  0.0000E+00  0.1200E+02
    -13.296  0.0000E+00  0.1200E+02
    -13.135  0.0000E+00  0.1200E+02
    -12.975  0.0000E+00  0.1200E+02
    -12.814  0.0000E+00  0.1200E+02
    -12.654  0.0000E+00  0.1200E+02
    -12.494  0.0000E+00  0.1200E+02
    -12.333  0.0000E+00  0.1200E+02
    -12.173  0.0000E+00  0.1200E+02
    -12.012  0.0000E+00  0.1200E+02
    -11.852  0.0000E+00  0.1200E+02
    -11.692  0.0000E+00  0.1200E+02
    -11.531  0.0000E+00  0.1200E+02
    -11.371  0.0000E+00  0.1200E+02
    -11.210  0.0000E+00  0.1200E+02
    -11.050  0.0000E+00  0.1200E+02
    -10.890  0.0000E+00  0.1200E+02
    -10.729  0.0000E+00  0.1200E+02
    -10.569  0.0000E+00  0.1200E+02
    -10.408  0.0000E+00  0.1200E+02
    -10.248  0.0000E+00  0.1200E+02
    -10.088  0.0000E+00  0.1200E+02
     -9.927  0.0000E+00  0.1200E+02
     -9.767  0.0000E+00  0.1200E+02
     -9.606  0.0000E+00  0.1200E+02
     -9.446  0.0000E+00  0.1200E+02
     -9.286  0.0000E+00  0.1200E+02
     -9.125  0.0000E+00  0.1200E+02
     -8.965  0.0000E+00  0.1200E+02
     -8.804  0.0000E+00  0.1200E+02
     -8.644  0.0000E+00  0.1200E+02
     -8.484  0.0000E+00  0.1200E+02
     -8.323  0.0000E+00  0.1200E+02
     -8.163  0.0000E+00  0.1200E+02
     -8.002  0.0000E+00  0.1200E+02
     -7.842  0.0000E+00  0.1200E+02
     -7.681  0.0000E+00  0.1200E+02
     -7.521  0.0000E+00  0.1200E+02
     -7.361  0.0000E+00  0.1200E+02
     -7.200  0.0000E+00  0.1200E+02
     -7.040  0.0000E+00  0.1200E+02
     -6.879  0.0000E+00  0.1200E+02
     -6.719  0.0000E+00  0.1200E+02
     -6.559  0.0000E+00  0.1200E+02
     -6.398  0.0000E+00  0.1200E+02
     -6.238  0.0000E+00  0.1200E+02
     -6.077  0.0000E+00  0.1200E+02
     -5.917  0.0000E+00  0.1200E+02
     -5.757  0.0000E+00  0.1200E+02
     -5.596  0.0000E+00  0.1200E+02
     -5.436  0.0000E+00  0.1200E+02
     -5.275  0.0000E+00  0.1200E+02
     -5.115  0.0000E+00  0.1200E+02
     -4.955  0.0000E+00  0.1200E+02
     -4.794  0.2965E-09  0.1200E+02
     -4.634  0.4301E-02  0.1200E+02
     -4.473  0.2659E-01  0.1200E+02
     -4.313  0.2119E+00  0.1204E+02
     -4.153  0.9742E-01  0.1205E+02
     -3.992  0.3062E+00  0.1210E+02
     -3.832  0.1363E+00  0.1213E+02
     -3.671  0.1322E+00  0.1215E+02
     -3.511  0.5380E+00  0.1223E+02
     -3.351  0.6613E+00  0.1234E+02
     -3.190  0.7155E-01  0.1235E+02
     -3.030  0.4139E-02  0.1235E+02
     -2.869  0.5750E+00  0.1244E+02
     -2.709  0.3723E+00  0.1250E+02
     -2.549  0.9294E+00  0.1265E+02
     -2.388  0.1344E+00  0.1267E+02
     -2.228  0.4623E+00  0.1275E+02
     -2.067  0.3599E+00  0.1281E+02
     -1.907  0.7275E+00  0.1292E+02
     -1.747  0.3757E+00  0.1298E+02
     -1.586  0.3967E+00  0.1305E+02
     -1.426  0.1009E+01  0.1321E+02
     -1.265  0.3042E+00  0.1326E+02
     -1.105  0.6908E+00  0.1337E+02
     -0.945  0.8235E-01  0.1338E+02
     -0.784  0.1045E+01  0.1355E+02
     -0.624  0.6164E+00  0.1365E+02
     -0.463  0.1057E+01  0.1382E+02
     -0.303  0.5511E+00  0.1391E+02
     -0.143  0.2240E+00  0.1394E+02
      0.018  0.6620E+00  0.1405E+02
      0.178  0.5772E+00  0.1414E+02
      0.339  0.9393E+00  0.1429E+02
      0.499  0.5688E+00  0.1438E+02
      0.659  0.1486E+01  0.1462E+02
      0.820  0.8342E+00  0.1475E+02
      0.980  0.6136E+00  0.1485E+02
      1.141  0.5258E+00  0.1494E+02
      1.301  0.9509E+00  0.1509E+02
      1.462  0.4299E+00  0.1516E+02
      1.622  0.4297E+00  0.1523E+02
      1.782  0.4917E+00  0.1531E+02
      1.943  0.1284E+01  0.1551E+02
      2.103  0.9243E+00  0.1566E+02
      2.264  0.7460E+00  0.1578E+02
      2.424  0.3873E+00  0.1584E+02
      2.584  0.2608E+00  0.1588E+02
      2.745  0.3985E+00  0.1595E+02
      2.905  0.1393E+00  0.1597E+02
      3.066  0.1045E-04  0.1597E+02
      3.226  0.5700E-10  0.1597E+02
      3.386  0.9156E-02  0.1597E+02
      3.547  0.1752E+00  0.1600E+02
      3.707  0.3583E-03  0.1600E+02
      3.868  0.0000E+00  0.1600E+02
      4.028  0.0000E+00  0.1600E+02
      4.188  0.0000E+00  0.1600E+02
      4.349  0.0000E+00  0.1600E+02
      4.509  0.0000E+00  0.1600E+02
      4.670  0.0000E+00  0.1600E+02
      4.830  0.0000E+00  0.1600E+02
      4.990  0.0000E+00  0.1600E+02
      5.151  0.0000E+00  0.1600E+02
      5.311  0.0000E+00  0.1600E+02
      5.472  0.0000E+00  0.1600E+02
      5.632  0.0000E+00  0.1600E+02
