       N       E                     dE             d eps       ncg     rms          rms(c)
DAV:   1     0.851321795520E+02    0.85132E+02   -0.12908E+04  9072   0.217E+03
DAV:   2    -0.154178647350E+01   -0.86674E+02   -0.86674E+02  6480   0.453E+02
DAV:   3    -0.285570580594E+01   -0.13139E+01   -0.13139E+01  7232   0.738E+01
DAV:   4    -0.288527440125E+01   -0.29569E-01   -0.29569E-01  7952   0.674E+00
DAV:   5    -0.288701696528E+01   -0.17426E-02   -0.17426E-02  7832   0.760E-01    0.113E+00
DAV:   6    -0.287925548248E+01    0.77615E-02   -0.85985E-03  6832   0.121E+00    0.725E-01
DAV:   7    -0.287176005873E+01    0.74954E-02   -0.10766E-02  6592   0.182E+00    0.291E-02
DAV:   8    -0.287184811914E+01   -0.88060E-04   -0.12842E-03  6920   0.357E-01    0.164E-02
DAV:   9    -0.287188758260E+01   -0.39463E-04   -0.42473E-04  8160   0.971E-02    0.123E-02
DAV:  10    -0.287190391894E+01   -0.16336E-04   -0.16796E-04  3712   0.162E-02    0.103E-02
DAV:  11    -0.287191396733E+01   -0.10048E-04   -0.89149E-05  6792   0.385E-02    0.281E-03
DAV:  12    -0.287191596999E+01   -0.20027E-05   -0.19398E-05  3472   0.192E-02    0.186E-03
DAV:  13    -0.287191639980E+01   -0.42980E-06   -0.71685E-06  3504   0.155E-02
   1 F= -.28719164E+01 E0= -.28719164E+01  d E =-.565065E-17
