   4   4   0   0
  0.2769050E+02  0.5767556E-09  0.5767556E-09  0.5767556E-09  0.5000000E-15
  1.000000000000000E-004
  CAR 
 unknown system                          
     12.76537562    -25.18290568  301      1.36446427      1.00000000
    -25.183  0.0000E+00  0.0000E+00
    -25.056  0.0000E+00  0.0000E+00
    -24.930  0.0000E+00  0.0000E+00
    -24.803  0.0000E+00  0.0000E+00
    -24.677  0.0000E+00  0.0000E+00
    -24.550  0.0000E+00  0.0000E+00
    -24.424  0.0000E+00  0.0000E+00
    -24.297  0.0000E+00  0.0000E+00
    -24.171  0.0000E+00  0.0000E+00
    -24.044  0.0000E+00  0.0000E+00
    -23.918  0.0000E+00  0.0000E+00
    -23.791  0.0000E+00  0.0000E+00
    -23.665  0.2974E-07  0.3762E-08
    -23.538  0.1768E+00  0.2236E-01
    -23.412  0.3327E+02  0.4230E+01
    -23.285  0.4225E+02  0.9574E+01
    -23.159  0.6642E+02  0.1798E+02
    -23.033  0.1938E+00  0.1800E+02
    -22.906  0.8848E-08  0.1800E+02
    -22.780  0.0000E+00  0.1800E+02
    -22.653  0.0000E+00  0.1800E+02
    -22.527  0.0000E+00  0.1800E+02
    -22.400  0.0000E+00  0.1800E+02
    -22.274  0.0000E+00  0.1800E+02
    -22.147  0.0000E+00  0.1800E+02
    -22.021  0.0000E+00  0.1800E+02
    -21.894  0.0000E+00  0.1800E+02
    -21.768  0.0000E+00  0.1800E+02
    -21.641  0.0000E+00  0.1800E+02
    -21.515  0.0000E+00  0.1800E+02
    -21.388  0.0000E+00  0.1800E+02
    -21.262  0.0000E+00  0.1800E+02
    -21.135  0.0000E+00  0.1800E+02
    -21.009  0.0000E+00  0.1800E+02
    -20.882  0.0000E+00  0.1800E+02
    -20.756  0.0000E+00  0.1800E+02
    -20.629  0.0000E+00  0.1800E+02
    -20.503  0.0000E+00  0.1800E+02
    -20.376  0.0000E+00  0.1800E+02
    -20.250  0.0000E+00  0.1800E+02
    -20.123  0.0000E+00  0.1800E+02
    -19.997  0.0000E+00  0.1800E+02
    -19.870  0.0000E+00  0.1800E+02
    -19.744  0.0000E+00  0.1800E+02
    -19.617  0.0000E+00  0.1800E+02
    -19.491  0.0000E+00  0.1800E+02
    -19.364  0.0000E+00  0.1800E+02
    -19.238  0.0000E+00  0.1800E+02
    -19.111  0.0000E+00  0.1800E+02
    -18.985  0.0000E+00  0.1800E+02
    -18.858  0.0000E+00  0.1800E+02
    -18.732  0.0000E+00  0.1800E+02
    -18.605  0.0000E+00  0.1800E+02
    -18.479  0.0000E+00  0.1800E+02
    -18.352  0.0000E+00  0.1800E+02
    -18.226  0.0000E+00  0.1800E+02
    -18.099  0.0000E+00  0.1800E+02
    -17.973  0.0000E+00  0.1800E+02
    -17.846  0.0000E+00  0.1800E+02
    -17.720  0.0000E+00  0.1800E+02
    -17.593  0.0000E+00  0.1800E+02
    -17.467  0.0000E+00  0.1800E+02
    -17.340  0.0000E+00  0.1800E+02
    -17.214  0.0000E+00  0.1800E+02
    -17.087  0.0000E+00  0.1800E+02
    -16.961  0.0000E+00  0.1800E+02
    -16.834  0.0000E+00  0.1800E+02
    -16.708  0.0000E+00  0.1800E+02
    -16.581  0.0000E+00  0.1800E+02
    -16.455  0.0000E+00  0.1800E+02
    -16.328  0.0000E+00  0.1800E+02
    -16.202  0.0000E+00  0.1800E+02
    -16.075  0.0000E+00  0.1800E+02
    -15.949  0.0000E+00  0.1800E+02
    -15.822  0.0000E+00  0.1800E+02
    -15.696  0.0000E+00  0.1800E+02
    -15.569  0.0000E+00  0.1800E+02
    -15.443  0.0000E+00  0.1800E+02
    -15.316  0.0000E+00  0.1800E+02
    -15.190  0.0000E+00  0.1800E+02
    -15.063  0.0000E+00  0.1800E+02
    -14.937  0.0000E+00  0.1800E+02
    -14.810  0.0000E+00  0.1800E+02
    -14.684  0.0000E+00  0.1800E+02
    -14.557  0.0000E+00  0.1800E+02
    -14.431  0.0000E+00  0.1800E+02
    -14.304  0.0000E+00  0.1800E+02
    -14.178  0.0000E+00  0.1800E+02
    -14.051  0.0000E+00  0.1800E+02
    -13.925  0.0000E+00  0.1800E+02
    -13.798  0.0000E+00  0.1800E+02
    -13.672  0.0000E+00  0.1800E+02
    -13.545  0.0000E+00  0.1800E+02
    -13.419  0.0000E+00  0.1800E+02
    -13.292  0.0000E+00  0.1800E+02
    -13.166  0.0000E+00  0.1800E+02
    -13.039  0.0000E+00  0.1800E+02
    -12.913  0.0000E+00  0.1800E+02
    -12.786  0.0000E+00  0.1800E+02
    -12.660  0.0000E+00  0.1800E+02
    -12.533  0.0000E+00  0.1800E+02
    -12.407  0.0000E+00  0.1800E+02
    -12.280  0.0000E+00  0.1800E+02
    -12.154  0.0000E+00  0.1800E+02
    -12.028  0.0000E+00  0.1800E+02
    -11.901  0.0000E+00  0.1800E+02
    -11.775  0.0000E+00  0.1800E+02
    -11.648  0.0000E+00  0.1800E+02
    -11.522  0.0000E+00  0.1800E+02
    -11.395  0.0000E+00  0.1800E+02
    -11.269  0.0000E+00  0.1800E+02
    -11.142  0.0000E+00  0.1800E+02
    -11.016  0.0000E+00  0.1800E+02
    -10.889  0.0000E+00  0.1800E+02
    -10.763  0.0000E+00  0.1800E+02
    -10.636  0.0000E+00  0.1800E+02
    -10.510  0.0000E+00  0.1800E+02
    -10.383  0.0000E+00  0.1800E+02
    -10.257  0.0000E+00  0.1800E+02
    -10.130  0.0000E+00  0.1800E+02
    -10.004  0.0000E+00  0.1800E+02
     -9.877  0.0000E+00  0.1800E+02
     -9.751  0.0000E+00  0.1800E+02
     -9.624  0.0000E+00  0.1800E+02
     -9.498  0.0000E+00  0.1800E+02
     -9.371  0.0000E+00  0.1800E+02
     -9.245  0.0000E+00  0.1800E+02
     -9.118  0.0000E+00  0.1800E+02
     -8.992  0.0000E+00  0.1800E+02
     -8.865  0.0000E+00  0.1800E+02
     -8.739  0.0000E+00  0.1800E+02
     -8.612  0.0000E+00  0.1800E+02
     -8.486  0.0000E+00  0.1800E+02
     -8.359  0.0000E+00  0.1800E+02
     -8.233  0.0000E+00  0.1800E+02
     -8.106  0.0000E+00  0.1800E+02
     -7.980  0.0000E+00  0.1800E+02
     -7.853  0.0000E+00  0.1800E+02
     -7.727  0.0000E+00  0.1800E+02
     -7.600  0.0000E+00  0.1800E+02
     -7.474  0.0000E+00  0.1800E+02
     -7.347  0.0000E+00  0.1800E+02
     -7.221  0.0000E+00  0.1800E+02
     -7.094  0.0000E+00  0.1800E+02
     -6.968  0.0000E+00  0.1800E+02
     -6.841  0.0000E+00  0.1800E+02
     -6.715  0.0000E+00  0.1800E+02
     -6.588  0.0000E+00  0.1800E+02
     -6.462  0.0000E+00  0.1800E+02
     -6.335  0.0000E+00  0.1800E+02
     -6.209  0.0000E+00  0.1800E+02
     -6.082  0.0000E+00  0.1800E+02
     -5.956  0.0000E+00  0.1800E+02
     -5.829  0.1214E-07  0.1800E+02
     -5.703  0.1080E+00  0.1801E+02
     -5.576  0.4142E+02  0.2325E+02
     -5.450  0.3738E+02  0.2798E+02
     -5.323  0.1496E+00  0.2800E+02
     -5.197  0.6737E-07  0.2800E+02
     -5.070  0.0000E+00  0.2800E+02
     -4.944  0.0000E+00  0.2800E+02
     -4.817  0.0000E+00  0.2800E+02
     -4.691  0.0000E+00  0.2800E+02
     -4.564  0.1177E-10  0.2800E+02
     -4.438  0.3548E-03  0.2800E+02
     -4.311  0.1161E+00  0.2801E+02
     -4.185  0.2912E+00  0.2805E+02
     -4.058  0.6579E+00  0.2813E+02
     -3.932  0.6904E+00  0.2822E+02
     -3.805  0.2088E+00  0.2825E+02
     -3.679  0.1575E+01  0.2845E+02
     -3.552  0.1613E+01  0.2865E+02
     -3.426  0.1083E+01  0.2879E+02
     -3.299  0.2109E+01  0.2906E+02
     -3.173  0.3389E+01  0.2948E+02
     -3.046  0.1297E+01  0.2965E+02
     -2.920  0.1761E+01  0.2987E+02
     -2.793  0.6646E+00  0.2996E+02
     -2.667  0.3540E+00  0.3000E+02
     -2.540  0.1530E-02  0.3000E+02
     -2.414  0.7807E-10  0.3000E+02
     -2.287  0.0000E+00  0.3000E+02
     -2.161  0.0000E+00  0.3000E+02
     -2.034  0.0000E+00  0.3000E+02
     -1.908  0.0000E+00  0.3000E+02
     -1.781  0.0000E+00  0.3000E+02
     -1.655  0.0000E+00  0.3000E+02
     -1.528  0.0000E+00  0.3000E+02
     -1.402  0.0000E+00  0.3000E+02
     -1.275  0.0000E+00  0.3000E+02
     -1.149  0.0000E+00  0.3000E+02
     -1.022  0.1056E-15  0.3000E+02
     -0.896  0.9575E-06  0.3000E+02
     -0.770  0.5931E-01  0.3001E+02
     -0.643  0.6482E+00  0.3009E+02
     -0.517  0.6985E+00  0.3018E+02
     -0.390  0.5890E+00  0.3025E+02
     -0.264  0.1573E+01  0.3045E+02
     -0.137  0.2746E+01  0.3080E+02
     -0.011  0.4275E+00  0.3085E+02
      0.116  0.1642E+01  0.3106E+02
      0.242  0.2687E+01  0.3140E+02
      0.369  0.2068E+01  0.3166E+02
      0.495  0.1104E+01  0.3180E+02
      0.622  0.9704E+00  0.3192E+02
      0.748  0.1124E+01  0.3207E+02
      0.875  0.6062E-01  0.3207E+02
      1.001  0.7868E+00  0.3217E+02
      1.128  0.2569E+01  0.3250E+02
      1.254  0.2533E+01  0.3282E+02
      1.381  0.1693E+01  0.3303E+02
      1.507  0.1305E+01  0.3320E+02
      1.634  0.1817E+01  0.3343E+02
      1.760  0.8626E+00  0.3354E+02
      1.887  0.1480E+01  0.3372E+02
      2.013  0.1736E+01  0.3394E+02
      2.140  0.2784E+01  0.3430E+02
      2.266  0.2630E+01  0.3463E+02
      2.393  0.5827E+00  0.3470E+02
      2.519  0.8730E+00  0.3481E+02
      2.646  0.2319E+01  0.3511E+02
      2.772  0.1511E+01  0.3530E+02
      2.899  0.8985E+00  0.3541E+02
      3.025  0.2715E+01  0.3575E+02
      3.152  0.1170E+01  0.3590E+02
      3.278  0.1779E+01  0.3613E+02
      3.405  0.1531E+01  0.3632E+02
      3.531  0.1237E+01  0.3648E+02
      3.658  0.1933E+01  0.3672E+02
      3.784  0.1230E+01  0.3688E+02
      3.911  0.1729E+01  0.3710E+02
      4.037  0.2586E+01  0.3742E+02
      4.164  0.1611E+01  0.3763E+02
      4.290  0.1626E+01  0.3783E+02
      4.417  0.2825E+01  0.3819E+02
      4.543  0.1669E+01  0.3840E+02
      4.670  0.1468E+01  0.3859E+02
      4.796  0.7689E+00  0.3868E+02
      4.923  0.2243E+01  0.3897E+02
      5.049  0.2701E+01  0.3931E+02
      5.176  0.1476E+01  0.3950E+02
      5.302  0.2064E+01  0.3976E+02
      5.429  0.1675E+01  0.3997E+02
      5.555  0.2612E+01  0.4030E+02
      5.682  0.2266E+01  0.4059E+02
      5.808  0.1644E+01  0.4079E+02
      5.935  0.1575E+01  0.4099E+02
      6.061  0.1360E+01  0.4117E+02
      6.188  0.2869E+01  0.4153E+02
      6.314  0.1823E+01  0.4176E+02
      6.441  0.3575E+01  0.4221E+02
      6.567  0.4041E+01  0.4272E+02
      6.694  0.1292E+01  0.4289E+02
      6.820  0.2948E+01  0.4326E+02
      6.947  0.1815E+01  0.4349E+02
      7.073  0.5779E+01  0.4422E+02
      7.200  0.2019E+01  0.4448E+02
      7.326  0.8726E+00  0.4459E+02
      7.453  0.1694E+01  0.4480E+02
      7.579  0.2352E+01  0.4510E+02
      7.706  0.1953E+01  0.4534E+02
      7.832  0.9985E+00  0.4547E+02
      7.959  0.1801E+01  0.4570E+02
      8.085  0.1528E+01  0.4589E+02
      8.212  0.1361E+01  0.4606E+02
      8.338  0.2460E+01  0.4638E+02
      8.465  0.1610E+01  0.4658E+02
      8.591  0.3659E+01  0.4704E+02
      8.718  0.1843E+01  0.4727E+02
      8.844  0.1357E+01  0.4745E+02
      8.971  0.1588E+01  0.4765E+02
      9.097  0.5680E-02  0.4765E+02
      9.224  0.3338E-09  0.4765E+02
      9.350  0.1515E-08  0.4765E+02
      9.477  0.1083E-01  0.4765E+02
      9.603  0.1436E+01  0.4783E+02
      9.730  0.6353E+00  0.4791E+02
      9.856  0.3097E+00  0.4795E+02
      9.983  0.9706E-01  0.4796E+02
     10.109  0.1170E-03  0.4796E+02
     10.235  0.1209E-11  0.4796E+02
     10.362  0.8127E-17  0.4796E+02
     10.488  0.1370E-06  0.4796E+02
     10.615  0.1716E-01  0.4797E+02
     10.741  0.1280E+00  0.4798E+02
     10.868  0.1237E-02  0.4798E+02
     10.994  0.1548E-01  0.4798E+02
     11.121  0.1294E+00  0.4800E+02
     11.247  0.1474E-02  0.4800E+02
     11.374  0.2705E-09  0.4800E+02
     11.500  0.0000E+00  0.4800E+02
     11.627  0.0000E+00  0.4800E+02
     11.753  0.0000E+00  0.4800E+02
     11.880  0.0000E+00  0.4800E+02
     12.006  0.0000E+00  0.4800E+02
     12.133  0.0000E+00  0.4800E+02
     12.259  0.0000E+00  0.4800E+02
     12.386  0.0000E+00  0.4800E+02
     12.512  0.0000E+00  0.4800E+02
     12.639  0.0000E+00  0.4800E+02
     12.765  0.0000E+00  0.4800E+02
