Na3 Hg1
1.0
  -2.4508653100000002    2.4508653100000002    4.6099045800000003
   2.4508653100000002   -2.4508653100000002    4.6099045800000003
   2.4508653100000002    2.4508653100000002   -4.6099045800000003
Na Hg
3 1
direct
   0.7500000000000000    0.2500000000000000    0.5000000000000000 Na
   0.2500000000000000    0.7500000000000000    0.5000000000000000 Na
   0.5000000000000000    0.5000000000000000   -0.0000000000000000 Na
  -0.0000000000000000   -0.0000000000000000   -0.0000000000000000 Hg
