Co4 Ge4                                 
   1.00000000000000     
     3.5267435200000001    0.0000000000000000   -1.1526715599999999
    -0.2721749900000000    4.7925905899999997   -0.8327564500000000
     0.0423006500000000    0.0876393400000000    6.1010167400000004
   Co   Ge
     4     4
Direct
     0.0000000000000000    0.0000000000000000    0.0000000000000000
     0.0000000000000000    0.5000000000000000    0.0000000000000000
     0.8044464899999966    0.6745554900000030    0.6088939699999969
     0.1955535100000034    0.3254445099999970    0.3911060300000031
     0.8163355000000010    0.1816950700000035    0.6326690100000008
     0.1836644999999990    0.8183049299999965    0.3673309899999992
     0.5698379399999993    0.2824105500000016    0.1396748800000012
     0.4301620600000007    0.7175894499999984    0.8603251199999988
 
  0.00000000E+00  0.00000000E+00  0.00000000E+00
  0.00000000E+00  0.00000000E+00  0.00000000E+00
  0.00000000E+00  0.00000000E+00  0.00000000E+00
  0.00000000E+00  0.00000000E+00  0.00000000E+00
  0.00000000E+00  0.00000000E+00  0.00000000E+00
  0.00000000E+00  0.00000000E+00  0.00000000E+00
  0.00000000E+00  0.00000000E+00  0.00000000E+00
  0.00000000E+00  0.00000000E+00  0.00000000E+00
