Cd2 Sb6                                 
   1.00000000000000     
     3.2968169999999999   -5.7102550000000001    0.0000000000000000
     3.2968169999999999    5.7102550000000001    0.0000000000000000
     0.0000000000000000    0.0000000000000000    5.7210530000000004
   Cd   Sb
     2     6
Direct
     0.3333330000000032    0.6666669999999968    0.7500000000000000
     0.6666669999999968    0.3333330000000032    0.2500000000000000
     0.1714229999999972    0.3428449999999970    0.2500000000000000
     0.6571550000000030    0.8285770000000028    0.2500000000000000
     0.1714229999999972    0.8285770000000028    0.2500000000000000
     0.8285770000000028    0.6571550000000030    0.7500000000000000
     0.3428449999999970    0.1714229999999972    0.7500000000000000
     0.8285770000000028    0.1714229999999972    0.7500000000000000
 
  0.00000000E+00  0.00000000E+00  0.00000000E+00
  0.00000000E+00  0.00000000E+00  0.00000000E+00
  0.00000000E+00  0.00000000E+00  0.00000000E+00
  0.00000000E+00  0.00000000E+00  0.00000000E+00
  0.00000000E+00  0.00000000E+00  0.00000000E+00
  0.00000000E+00  0.00000000E+00  0.00000000E+00
  0.00000000E+00  0.00000000E+00  0.00000000E+00
  0.00000000E+00  0.00000000E+00  0.00000000E+00
