   8   8   0   0
  0.2692566E+02  0.6593634E-09  0.6593634E-09  0.5721053E-09  0.5000000E-15
  1.000000000000000E-004
  CAR 
 unknown system                          
     15.91608470     -6.43490725  301      6.76638700      1.00000000
     -6.435  0.0000E+00  0.0000E+00
     -6.360  0.0000E+00  0.0000E+00
     -6.286  0.0000E+00  0.0000E+00
     -6.211  0.0000E+00  0.0000E+00
     -6.137  0.0000E+00  0.0000E+00
     -6.062  0.0000E+00  0.0000E+00
     -5.988  0.0000E+00  0.0000E+00
     -5.913  0.0000E+00  0.0000E+00
     -5.839  0.0000E+00  0.0000E+00
     -5.764  0.0000E+00  0.0000E+00
     -5.690  0.3055E-14  0.2276E-15
     -5.615  0.4643E-08  0.3460E-09
     -5.541  0.9466E-04  0.7053E-05
     -5.466  0.3009E-01  0.2249E-02
     -5.392  0.2310E+00  0.1946E-01
     -5.317  0.1028E+00  0.2712E-01
     -5.243  0.4197E+00  0.5839E-01
     -5.168  0.8513E+00  0.1218E+00
     -5.094  0.1288E+01  0.2177E+00
     -5.019  0.9797E+00  0.2907E+00
     -4.945  0.2776E+01  0.4976E+00
     -4.870  0.3755E+00  0.5256E+00
     -4.796  0.2959E+00  0.5476E+00
     -4.721  0.3730E+00  0.5754E+00
     -4.647  0.8443E+00  0.6383E+00
     -4.572  0.1831E+01  0.7747E+00
     -4.498  0.4803E+01  0.1133E+01
     -4.423  0.3428E+01  0.1388E+01
     -4.349  0.8901E+00  0.1454E+01
     -4.274  0.1482E+01  0.1565E+01
     -4.200  0.7828E+00  0.1623E+01
     -4.125  0.1470E+01  0.1732E+01
     -4.051  0.3906E+01  0.2023E+01
     -3.976  0.1603E+01  0.2143E+01
     -3.902  0.3444E+01  0.2399E+01
     -3.827  0.3108E+01  0.2631E+01
     -3.753  0.1512E+01  0.2744E+01
     -3.678  0.1676E+01  0.2868E+01
     -3.604  0.5175E+01  0.3254E+01
     -3.529  0.8007E+01  0.3851E+01
     -3.455  0.2654E+01  0.4048E+01
     -3.380  0.3534E+01  0.4312E+01
     -3.306  0.1727E+01  0.4440E+01
     -3.231  0.2980E+01  0.4662E+01
     -3.157  0.2368E+01  0.4839E+01
     -3.082  0.8755E+00  0.4904E+01
     -3.008  0.3587E+01  0.5171E+01
     -2.933  0.6867E+01  0.5683E+01
     -2.859  0.2275E+01  0.5852E+01
     -2.784  0.3924E+01  0.6145E+01
     -2.710  0.2323E+01  0.6318E+01
     -2.635  0.8933E+00  0.6384E+01
     -2.561  0.4362E+01  0.6709E+01
     -2.486  0.7853E+01  0.7294E+01
     -2.412  0.8747E+01  0.7946E+01
     -2.337  0.8611E+01  0.8588E+01
     -2.263  0.7450E+01  0.9143E+01
     -2.188  0.9778E+01  0.9871E+01
     -2.114  0.8245E+01  0.1049E+02
     -2.039  0.1064E+02  0.1128E+02
     -1.965  0.1365E+02  0.1230E+02
     -1.890  0.6561E+02  0.1718E+02
     -1.816  0.7582E+02  0.2283E+02
     -1.741  0.1805E+02  0.2418E+02
     -1.667  0.9841E+01  0.2491E+02
     -1.592  0.7938E+01  0.2550E+02
     -1.518  0.1018E+02  0.2626E+02
     -1.443  0.1105E+02  0.2708E+02
     -1.369  0.4959E+01  0.2745E+02
     -1.294  0.8698E+01  0.2810E+02
     -1.220  0.1145E+02  0.2896E+02
     -1.145  0.4242E+01  0.2927E+02
     -1.071  0.4431E+01  0.2960E+02
     -0.996  0.5715E+01  0.3003E+02
     -0.922  0.6920E+01  0.3054E+02
     -0.847  0.5118E+01  0.3092E+02
     -0.773  0.2812E+01  0.3113E+02
     -0.698  0.3110E+01  0.3137E+02
     -0.624  0.4187E+01  0.3168E+02
     -0.549  0.2916E+01  0.3189E+02
     -0.475  0.1258E+01  0.3199E+02
     -0.400  0.1589E+00  0.3200E+02
     -0.326  0.8721E-03  0.3200E+02
     -0.251  0.8070E-07  0.3200E+02
     -0.177  0.1016E-12  0.3200E+02
     -0.102  0.0000E+00  0.3200E+02
     -0.028  0.0000E+00  0.3200E+02
      0.047  0.0000E+00  0.3200E+02
      0.121  0.0000E+00  0.3200E+02
      0.196  0.0000E+00  0.3200E+02
      0.270  0.0000E+00  0.3200E+02
      0.345  0.0000E+00  0.3200E+02
      0.419  0.0000E+00  0.3200E+02
      0.494  0.0000E+00  0.3200E+02
      0.568  0.0000E+00  0.3200E+02
      0.643  0.0000E+00  0.3200E+02
      0.717  0.0000E+00  0.3200E+02
      0.792  0.0000E+00  0.3200E+02
      0.866  0.5562E-13  0.3200E+02
      0.941  0.6286E-07  0.3200E+02
      1.015  0.9582E-03  0.3200E+02
      1.090  0.2319E+00  0.3202E+02
      1.164  0.1420E+01  0.3212E+02
      1.239  0.8420E+00  0.3219E+02
      1.313  0.1691E+01  0.3231E+02
      1.388  0.1252E+01  0.3241E+02
      1.462  0.3074E+01  0.3263E+02
      1.537  0.2431E+01  0.3282E+02
      1.611  0.3599E+01  0.3308E+02
      1.686  0.4240E+01  0.3340E+02
      1.760  0.3307E+01  0.3365E+02
      1.835  0.3436E+01  0.3390E+02
      1.909  0.1760E+01  0.3403E+02
      1.984  0.6635E+01  0.3453E+02
      2.058  0.4502E+01  0.3486E+02
      2.133  0.4470E+00  0.3490E+02
      2.207  0.3413E+00  0.3492E+02
      2.282  0.3927E+01  0.3521E+02
      2.356  0.4725E+01  0.3557E+02
      2.431  0.7177E+00  0.3562E+02
      2.505  0.1794E+01  0.3575E+02
      2.580  0.3270E+01  0.3600E+02
      2.654  0.3671E+01  0.3627E+02
      2.729  0.4953E+01  0.3664E+02
      2.804  0.3597E+01  0.3691E+02
      2.878  0.2342E+01  0.3708E+02
      2.953  0.7550E+01  0.3764E+02
      3.027  0.1083E+02  0.3845E+02
      3.102  0.4921E+01  0.3882E+02
      3.176  0.4925E+00  0.3885E+02
      3.251  0.4993E+00  0.3889E+02
      3.325  0.2529E+01  0.3908E+02
      3.400  0.8624E+01  0.3972E+02
      3.474  0.7427E+01  0.4028E+02
      3.549  0.4600E+01  0.4062E+02
      3.623  0.3431E+01  0.4087E+02
      3.698  0.4962E+01  0.4124E+02
      3.772  0.4129E+00  0.4127E+02
      3.847  0.6117E-01  0.4128E+02
      3.921  0.1907E+01  0.4142E+02
      3.996  0.5264E+01  0.4181E+02
      4.070  0.5918E+01  0.4225E+02
      4.145  0.4494E+01  0.4259E+02
      4.219  0.3342E+01  0.4284E+02
      4.294  0.2300E+01  0.4301E+02
      4.368  0.1854E+01  0.4315E+02
      4.443  0.6510E+01  0.4363E+02
      4.517  0.7745E+01  0.4421E+02
      4.592  0.6539E+01  0.4470E+02
      4.666  0.2076E+01  0.4485E+02
      4.741  0.6121E+01  0.4531E+02
      4.815  0.9394E+01  0.4601E+02
      4.890  0.3912E+01  0.4630E+02
      4.964  0.2467E+01  0.4648E+02
      5.039  0.3967E+01  0.4678E+02
      5.113  0.2410E+01  0.4696E+02
      5.188  0.3388E+01  0.4721E+02
      5.262  0.4977E+01  0.4758E+02
      5.337  0.2228E+01  0.4775E+02
      5.411  0.2424E+01  0.4793E+02
      5.486  0.1366E+01  0.4803E+02
      5.560  0.2874E+01  0.4824E+02
      5.635  0.5249E+01  0.4863E+02
      5.709  0.9987E+01  0.4938E+02
      5.784  0.7620E+01  0.4995E+02
      5.858  0.6227E+01  0.5041E+02
      5.933  0.3520E+01  0.5067E+02
      6.007  0.3083E+01  0.5090E+02
      6.082  0.4819E+01  0.5126E+02
      6.156  0.3970E+01  0.5156E+02
      6.231  0.3013E+01  0.5178E+02
      6.305  0.5181E+01  0.5217E+02
      6.380  0.6487E+01  0.5265E+02
      6.454  0.2187E+01  0.5281E+02
      6.529  0.3792E+01  0.5310E+02
      6.603  0.5453E+01  0.5350E+02
      6.678  0.2866E+01  0.5372E+02
      6.752  0.3130E+01  0.5395E+02
      6.827  0.3182E+01  0.5419E+02
      6.901  0.6145E+01  0.5464E+02
      6.976  0.6933E+01  0.5516E+02
      7.050  0.2329E+01  0.5533E+02
      7.125  0.5423E+01  0.5574E+02
      7.199  0.3742E+01  0.5602E+02
      7.274  0.2356E+01  0.5619E+02
      7.348  0.6194E+01  0.5665E+02
      7.423  0.1284E+01  0.5675E+02
      7.497  0.1408E+01  0.5685E+02
      7.572  0.9744E+01  0.5758E+02
      7.646  0.6854E+01  0.5809E+02
      7.721  0.4428E+01  0.5842E+02
      7.795  0.5351E+01  0.5882E+02
      7.870  0.5379E+01  0.5922E+02
      7.944  0.6076E+01  0.5967E+02
      8.019  0.2941E+01  0.5989E+02
      8.093  0.6293E+01  0.6036E+02
      8.168  0.9983E+01  0.6111E+02
      8.242  0.6097E+01  0.6156E+02
      8.317  0.2519E+01  0.6175E+02
      8.391  0.8092E+01  0.6235E+02
      8.466  0.9806E+01  0.6308E+02
      8.540  0.4334E+01  0.6340E+02
      8.615  0.6154E+01  0.6386E+02
      8.689  0.7780E+01  0.6444E+02
      8.764  0.6879E+01  0.6495E+02
      8.838  0.6515E+01  0.6544E+02
      8.913  0.3408E+01  0.6569E+02
      8.987  0.3210E+01  0.6593E+02
      9.062  0.4794E+01  0.6629E+02
      9.136  0.5812E+01  0.6672E+02
      9.211  0.3860E+01  0.6701E+02
      9.285  0.3422E+01  0.6727E+02
      9.360  0.8154E+01  0.6787E+02
      9.434  0.4390E+01  0.6820E+02
      9.509  0.4976E+01  0.6857E+02
      9.583  0.9056E+01  0.6925E+02
      9.658  0.6026E+01  0.6969E+02
      9.732  0.1691E+01  0.6982E+02
      9.807  0.3018E+01  0.7005E+02
      9.881  0.4674E+01  0.7039E+02
      9.956  0.3042E+01  0.7062E+02
     10.030  0.5343E+01  0.7102E+02
     10.105  0.1594E+01  0.7114E+02
     10.179  0.4513E+00  0.7117E+02
     10.254  0.4416E+01  0.7150E+02
     10.328  0.7074E+01  0.7203E+02
     10.403  0.1301E+01  0.7212E+02
     10.477  0.1535E+00  0.7213E+02
     10.552  0.4408E+01  0.7246E+02
     10.626  0.8972E+01  0.7313E+02
     10.701  0.6933E+01  0.7365E+02
     10.775  0.1413E+01  0.7375E+02
     10.850  0.1689E+01  0.7388E+02
     10.924  0.5595E+01  0.7430E+02
     10.999  0.2581E+01  0.7449E+02
     11.073  0.4896E+01  0.7485E+02
     11.148  0.4769E+01  0.7521E+02
     11.222  0.2904E+00  0.7523E+02
     11.297  0.8304E+00  0.7529E+02
     11.371  0.1648E+01  0.7541E+02
     11.446  0.2376E+01  0.7559E+02
     11.520  0.2330E+01  0.7577E+02
     11.595  0.3638E+01  0.7604E+02
     11.669  0.3275E+01  0.7628E+02
     11.744  0.5825E+01  0.7671E+02
     11.818  0.8876E+01  0.7738E+02
     11.893  0.1011E+02  0.7813E+02
     11.967  0.8257E+01  0.7874E+02
     12.042  0.1818E+01  0.7888E+02
     12.116  0.2051E+01  0.7903E+02
     12.191  0.6652E+00  0.7908E+02
     12.265  0.1494E+01  0.7919E+02
     12.340  0.3511E+01  0.7945E+02
     12.414  0.4572E+01  0.7980E+02
     12.489  0.2824E+01  0.8001E+02
     12.563  0.3262E+01  0.8025E+02
     12.638  0.2883E+01  0.8046E+02
     12.712  0.3833E+01  0.8075E+02
     12.787  0.2067E+01  0.8090E+02
     12.861  0.4826E+01  0.8126E+02
     12.936  0.7314E+01  0.8181E+02
     13.010  0.2878E+01  0.8202E+02
     13.085  0.1615E+01  0.8214E+02
     13.159  0.5865E+01  0.8258E+02
     13.234  0.9470E+01  0.8329E+02
     13.308  0.1674E+01  0.8341E+02
     13.383  0.5030E+01  0.8378E+02
     13.457  0.5258E+01  0.8418E+02
     13.532  0.4217E+01  0.8449E+02
     13.606  0.2228E+01  0.8466E+02
     13.681  0.2798E+01  0.8486E+02
     13.755  0.3149E+01  0.8510E+02
     13.830  0.7824E+01  0.8568E+02
     13.904  0.8010E+01  0.8628E+02
     13.979  0.4222E+01  0.8659E+02
     14.054  0.3448E+01  0.8685E+02
     14.128  0.3697E+01  0.8713E+02
     14.203  0.1951E+01  0.8727E+02
     14.277  0.4956E-01  0.8728E+02
     14.352  0.1352E+00  0.8729E+02
     14.426  0.5765E+00  0.8733E+02
     14.501  0.2264E+01  0.8750E+02
     14.575  0.1677E+01  0.8762E+02
     14.650  0.4526E-01  0.8763E+02
     14.724  0.1305E+00  0.8763E+02
     14.799  0.6617E+00  0.8768E+02
     14.873  0.1104E+01  0.8777E+02
     14.948  0.2774E+01  0.8797E+02
     15.022  0.3603E+00  0.8800E+02
     15.097  0.1131E-02  0.8800E+02
     15.171  0.5534E-07  0.8800E+02
     15.246  0.3632E-13  0.8800E+02
     15.320  0.0000E+00  0.8800E+02
     15.395  0.0000E+00  0.8800E+02
     15.469  0.0000E+00  0.8800E+02
     15.544  0.0000E+00  0.8800E+02
     15.618  0.0000E+00  0.8800E+02
     15.693  0.0000E+00  0.8800E+02
     15.767  0.0000E+00  0.8800E+02
     15.842  0.0000E+00  0.8800E+02
     15.916  0.0000E+00  0.8800E+02
