       N       E                     dE             d eps       ncg     rms          rms(c)
DAV:   1     0.336741266082E+03    0.33674E+03   -0.22597E+04  7040   0.117E+03
DAV:   2    -0.422328478299E+01   -0.34096E+03   -0.32800E+03  8116   0.248E+02
DAV:   3    -0.247595142038E+02   -0.20536E+02   -0.20147E+02  8172   0.633E+01
DAV:   4    -0.249917717488E+02   -0.23226E+00   -0.23152E+00  7896   0.618E+00
DAV:   5    -0.249940870607E+02   -0.23153E-02   -0.23152E-02  7980   0.745E-01    0.558E+00
DAV:   6    -0.247394625203E+02    0.25462E+00   -0.53381E-01  7668   0.627E+00    0.449E+00
DAV:   7    -0.247195329981E+02    0.19930E-01   -0.13311E-01  8040   0.184E+00    0.208E+00
DAV:   8    -0.247176561166E+02    0.18769E-02   -0.29868E-02  7636   0.134E+00    0.289E-01
DAV:   9    -0.247175909135E+02    0.65203E-04   -0.61047E-03  7756   0.686E-01    0.102E-01
DAV:  10    -0.247173518151E+02    0.23910E-03   -0.85796E-04  7576   0.298E-01    0.255E-02
DAV:  11    -0.247173602537E+02   -0.84386E-05   -0.24425E-04  7632   0.102E-01    0.166E-02
DAV:  12    -0.247173585604E+02    0.16933E-05   -0.25745E-05  7588   0.286E-02    0.740E-03
DAV:  13    -0.247173571556E+02    0.14048E-05   -0.31952E-06  7608   0.155E-02    0.588E-03
DAV:  14    -0.247173559942E+02    0.11614E-05   -0.13352E-06  4752   0.569E-03    0.251E-03
DAV:  15    -0.247173558322E+02    0.16204E-06   -0.12873E-07  4120   0.177E-03
   1 F= -.24717356E+02 E0= -.24715253E+02  d E =-.420513E-02
