Cd2Sb6
1.0
      3.2968170      -5.7102550       0.0000000
      3.2968170       5.7102550       0.0000000
      0.0000000       0.0000000       5.7210530
  Cd    Sb  
  2     6   
Direct
      0.3333330       0.6666670       0.7500000
      0.6666670       0.3333330       0.2500000
      0.1714230       0.3428450       0.2500000
      0.6571550       0.8285770       0.2500000
      0.1714230       0.8285770       0.2500000
      0.8285770       0.6571550       0.7500000
      0.3428450       0.1714230       0.7500000
      0.8285770       0.1714230       0.7500000
