   2   2   0   0
  0.3544875E+02  0.4645674E-09  0.4645673E-09  0.4645673E-09  0.5000000E-15
  1.000000000000000E-004
  CAR 
 unknown system                          
     16.59260211    -17.99041581  301      5.19249377      1.00000000
    -17.990  0.0000E+00  0.0000E+00
    -17.875  0.0000E+00  0.0000E+00
    -17.760  0.0000E+00  0.0000E+00
    -17.645  0.0000E+00  0.0000E+00
    -17.529  0.0000E+00  0.0000E+00
    -17.414  0.0000E+00  0.0000E+00
    -17.299  0.0000E+00  0.0000E+00
    -17.183  0.0000E+00  0.0000E+00
    -17.068  0.0000E+00  0.0000E+00
    -16.953  0.0000E+00  0.0000E+00
    -16.838  0.0000E+00  0.0000E+00
    -16.722  0.0000E+00  0.0000E+00
    -16.607  0.2266E-06  0.2612E-07
    -16.492  0.1854E+00  0.2137E-01
    -16.377  0.2489E+02  0.2891E+01
    -16.261  0.3028E+02  0.6382E+01
    -16.146  0.3760E+02  0.1072E+02
    -16.031  0.3978E+02  0.1530E+02
    -15.915  0.3565E+02  0.1941E+02
    -15.800  0.5110E+01  0.2000E+02
    -15.685  0.6399E-03  0.2000E+02
    -15.570  0.5968E-11  0.2000E+02
    -15.454  0.0000E+00  0.2000E+02
    -15.339  0.0000E+00  0.2000E+02
    -15.224  0.0000E+00  0.2000E+02
    -15.108  0.0000E+00  0.2000E+02
    -14.993  0.0000E+00  0.2000E+02
    -14.878  0.0000E+00  0.2000E+02
    -14.763  0.0000E+00  0.2000E+02
    -14.647  0.0000E+00  0.2000E+02
    -14.532  0.0000E+00  0.2000E+02
    -14.417  0.0000E+00  0.2000E+02
    -14.302  0.0000E+00  0.2000E+02
    -14.186  0.0000E+00  0.2000E+02
    -14.071  0.0000E+00  0.2000E+02
    -13.956  0.0000E+00  0.2000E+02
    -13.840  0.0000E+00  0.2000E+02
    -13.725  0.0000E+00  0.2000E+02
    -13.610  0.0000E+00  0.2000E+02
    -13.495  0.0000E+00  0.2000E+02
    -13.379  0.0000E+00  0.2000E+02
    -13.264  0.0000E+00  0.2000E+02
    -13.149  0.0000E+00  0.2000E+02
    -13.034  0.0000E+00  0.2000E+02
    -12.918  0.0000E+00  0.2000E+02
    -12.803  0.0000E+00  0.2000E+02
    -12.688  0.0000E+00  0.2000E+02
    -12.572  0.0000E+00  0.2000E+02
    -12.457  0.0000E+00  0.2000E+02
    -12.342  0.0000E+00  0.2000E+02
    -12.227  0.0000E+00  0.2000E+02
    -12.111  0.0000E+00  0.2000E+02
    -11.996  0.0000E+00  0.2000E+02
    -11.881  0.0000E+00  0.2000E+02
    -11.765  0.0000E+00  0.2000E+02
    -11.650  0.0000E+00  0.2000E+02
    -11.535  0.0000E+00  0.2000E+02
    -11.420  0.0000E+00  0.2000E+02
    -11.304  0.0000E+00  0.2000E+02
    -11.189  0.0000E+00  0.2000E+02
    -11.074  0.0000E+00  0.2000E+02
    -10.959  0.0000E+00  0.2000E+02
    -10.843  0.0000E+00  0.2000E+02
    -10.728  0.0000E+00  0.2000E+02
    -10.613  0.0000E+00  0.2000E+02
    -10.497  0.0000E+00  0.2000E+02
    -10.382  0.0000E+00  0.2000E+02
    -10.267  0.0000E+00  0.2000E+02
    -10.152  0.0000E+00  0.2000E+02
    -10.036  0.0000E+00  0.2000E+02
     -9.921  0.0000E+00  0.2000E+02
     -9.806  0.0000E+00  0.2000E+02
     -9.690  0.0000E+00  0.2000E+02
     -9.575  0.0000E+00  0.2000E+02
     -9.460  0.0000E+00  0.2000E+02
     -9.345  0.0000E+00  0.2000E+02
     -9.229  0.0000E+00  0.2000E+02
     -9.114  0.0000E+00  0.2000E+02
     -8.999  0.0000E+00  0.2000E+02
     -8.884  0.0000E+00  0.2000E+02
     -8.768  0.0000E+00  0.2000E+02
     -8.653  0.0000E+00  0.2000E+02
     -8.538  0.0000E+00  0.2000E+02
     -8.422  0.0000E+00  0.2000E+02
     -8.307  0.0000E+00  0.2000E+02
     -8.192  0.0000E+00  0.2000E+02
     -8.077  0.0000E+00  0.2000E+02
     -7.961  0.0000E+00  0.2000E+02
     -7.846  0.0000E+00  0.2000E+02
     -7.731  0.0000E+00  0.2000E+02
     -7.616  0.0000E+00  0.2000E+02
     -7.500  0.0000E+00  0.2000E+02
     -7.385  0.0000E+00  0.2000E+02
     -7.270  0.0000E+00  0.2000E+02
     -7.154  0.0000E+00  0.2000E+02
     -7.039  0.0000E+00  0.2000E+02
     -6.924  0.0000E+00  0.2000E+02
     -6.809  0.0000E+00  0.2000E+02
     -6.693  0.0000E+00  0.2000E+02
     -6.578  0.0000E+00  0.2000E+02
     -6.463  0.0000E+00  0.2000E+02
     -6.347  0.0000E+00  0.2000E+02
     -6.232  0.0000E+00  0.2000E+02
     -6.117  0.0000E+00  0.2000E+02
     -6.002  0.0000E+00  0.2000E+02
     -5.886  0.0000E+00  0.2000E+02
     -5.771  0.0000E+00  0.2000E+02
     -5.656  0.0000E+00  0.2000E+02
     -5.541  0.0000E+00  0.2000E+02
     -5.425  0.0000E+00  0.2000E+02
     -5.310  0.8684E-10  0.2000E+02
     -5.195  0.2043E-03  0.2000E+02
     -5.079  0.3670E-01  0.2000E+02
     -4.964  0.4200E-01  0.2001E+02
     -4.849  0.5068E+00  0.2007E+02
     -4.734  0.1729E+00  0.2009E+02
     -4.618  0.2020E+00  0.2011E+02
     -4.503  0.4134E+00  0.2016E+02
     -4.388  0.1113E+01  0.2029E+02
     -4.272  0.4964E+00  0.2034E+02
     -4.157  0.1345E-01  0.2035E+02
     -4.042  0.3205E+00  0.2038E+02
     -3.927  0.1281E+01  0.2053E+02
     -3.811  0.1118E+01  0.2066E+02
     -3.696  0.1252E+01  0.2080E+02
     -3.581  0.3662E+00  0.2085E+02
     -3.466  0.5924E+00  0.2091E+02
     -3.350  0.1806E+01  0.2112E+02
     -3.235  0.9416E+00  0.2123E+02
     -3.120  0.2083E+01  0.2147E+02
     -3.004  0.4080E-01  0.2148E+02
     -2.889  0.6014E+00  0.2154E+02
     -2.774  0.1469E+01  0.2171E+02
     -2.659  0.6598E+00  0.2179E+02
     -2.543  0.2066E+00  0.2181E+02
     -2.428  0.9954E+00  0.2193E+02
     -2.313  0.3188E-01  0.2193E+02
     -2.198  0.5388E+00  0.2199E+02
     -2.082  0.4979E-01  0.2200E+02
     -1.967  0.3481E+00  0.2204E+02
     -1.852  0.2580E+00  0.2207E+02
     -1.736  0.4929E-02  0.2207E+02
     -1.621  0.8769E+00  0.2217E+02
     -1.506  0.3323E+00  0.2221E+02
     -1.391  0.3717E+00  0.2225E+02
     -1.275  0.1868E+01  0.2247E+02
     -1.160  0.4916E+00  0.2252E+02
     -1.045  0.2615E-02  0.2253E+02
     -0.929  0.1792E+01  0.2273E+02
     -0.814  0.1864E+01  0.2295E+02
     -0.699  0.5839E+00  0.2301E+02
     -0.584  0.4216E+00  0.2306E+02
     -0.468  0.1046E+01  0.2318E+02
     -0.353  0.8020E+00  0.2328E+02
     -0.238  0.5693E+00  0.2334E+02
     -0.123  0.5133E-03  0.2334E+02
     -0.007  0.4097E-03  0.2334E+02
      0.108  0.7683E+00  0.2343E+02
      0.223  0.1648E+01  0.2362E+02
      0.339  0.1111E-01  0.2362E+02
      0.454  0.5404E-05  0.2362E+02
      0.569  0.5797E-01  0.2363E+02
      0.684  0.2434E+00  0.2366E+02
      0.800  0.2370E+00  0.2368E+02
      0.915  0.1697E+00  0.2370E+02
      1.030  0.1775E-03  0.2370E+02
      1.146  0.3342E+00  0.2374E+02
      1.261  0.8750E+00  0.2384E+02
      1.376  0.4688E-02  0.2384E+02
      1.491  0.3321E-05  0.2384E+02
      1.607  0.7752E-01  0.2385E+02
      1.722  0.5192E+00  0.2391E+02
      1.837  0.1024E-01  0.2391E+02
      1.952  0.2025E-04  0.2391E+02
      2.068  0.2648E+00  0.2394E+02
      2.183  0.2494E+01  0.2423E+02
      2.298  0.4249E+00  0.2428E+02
      2.414  0.2294E+01  0.2454E+02
      2.529  0.1646E+01  0.2473E+02
      2.644  0.3098E+00  0.2477E+02
      2.759  0.5216E+00  0.2483E+02
      2.875  0.4021E+01  0.2529E+02
      2.990  0.2269E+01  0.2555E+02
      3.105  0.2090E+01  0.2580E+02
      3.221  0.3269E+00  0.2583E+02
      3.336  0.2100E+01  0.2608E+02
      3.451  0.3133E+01  0.2644E+02
      3.566  0.1170E+01  0.2657E+02
      3.682  0.1332E+00  0.2659E+02
      3.797  0.1339E+01  0.2674E+02
      3.912  0.3306E+01  0.2712E+02
      4.027  0.1676E+01  0.2732E+02
      4.143  0.9310E+00  0.2742E+02
      4.258  0.5944E+00  0.2749E+02
      4.373  0.5069E+00  0.2755E+02
      4.489  0.1191E+01  0.2769E+02
      4.604  0.1181E+01  0.2782E+02
      4.719  0.1668E-01  0.2783E+02
      4.834  0.3676E-02  0.2783E+02
      4.950  0.4915E+00  0.2788E+02
      5.065  0.8558E+00  0.2798E+02
      5.180  0.1275E+00  0.2800E+02
      5.295  0.3481E+00  0.2804E+02
      5.411  0.1817E+00  0.2806E+02
      5.526  0.3597E+00  0.2810E+02
      5.641  0.9679E-02  0.2810E+02
      5.757  0.2000E+00  0.2812E+02
      5.872  0.2044E+00  0.2815E+02
      5.987  0.1636E+00  0.2816E+02
      6.102  0.1700E+00  0.2818E+02
      6.218  0.5922E+00  0.2825E+02
      6.333  0.8064E+00  0.2835E+02
      6.448  0.3865E+01  0.2879E+02
      6.564  0.2555E+01  0.2909E+02
      6.679  0.1976E+00  0.2911E+02
      6.794  0.1565E+01  0.2929E+02
      6.909  0.6398E+00  0.2936E+02
      7.025  0.7215E-01  0.2937E+02
      7.140  0.9828E+00  0.2948E+02
      7.255  0.1334E+01  0.2964E+02
      7.370  0.3643E+01  0.3006E+02
      7.486  0.5830E+01  0.3073E+02
      7.601  0.1940E+00  0.3075E+02
      7.716  0.1015E-03  0.3075E+02
      7.832  0.2759E+00  0.3078E+02
      7.947  0.5892E+00  0.3085E+02
      8.062  0.5668E+00  0.3092E+02
      8.177  0.1729E+01  0.3112E+02
      8.293  0.2779E+01  0.3144E+02
      8.408  0.1459E+01  0.3161E+02
      8.523  0.1536E+01  0.3178E+02
      8.639  0.2186E+01  0.3203E+02
      8.754  0.8158E+00  0.3213E+02
      8.869  0.4077E-03  0.3213E+02
      8.984  0.3392E+00  0.3217E+02
      9.100  0.3454E+01  0.3257E+02
      9.215  0.1210E+01  0.3271E+02
      9.330  0.2757E+01  0.3302E+02
      9.445  0.1333E+01  0.3318E+02
      9.561  0.1552E+01  0.3336E+02
      9.676  0.1465E+01  0.3352E+02
      9.791  0.2587E+01  0.3382E+02
      9.907  0.9775E+00  0.3394E+02
     10.022  0.4000E+00  0.3398E+02
     10.137  0.4441E+01  0.3449E+02
     10.252  0.1566E+01  0.3467E+02
     10.368  0.1428E+01  0.3484E+02
     10.483  0.8562E+00  0.3494E+02
     10.598  0.1572E+01  0.3512E+02
     10.713  0.1821E+01  0.3533E+02
     10.829  0.4601E-01  0.3533E+02
     10.944  0.1147E+01  0.3547E+02
     11.059  0.4375E+00  0.3552E+02
     11.175  0.4592E+00  0.3557E+02
     11.290  0.1121E+01  0.3570E+02
     11.405  0.9404E+00  0.3581E+02
     11.520  0.2152E+01  0.3605E+02
     11.636  0.4340E+00  0.3610E+02
     11.751  0.1570E+01  0.3629E+02
     11.866  0.1327E+01  0.3644E+02
     11.982  0.7245E+00  0.3652E+02
     12.097  0.9642E+00  0.3663E+02
     12.212  0.4079E+01  0.3710E+02
     12.327  0.2402E+01  0.3738E+02
     12.443  0.2501E+01  0.3767E+02
     12.558  0.2067E+01  0.3791E+02
     12.673  0.1009E+01  0.3802E+02
     12.788  0.2773E+00  0.3806E+02
     12.904  0.9299E+00  0.3816E+02
     13.019  0.2674E+00  0.3819E+02
     13.134  0.1555E+01  0.3837E+02
     13.250  0.1255E+00  0.3839E+02
     13.365  0.2223E+01  0.3864E+02
     13.480  0.4183E+01  0.3913E+02
     13.595  0.2687E+01  0.3944E+02
     13.711  0.9646E-01  0.3945E+02
     13.826  0.7099E+00  0.3953E+02
     13.941  0.7612E+00  0.3962E+02
     14.057  0.9476E+00  0.3973E+02
     14.172  0.1065E+01  0.3985E+02
     14.287  0.1011E+01  0.3996E+02
     14.402  0.4603E-02  0.3997E+02
     14.518  0.3213E-08  0.3997E+02
     14.633  0.0000E+00  0.3997E+02
     14.748  0.9300E-14  0.3997E+02
     14.863  0.3114E-05  0.3997E+02
     14.979  0.4691E-01  0.3997E+02
     15.094  0.2526E+00  0.4000E+02
     15.209  0.3989E-02  0.4000E+02
     15.325  0.7222E-08  0.4000E+02
     15.440  0.0000E+00  0.4000E+02
     15.555  0.0000E+00  0.4000E+02
     15.670  0.0000E+00  0.4000E+02
     15.786  0.0000E+00  0.4000E+02
     15.901  0.0000E+00  0.4000E+02
     16.016  0.0000E+00  0.4000E+02
     16.131  0.0000E+00  0.4000E+02
     16.247  0.0000E+00  0.4000E+02
     16.362  0.0000E+00  0.4000E+02
     16.477  0.0000E+00  0.4000E+02
     16.593  0.0000E+00  0.4000E+02
