       N       E                     dE             d eps       ncg     rms          rms(c)
DAV:   1     0.140160115752E+03    0.14016E+03   -0.13321E+04 16200   0.129E+03
DAV:   2    -0.933523158884E+01   -0.14950E+03   -0.14220E+03 17376   0.273E+02
DAV:   3    -0.124739340091E+02   -0.31387E+01   -0.31283E+01 18496   0.430E+01
DAV:   4    -0.124854150872E+02   -0.11481E-01   -0.11480E-01 16992   0.259E+00
DAV:   5    -0.124855321327E+02   -0.11705E-03   -0.11705E-03 18068   0.277E-01    0.887E+00
DAV:   6    -0.114751215000E+02    0.10104E+01   -0.21670E+00 16740   0.152E+01    0.628E+00
DAV:   7    -0.114012580284E+02    0.73863E-01   -0.17559E-01 17044   0.246E+00    0.313E+00
DAV:   8    -0.113869951986E+02    0.14263E-01   -0.26408E-02 17652   0.101E+00    0.384E-01
DAV:   9    -0.113867817624E+02    0.21344E-03   -0.14205E-03 16536   0.240E-01    0.692E-02
DAV:  10    -0.113867400106E+02    0.41752E-04   -0.90632E-05 17836   0.577E-02    0.229E-02
DAV:  11    -0.113867446946E+02   -0.46841E-05   -0.10297E-05 17444   0.188E-02    0.611E-03
DAV:  12    -0.113867454540E+02   -0.75942E-06   -0.41164E-07  9916   0.486E-03
   1 F= -.11386745E+02 E0= -.11386745E+02  d E =-.175034E-17
