   2   2   0   0
  0.2829377E+02  0.3839196E-09  0.3839196E-09  0.3839196E-09  0.5000000E-15
  1.000000000000000E-004
  CAR 
 unknown system                          
     11.74159922    -30.83150941  301     -0.58686348      1.00000000
    -30.832  0.0000E+00  0.0000E+00
    -30.690  0.0000E+00  0.0000E+00
    -30.548  0.0000E+00  0.0000E+00
    -30.406  0.0000E+00  0.0000E+00
    -30.264  0.0000E+00  0.0000E+00
    -30.122  0.0000E+00  0.0000E+00
    -29.980  0.0000E+00  0.0000E+00
    -29.838  0.0000E+00  0.0000E+00
    -29.696  0.0000E+00  0.0000E+00
    -29.554  0.0000E+00  0.0000E+00
    -29.412  0.0000E+00  0.0000E+00
    -29.270  0.0000E+00  0.0000E+00
    -29.129  0.1240E-10  0.1760E-11
    -28.987  0.1021E-01  0.1448E-02
    -28.845  0.1046E+02  0.1486E+01
    -28.703  0.3623E+01  0.2000E+01
    -28.561  0.4662E-04  0.2000E+01
    -28.419  0.0000E+00  0.2000E+01
    -28.277  0.0000E+00  0.2000E+01
    -28.135  0.0000E+00  0.2000E+01
    -27.993  0.0000E+00  0.2000E+01
    -27.851  0.0000E+00  0.2000E+01
    -27.709  0.0000E+00  0.2000E+01
    -27.568  0.0000E+00  0.2000E+01
    -27.426  0.0000E+00  0.2000E+01
    -27.284  0.0000E+00  0.2000E+01
    -27.142  0.0000E+00  0.2000E+01
    -27.000  0.0000E+00  0.2000E+01
    -26.858  0.0000E+00  0.2000E+01
    -26.716  0.0000E+00  0.2000E+01
    -26.574  0.0000E+00  0.2000E+01
    -26.432  0.0000E+00  0.2000E+01
    -26.290  0.0000E+00  0.2000E+01
    -26.148  0.0000E+00  0.2000E+01
    -26.007  0.0000E+00  0.2000E+01
    -25.865  0.0000E+00  0.2000E+01
    -25.723  0.0000E+00  0.2000E+01
    -25.581  0.0000E+00  0.2000E+01
    -25.439  0.0000E+00  0.2000E+01
    -25.297  0.0000E+00  0.2000E+01
    -25.155  0.0000E+00  0.2000E+01
    -25.013  0.0000E+00  0.2000E+01
    -24.871  0.0000E+00  0.2000E+01
    -24.729  0.0000E+00  0.2000E+01
    -24.587  0.0000E+00  0.2000E+01
    -24.446  0.0000E+00  0.2000E+01
    -24.304  0.0000E+00  0.2000E+01
    -24.162  0.0000E+00  0.2000E+01
    -24.020  0.0000E+00  0.2000E+01
    -23.878  0.0000E+00  0.2000E+01
    -23.736  0.0000E+00  0.2000E+01
    -23.594  0.0000E+00  0.2000E+01
    -23.452  0.0000E+00  0.2000E+01
    -23.310  0.0000E+00  0.2000E+01
    -23.168  0.0000E+00  0.2000E+01
    -23.026  0.0000E+00  0.2000E+01
    -22.885  0.0000E+00  0.2000E+01
    -22.743  0.0000E+00  0.2000E+01
    -22.601  0.0000E+00  0.2000E+01
    -22.459  0.0000E+00  0.2000E+01
    -22.317  0.0000E+00  0.2000E+01
    -22.175  0.0000E+00  0.2000E+01
    -22.033  0.0000E+00  0.2000E+01
    -21.891  0.0000E+00  0.2000E+01
    -21.749  0.0000E+00  0.2000E+01
    -21.607  0.0000E+00  0.2000E+01
    -21.465  0.0000E+00  0.2000E+01
    -21.324  0.0000E+00  0.2000E+01
    -21.182  0.0000E+00  0.2000E+01
    -21.040  0.0000E+00  0.2000E+01
    -20.898  0.0000E+00  0.2000E+01
    -20.756  0.0000E+00  0.2000E+01
    -20.614  0.0000E+00  0.2000E+01
    -20.472  0.0000E+00  0.2000E+01
    -20.330  0.0000E+00  0.2000E+01
    -20.188  0.0000E+00  0.2000E+01
    -20.046  0.0000E+00  0.2000E+01
    -19.904  0.0000E+00  0.2000E+01
    -19.763  0.0000E+00  0.2000E+01
    -19.621  0.0000E+00  0.2000E+01
    -19.479  0.0000E+00  0.2000E+01
    -19.337  0.0000E+00  0.2000E+01
    -19.195  0.0000E+00  0.2000E+01
    -19.053  0.0000E+00  0.2000E+01
    -18.911  0.0000E+00  0.2000E+01
    -18.769  0.0000E+00  0.2000E+01
    -18.627  0.0000E+00  0.2000E+01
    -18.485  0.0000E+00  0.2000E+01
    -18.343  0.0000E+00  0.2000E+01
    -18.201  0.0000E+00  0.2000E+01
    -18.060  0.0000E+00  0.2000E+01
    -17.918  0.0000E+00  0.2000E+01
    -17.776  0.0000E+00  0.2000E+01
    -17.634  0.0000E+00  0.2000E+01
    -17.492  0.0000E+00  0.2000E+01
    -17.350  0.0000E+00  0.2000E+01
    -17.208  0.0000E+00  0.2000E+01
    -17.066  0.0000E+00  0.2000E+01
    -16.924  0.0000E+00  0.2000E+01
    -16.782  0.0000E+00  0.2000E+01
    -16.640  0.0000E+00  0.2000E+01
    -16.499  0.0000E+00  0.2000E+01
    -16.357  0.0000E+00  0.2000E+01
    -16.215  0.0000E+00  0.2000E+01
    -16.073  0.0000E+00  0.2000E+01
    -15.931  0.0000E+00  0.2000E+01
    -15.789  0.0000E+00  0.2000E+01
    -15.647  0.0000E+00  0.2000E+01
    -15.505  0.0000E+00  0.2000E+01
    -15.363  0.0000E+00  0.2000E+01
    -15.221  0.0000E+00  0.2000E+01
    -15.079  0.0000E+00  0.2000E+01
    -14.938  0.0000E+00  0.2000E+01
    -14.796  0.0000E+00  0.2000E+01
    -14.654  0.0000E+00  0.2000E+01
    -14.512  0.0000E+00  0.2000E+01
    -14.370  0.0000E+00  0.2000E+01
    -14.228  0.0000E+00  0.2000E+01
    -14.086  0.0000E+00  0.2000E+01
    -13.944  0.0000E+00  0.2000E+01
    -13.802  0.3766E-11  0.2000E+01
    -13.660  0.1063E-02  0.2000E+01
    -13.518  0.8723E+00  0.2124E+01
    -13.377  0.5705E+01  0.2934E+01
    -13.235  0.3927E+01  0.3491E+01
    -13.093  0.2745E+01  0.3880E+01
    -12.951  0.8374E+00  0.3999E+01
    -12.809  0.5489E-02  0.4000E+01
    -12.667  0.2884E-06  0.4000E+01
    -12.525  0.2671E+00  0.4038E+01
    -12.383  0.1163E+02  0.5689E+01
    -12.241  0.2121E+02  0.8699E+01
    -12.099  0.9080E+01  0.9987E+01
    -11.957  0.8912E-01  0.1000E+02
    -11.816  0.3171E-07  0.1000E+02
    -11.674  0.0000E+00  0.1000E+02
    -11.532  0.0000E+00  0.1000E+02
    -11.390  0.0000E+00  0.1000E+02
    -11.248  0.0000E+00  0.1000E+02
    -11.106  0.0000E+00  0.1000E+02
    -10.964  0.0000E+00  0.1000E+02
    -10.822  0.0000E+00  0.1000E+02
    -10.680  0.0000E+00  0.1000E+02
    -10.538  0.0000E+00  0.1000E+02
    -10.396  0.0000E+00  0.1000E+02
    -10.255  0.0000E+00  0.1000E+02
    -10.113  0.0000E+00  0.1000E+02
     -9.971  0.0000E+00  0.1000E+02
     -9.829  0.0000E+00  0.1000E+02
     -9.687  0.0000E+00  0.1000E+02
     -9.545  0.0000E+00  0.1000E+02
     -9.403  0.0000E+00  0.1000E+02
     -9.261  0.0000E+00  0.1000E+02
     -9.119  0.0000E+00  0.1000E+02
     -8.977  0.0000E+00  0.1000E+02
     -8.835  0.0000E+00  0.1000E+02
     -8.693  0.0000E+00  0.1000E+02
     -8.552  0.0000E+00  0.1000E+02
     -8.410  0.0000E+00  0.1000E+02
     -8.268  0.0000E+00  0.1000E+02
     -8.126  0.0000E+00  0.1000E+02
     -7.984  0.0000E+00  0.1000E+02
     -7.842  0.0000E+00  0.1000E+02
     -7.700  0.0000E+00  0.1000E+02
     -7.558  0.0000E+00  0.1000E+02
     -7.416  0.0000E+00  0.1000E+02
     -7.274  0.0000E+00  0.1000E+02
     -7.132  0.0000E+00  0.1000E+02
     -6.991  0.0000E+00  0.1000E+02
     -6.849  0.0000E+00  0.1000E+02
     -6.707  0.0000E+00  0.1000E+02
     -6.565  0.0000E+00  0.1000E+02
     -6.423  0.0000E+00  0.1000E+02
     -6.281  0.0000E+00  0.1000E+02
     -6.139  0.0000E+00  0.1000E+02
     -5.997  0.0000E+00  0.1000E+02
     -5.855  0.0000E+00  0.1000E+02
     -5.713  0.0000E+00  0.1000E+02
     -5.571  0.0000E+00  0.1000E+02
     -5.430  0.0000E+00  0.1000E+02
     -5.288  0.0000E+00  0.1000E+02
     -5.146  0.0000E+00  0.1000E+02
     -5.004  0.0000E+00  0.1000E+02
     -4.862  0.0000E+00  0.1000E+02
     -4.720  0.0000E+00  0.1000E+02
     -4.578  0.0000E+00  0.1000E+02
     -4.436  0.0000E+00  0.1000E+02
     -4.294  0.0000E+00  0.1000E+02
     -4.152  0.0000E+00  0.1000E+02
     -4.010  0.0000E+00  0.1000E+02
     -3.869  0.0000E+00  0.1000E+02
     -3.727  0.0000E+00  0.1000E+02
     -3.585  0.0000E+00  0.1000E+02
     -3.443  0.0000E+00  0.1000E+02
     -3.301  0.0000E+00  0.1000E+02
     -3.159  0.0000E+00  0.1000E+02
     -3.017  0.0000E+00  0.1000E+02
     -2.875  0.0000E+00  0.1000E+02
     -2.733  0.5870E-09  0.1000E+02
     -2.591  0.8083E-02  0.1000E+02
     -2.449  0.5284E+00  0.1008E+02
     -2.308  0.1582E+01  0.1030E+02
     -2.166  0.2197E+01  0.1061E+02
     -2.024  0.6379E+01  0.1152E+02
     -1.882  0.4780E+01  0.1220E+02
     -1.740  0.2190E+01  0.1251E+02
     -1.598  0.6340E+01  0.1341E+02
     -1.456  0.7597E+00  0.1351E+02
     -1.314  0.1355E+01  0.1371E+02
     -1.172  0.8142E+01  0.1486E+02
     -1.030  0.3811E+01  0.1540E+02
     -0.888  0.3634E+01  0.1592E+02
     -0.747  0.5735E+00  0.1600E+02
     -0.605  0.5607E-03  0.1600E+02
     -0.463  0.3937E-12  0.1600E+02
     -0.321  0.0000E+00  0.1600E+02
     -0.179  0.0000E+00  0.1600E+02
     -0.037  0.0000E+00  0.1600E+02
      0.105  0.0000E+00  0.1600E+02
      0.247  0.0000E+00  0.1600E+02
      0.389  0.0000E+00  0.1600E+02
      0.531  0.0000E+00  0.1600E+02
      0.673  0.0000E+00  0.1600E+02
      0.815  0.0000E+00  0.1600E+02
      0.956  0.0000E+00  0.1600E+02
      1.098  0.0000E+00  0.1600E+02
      1.240  0.0000E+00  0.1600E+02
      1.382  0.0000E+00  0.1600E+02
      1.524  0.0000E+00  0.1600E+02
      1.666  0.0000E+00  0.1600E+02
      1.808  0.0000E+00  0.1600E+02
      1.950  0.0000E+00  0.1600E+02
      2.092  0.0000E+00  0.1600E+02
      2.234  0.0000E+00  0.1600E+02
      2.376  0.0000E+00  0.1600E+02
      2.517  0.0000E+00  0.1600E+02
      2.659  0.0000E+00  0.1600E+02
      2.801  0.0000E+00  0.1600E+02
      2.943  0.0000E+00  0.1600E+02
      3.085  0.0000E+00  0.1600E+02
      3.227  0.0000E+00  0.1600E+02
      3.369  0.0000E+00  0.1600E+02
      3.511  0.0000E+00  0.1600E+02
      3.653  0.0000E+00  0.1600E+02
      3.795  0.3471E-07  0.1600E+02
      3.937  0.9022E-02  0.1600E+02
      4.078  0.3204E-01  0.1601E+02
      4.220  0.2454E-04  0.1601E+02
      4.362  0.8485E-02  0.1601E+02
      4.504  0.2346E+00  0.1604E+02
      4.646  0.3478E-02  0.1604E+02
      4.788  0.9536E-01  0.1605E+02
      4.930  0.3973E+00  0.1611E+02
      5.072  0.6561E-03  0.1611E+02
      5.214  0.2630E+00  0.1615E+02
      5.356  0.6574E-01  0.1616E+02
      5.498  0.4100E+00  0.1622E+02
      5.639  0.4083E+00  0.1627E+02
      5.781  0.1012E+01  0.1642E+02
      5.923  0.1224E+01  0.1659E+02
      6.065  0.2353E+01  0.1692E+02
      6.207  0.8138E+00  0.1704E+02
      6.349  0.1911E+01  0.1731E+02
      6.491  0.2232E+01  0.1763E+02
      6.633  0.3165E+01  0.1808E+02
      6.775  0.2816E+01  0.1848E+02
      6.917  0.2882E+01  0.1889E+02
      7.059  0.3006E+01  0.1931E+02
      7.200  0.3586E+01  0.1982E+02
      7.342  0.1778E+01  0.2007E+02
      7.484  0.1739E+01  0.2032E+02
      7.626  0.1573E+01  0.2054E+02
      7.768  0.2167E+01  0.2085E+02
      7.910  0.3819E+01  0.2139E+02
      8.052  0.2305E+01  0.2172E+02
      8.194  0.2094E+01  0.2202E+02
      8.336  0.1630E+01  0.2225E+02
      8.478  0.9074E+00  0.2238E+02
      8.620  0.4998E+01  0.2309E+02
      8.761  0.5575E+00  0.2317E+02
      8.903  0.8807E+00  0.2329E+02
      9.045  0.1268E+01  0.2347E+02
      9.187  0.1593E+01  0.2370E+02
      9.329  0.8492E+00  0.2382E+02
      9.471  0.4493E+00  0.2388E+02
      9.613  0.3856E+00  0.2394E+02
      9.755  0.3520E+00  0.2399E+02
      9.897  0.9667E-01  0.2400E+02
     10.039  0.2189E-03  0.2400E+02
     10.181  0.1047E-11  0.2400E+02
     10.322  0.0000E+00  0.2400E+02
     10.464  0.0000E+00  0.2400E+02
     10.606  0.0000E+00  0.2400E+02
     10.748  0.0000E+00  0.2400E+02
     10.890  0.0000E+00  0.2400E+02
     11.032  0.0000E+00  0.2400E+02
     11.174  0.0000E+00  0.2400E+02
     11.316  0.0000E+00  0.2400E+02
     11.458  0.0000E+00  0.2400E+02
     11.600  0.0000E+00  0.2400E+02
     11.742  0.0000E+00  0.2400E+02
