       N       E                     dE             d eps       ncg     rms          rms(c)
DAV:   1     0.138696361261E+03    0.13870E+03   -0.33333E+03    40   0.454E+02
DAV:   2     0.417542005260E+02   -0.96942E+02   -0.78172E+02    60   0.814E+01
DAV:   3    -0.163263463631E+01   -0.43387E+02   -0.43063E+02    48   0.619E+01
DAV:   4    -0.384336030619E+01   -0.22107E+01   -0.22074E+01    56   0.193E+01
DAV:   5    -0.387241353949E+01   -0.29053E-01   -0.29052E-01    64   0.233E+00    0.110E+01
DAV:   6    -0.367243047954E+01    0.19998E+00   -0.12890E-01    40   0.154E+00    0.723E+00
DAV:   7    -0.359799651557E+01    0.74434E-01   -0.30002E-01    48   0.228E+00    0.654E-01
DAV:   8    -0.359335398157E+01    0.46425E-02   -0.35361E-02    56   0.850E-01    0.321E-01
DAV:   9    -0.359389215121E+01   -0.53817E-03   -0.86972E-04    48   0.135E-01    0.658E-02
DAV:  10    -0.359500043820E+01   -0.11083E-02   -0.17590E-04    56   0.584E-02    0.776E-02
DAV:  11    -0.359560601621E+01   -0.60558E-03   -0.11701E-04    48   0.375E-02    0.161E-02
DAV:  12    -0.359648644881E+01   -0.88043E-03   -0.64564E-05    44   0.284E-02    0.155E-02
DAV:  13    -0.359723090425E+01   -0.74446E-03   -0.75819E-05    48   0.278E-02    0.886E-03
DAV:  14    -0.359745464306E+01   -0.22374E-03   -0.18703E-05    44   0.146E-02    0.348E-03
DAV:  15    -0.359755826180E+01   -0.10362E-03   -0.64665E-06    40   0.870E-03    0.205E-03
DAV:  16    -0.359760297025E+01   -0.44708E-04   -0.18797E-06    44   0.502E-03    0.362E-03
DAV:  17    -0.359762222124E+01   -0.19251E-04   -0.11949E-06    48   0.329E-03    0.192E-03
DAV:  18    -0.359762628587E+01   -0.40646E-05   -0.14411E-07    48   0.117E-03    0.127E-03
DAV:  19    -0.359762761254E+01   -0.13267E-05   -0.31467E-08    40   0.595E-04    0.471E-04
DAV:  20    -0.359762791654E+01   -0.30400E-06   -0.12883E-08    36   0.340E-04
   1 F= -.35976279E+01 E0= -.35976279E+01  d E =-.359763E+01
       N       E                     dE             d eps       ncg     rms          rms(c)
DAV:   1    -0.359752441576E+01    0.10320E-03   -0.46155E-02    48   0.728E-01    0.313E-01
DAV:   2    -0.359767208070E+01   -0.14766E-03   -0.15621E-03    48   0.190E-01    0.689E-02
DAV:   3    -0.359766232867E+01    0.97520E-05   -0.34082E-05    48   0.256E-02    0.460E-02
DAV:   4    -0.359766097487E+01    0.13538E-05   -0.18771E-05    48   0.168E-02    0.637E-03
DAV:   5    -0.359766040789E+01    0.56698E-06   -0.13734E-05    48   0.127E-02    0.141E-02
DAV:   6    -0.359766015412E+01    0.25377E-06   -0.13941E-06    56   0.489E-03
   2 F= -.35976602E+01 E0= -.35976602E+01  d E =-.322376E-04
       N       E                     dE             d eps       ncg     rms          rms(c)
DAV:   1    -0.359771378941E+01   -0.53382E-04   -0.10044E-02    48   0.339E-01    0.144E-01
DAV:   2    -0.359774770810E+01   -0.33919E-04   -0.33536E-04    40   0.885E-02    0.309E-02
DAV:   3    -0.359774700317E+01    0.70494E-06   -0.73267E-06    44   0.119E-02
   3 F= -.35977470E+01 E0= -.35977470E+01  d E =-.119087E-03
