   1   1   0   0
  0.1593226E+02  0.2745574E-09  0.2745574E-09  0.2745575E-09  0.5000000E-15
  1.000000000000000E-004
  CAR 
 unknown system                          
     39.81829482     -3.80752069  301      7.75082058      1.00000000
     -3.808  0.0000E+00  0.0000E+00
     -3.662  0.0000E+00  0.0000E+00
     -3.517  0.0000E+00  0.0000E+00
     -3.371  0.0000E+00  0.0000E+00
     -3.226  0.0000E+00  0.0000E+00
     -3.080  0.0000E+00  0.0000E+00
     -2.935  0.0000E+00  0.0000E+00
     -2.790  0.0000E+00  0.0000E+00
     -2.644  0.0000E+00  0.0000E+00
     -2.499  0.0000E+00  0.0000E+00
     -2.353  0.0000E+00  0.0000E+00
     -2.208  0.0000E+00  0.0000E+00
     -2.062  0.8736E-13  0.1270E-13
     -1.917  0.4577E-04  0.6657E-05
     -1.772  0.9591E-02  0.1401E-02
     -1.626  0.6962E-03  0.1503E-02
     -1.481  0.1642E-01  0.3891E-02
     -1.335  0.1074E+00  0.1951E-01
     -1.190  0.1822E-03  0.1954E-01
     -1.045  0.4501E-01  0.2608E-01
     -0.899  0.1698E-01  0.2855E-01
     -0.754  0.4893E-01  0.3567E-01
     -0.608  0.1989E+00  0.6459E-01
     -0.463  0.6746E-02  0.6557E-01
     -0.317  0.1166E+00  0.8253E-01
     -0.172  0.8403E-03  0.8265E-01
     -0.027  0.1849E+00  0.1095E+00
      0.119  0.6306E-01  0.1187E+00
      0.264  0.6169E-01  0.1277E+00
      0.410  0.2731E-01  0.1317E+00
      0.555  0.4748E+00  0.2007E+00
      0.700  0.1485E-01  0.2029E+00
      0.846  0.7463E-01  0.2137E+00
      0.991  0.1117E+00  0.2299E+00
      1.137  0.2456E+00  0.2657E+00
      1.282  0.2493E+00  0.3019E+00
      1.428  0.4685E-02  0.3026E+00
      1.573  0.7773E+00  0.4156E+00
      1.718  0.4004E+00  0.4739E+00
      1.864  0.8732E+00  0.6008E+00
      2.009  0.4450E+00  0.6656E+00
      2.155  0.5967E+00  0.7523E+00
      2.300  0.4893E+00  0.8235E+00
      2.446  0.8854E+00  0.9522E+00
      2.591  0.1432E+01  0.1160E+01
      2.736  0.7954E+00  0.1276E+01
      2.882  0.3410E+00  0.1326E+01
      3.027  0.8895E+00  0.1455E+01
      3.173  0.1448E+01  0.1666E+01
      3.318  0.1994E+01  0.1956E+01
      3.463  0.2675E+00  0.1995E+01
      3.609  0.2400E+00  0.2029E+01
      3.754  0.6127E+00  0.2119E+01
      3.900  0.3674E+00  0.2172E+01
      4.045  0.1058E+00  0.2187E+01
      4.191  0.6116E+00  0.2276E+01
      4.336  0.1470E+01  0.2490E+01
      4.481  0.2256E+01  0.2818E+01
      4.627  0.1977E+01  0.3106E+01
      4.772  0.1009E+01  0.3252E+01
      4.918  0.1421E+01  0.3459E+01
      5.063  0.1621E+01  0.3695E+01
      5.208  0.5166E+00  0.3770E+01
      5.354  0.5579E+00  0.3851E+01
      5.499  0.1827E+01  0.4117E+01
      5.645  0.1774E+01  0.4375E+01
      5.790  0.2001E+01  0.4666E+01
      5.936  0.1772E+01  0.4923E+01
      6.081  0.1158E+01  0.5092E+01
      6.226  0.1004E+01  0.5238E+01
      6.372  0.8191E+00  0.5357E+01
      6.517  0.1014E+01  0.5504E+01
      6.663  0.3336E+00  0.5553E+01
      6.808  0.2772E+00  0.5593E+01
      6.954  0.7382E+00  0.5700E+01
      7.099  0.4022E+00  0.5759E+01
      7.244  0.3589E-01  0.5764E+01
      7.390  0.2307E-01  0.5767E+01
      7.535  0.4916E+00  0.5839E+01
      7.681  0.5842E+00  0.5924E+01
      7.826  0.8909E+00  0.6053E+01
      7.971  0.6542E+00  0.6149E+01
      8.117  0.5006E+00  0.6221E+01
      8.262  0.9960E+00  0.6366E+01
      8.408  0.4766E+00  0.6436E+01
      8.553  0.6209E+00  0.6526E+01
      8.699  0.4120E+00  0.6586E+01
      8.844  0.6769E+00  0.6684E+01
      8.989  0.5016E+00  0.6757E+01
      9.135  0.9145E+00  0.6890E+01
      9.280  0.1234E+01  0.7070E+01
      9.426  0.1700E+01  0.7317E+01
      9.571  0.6549E+00  0.7412E+01
      9.716  0.8634E+00  0.7538E+01
      9.862  0.1716E+01  0.7787E+01
     10.007  0.1065E+01  0.7942E+01
     10.153  0.1363E+01  0.8140E+01
     10.298  0.9557E+00  0.8279E+01
     10.444  0.1113E+01  0.8441E+01
     10.589  0.8580E+00  0.8566E+01
     10.734  0.1984E+01  0.8854E+01
     10.880  0.2737E+01  0.9252E+01
     11.025  0.1481E+01  0.9468E+01
     11.171  0.1324E+01  0.9660E+01
     11.316  0.2038E+01  0.9957E+01
     11.462  0.1145E+01  0.1012E+02
     11.607  0.7078E+00  0.1023E+02
     11.752  0.8033E+00  0.1034E+02
     11.898  0.3364E+00  0.1039E+02
     12.043  0.5440E+00  0.1047E+02
     12.189  0.2834E+00  0.1051E+02
     12.334  0.3720E+00  0.1057E+02
     12.479  0.2060E+00  0.1060E+02
     12.625  0.1790E+00  0.1062E+02
     12.770  0.2767E+00  0.1066E+02
     12.916  0.1042E+00  0.1068E+02
     13.061  0.1447E+00  0.1070E+02
     13.207  0.1091E+00  0.1071E+02
     13.352  0.6360E+00  0.1081E+02
     13.497  0.1451E+01  0.1102E+02
     13.643  0.6623E+00  0.1111E+02
     13.788  0.2389E+00  0.1115E+02
     13.934  0.4373E+00  0.1121E+02
     14.079  0.1595E+00  0.1124E+02
     14.224  0.1580E+00  0.1126E+02
     14.370  0.3394E+00  0.1131E+02
     14.515  0.1482E+00  0.1133E+02
     14.661  0.3050E-01  0.1133E+02
     14.806  0.5201E+00  0.1141E+02
     14.952  0.2834E-01  0.1141E+02
     15.097  0.2140E+00  0.1145E+02
     15.242  0.3405E-01  0.1145E+02
     15.388  0.4227E+00  0.1151E+02
     15.533  0.1756E+00  0.1154E+02
     15.679  0.4712E+00  0.1161E+02
     15.824  0.7127E+00  0.1171E+02
     15.970  0.3446E+00  0.1176E+02
     16.115  0.3242E+00  0.1181E+02
     16.260  0.2952E+00  0.1185E+02
     16.406  0.3731E+00  0.1190E+02
     16.551  0.1846E+00  0.1193E+02
     16.697  0.3691E+00  0.1198E+02
     16.842  0.2711E+00  0.1202E+02
     16.987  0.1398E-01  0.1203E+02
     17.133  0.2646E+00  0.1206E+02
     17.278  0.1391E+00  0.1208E+02
     17.424  0.2048E+00  0.1211E+02
     17.569  0.7635E-01  0.1213E+02
     17.715  0.1403E+01  0.1233E+02
     17.860  0.1267E+01  0.1251E+02
     18.005  0.5628E+00  0.1260E+02
     18.151  0.2445E+00  0.1263E+02
     18.296  0.4443E-01  0.1264E+02
     18.442  0.4484E+00  0.1270E+02
     18.587  0.4283E-02  0.1270E+02
     18.732  0.1379E+00  0.1272E+02
     18.878  0.4247E+00  0.1279E+02
     19.023  0.3029E+00  0.1283E+02
     19.169  0.1678E+00  0.1285E+02
     19.314  0.7167E-01  0.1286E+02
     19.460  0.6711E+00  0.1296E+02
     19.605  0.8247E+00  0.1308E+02
     19.750  0.5283E+00  0.1316E+02
     19.896  0.1111E+01  0.1332E+02
     20.041  0.5829E-01  0.1333E+02
     20.187  0.2404E+00  0.1336E+02
     20.332  0.7264E+00  0.1347E+02
     20.478  0.2956E+00  0.1351E+02
     20.623  0.4534E+00  0.1358E+02
     20.768  0.1014E+00  0.1359E+02
     20.914  0.9561E+00  0.1373E+02
     21.059  0.4312E+00  0.1379E+02
     21.205  0.8444E+00  0.1392E+02
     21.350  0.1207E+01  0.1409E+02
     21.495  0.3375E+00  0.1414E+02
     21.641  0.1969E+01  0.1443E+02
     21.786  0.5801E+00  0.1451E+02
     21.932  0.1525E+00  0.1453E+02
     22.077  0.5042E+00  0.1461E+02
     22.223  0.3004E+00  0.1465E+02
     22.368  0.2332E+00  0.1469E+02
     22.513  0.2341E+00  0.1472E+02
     22.659  0.5373E+00  0.1480E+02
     22.804  0.1303E+01  0.1499E+02
     22.950  0.1081E+01  0.1514E+02
     23.095  0.9165E+00  0.1528E+02
     23.240  0.1553E+00  0.1530E+02
     23.386  0.6526E+00  0.1540E+02
     23.531  0.3000E+00  0.1544E+02
     23.677  0.9826E+00  0.1558E+02
     23.822  0.8654E+00  0.1571E+02
     23.968  0.5408E+00  0.1579E+02
     24.113  0.7355E+00  0.1589E+02
     24.258  0.9608E-01  0.1591E+02
     24.404  0.4703E+00  0.1598E+02
     24.549  0.7530E+00  0.1608E+02
     24.695  0.8241E+00  0.1620E+02
     24.840  0.1397E+01  0.1641E+02
     24.986  0.8972E+00  0.1654E+02
     25.131  0.1075E+01  0.1669E+02
     25.276  0.2263E+00  0.1673E+02
     25.422  0.3675E+00  0.1678E+02
     25.567  0.6497E+00  0.1688E+02
     25.713  0.1682E+01  0.1712E+02
     25.858  0.3464E+00  0.1717E+02
     26.003  0.1611E+00  0.1719E+02
     26.149  0.4997E+00  0.1727E+02
     26.294  0.7001E+00  0.1737E+02
     26.440  0.1198E+01  0.1754E+02
     26.585  0.4942E-01  0.1755E+02
     26.731  0.4315E+00  0.1761E+02
     26.876  0.3978E-01  0.1762E+02
     27.021  0.9950E-03  0.1762E+02
     27.167  0.3868E+00  0.1767E+02
     27.312  0.3767E+00  0.1773E+02
     27.458  0.7884E+00  0.1784E+02
     27.603  0.4376E+00  0.1791E+02
     27.748  0.1352E+00  0.1793E+02
     27.894  0.8862E+00  0.1806E+02
     28.039  0.2947E+00  0.1810E+02
     28.185  0.1092E-01  0.1810E+02
     28.330  0.4456E+00  0.1817E+02
     28.476  0.6026E+00  0.1825E+02
     28.621  0.1739E+00  0.1828E+02
     28.766  0.1230E+01  0.1846E+02
     28.912  0.1371E+01  0.1866E+02
     29.057  0.1187E+01  0.1883E+02
     29.203  0.1045E+01  0.1898E+02
     29.348  0.4607E+00  0.1905E+02
     29.494  0.2957E+00  0.1909E+02
     29.639  0.1282E+01  0.1928E+02
     29.784  0.7394E+00  0.1939E+02
     29.930  0.2882E+00  0.1943E+02
     30.075  0.2197E+00  0.1946E+02
     30.221  0.3109E+00  0.1950E+02
     30.366  0.6980E+00  0.1961E+02
     30.511  0.9886E+00  0.1975E+02
     30.657  0.3965E+00  0.1981E+02
     30.802  0.7771E+00  0.1992E+02
     30.948  0.4831E+00  0.1999E+02
     31.093  0.2415E+00  0.2003E+02
     31.239  0.9884E+00  0.2017E+02
     31.384  0.1266E+00  0.2019E+02
     31.529  0.5388E+00  0.2027E+02
     31.675  0.6692E+00  0.2036E+02
     31.820  0.1158E+00  0.2038E+02
     31.966  0.6918E+00  0.2048E+02
     32.111  0.8590E+00  0.2061E+02
     32.256  0.1074E+01  0.2076E+02
     32.402  0.5458E+00  0.2084E+02
     32.547  0.6723E+00  0.2094E+02
     32.693  0.8332E+00  0.2106E+02
     32.838  0.3580E+00  0.2111E+02
     32.984  0.7101E+00  0.2122E+02
     33.129  0.4051E+00  0.2127E+02
     33.274  0.8000E+00  0.2139E+02
     33.420  0.7486E+00  0.2150E+02
     33.565  0.9487E+00  0.2164E+02
     33.711  0.1150E+00  0.2165E+02
     33.856  0.7979E+00  0.2177E+02
     34.002  0.8015E+00  0.2189E+02
     34.147  0.4298E+00  0.2195E+02
     34.292  0.8188E+00  0.2207E+02
     34.438  0.9701E+00  0.2221E+02
     34.583  0.4927E+00  0.2228E+02
     34.729  0.8048E+00  0.2240E+02
     34.874  0.5333E+00  0.2248E+02
     35.019  0.1035E+01  0.2263E+02
     35.165  0.4166E+00  0.2269E+02
     35.310  0.2770E+00  0.2273E+02
     35.456  0.1935E+00  0.2276E+02
     35.601  0.5151E+00  0.2283E+02
     35.747  0.1718E+00  0.2286E+02
     35.892  0.7706E+00  0.2297E+02
     36.037  0.4275E+00  0.2303E+02
     36.183  0.1197E+01  0.2320E+02
     36.328  0.1371E+01  0.2340E+02
     36.474  0.1043E+01  0.2355E+02
     36.619  0.8485E+00  0.2368E+02
     36.764  0.1782E+00  0.2370E+02
     36.910  0.7491E-04  0.2370E+02
     37.055  0.6890E-01  0.2371E+02
     37.201  0.2519E+00  0.2375E+02
     37.346  0.8799E+00  0.2388E+02
     37.492  0.1487E+00  0.2390E+02
     37.637  0.1800E+00  0.2393E+02
     37.782  0.1348E+00  0.2395E+02
     37.928  0.3702E+00  0.2400E+02
     38.073  0.1109E-02  0.2400E+02
     38.219  0.2095E-11  0.2400E+02
     38.364  0.0000E+00  0.2400E+02
     38.510  0.0000E+00  0.2400E+02
     38.655  0.0000E+00  0.2400E+02
     38.800  0.0000E+00  0.2400E+02
     38.946  0.0000E+00  0.2400E+02
     39.091  0.0000E+00  0.2400E+02
     39.237  0.0000E+00  0.2400E+02
     39.382  0.0000E+00  0.2400E+02
     39.527  0.0000E+00  0.2400E+02
     39.673  0.0000E+00  0.2400E+02
     39.818  0.0000E+00  0.2400E+02
