       N       E                     dE             d eps       ncg     rms          rms(c)
DAV:   1     0.151737328535E+03    0.15174E+03   -0.10411E+04 52728   0.173E+03
DAV:   2    -0.656839526754E+01   -0.15831E+03   -0.14955E+03 59080   0.379E+02
DAV:   3    -0.146409859700E+02   -0.80726E+01   -0.79970E+01 66032   0.865E+01
DAV:   4    -0.149300799607E+02   -0.28909E+00   -0.28870E+00 78804   0.146E+01
DAV:   5    -0.149341266856E+02   -0.40467E-02   -0.40464E-02 64728   0.173E+00    0.807E+00
DAV:   6    -0.134711093812E+02    0.14630E+01   -0.73596E+00 62484   0.262E+01    0.351E+00
DAV:   7    -0.134208107567E+02    0.50299E-01   -0.61343E-01 74648   0.803E+00    0.169E+00
DAV:   8    -0.134082236970E+02    0.12587E-01   -0.69512E-02 58360   0.306E+00    0.380E-01
DAV:   9    -0.134062939330E+02    0.19298E-02   -0.18952E-02 67136   0.116E+00    0.129E-01
DAV:  10    -0.134065208538E+02   -0.22692E-03   -0.17108E-03 57664   0.472E-01    0.229E-02
DAV:  11    -0.134065292039E+02   -0.83502E-05   -0.14807E-04 75880   0.121E-01    0.157E-02
DAV:  12    -0.134065262593E+02    0.29447E-05   -0.12855E-05 64232   0.444E-02    0.401E-03
DAV:  13    -0.134065260675E+02    0.19178E-06   -0.21753E-06 70976   0.127E-02    0.116E-03
DAV:  14    -0.134065259113E+02    0.15615E-06   -0.13861E-07 64280   0.500E-03    0.340E-04
DAV:  15    -0.134065259268E+02   -0.15479E-07   -0.17843E-08 57732   0.156E-03    0.139E-04
DAV:  16    -0.134065259256E+02    0.12160E-08   -0.10030E-09 31072   0.364E-04
   1 F= -.13960012E+02 E0= -.13960012E+02  d E =0.000000E+00
