Li3 Hg1
1.0
  -2.3080235500000001    2.3080235500000001    3.2007631399999998
   2.3080235500000001   -2.3080235500000001    3.2007631399999998
   2.3080235500000001    2.3080235500000001   -3.2007631399999998
Li Hg
3 1
direct
   0.7500000000000000    0.2500000000000000    0.5000000000000000 Li
   0.2500000000000000    0.7500000000000000    0.5000000000000000 Li
   0.5000010000000000    0.5000010000000000   -0.0000000000000000 Li
  -0.0000000000000000   -0.0000000000000000    0.0000000000000000 Hg
