Mo1 Ru1                                 
   1.00000000000000     
     1.3887069999999999   -2.4053119999999999    0.0000000000000000
     1.3887069999999999    2.4053119999999999    0.0000000000000000
     0.0000000000000000    0.0000000000000000    4.4637070000000003
   Mo   Ru
     1     1
Direct
     0.6666669999999968    0.3333330000000032    0.0000000000000000
     0.3333330000000032    0.6666669999999968    0.5000000000000000
 
  0.00000000E+00  0.00000000E+00  0.00000000E+00
  0.00000000E+00  0.00000000E+00  0.00000000E+00
