   2   2   0   0
  0.1491000E+02  0.2777415E-09  0.2777415E-09  0.4463707E-09  0.5000000E-15
  1.000000000000000E-004
  CAR 
 unknown system                          
     29.58487835    -33.91765410  301     11.70139586      1.00000000
    -33.918  0.0000E+00  0.0000E+00
    -33.706  0.0000E+00  0.0000E+00
    -33.494  0.0000E+00  0.0000E+00
    -33.283  0.0000E+00  0.0000E+00
    -33.071  0.0000E+00  0.0000E+00
    -32.859  0.0000E+00  0.0000E+00
    -32.648  0.0000E+00  0.0000E+00
    -32.436  0.0000E+00  0.0000E+00
    -32.224  0.0000E+00  0.0000E+00
    -32.013  0.0000E+00  0.0000E+00
    -31.801  0.0000E+00  0.0000E+00
    -31.589  0.0000E+00  0.0000E+00
    -31.378  0.0000E+00  0.0000E+00
    -31.166  0.3622E-04  0.7667E-05
    -30.954  0.2921E+01  0.6184E+00
    -30.743  0.5786E+01  0.1843E+01
    -30.531  0.1724E+02  0.5492E+01
    -30.319  0.2399E+01  0.6000E+01
    -30.108  0.6236E-05  0.6000E+01
    -29.896  0.0000E+00  0.6000E+01
    -29.684  0.0000E+00  0.6000E+01
    -29.472  0.0000E+00  0.6000E+01
    -29.261  0.0000E+00  0.6000E+01
    -29.049  0.0000E+00  0.6000E+01
    -28.837  0.0000E+00  0.6000E+01
    -28.626  0.0000E+00  0.6000E+01
    -28.414  0.0000E+00  0.6000E+01
    -28.202  0.0000E+00  0.6000E+01
    -27.991  0.0000E+00  0.6000E+01
    -27.779  0.0000E+00  0.6000E+01
    -27.567  0.0000E+00  0.6000E+01
    -27.356  0.0000E+00  0.6000E+01
    -27.144  0.0000E+00  0.6000E+01
    -26.932  0.0000E+00  0.6000E+01
    -26.721  0.0000E+00  0.6000E+01
    -26.509  0.0000E+00  0.6000E+01
    -26.297  0.0000E+00  0.6000E+01
    -26.086  0.0000E+00  0.6000E+01
    -25.874  0.0000E+00  0.6000E+01
    -25.662  0.0000E+00  0.6000E+01
    -25.451  0.0000E+00  0.6000E+01
    -25.239  0.0000E+00  0.6000E+01
    -25.027  0.0000E+00  0.6000E+01
    -24.816  0.0000E+00  0.6000E+01
    -24.604  0.0000E+00  0.6000E+01
    -24.392  0.0000E+00  0.6000E+01
    -24.181  0.0000E+00  0.6000E+01
    -23.969  0.0000E+00  0.6000E+01
    -23.757  0.3085E-06  0.6000E+01
    -23.546  0.8643E+00  0.6183E+01
    -23.334  0.4136E+01  0.7058E+01
    -23.122  0.3312E+01  0.7759E+01
    -22.911  0.1069E+02  0.1002E+02
    -22.699  0.4481E+01  0.1097E+02
    -22.487  0.4226E+01  0.1186E+02
    -22.276  0.6412E+00  0.1200E+02
    -22.064  0.9124E-07  0.1200E+02
    -21.852  0.0000E+00  0.1200E+02
    -21.640  0.0000E+00  0.1200E+02
    -21.429  0.0000E+00  0.1200E+02
    -21.217  0.0000E+00  0.1200E+02
    -21.005  0.0000E+00  0.1200E+02
    -20.794  0.0000E+00  0.1200E+02
    -20.582  0.0000E+00  0.1200E+02
    -20.370  0.0000E+00  0.1200E+02
    -20.159  0.0000E+00  0.1200E+02
    -19.947  0.0000E+00  0.1200E+02
    -19.735  0.0000E+00  0.1200E+02
    -19.524  0.0000E+00  0.1200E+02
    -19.312  0.0000E+00  0.1200E+02
    -19.100  0.0000E+00  0.1200E+02
    -18.889  0.0000E+00  0.1200E+02
    -18.677  0.0000E+00  0.1200E+02
    -18.465  0.0000E+00  0.1200E+02
    -18.254  0.0000E+00  0.1200E+02
    -18.042  0.0000E+00  0.1200E+02
    -17.830  0.0000E+00  0.1200E+02
    -17.619  0.0000E+00  0.1200E+02
    -17.407  0.0000E+00  0.1200E+02
    -17.195  0.0000E+00  0.1200E+02
    -16.984  0.0000E+00  0.1200E+02
    -16.772  0.0000E+00  0.1200E+02
    -16.560  0.0000E+00  0.1200E+02
    -16.349  0.0000E+00  0.1200E+02
    -16.137  0.0000E+00  0.1200E+02
    -15.925  0.0000E+00  0.1200E+02
    -15.714  0.0000E+00  0.1200E+02
    -15.502  0.0000E+00  0.1200E+02
    -15.290  0.0000E+00  0.1200E+02
    -15.079  0.0000E+00  0.1200E+02
    -14.867  0.0000E+00  0.1200E+02
    -14.655  0.0000E+00  0.1200E+02
    -14.444  0.0000E+00  0.1200E+02
    -14.232  0.0000E+00  0.1200E+02
    -14.020  0.0000E+00  0.1200E+02
    -13.809  0.0000E+00  0.1200E+02
    -13.597  0.0000E+00  0.1200E+02
    -13.385  0.0000E+00  0.1200E+02
    -13.173  0.0000E+00  0.1200E+02
    -12.962  0.0000E+00  0.1200E+02
    -12.750  0.0000E+00  0.1200E+02
    -12.538  0.0000E+00  0.1200E+02
    -12.327  0.0000E+00  0.1200E+02
    -12.115  0.0000E+00  0.1200E+02
    -11.903  0.0000E+00  0.1200E+02
    -11.692  0.0000E+00  0.1200E+02
    -11.480  0.0000E+00  0.1200E+02
    -11.268  0.0000E+00  0.1200E+02
    -11.057  0.0000E+00  0.1200E+02
    -10.845  0.0000E+00  0.1200E+02
    -10.633  0.0000E+00  0.1200E+02
    -10.422  0.0000E+00  0.1200E+02
    -10.210  0.0000E+00  0.1200E+02
     -9.998  0.0000E+00  0.1200E+02
     -9.787  0.0000E+00  0.1200E+02
     -9.575  0.0000E+00  0.1200E+02
     -9.363  0.0000E+00  0.1200E+02
     -9.152  0.0000E+00  0.1200E+02
     -8.940  0.0000E+00  0.1200E+02
     -8.728  0.0000E+00  0.1200E+02
     -8.517  0.0000E+00  0.1200E+02
     -8.305  0.0000E+00  0.1200E+02
     -8.093  0.0000E+00  0.1200E+02
     -7.882  0.0000E+00  0.1200E+02
     -7.670  0.0000E+00  0.1200E+02
     -7.458  0.0000E+00  0.1200E+02
     -7.247  0.0000E+00  0.1200E+02
     -7.035  0.0000E+00  0.1200E+02
     -6.823  0.0000E+00  0.1200E+02
     -6.612  0.0000E+00  0.1200E+02
     -6.400  0.0000E+00  0.1200E+02
     -6.188  0.0000E+00  0.1200E+02
     -5.977  0.0000E+00  0.1200E+02
     -5.765  0.0000E+00  0.1200E+02
     -5.553  0.0000E+00  0.1200E+02
     -5.342  0.0000E+00  0.1200E+02
     -5.130  0.0000E+00  0.1200E+02
     -4.918  0.0000E+00  0.1200E+02
     -4.706  0.0000E+00  0.1200E+02
     -4.495  0.0000E+00  0.1200E+02
     -4.283  0.0000E+00  0.1200E+02
     -4.071  0.0000E+00  0.1200E+02
     -3.860  0.0000E+00  0.1200E+02
     -3.648  0.0000E+00  0.1200E+02
     -3.436  0.0000E+00  0.1200E+02
     -3.225  0.0000E+00  0.1200E+02
     -3.013  0.0000E+00  0.1200E+02
     -2.801  0.0000E+00  0.1200E+02
     -2.590  0.0000E+00  0.1200E+02
     -2.378  0.0000E+00  0.1200E+02
     -2.166  0.0000E+00  0.1200E+02
     -1.955  0.0000E+00  0.1200E+02
     -1.743  0.0000E+00  0.1200E+02
     -1.531  0.0000E+00  0.1200E+02
     -1.320  0.0000E+00  0.1200E+02
     -1.108  0.0000E+00  0.1200E+02
     -0.896  0.0000E+00  0.1200E+02
     -0.685  0.0000E+00  0.1200E+02
     -0.473  0.0000E+00  0.1200E+02
     -0.261  0.0000E+00  0.1200E+02
     -0.050  0.0000E+00  0.1200E+02
      0.162  0.0000E+00  0.1200E+02
      0.374  0.0000E+00  0.1200E+02
      0.585  0.0000E+00  0.1200E+02
      0.797  0.0000E+00  0.1200E+02
      1.009  0.0000E+00  0.1200E+02
      1.220  0.0000E+00  0.1200E+02
      1.432  0.0000E+00  0.1200E+02
      1.644  0.0000E+00  0.1200E+02
      1.855  0.0000E+00  0.1200E+02
      2.067  0.0000E+00  0.1200E+02
      2.279  0.0000E+00  0.1200E+02
      2.490  0.0000E+00  0.1200E+02
      2.702  0.0000E+00  0.1200E+02
      2.914  0.0000E+00  0.1200E+02
      3.125  0.0000E+00  0.1200E+02
      3.337  0.0000E+00  0.1200E+02
      3.549  0.0000E+00  0.1200E+02
      3.761  0.0000E+00  0.1200E+02
      3.972  0.0000E+00  0.1200E+02
      4.184  0.0000E+00  0.1200E+02
      4.396  0.1337E-12  0.1200E+02
      4.607  0.3088E-02  0.1200E+02
      4.819  0.1004E-01  0.1200E+02
      5.031  0.1038E+00  0.1202E+02
      5.242  0.1288E+00  0.1205E+02
      5.454  0.4451E-01  0.1206E+02
      5.666  0.7579E-01  0.1208E+02
      5.877  0.2511E+00  0.1213E+02
      6.089  0.3069E+00  0.1220E+02
      6.301  0.4973E-03  0.1220E+02
      6.512  0.4794E+00  0.1230E+02
      6.724  0.1434E+01  0.1260E+02
      6.936  0.1878E+01  0.1300E+02
      7.147  0.2732E+01  0.1358E+02
      7.359  0.2731E+01  0.1415E+02
      7.571  0.3334E+01  0.1486E+02
      7.782  0.2719E+01  0.1544E+02
      7.994  0.1996E+01  0.1586E+02
      8.206  0.2001E+01  0.1628E+02
      8.417  0.3773E+01  0.1708E+02
      8.629  0.2099E+01  0.1753E+02
      8.841  0.2209E+01  0.1799E+02
      9.052  0.2442E+01  0.1851E+02
      9.264  0.3444E+01  0.1924E+02
      9.476  0.1801E+01  0.1962E+02
      9.687  0.1770E+01  0.1999E+02
      9.899  0.3092E+01  0.2065E+02
     10.111  0.3120E+01  0.2131E+02
     10.322  0.2290E+01  0.2179E+02
     10.534  0.3007E+01  0.2243E+02
     10.746  0.3717E+01  0.2322E+02
     10.957  0.3111E+01  0.2388E+02
     11.169  0.2896E+01  0.2449E+02
     11.381  0.3049E+01  0.2513E+02
     11.592  0.2672E+01  0.2570E+02
     11.804  0.2512E+01  0.2623E+02
     12.016  0.9554E+00  0.2643E+02
     12.228  0.1329E+01  0.2672E+02
     12.439  0.1680E+01  0.2707E+02
     12.651  0.2390E+01  0.2758E+02
     12.863  0.1523E+01  0.2790E+02
     13.074  0.1757E+01  0.2827E+02
     13.286  0.1015E+01  0.2849E+02
     13.498  0.1837E+01  0.2887E+02
     13.709  0.2246E+01  0.2935E+02
     13.921  0.2519E+01  0.2988E+02
     14.133  0.2271E+01  0.3036E+02
     14.344  0.1009E+01  0.3058E+02
     14.556  0.3649E+01  0.3135E+02
     14.768  0.2789E+01  0.3194E+02
     14.979  0.2612E+01  0.3249E+02
     15.191  0.1668E+01  0.3285E+02
     15.403  0.1397E+01  0.3314E+02
     15.614  0.4876E+00  0.3325E+02
     15.826  0.4378E+00  0.3334E+02
     16.038  0.2043E+00  0.3338E+02
     16.249  0.1119E+01  0.3362E+02
     16.461  0.9393E+00  0.3382E+02
     16.673  0.7897E+00  0.3398E+02
     16.884  0.3083E+00  0.3405E+02
     17.096  0.6708E+00  0.3419E+02
     17.308  0.4716E+00  0.3429E+02
     17.519  0.4149E+00  0.3438E+02
     17.731  0.1005E+01  0.3459E+02
     17.943  0.4544E+00  0.3469E+02
     18.154  0.5410E+00  0.3480E+02
     18.366  0.5810E+00  0.3493E+02
     18.578  0.9772E-01  0.3495E+02
     18.789  0.2166E+00  0.3499E+02
     19.001  0.2974E+00  0.3506E+02
     19.213  0.5701E+00  0.3518E+02
     19.424  0.9163E+00  0.3537E+02
     19.636  0.8332E+00  0.3555E+02
     19.848  0.4271E+00  0.3564E+02
     20.059  0.2335E+00  0.3569E+02
     20.271  0.2184E+00  0.3573E+02
     20.483  0.4523E+00  0.3583E+02
     20.695  0.1978E+00  0.3587E+02
     20.906  0.1687E+00  0.3591E+02
     21.118  0.2122E+00  0.3595E+02
     21.330  0.5418E-01  0.3596E+02
     21.541  0.1801E+00  0.3600E+02
     21.753  0.1590E+00  0.3603E+02
     21.965  0.3901E+00  0.3612E+02
     22.176  0.4776E+00  0.3622E+02
     22.388  0.8555E+00  0.3640E+02
     22.600  0.6698E+00  0.3654E+02
     22.811  0.9271E+01  0.3850E+02
     23.023  0.2444E+01  0.3902E+02
     23.235  0.1147E+00  0.3904E+02
     23.446  0.5138E+00  0.3915E+02
     23.658  0.1073E+01  0.3938E+02
     23.870  0.4611E+00  0.3948E+02
     24.081  0.8459E-01  0.3950E+02
     24.293  0.7891E-01  0.3951E+02
     24.505  0.2935E+00  0.3957E+02
     24.716  0.1647E+00  0.3961E+02
     24.928  0.8228E-01  0.3963E+02
     25.140  0.1103E+00  0.3965E+02
     25.351  0.1793E+00  0.3969E+02
     25.563  0.8092E+00  0.3986E+02
     25.775  0.1177E+00  0.3988E+02
     25.986  0.7677E-01  0.3990E+02
     26.198  0.7536E-01  0.3992E+02
     26.410  0.1306E+00  0.3994E+02
     26.621  0.1100E+00  0.3997E+02
     26.833  0.1539E+00  0.4000E+02
     27.045  0.1085E-04  0.4000E+02
     27.256  0.0000E+00  0.4000E+02
     27.468  0.0000E+00  0.4000E+02
     27.680  0.0000E+00  0.4000E+02
     27.891  0.0000E+00  0.4000E+02
     28.103  0.0000E+00  0.4000E+02
     28.315  0.0000E+00  0.4000E+02
     28.527  0.0000E+00  0.4000E+02
     28.738  0.0000E+00  0.4000E+02
     28.950  0.0000E+00  0.4000E+02
     29.162  0.0000E+00  0.4000E+02
     29.373  0.0000E+00  0.4000E+02
     29.585  0.0000E+00  0.4000E+02
