Cu4 S2                                  
   1.00000000000000     
     2.1244710000000002   -3.6796920000000002    0.0000000000000000
     2.1244710000000002    3.6796920000000002    0.0000000000000000
     0.0000000000000000    0.0000000000000000    5.3650589999999996
   Cu   S 
     4     2
Direct
     0.0000000000000000    0.0000000000000000    0.2500000000000000
     0.6666669999999968    0.3333330000000032    0.2500000000000000
     0.3333330000000032    0.6666669999999968    0.7500000000000000
     0.0000000000000000    0.0000000000000000    0.7500000000000000
     0.3333330000000032    0.6666669999999968    0.2500000000000000
     0.6666669999999968    0.3333330000000032    0.7500000000000000
 
  0.00000000E+00  0.00000000E+00  0.00000000E+00
  0.00000000E+00  0.00000000E+00  0.00000000E+00
  0.00000000E+00  0.00000000E+00  0.00000000E+00
  0.00000000E+00  0.00000000E+00  0.00000000E+00
  0.00000000E+00  0.00000000E+00  0.00000000E+00
  0.00000000E+00  0.00000000E+00  0.00000000E+00
