       N       E                     dE             d eps       ncg     rms          rms(c)
DAV:   1     0.109951332954E+04    0.10995E+04   -0.57622E+04 25616   0.270E+03
DAV:   2     0.711130543013E+02   -0.10284E+04   -0.10114E+04 21676   0.747E+02
DAV:   3    -0.200529948074E+02   -0.91166E+02   -0.86868E+02 24668   0.227E+02
DAV:   4    -0.257251863979E+02   -0.56722E+01   -0.55167E+01 24888   0.487E+01
DAV:   5    -0.259202297344E+02   -0.19504E+00   -0.19429E+00 25292   0.102E+01    0.228E+01
DAV:   6    -0.256894047994E+02    0.23082E+00   -0.66557E+01 27152   0.880E+01    0.270E+01
DAV:   7    -0.227252454261E+02    0.29642E+01   -0.12587E+01 24288   0.463E+01    0.885E+00
DAV:   8    -0.226980643560E+02    0.27181E-01   -0.35482E+00 30348   0.186E+01    0.348E+00
DAV:   9    -0.226661697654E+02    0.31895E-01   -0.48042E-01 29360   0.133E+01    0.211E+00
DAV:  10    -0.226415276590E+02    0.24642E-01   -0.10143E-01 30428   0.750E+00    0.958E-01
DAV:  11    -0.226418046896E+02   -0.27703E-03   -0.16363E-02 23408   0.989E-01    0.711E-01
DAV:  12    -0.226416178432E+02    0.18685E-03   -0.15291E-03 29924   0.655E-01    0.456E-01
DAV:  13    -0.226404449768E+02    0.11729E-02   -0.44370E-03 31348   0.113E+00    0.128E-01
DAV:  14    -0.226405289465E+02   -0.83970E-04   -0.95817E-04 23384   0.369E-01    0.652E-02
DAV:  15    -0.226405211589E+02    0.77876E-05   -0.50536E-05 23236   0.130E-01    0.436E-02
DAV:  16    -0.226405112073E+02    0.99516E-05   -0.27930E-05 28892   0.127E-01    0.193E-02
DAV:  17    -0.226405110505E+02    0.15679E-06   -0.10103E-05 19960   0.302E-02    0.800E-03
DAV:  18    -0.226405108101E+02    0.24040E-06   -0.49030E-07 11464   0.136E-02
   1 F= -.22640511E+02 E0= -.22639809E+02  d E =-.140375E-02
