   8   8   0   0
  0.1729468E+02  0.5172107E-09  0.5172107E-09  0.5172107E-09  0.5000000E-15
  1.000000000000000E-004
  CAR 
 unknown system                          
     22.57275154    -28.08615696  301      6.20356889      1.00000000
    -28.086  0.0000E+00  0.0000E+00
    -27.917  0.0000E+00  0.0000E+00
    -27.748  0.0000E+00  0.0000E+00
    -27.580  0.0000E+00  0.0000E+00
    -27.411  0.0000E+00  0.0000E+00
    -27.242  0.0000E+00  0.0000E+00
    -27.073  0.0000E+00  0.0000E+00
    -26.904  0.0000E+00  0.0000E+00
    -26.735  0.0000E+00  0.0000E+00
    -26.566  0.0000E+00  0.0000E+00
    -26.398  0.0000E+00  0.0000E+00
    -26.229  0.0000E+00  0.0000E+00
    -26.060  0.7995E-15  0.1350E-15
    -25.891  0.6889E-03  0.1163E-03
    -25.722  0.5187E+01  0.8760E+00
    -25.553  0.1073E+02  0.2687E+01
    -25.384  0.5396E+01  0.3599E+01
    -25.215  0.1386E+00  0.3622E+01
    -25.047  0.1902E+02  0.6833E+01
    -24.878  0.3014E+02  0.1192E+02
    -24.709  0.2527E+02  0.1619E+02
    -24.540  0.5928E+02  0.2620E+02
    -24.371  0.3511E+02  0.3213E+02
    -24.202  0.1602E+01  0.3240E+02
    -24.033  0.2336E-02  0.3240E+02
    -23.865  0.1233E+02  0.3448E+02
    -23.696  0.5198E+01  0.3536E+02
    -23.527  0.3790E+01  0.3600E+02
    -23.358  0.9640E-05  0.3600E+02
    -23.189  0.0000E+00  0.3600E+02
    -23.020  0.0000E+00  0.3600E+02
    -22.851  0.0000E+00  0.3600E+02
    -22.683  0.0000E+00  0.3600E+02
    -22.514  0.0000E+00  0.3600E+02
    -22.345  0.0000E+00  0.3600E+02
    -22.176  0.0000E+00  0.3600E+02
    -22.007  0.0000E+00  0.3600E+02
    -21.838  0.0000E+00  0.3600E+02
    -21.669  0.0000E+00  0.3600E+02
    -21.500  0.0000E+00  0.3600E+02
    -21.332  0.0000E+00  0.3600E+02
    -21.163  0.0000E+00  0.3600E+02
    -20.994  0.0000E+00  0.3600E+02
    -20.825  0.0000E+00  0.3600E+02
    -20.656  0.0000E+00  0.3600E+02
    -20.487  0.0000E+00  0.3600E+02
    -20.318  0.0000E+00  0.3600E+02
    -20.150  0.0000E+00  0.3600E+02
    -19.981  0.0000E+00  0.3600E+02
    -19.812  0.0000E+00  0.3600E+02
    -19.643  0.0000E+00  0.3600E+02
    -19.474  0.0000E+00  0.3600E+02
    -19.305  0.0000E+00  0.3600E+02
    -19.136  0.0000E+00  0.3600E+02
    -18.968  0.0000E+00  0.3600E+02
    -18.799  0.0000E+00  0.3600E+02
    -18.630  0.0000E+00  0.3600E+02
    -18.461  0.0000E+00  0.3600E+02
    -18.292  0.0000E+00  0.3600E+02
    -18.123  0.0000E+00  0.3600E+02
    -17.954  0.0000E+00  0.3600E+02
    -17.786  0.0000E+00  0.3600E+02
    -17.617  0.0000E+00  0.3600E+02
    -17.448  0.0000E+00  0.3600E+02
    -17.279  0.0000E+00  0.3600E+02
    -17.110  0.0000E+00  0.3600E+02
    -16.941  0.0000E+00  0.3600E+02
    -16.772  0.0000E+00  0.3600E+02
    -16.603  0.0000E+00  0.3600E+02
    -16.435  0.0000E+00  0.3600E+02
    -16.266  0.0000E+00  0.3600E+02
    -16.097  0.0000E+00  0.3600E+02
    -15.928  0.0000E+00  0.3600E+02
    -15.759  0.0000E+00  0.3600E+02
    -15.590  0.0000E+00  0.3600E+02
    -15.421  0.0000E+00  0.3600E+02
    -15.253  0.0000E+00  0.3600E+02
    -15.084  0.0000E+00  0.3600E+02
    -14.915  0.0000E+00  0.3600E+02
    -14.746  0.0000E+00  0.3600E+02
    -14.577  0.0000E+00  0.3600E+02
    -14.408  0.0000E+00  0.3600E+02
    -14.239  0.0000E+00  0.3600E+02
    -14.071  0.0000E+00  0.3600E+02
    -13.902  0.0000E+00  0.3600E+02
    -13.733  0.0000E+00  0.3600E+02
    -13.564  0.0000E+00  0.3600E+02
    -13.395  0.0000E+00  0.3600E+02
    -13.226  0.0000E+00  0.3600E+02
    -13.057  0.0000E+00  0.3600E+02
    -12.888  0.0000E+00  0.3600E+02
    -12.720  0.0000E+00  0.3600E+02
    -12.551  0.0000E+00  0.3600E+02
    -12.382  0.0000E+00  0.3600E+02
    -12.213  0.0000E+00  0.3600E+02
    -12.044  0.0000E+00  0.3600E+02
    -11.875  0.0000E+00  0.3600E+02
    -11.706  0.0000E+00  0.3600E+02
    -11.538  0.0000E+00  0.3600E+02
    -11.369  0.0000E+00  0.3600E+02
    -11.200  0.0000E+00  0.3600E+02
    -11.031  0.0000E+00  0.3600E+02
    -10.862  0.0000E+00  0.3600E+02
    -10.693  0.0000E+00  0.3600E+02
    -10.524  0.0000E+00  0.3600E+02
    -10.356  0.0000E+00  0.3600E+02
    -10.187  0.0000E+00  0.3600E+02
    -10.018  0.0000E+00  0.3600E+02
     -9.849  0.0000E+00  0.3600E+02
     -9.680  0.0000E+00  0.3600E+02
     -9.511  0.0000E+00  0.3600E+02
     -9.342  0.0000E+00  0.3600E+02
     -9.173  0.0000E+00  0.3600E+02
     -9.005  0.0000E+00  0.3600E+02
     -8.836  0.0000E+00  0.3600E+02
     -8.667  0.0000E+00  0.3600E+02
     -8.498  0.0000E+00  0.3600E+02
     -8.329  0.0000E+00  0.3600E+02
     -8.160  0.0000E+00  0.3600E+02
     -7.991  0.0000E+00  0.3600E+02
     -7.823  0.0000E+00  0.3600E+02
     -7.654  0.0000E+00  0.3600E+02
     -7.485  0.0000E+00  0.3600E+02
     -7.316  0.0000E+00  0.3600E+02
     -7.147  0.0000E+00  0.3600E+02
     -6.978  0.0000E+00  0.3600E+02
     -6.809  0.0000E+00  0.3600E+02
     -6.641  0.0000E+00  0.3600E+02
     -6.472  0.0000E+00  0.3600E+02
     -6.303  0.0000E+00  0.3600E+02
     -6.134  0.0000E+00  0.3600E+02
     -5.965  0.0000E+00  0.3600E+02
     -5.796  0.0000E+00  0.3600E+02
     -5.627  0.0000E+00  0.3600E+02
     -5.459  0.0000E+00  0.3600E+02
     -5.290  0.0000E+00  0.3600E+02
     -5.121  0.0000E+00  0.3600E+02
     -4.952  0.0000E+00  0.3600E+02
     -4.783  0.0000E+00  0.3600E+02
     -4.614  0.0000E+00  0.3600E+02
     -4.445  0.0000E+00  0.3600E+02
     -4.276  0.0000E+00  0.3600E+02
     -4.108  0.0000E+00  0.3600E+02
     -3.939  0.0000E+00  0.3600E+02
     -3.770  0.0000E+00  0.3600E+02
     -3.601  0.0000E+00  0.3600E+02
     -3.432  0.0000E+00  0.3600E+02
     -3.263  0.0000E+00  0.3600E+02
     -3.094  0.0000E+00  0.3600E+02
     -2.926  0.0000E+00  0.3600E+02
     -2.757  0.0000E+00  0.3600E+02
     -2.588  0.0000E+00  0.3600E+02
     -2.419  0.0000E+00  0.3600E+02
     -2.250  0.0000E+00  0.3600E+02
     -2.081  0.0000E+00  0.3600E+02
     -1.912  0.0000E+00  0.3600E+02
     -1.744  0.0000E+00  0.3600E+02
     -1.575  0.0000E+00  0.3600E+02
     -1.406  0.9969E-10  0.3600E+02
     -1.237  0.1066E-01  0.3600E+02
     -1.068  0.8408E-01  0.3602E+02
     -0.899  0.1606E+00  0.3604E+02
     -0.730  0.4079E+00  0.3611E+02
     -0.561  0.7669E+00  0.3624E+02
     -0.393  0.3715E+00  0.3630E+02
     -0.224  0.7334E+00  0.3643E+02
     -0.055  0.3912E+00  0.3649E+02
      0.114  0.2526E+00  0.3654E+02
      0.283  0.2216E+01  0.3691E+02
      0.452  0.1778E+01  0.3721E+02
      0.621  0.5022E+00  0.3730E+02
      0.789  0.1078E+01  0.3748E+02
      0.958  0.3388E+01  0.3805E+02
      1.127  0.5980E+01  0.3906E+02
      1.296  0.3353E+01  0.3963E+02
      1.465  0.1972E+01  0.3996E+02
      1.634  0.8227E+01  0.4135E+02
      1.803  0.1451E+02  0.4380E+02
      1.971  0.1052E+02  0.4557E+02
      2.140  0.1315E+02  0.4779E+02
      2.309  0.4648E+01  0.4858E+02
      2.478  0.9882E+01  0.5025E+02
      2.647  0.1257E+02  0.5237E+02
      2.816  0.1752E+02  0.5533E+02
      2.985  0.1757E+02  0.5830E+02
      3.154  0.4836E+01  0.5911E+02
      3.322  0.5990E+01  0.6012E+02
      3.491  0.8182E+01  0.6151E+02
      3.660  0.6617E+01  0.6262E+02
      3.829  0.6474E+01  0.6372E+02
      3.998  0.7958E+01  0.6506E+02
      4.167  0.7661E+01  0.6635E+02
      4.336  0.1344E+02  0.6862E+02
      4.504  0.8538E+01  0.7006E+02
      4.673  0.1261E+02  0.7219E+02
      4.842  0.1110E+02  0.7407E+02
      5.011  0.1162E+02  0.7603E+02
      5.180  0.1327E+02  0.7827E+02
      5.349  0.5126E+01  0.7914E+02
      5.518  0.5973E+01  0.8014E+02
      5.686  0.5833E+01  0.8113E+02
      5.855  0.6221E+01  0.8218E+02
      6.024  0.6253E+01  0.8324E+02
      6.193  0.4150E+01  0.8394E+02
      6.362  0.7538E+01  0.8521E+02
      6.531  0.5210E+01  0.8609E+02
      6.700  0.1275E+02  0.8824E+02
      6.868  0.1236E+02  0.9033E+02
      7.037  0.1140E+02  0.9226E+02
      7.206  0.4987E+01  0.9310E+02
      7.375  0.3519E+01  0.9369E+02
      7.544  0.5449E+01  0.9461E+02
      7.713  0.6722E+01  0.9575E+02
      7.882  0.7220E+00  0.9587E+02
      8.051  0.5297E+01  0.9676E+02
      8.219  0.4487E+01  0.9752E+02
      8.388  0.1023E+02  0.9925E+02
      8.557  0.5817E+01  0.1002E+03
      8.726  0.1056E+02  0.1020E+03
      8.895  0.1284E+02  0.1042E+03
      9.064  0.7085E+01  0.1054E+03
      9.233  0.7876E+01  0.1067E+03
      9.401  0.7083E+01  0.1079E+03
      9.570  0.1151E+02  0.1098E+03
      9.739  0.9809E+01  0.1115E+03
      9.908  0.5527E+01  0.1124E+03
     10.077  0.1427E+02  0.1148E+03
     10.246  0.9463E+01  0.1164E+03
     10.415  0.5925E+01  0.1174E+03
     10.583  0.1412E+02  0.1198E+03
     10.752  0.6337E+01  0.1209E+03
     10.921  0.3982E+01  0.1216E+03
     11.090  0.5440E+01  0.1225E+03
     11.259  0.6838E+01  0.1236E+03
     11.428  0.1779E+01  0.1239E+03
     11.597  0.4751E+01  0.1247E+03
     11.766  0.1557E+01  0.1250E+03
     11.934  0.4054E+01  0.1257E+03
     12.103  0.9807E+00  0.1259E+03
     12.272  0.2843E+01  0.1263E+03
     12.441  0.5318E+01  0.1272E+03
     12.610  0.1691E+01  0.1275E+03
     12.779  0.4706E+01  0.1283E+03
     12.948  0.6619E+00  0.1284E+03
     13.116  0.1968E+00  0.1285E+03
     13.285  0.8791E+00  0.1286E+03
     13.454  0.4490E+00  0.1287E+03
     13.623  0.1244E+01  0.1289E+03
     13.792  0.2383E+01  0.1293E+03
     13.961  0.3629E+01  0.1299E+03
     14.130  0.7968E+00  0.1300E+03
     14.298  0.8420E-05  0.1300E+03
     14.467  0.1446E-01  0.1301E+03
     14.636  0.5212E+01  0.1309E+03
     14.805  0.3457E+01  0.1315E+03
     14.974  0.2735E+01  0.1320E+03
     15.143  0.4246E+01  0.1327E+03
     15.312  0.1340E+01  0.1329E+03
     15.481  0.2102E+01  0.1333E+03
     15.649  0.1894E+01  0.1336E+03
     15.818  0.5183E+00  0.1337E+03
     15.987  0.7561E+01  0.1350E+03
     16.156  0.3933E+01  0.1356E+03
     16.325  0.1321E+01  0.1358E+03
     16.494  0.2839E+01  0.1363E+03
     16.663  0.8388E+01  0.1377E+03
     16.831  0.2696E+01  0.1382E+03
     17.000  0.5651E+01  0.1392E+03
     17.169  0.5305E-02  0.1392E+03
     17.338  0.2633E-04  0.1392E+03
     17.507  0.1160E+01  0.1393E+03
     17.676  0.1205E+01  0.1396E+03
     17.845  0.2179E+01  0.1399E+03
     18.013  0.2109E+01  0.1403E+03
     18.182  0.3229E+01  0.1408E+03
     18.351  0.1192E+01  0.1410E+03
     18.520  0.6262E+01  0.1421E+03
     18.689  0.2341E+01  0.1425E+03
     18.858  0.4501E+01  0.1432E+03
     19.027  0.2829E+01  0.1437E+03
     19.195  0.2010E+00  0.1437E+03
     19.364  0.7397E+00  0.1439E+03
     19.533  0.2298E-02  0.1439E+03
     19.702  0.0000E+00  0.1439E+03
     19.871  0.0000E+00  0.1439E+03
     20.040  0.4103E-09  0.1439E+03
     20.209  0.6565E-01  0.1439E+03
     20.378  0.6921E+00  0.1440E+03
     20.546  0.3091E-03  0.1440E+03
     20.715  0.0000E+00  0.1440E+03
     20.884  0.0000E+00  0.1440E+03
     21.053  0.0000E+00  0.1440E+03
     21.222  0.0000E+00  0.1440E+03
     21.391  0.0000E+00  0.1440E+03
     21.560  0.0000E+00  0.1440E+03
     21.728  0.0000E+00  0.1440E+03
     21.897  0.0000E+00  0.1440E+03
     22.066  0.0000E+00  0.1440E+03
     22.235  0.0000E+00  0.1440E+03
     22.404  0.0000E+00  0.1440E+03
     22.573  0.0000E+00  0.1440E+03
