Sc4O6
1.0
      5.3481567       0.0000000       0.0000000
     -2.6740778       1.5438799       4.7511817
      2.6740778      -4.6316386       0.0000000
  Sc    O   
  4     6   
Direct
      0.1441613       0.4324830       0.1441613
      0.3558387       0.0675170       0.3558387
      0.6441613       0.9324830       0.6441613
      0.8558387       0.5675170       0.8558387
      0.2500000       0.7500000       0.5491146
      0.0491146       0.2500000       0.7500000
      0.4508854       0.2500000       0.0491146
      0.5491146       0.7500000       0.9508854
      0.9508854       0.7500000       0.2500000
      0.7500000       0.2500000       0.4508854
