Al12 Mo1
1.0
   6.1457468300000002    0.0000000000000000   -2.1728491000000001
  -3.0728734100000001    5.3223738400000000   -2.1728491000000001
  -0.0000000000000000   -0.0000000000000000    6.5185482900000000
Al Mo
12 1
direct
   0.4943267200000000    0.3077708500000000    0.1865548700000000 Al
   0.3077708500000000    0.8134451300000000    0.1212149700000000 Al
   0.1865548700000000    0.8787850300000000    0.6922291500000000 Al
   0.6922291500000000    0.8134451300000000    0.5056732800000000 Al
   0.8134451300000000    0.1212149700000000    0.3077708500000000 Al
   0.6922291500000000    0.1865548700000000    0.8787850300000000 Al
   0.8134451300000000    0.5056732800000000    0.6922291500000000 Al
   0.1865548700000000    0.4943267200000000    0.3077708500000000 Al
   0.3077708500000000    0.1865548700000000    0.4943267200000000 Al
   0.1212149700000000    0.3077708500000000    0.8134451300000000 Al
   0.8787850300000000    0.6922291500000000    0.1865548700000000 Al
   0.5056732800000000    0.6922291500000000    0.8134451300000000 Al
  -0.0000000000000000   -0.0000000000000000   -0.0000000000000000 Mo
