unknown system                          
           1
     6.145747    0.000000   -2.172849
    -3.072873    5.322374   -2.172849
     0.000000    0.000000    6.518548
   Al   Mo
    12     1
Direct configuration=     1
   0.49432672  0.30777085  0.18655487
   0.30777085  0.81344513  0.12121497
   0.18655487  0.87878503  0.69222915
   0.69222915  0.81344513  0.50567328
   0.81344513  0.12121497  0.30777085
   0.69222915  0.18655487  0.87878503
   0.81344513  0.50567328  0.69222915
   0.18655487  0.49432672  0.30777085
   0.30777085  0.18655487  0.49432672
   0.12121497  0.30777085  0.81344513
   0.87878503  0.69222915  0.18655487
   0.50567328  0.69222915  0.81344513
   0.00000000  0.00000000  0.00000000
