H2                                      
   1.00000000000000     
    10.0000000000000000    0.0000000000000000    0.0000000000000000
     0.0000000000000000   10.0000000000000000    0.0000000000000000
     0.0000000000000000    0.0000000000000000   10.0000000000000000
   H 
     2
Direct
     0.4999999999958007    0.4999999999994102    0.4625142091276402
     0.5000000000041993    0.5000000000005898    0.5374857908723598
 
  0.00000000E+00  0.00000000E+00  0.00000000E+00
  0.00000000E+00  0.00000000E+00  0.00000000E+00
