Mo2 Se4                                 
   1.00000000000000     
     3.3222601699999998   -0.0000000100000000    0.0000000000000000
    -1.6611305999999999    2.8771614500000000    0.0000000000000000
     0.0000000000000000    0.0000000000000000   13.5429565499999995
   Mo   Se
     2     4
Direct
     0.6666669999999968    0.3333330000000032    0.7500000000000000
     0.3333330000000032    0.6666669999999968    0.2500000000000000
     0.3333330000000032    0.6666669999999968    0.8722223199999988
     0.6666669999999968    0.3333330000000032    0.3722223199999988
     0.3333330000000032    0.6666669999999968    0.6277776800000012
     0.6666669999999968    0.3333330000000032    0.1277776800000012
 
  0.00000000E+00  0.00000000E+00  0.00000000E+00
  0.00000000E+00  0.00000000E+00  0.00000000E+00
  0.00000000E+00  0.00000000E+00  0.00000000E+00
  0.00000000E+00  0.00000000E+00  0.00000000E+00
  0.00000000E+00  0.00000000E+00  0.00000000E+00
  0.00000000E+00  0.00000000E+00  0.00000000E+00
