N2                                      
   1.00000000000000     
     8.0000000000000000    0.0000000000000000    0.0000000000000000
     0.0000000000000000    8.0000000000000000    0.0000000000000000
     0.0000000000000000    0.0000000000000000    8.0000000000000000
   N 
     2
Direct
     0.6250000001987237    0.6250000000113228    0.5555625968631023
     0.6249999998012763    0.6249999999886772    0.6944374031368977
 
  0.00000000E+00  0.00000000E+00  0.00000000E+00
  0.00000000E+00  0.00000000E+00  0.00000000E+00
