   2   2   0   0
  0.2560000E+03  0.8000000E-09  0.8000000E-09  0.8000000E-09  0.5000000E-15
  1.000000000000000E-004
  CAR 
 unknown system                          
      2.99334643    -29.86427788  301     -9.79374570      1.00000000
    -29.864  0.0000E+00  0.0000E+00
    -29.755  0.0000E+00  0.0000E+00
    -29.645  0.0000E+00  0.0000E+00
    -29.536  0.0000E+00  0.0000E+00
    -29.426  0.0000E+00  0.0000E+00
    -29.317  0.0000E+00  0.0000E+00
    -29.207  0.0000E+00  0.0000E+00
    -29.098  0.0000E+00  0.0000E+00
    -28.988  0.0000E+00  0.0000E+00
    -28.879  0.0000E+00  0.0000E+00
    -28.769  0.0000E+00  0.0000E+00
    -28.659  0.0000E+00  0.0000E+00
    -28.550  0.0000E+00  0.0000E+00
    -28.440  0.0000E+00  0.0000E+00
    -28.331  0.0000E+00  0.0000E+00
    -28.221  0.0000E+00  0.0000E+00
    -28.112  0.0000E+00  0.0000E+00
    -28.002  0.0000E+00  0.0000E+00
    -27.893  0.0000E+00  0.0000E+00
    -27.783  0.1826E+02  0.2000E+01
    -27.674  0.0000E+00  0.2000E+01
    -27.564  0.0000E+00  0.2000E+01
    -27.455  0.0000E+00  0.2000E+01
    -27.345  0.0000E+00  0.2000E+01
    -27.236  0.0000E+00  0.2000E+01
    -27.126  0.0000E+00  0.2000E+01
    -27.017  0.0000E+00  0.2000E+01
    -26.907  0.0000E+00  0.2000E+01
    -26.798  0.0000E+00  0.2000E+01
    -26.688  0.0000E+00  0.2000E+01
    -26.579  0.0000E+00  0.2000E+01
    -26.469  0.0000E+00  0.2000E+01
    -26.359  0.0000E+00  0.2000E+01
    -26.250  0.0000E+00  0.2000E+01
    -26.140  0.0000E+00  0.2000E+01
    -26.031  0.0000E+00  0.2000E+01
    -25.921  0.0000E+00  0.2000E+01
    -25.812  0.0000E+00  0.2000E+01
    -25.702  0.0000E+00  0.2000E+01
    -25.593  0.0000E+00  0.2000E+01
    -25.483  0.0000E+00  0.2000E+01
    -25.374  0.0000E+00  0.2000E+01
    -25.264  0.0000E+00  0.2000E+01
    -25.155  0.0000E+00  0.2000E+01
    -25.045  0.0000E+00  0.2000E+01
    -24.936  0.0000E+00  0.2000E+01
    -24.826  0.0000E+00  0.2000E+01
    -24.717  0.0000E+00  0.2000E+01
    -24.607  0.0000E+00  0.2000E+01
    -24.498  0.0000E+00  0.2000E+01
    -24.388  0.0000E+00  0.2000E+01
    -24.278  0.0000E+00  0.2000E+01
    -24.169  0.0000E+00  0.2000E+01
    -24.059  0.0000E+00  0.2000E+01
    -23.950  0.0000E+00  0.2000E+01
    -23.840  0.0000E+00  0.2000E+01
    -23.731  0.0000E+00  0.2000E+01
    -23.621  0.0000E+00  0.2000E+01
    -23.512  0.0000E+00  0.2000E+01
    -23.402  0.0000E+00  0.2000E+01
    -23.293  0.0000E+00  0.2000E+01
    -23.183  0.0000E+00  0.2000E+01
    -23.074  0.0000E+00  0.2000E+01
    -22.964  0.0000E+00  0.2000E+01
    -22.855  0.0000E+00  0.2000E+01
    -22.745  0.0000E+00  0.2000E+01
    -22.636  0.0000E+00  0.2000E+01
    -22.526  0.0000E+00  0.2000E+01
    -22.417  0.0000E+00  0.2000E+01
    -22.307  0.0000E+00  0.2000E+01
    -22.197  0.0000E+00  0.2000E+01
    -22.088  0.0000E+00  0.2000E+01
    -21.978  0.0000E+00  0.2000E+01
    -21.869  0.0000E+00  0.2000E+01
    -21.759  0.0000E+00  0.2000E+01
    -21.650  0.0000E+00  0.2000E+01
    -21.540  0.0000E+00  0.2000E+01
    -21.431  0.0000E+00  0.2000E+01
    -21.321  0.0000E+00  0.2000E+01
    -21.212  0.0000E+00  0.2000E+01
    -21.102  0.0000E+00  0.2000E+01
    -20.993  0.0000E+00  0.2000E+01
    -20.883  0.0000E+00  0.2000E+01
    -20.774  0.0000E+00  0.2000E+01
    -20.664  0.0000E+00  0.2000E+01
    -20.555  0.0000E+00  0.2000E+01
    -20.445  0.0000E+00  0.2000E+01
    -20.336  0.0000E+00  0.2000E+01
    -20.226  0.0000E+00  0.2000E+01
    -20.117  0.0000E+00  0.2000E+01
    -20.007  0.0000E+00  0.2000E+01
    -19.897  0.0000E+00  0.2000E+01
    -19.788  0.0000E+00  0.2000E+01
    -19.678  0.0000E+00  0.2000E+01
    -19.569  0.0000E+00  0.2000E+01
    -19.459  0.0000E+00  0.2000E+01
    -19.350  0.0000E+00  0.2000E+01
    -19.240  0.0000E+00  0.2000E+01
    -19.131  0.0000E+00  0.2000E+01
    -19.021  0.0000E+00  0.2000E+01
    -18.912  0.0000E+00  0.2000E+01
    -18.802  0.0000E+00  0.2000E+01
    -18.693  0.0000E+00  0.2000E+01
    -18.583  0.0000E+00  0.2000E+01
    -18.474  0.0000E+00  0.2000E+01
    -18.364  0.0000E+00  0.2000E+01
    -18.255  0.0000E+00  0.2000E+01
    -18.145  0.0000E+00  0.2000E+01
    -18.036  0.0000E+00  0.2000E+01
    -17.926  0.0000E+00  0.2000E+01
    -17.816  0.0000E+00  0.2000E+01
    -17.707  0.0000E+00  0.2000E+01
    -17.597  0.0000E+00  0.2000E+01
    -17.488  0.0000E+00  0.2000E+01
    -17.378  0.0000E+00  0.2000E+01
    -17.269  0.0000E+00  0.2000E+01
    -17.159  0.0000E+00  0.2000E+01
    -17.050  0.0000E+00  0.2000E+01
    -16.940  0.0000E+00  0.2000E+01
    -16.831  0.0000E+00  0.2000E+01
    -16.721  0.0000E+00  0.2000E+01
    -16.612  0.0000E+00  0.2000E+01
    -16.502  0.0000E+00  0.2000E+01
    -16.393  0.0000E+00  0.2000E+01
    -16.283  0.0000E+00  0.2000E+01
    -16.174  0.0000E+00  0.2000E+01
    -16.064  0.0000E+00  0.2000E+01
    -15.955  0.0000E+00  0.2000E+01
    -15.845  0.0000E+00  0.2000E+01
    -15.735  0.0000E+00  0.2000E+01
    -15.626  0.0000E+00  0.2000E+01
    -15.516  0.0000E+00  0.2000E+01
    -15.407  0.0000E+00  0.2000E+01
    -15.297  0.0000E+00  0.2000E+01
    -15.188  0.0000E+00  0.2000E+01
    -15.078  0.0000E+00  0.2000E+01
    -14.969  0.0000E+00  0.2000E+01
    -14.859  0.0000E+00  0.2000E+01
    -14.750  0.0000E+00  0.2000E+01
    -14.640  0.0000E+00  0.2000E+01
    -14.531  0.0000E+00  0.2000E+01
    -14.421  0.0000E+00  0.2000E+01
    -14.312  0.0000E+00  0.2000E+01
    -14.202  0.0000E+00  0.2000E+01
    -14.093  0.0000E+00  0.2000E+01
    -13.983  0.0000E+00  0.2000E+01
    -13.874  0.0000E+00  0.2000E+01
    -13.764  0.0000E+00  0.2000E+01
    -13.655  0.0000E+00  0.2000E+01
    -13.545  0.0000E+00  0.2000E+01
    -13.435  0.0000E+00  0.2000E+01
    -13.326  0.0000E+00  0.2000E+01
    -13.216  0.0000E+00  0.2000E+01
    -13.107  0.1826E+02  0.4000E+01
    -12.997  0.0000E+00  0.4000E+01
    -12.888  0.0000E+00  0.4000E+01
    -12.778  0.0000E+00  0.4000E+01
    -12.669  0.0000E+00  0.4000E+01
    -12.559  0.0000E+00  0.4000E+01
    -12.450  0.0000E+00  0.4000E+01
    -12.340  0.0000E+00  0.4000E+01
    -12.231  0.0000E+00  0.4000E+01
    -12.121  0.0000E+00  0.4000E+01
    -12.012  0.0000E+00  0.4000E+01
    -11.902  0.0000E+00  0.4000E+01
    -11.793  0.0000E+00  0.4000E+01
    -11.683  0.0000E+00  0.4000E+01
    -11.574  0.0000E+00  0.4000E+01
    -11.464  0.0000E+00  0.4000E+01
    -11.354  0.0000E+00  0.4000E+01
    -11.245  0.3652E+02  0.8000E+01
    -11.135  0.0000E+00  0.8000E+01
    -11.026  0.0000E+00  0.8000E+01
    -10.916  0.0000E+00  0.8000E+01
    -10.807  0.0000E+00  0.8000E+01
    -10.697  0.0000E+00  0.8000E+01
    -10.588  0.0000E+00  0.8000E+01
    -10.478  0.0000E+00  0.8000E+01
    -10.369  0.0000E+00  0.8000E+01
    -10.259  0.0000E+00  0.8000E+01
    -10.150  0.0000E+00  0.8000E+01
    -10.040  0.0000E+00  0.8000E+01
     -9.931  0.0000E+00  0.8000E+01
     -9.821  0.1826E+02  0.1000E+02
     -9.712  0.0000E+00  0.1000E+02
     -9.602  0.0000E+00  0.1000E+02
     -9.493  0.0000E+00  0.1000E+02
     -9.383  0.0000E+00  0.1000E+02
     -9.273  0.0000E+00  0.1000E+02
     -9.164  0.0000E+00  0.1000E+02
     -9.054  0.0000E+00  0.1000E+02
     -8.945  0.0000E+00  0.1000E+02
     -8.835  0.0000E+00  0.1000E+02
     -8.726  0.0000E+00  0.1000E+02
     -8.616  0.0000E+00  0.1000E+02
     -8.507  0.0000E+00  0.1000E+02
     -8.397  0.0000E+00  0.1000E+02
     -8.288  0.0000E+00  0.1000E+02
     -8.178  0.0000E+00  0.1000E+02
     -8.069  0.0000E+00  0.1000E+02
     -7.959  0.0000E+00  0.1000E+02
     -7.850  0.0000E+00  0.1000E+02
     -7.740  0.0000E+00  0.1000E+02
     -7.631  0.0000E+00  0.1000E+02
     -7.521  0.0000E+00  0.1000E+02
     -7.412  0.0000E+00  0.1000E+02
     -7.302  0.0000E+00  0.1000E+02
     -7.193  0.0000E+00  0.1000E+02
     -7.083  0.0000E+00  0.1000E+02
     -6.973  0.0000E+00  0.1000E+02
     -6.864  0.0000E+00  0.1000E+02
     -6.754  0.0000E+00  0.1000E+02
     -6.645  0.0000E+00  0.1000E+02
     -6.535  0.0000E+00  0.1000E+02
     -6.426  0.0000E+00  0.1000E+02
     -6.316  0.0000E+00  0.1000E+02
     -6.207  0.0000E+00  0.1000E+02
     -6.097  0.0000E+00  0.1000E+02
     -5.988  0.0000E+00  0.1000E+02
     -5.878  0.0000E+00  0.1000E+02
     -5.769  0.0000E+00  0.1000E+02
     -5.659  0.0000E+00  0.1000E+02
     -5.550  0.0000E+00  0.1000E+02
     -5.440  0.0000E+00  0.1000E+02
     -5.331  0.0000E+00  0.1000E+02
     -5.221  0.0000E+00  0.1000E+02
     -5.112  0.0000E+00  0.1000E+02
     -5.002  0.0000E+00  0.1000E+02
     -4.892  0.0000E+00  0.1000E+02
     -4.783  0.0000E+00  0.1000E+02
     -4.673  0.0000E+00  0.1000E+02
     -4.564  0.0000E+00  0.1000E+02
     -4.454  0.0000E+00  0.1000E+02
     -4.345  0.0000E+00  0.1000E+02
     -4.235  0.0000E+00  0.1000E+02
     -4.126  0.0000E+00  0.1000E+02
     -4.016  0.0000E+00  0.1000E+02
     -3.907  0.0000E+00  0.1000E+02
     -3.797  0.0000E+00  0.1000E+02
     -3.688  0.0000E+00  0.1000E+02
     -3.578  0.0000E+00  0.1000E+02
     -3.469  0.0000E+00  0.1000E+02
     -3.359  0.0000E+00  0.1000E+02
     -3.250  0.0000E+00  0.1000E+02
     -3.140  0.0000E+00  0.1000E+02
     -3.031  0.0000E+00  0.1000E+02
     -2.921  0.0000E+00  0.1000E+02
     -2.812  0.0000E+00  0.1000E+02
     -2.702  0.0000E+00  0.1000E+02
     -2.592  0.0000E+00  0.1000E+02
     -2.483  0.0000E+00  0.1000E+02
     -2.373  0.0000E+00  0.1000E+02
     -2.264  0.0000E+00  0.1000E+02
     -2.154  0.0000E+00  0.1000E+02
     -2.045  0.0000E+00  0.1000E+02
     -1.935  0.0000E+00  0.1000E+02
     -1.826  0.0000E+00  0.1000E+02
     -1.716  0.3652E+02  0.1400E+02
     -1.607  0.0000E+00  0.1400E+02
     -1.497  0.0000E+00  0.1400E+02
     -1.388  0.0000E+00  0.1400E+02
     -1.278  0.0000E+00  0.1400E+02
     -1.169  0.0000E+00  0.1400E+02
     -1.059  0.0000E+00  0.1400E+02
     -0.950  0.0000E+00  0.1400E+02
     -0.840  0.0000E+00  0.1400E+02
     -0.731  0.0000E+00  0.1400E+02
     -0.621  0.0000E+00  0.1400E+02
     -0.511  0.0000E+00  0.1400E+02
     -0.402  0.0000E+00  0.1400E+02
     -0.292  0.0000E+00  0.1400E+02
     -0.183  0.4605E-05  0.1400E+02
     -0.073  0.1184E+01  0.1407E+02
      0.036  0.1780E+01  0.1423E+02
      0.146  0.2153E+01  0.1444E+02
      0.255  0.3554E+01  0.1472E+02
      0.365  0.3179E+01  0.1509E+02
      0.474  0.2414E+01  0.1539E+02
      0.584  0.1997E+01  0.1563E+02
      0.693  0.1491E+01  0.1583E+02
      0.803  0.5692E+00  0.1593E+02
      0.912  0.3163E+00  0.1597E+02
      1.022  0.5324E-01  0.1600E+02
      1.131  0.0000E+00  0.1600E+02
      1.241  0.0000E+00  0.1600E+02
      1.350  0.0000E+00  0.1600E+02
      1.460  0.0000E+00  0.1600E+02
      1.570  0.0000E+00  0.1600E+02
      1.679  0.0000E+00  0.1600E+02
      1.789  0.0000E+00  0.1600E+02
      1.898  0.0000E+00  0.1600E+02
      2.008  0.0000E+00  0.1600E+02
      2.117  0.0000E+00  0.1600E+02
      2.227  0.0000E+00  0.1600E+02
      2.336  0.0000E+00  0.1600E+02
      2.446  0.0000E+00  0.1600E+02
      2.555  0.0000E+00  0.1600E+02
      2.665  0.0000E+00  0.1600E+02
      2.774  0.0000E+00  0.1600E+02
      2.884  0.0000E+00  0.1600E+02
      2.993  0.0000E+00  0.1600E+02
