       N       E                     dE             d eps       ncg     rms          rms(c)
DAV:   1     0.697261028146E+02    0.69726E+02   -0.33053E+03  7624   0.917E+02
DAV:   2    -0.946368237792E+01   -0.79190E+02   -0.75650E+02  9904   0.165E+02
DAV:   3    -0.177642696472E+02   -0.83006E+01   -0.83006E+01  8664   0.759E+01
DAV:   4    -0.178811395049E+02   -0.11687E+00   -0.11687E+00  8704   0.858E+00
DAV:   5    -0.178814835325E+02   -0.34403E-03   -0.34403E-03  7424   0.342E-01    0.779E+00
DAV:   6    -0.172468595411E+02    0.63462E+00   -0.90683E-01  8008   0.977E+00    0.445E+00
DAV:   7    -0.170766407275E+02    0.17022E+00   -0.63122E-01  7056   0.798E+00    0.110E+00
DAV:   8    -0.170703371676E+02    0.63036E-02   -0.41767E-02  6536   0.226E+00    0.168E-01
DAV:   9    -0.170707011575E+02   -0.36399E-03   -0.11369E-03  7480   0.346E-01    0.912E-02
DAV:  10    -0.170723648286E+02   -0.16637E-02   -0.19315E-04  5488   0.137E-01    0.398E-02
DAV:  11    -0.170729998663E+02   -0.63504E-03   -0.12675E-04  6352   0.928E-02    0.234E-02
DAV:  12    -0.170742084565E+02   -0.12086E-02   -0.16822E-04  6160   0.958E-02    0.161E-02
DAV:  13    -0.170743186595E+02   -0.11020E-03   -0.74815E-06  7232   0.233E-02    0.281E-03
DAV:  14    -0.170744779141E+02   -0.15925E-03   -0.12178E-05  6960   0.205E-02    0.363E-03
DAV:  15    -0.170745146415E+02   -0.36727E-04   -0.16547E-06  7472   0.879E-03    0.990E-04
DAV:  16    -0.170745345238E+02   -0.19882E-04   -0.12063E-06  5712   0.647E-03    0.558E-04
DAV:  17    -0.170745360013E+02   -0.14775E-05   -0.47845E-08  7280   0.165E-03    0.421E-04
DAV:  18    -0.170745373596E+02   -0.13583E-05   -0.10638E-07  5712   0.185E-03    0.181E-04
DAV:  19    -0.170745374380E+02   -0.78389E-07   -0.24423E-09  8192   0.317E-04    0.602E-05
DAV:  20    -0.170745375542E+02   -0.11615E-06   -0.71369E-09  6272   0.490E-04    0.865E-05
DAV:  21    -0.170745375635E+02   -0.93472E-08   -0.31356E-10  7360   0.120E-04
   1 F= -.17079288E+02 E0= -.17079288E+02  d E =0.000000E+00
