C3 N4                                   
   1.00000000000000     
     3.4567649999999999    0.0000000000000000    0.0000000000000000
     0.0000000000000000    3.4567649999999999    0.0000000000000000
     0.0000000000000000    0.0000000000000000    3.4567649999999999
   C    N 
     3     4
Direct
     0.0000000000000000    0.0000000000000000    0.5000000000000000
     0.5000000000000000    0.0000000000000000    0.0000000000000000
     0.0000000000000000    0.5000000000000000    0.0000000000000000
     0.2456869999999967    0.2456869999999967    0.7543130000000033
     0.7543130000000033    0.7543130000000033    0.7543130000000033
     0.2456869999999967    0.7543130000000033    0.2456869999999967
     0.7543130000000033    0.2456869999999967    0.2456869999999967
 
  0.00000000E+00  0.00000000E+00  0.00000000E+00
  0.00000000E+00  0.00000000E+00  0.00000000E+00
  0.00000000E+00  0.00000000E+00  0.00000000E+00
  0.00000000E+00  0.00000000E+00  0.00000000E+00
  0.00000000E+00  0.00000000E+00  0.00000000E+00
  0.00000000E+00  0.00000000E+00  0.00000000E+00
  0.00000000E+00  0.00000000E+00  0.00000000E+00
