  12  12   0   0
  0.1669997E+02  0.5179053E-09  0.5179053E-09  0.8628649E-09  0.5000000E-15
  1.000000000000000E-004
  CAR 
 unknown system                          
     21.45547713    -32.93519882  301      9.49606548      1.00000000
    -32.935  0.0000E+00  0.0000E+00
    -32.754  0.0000E+00  0.0000E+00
    -32.573  0.0000E+00  0.0000E+00
    -32.391  0.0000E+00  0.0000E+00
    -32.210  0.0000E+00  0.0000E+00
    -32.029  0.0000E+00  0.0000E+00
    -31.847  0.0000E+00  0.0000E+00
    -31.666  0.0000E+00  0.0000E+00
    -31.485  0.0000E+00  0.0000E+00
    -31.303  0.0000E+00  0.0000E+00
    -31.122  0.0000E+00  0.0000E+00
    -30.941  0.0000E+00  0.0000E+00
    -30.760  0.0000E+00  0.0000E+00
    -30.578  0.9453E-04  0.1714E-04
    -30.397  0.8381E+00  0.1520E+00
    -30.216  0.6176E+01  0.1272E+01
    -30.034  0.1158E+02  0.3371E+01
    -29.853  0.3663E+01  0.4036E+01
    -29.672  0.2625E+02  0.8795E+01
    -29.490  0.4325E+02  0.1664E+02
    -29.309  0.3930E+02  0.2376E+02
    -29.128  0.3669E+02  0.3041E+02
    -28.947  0.4965E+02  0.3941E+02
    -28.765  0.4692E+02  0.4792E+02
    -28.584  0.4289E+00  0.4800E+02
    -28.403  0.0000E+00  0.4800E+02
    -28.221  0.0000E+00  0.4800E+02
    -28.040  0.0000E+00  0.4800E+02
    -27.859  0.0000E+00  0.4800E+02
    -27.677  0.0000E+00  0.4800E+02
    -27.496  0.0000E+00  0.4800E+02
    -27.315  0.0000E+00  0.4800E+02
    -27.134  0.0000E+00  0.4800E+02
    -26.952  0.0000E+00  0.4800E+02
    -26.771  0.0000E+00  0.4800E+02
    -26.590  0.0000E+00  0.4800E+02
    -26.408  0.0000E+00  0.4800E+02
    -26.227  0.0000E+00  0.4800E+02
    -26.046  0.0000E+00  0.4800E+02
    -25.864  0.0000E+00  0.4800E+02
    -25.683  0.0000E+00  0.4800E+02
    -25.502  0.0000E+00  0.4800E+02
    -25.321  0.0000E+00  0.4800E+02
    -25.139  0.0000E+00  0.4800E+02
    -24.958  0.0000E+00  0.4800E+02
    -24.777  0.0000E+00  0.4800E+02
    -24.595  0.0000E+00  0.4800E+02
    -24.414  0.0000E+00  0.4800E+02
    -24.233  0.0000E+00  0.4800E+02
    -24.051  0.0000E+00  0.4800E+02
    -23.870  0.0000E+00  0.4800E+02
    -23.689  0.0000E+00  0.4800E+02
    -23.507  0.0000E+00  0.4800E+02
    -23.326  0.0000E+00  0.4800E+02
    -23.145  0.0000E+00  0.4800E+02
    -22.964  0.0000E+00  0.4800E+02
    -22.782  0.0000E+00  0.4800E+02
    -22.601  0.0000E+00  0.4800E+02
    -22.420  0.0000E+00  0.4800E+02
    -22.238  0.0000E+00  0.4800E+02
    -22.057  0.0000E+00  0.4800E+02
    -21.876  0.0000E+00  0.4800E+02
    -21.694  0.0000E+00  0.4800E+02
    -21.513  0.0000E+00  0.4800E+02
    -21.332  0.1191E-03  0.4800E+02
    -21.151  0.2876E+02  0.5321E+02
    -20.969  0.5086E+02  0.6244E+02
    -20.788  0.5270E+02  0.7199E+02
    -20.607  0.5228E-01  0.7200E+02
    -20.425  0.0000E+00  0.7200E+02
    -20.244  0.0000E+00  0.7200E+02
    -20.063  0.0000E+00  0.7200E+02
    -19.881  0.0000E+00  0.7200E+02
    -19.700  0.0000E+00  0.7200E+02
    -19.519  0.0000E+00  0.7200E+02
    -19.338  0.0000E+00  0.7200E+02
    -19.156  0.0000E+00  0.7200E+02
    -18.975  0.0000E+00  0.7200E+02
    -18.794  0.0000E+00  0.7200E+02
    -18.612  0.0000E+00  0.7200E+02
    -18.431  0.0000E+00  0.7200E+02
    -18.250  0.0000E+00  0.7200E+02
    -18.068  0.0000E+00  0.7200E+02
    -17.887  0.0000E+00  0.7200E+02
    -17.706  0.0000E+00  0.7200E+02
    -17.525  0.0000E+00  0.7200E+02
    -17.343  0.0000E+00  0.7200E+02
    -17.162  0.0000E+00  0.7200E+02
    -16.981  0.0000E+00  0.7200E+02
    -16.799  0.0000E+00  0.7200E+02
    -16.618  0.0000E+00  0.7200E+02
    -16.437  0.0000E+00  0.7200E+02
    -16.255  0.0000E+00  0.7200E+02
    -16.074  0.0000E+00  0.7200E+02
    -15.893  0.0000E+00  0.7200E+02
    -15.711  0.0000E+00  0.7200E+02
    -15.530  0.0000E+00  0.7200E+02
    -15.349  0.0000E+00  0.7200E+02
    -15.168  0.0000E+00  0.7200E+02
    -14.986  0.0000E+00  0.7200E+02
    -14.805  0.0000E+00  0.7200E+02
    -14.624  0.0000E+00  0.7200E+02
    -14.442  0.0000E+00  0.7200E+02
    -14.261  0.0000E+00  0.7200E+02
    -14.080  0.0000E+00  0.7200E+02
    -13.898  0.0000E+00  0.7200E+02
    -13.717  0.0000E+00  0.7200E+02
    -13.536  0.0000E+00  0.7200E+02
    -13.355  0.0000E+00  0.7200E+02
    -13.173  0.0000E+00  0.7200E+02
    -12.992  0.0000E+00  0.7200E+02
    -12.811  0.0000E+00  0.7200E+02
    -12.629  0.0000E+00  0.7200E+02
    -12.448  0.0000E+00  0.7200E+02
    -12.267  0.0000E+00  0.7200E+02
    -12.085  0.0000E+00  0.7200E+02
    -11.904  0.0000E+00  0.7200E+02
    -11.723  0.0000E+00  0.7200E+02
    -11.542  0.0000E+00  0.7200E+02
    -11.360  0.0000E+00  0.7200E+02
    -11.179  0.0000E+00  0.7200E+02
    -10.998  0.0000E+00  0.7200E+02
    -10.816  0.0000E+00  0.7200E+02
    -10.635  0.0000E+00  0.7200E+02
    -10.454  0.0000E+00  0.7200E+02
    -10.272  0.0000E+00  0.7200E+02
    -10.091  0.0000E+00  0.7200E+02
     -9.910  0.0000E+00  0.7200E+02
     -9.729  0.0000E+00  0.7200E+02
     -9.547  0.0000E+00  0.7200E+02
     -9.366  0.0000E+00  0.7200E+02
     -9.185  0.0000E+00  0.7200E+02
     -9.003  0.0000E+00  0.7200E+02
     -8.822  0.0000E+00  0.7200E+02
     -8.641  0.0000E+00  0.7200E+02
     -8.459  0.0000E+00  0.7200E+02
     -8.278  0.0000E+00  0.7200E+02
     -8.097  0.0000E+00  0.7200E+02
     -7.915  0.0000E+00  0.7200E+02
     -7.734  0.0000E+00  0.7200E+02
     -7.553  0.0000E+00  0.7200E+02
     -7.372  0.0000E+00  0.7200E+02
     -7.190  0.0000E+00  0.7200E+02
     -7.009  0.0000E+00  0.7200E+02
     -6.828  0.0000E+00  0.7200E+02
     -6.646  0.0000E+00  0.7200E+02
     -6.465  0.0000E+00  0.7200E+02
     -6.284  0.0000E+00  0.7200E+02
     -6.102  0.0000E+00  0.7200E+02
     -5.921  0.0000E+00  0.7200E+02
     -5.740  0.0000E+00  0.7200E+02
     -5.559  0.0000E+00  0.7200E+02
     -5.377  0.0000E+00  0.7200E+02
     -5.196  0.0000E+00  0.7200E+02
     -5.015  0.0000E+00  0.7200E+02
     -4.833  0.0000E+00  0.7200E+02
     -4.652  0.0000E+00  0.7200E+02
     -4.471  0.0000E+00  0.7200E+02
     -4.289  0.0000E+00  0.7200E+02
     -4.108  0.0000E+00  0.7200E+02
     -3.927  0.0000E+00  0.7200E+02
     -3.746  0.0000E+00  0.7200E+02
     -3.564  0.0000E+00  0.7200E+02
     -3.383  0.0000E+00  0.7200E+02
     -3.202  0.0000E+00  0.7200E+02
     -3.020  0.0000E+00  0.7200E+02
     -2.839  0.0000E+00  0.7200E+02
     -2.658  0.0000E+00  0.7200E+02
     -2.476  0.0000E+00  0.7200E+02
     -2.295  0.0000E+00  0.7200E+02
     -2.114  0.0000E+00  0.7200E+02
     -1.933  0.0000E+00  0.7200E+02
     -1.751  0.0000E+00  0.7200E+02
     -1.570  0.0000E+00  0.7200E+02
     -1.389  0.0000E+00  0.7200E+02
     -1.207  0.0000E+00  0.7200E+02
     -1.026  0.0000E+00  0.7200E+02
     -0.845  0.0000E+00  0.7200E+02
     -0.663  0.0000E+00  0.7200E+02
     -0.482  0.0000E+00  0.7200E+02
     -0.301  0.0000E+00  0.7200E+02
     -0.119  0.0000E+00  0.7200E+02
      0.062  0.0000E+00  0.7200E+02
      0.243  0.0000E+00  0.7200E+02
      0.424  0.0000E+00  0.7200E+02
      0.606  0.0000E+00  0.7200E+02
      0.787  0.0000E+00  0.7200E+02
      0.968  0.0000E+00  0.7200E+02
      1.150  0.0000E+00  0.7200E+02
      1.331  0.0000E+00  0.7200E+02
      1.512  0.0000E+00  0.7200E+02
      1.694  0.0000E+00  0.7200E+02
      1.875  0.2812E-06  0.7200E+02
      2.056  0.1021E+00  0.7202E+02
      2.237  0.4505E-01  0.7203E+02
      2.419  0.3273E+00  0.7209E+02
      2.600  0.8492E+00  0.7224E+02
      2.781  0.8562E+00  0.7240E+02
      2.963  0.9090E+00  0.7256E+02
      3.144  0.3832E-02  0.7256E+02
      3.325  0.1140E+01  0.7277E+02
      3.507  0.5691E+00  0.7287E+02
      3.688  0.4364E+01  0.7366E+02
      3.869  0.2403E+01  0.7410E+02
      4.050  0.3936E+01  0.7481E+02
      4.232  0.2414E+01  0.7525E+02
      4.413  0.5007E+01  0.7616E+02
      4.594  0.1296E+02  0.7851E+02
      4.776  0.7898E+01  0.7994E+02
      4.957  0.1250E+02  0.8220E+02
      5.138  0.1114E+02  0.8422E+02
      5.320  0.1343E+02  0.8666E+02
      5.501  0.1296E+02  0.8901E+02
      5.682  0.1023E+02  0.9086E+02
      5.863  0.1429E+02  0.9346E+02
      6.045  0.1227E+02  0.9568E+02
      6.226  0.1217E+02  0.9789E+02
      6.407  0.1796E+02  0.1011E+03
      6.589  0.2183E+02  0.1051E+03
      6.770  0.1675E+02  0.1081E+03
      6.951  0.1374E+02  0.1106E+03
      7.133  0.1466E+02  0.1133E+03
      7.314  0.1892E+02  0.1167E+03
      7.495  0.1460E+02  0.1194E+03
      7.677  0.1479E+02  0.1220E+03
      7.858  0.1260E+02  0.1243E+03
      8.039  0.1525E+02  0.1271E+03
      8.220  0.1771E+02  0.1303E+03
      8.402  0.1058E+02  0.1322E+03
      8.583  0.1178E+02  0.1344E+03
      8.764  0.1172E+02  0.1365E+03
      8.946  0.9313E+01  0.1382E+03
      9.127  0.8444E+01  0.1397E+03
      9.308  0.8695E+01  0.1413E+03
      9.490  0.1436E+02  0.1439E+03
      9.671  0.9552E+01  0.1456E+03
      9.852  0.1209E+02  0.1478E+03
     10.033  0.1472E+02  0.1505E+03
     10.215  0.1048E+02  0.1524E+03
     10.396  0.9557E+01  0.1541E+03
     10.577  0.1432E+02  0.1567E+03
     10.759  0.9213E+01  0.1584E+03
     10.940  0.1255E+02  0.1606E+03
     11.121  0.1591E+02  0.1635E+03
     11.303  0.1552E+02  0.1663E+03
     11.484  0.9482E+01  0.1681E+03
     11.665  0.6493E+01  0.1692E+03
     11.846  0.8744E+01  0.1708E+03
     12.028  0.1491E+02  0.1735E+03
     12.209  0.1355E+02  0.1760E+03
     12.390  0.1314E+02  0.1784E+03
     12.572  0.9172E+01  0.1800E+03
     12.753  0.5028E+01  0.1809E+03
     12.934  0.1089E+02  0.1829E+03
     13.116  0.6712E+01  0.1841E+03
     13.297  0.1336E+02  0.1866E+03
     13.478  0.8257E+01  0.1881E+03
     13.659  0.7488E+01  0.1894E+03
     13.841  0.9353E+01  0.1911E+03
     14.022  0.8945E+01  0.1927E+03
     14.203  0.1307E+02  0.1951E+03
     14.385  0.1498E+02  0.1978E+03
     14.566  0.1033E+02  0.1997E+03
     14.747  0.9619E+01  0.2014E+03
     14.929  0.3555E+01  0.2021E+03
     15.110  0.6560E+01  0.2033E+03
     15.291  0.1558E+01  0.2035E+03
     15.473  0.4189E+01  0.2043E+03
     15.654  0.7696E+01  0.2057E+03
     15.835  0.4477E+01  0.2065E+03
     16.016  0.3529E+01  0.2072E+03
     16.198  0.2801E+01  0.2077E+03
     16.379  0.1769E+01  0.2080E+03
     16.560  0.3588E+01  0.2086E+03
     16.742  0.4219E+01  0.2094E+03
     16.923  0.1401E+01  0.2097E+03
     17.104  0.4254E+01  0.2104E+03
     17.286  0.2292E+01  0.2108E+03
     17.467  0.1409E+01  0.2111E+03
     17.648  0.1804E+01  0.2114E+03
     17.829  0.6284E+01  0.2126E+03
     18.011  0.2485E+01  0.2130E+03
     18.192  0.5630E+01  0.2140E+03
     18.373  0.1280E+01  0.2143E+03
     18.555  0.5271E+01  0.2152E+03
     18.736  0.3387E+01  0.2158E+03
     18.917  0.7258E-01  0.2158E+03
     19.099  0.8487E+00  0.2160E+03
     19.280  0.3606E-03  0.2160E+03
     19.461  0.0000E+00  0.2160E+03
     19.642  0.0000E+00  0.2160E+03
     19.824  0.0000E+00  0.2160E+03
     20.005  0.0000E+00  0.2160E+03
     20.186  0.0000E+00  0.2160E+03
     20.368  0.0000E+00  0.2160E+03
     20.549  0.0000E+00  0.2160E+03
     20.730  0.0000E+00  0.2160E+03
     20.912  0.0000E+00  0.2160E+03
     21.093  0.0000E+00  0.2160E+03
     21.274  0.0000E+00  0.2160E+03
     21.455  0.0000E+00  0.2160E+03
