Hf4Tc8
1.0
     -2.5888366      -4.4855897       0.0000000
     -2.5888366       4.4855897       0.0000000
      0.0000000       0.0000000      -8.6286492
  Hf    Tc  
  4     8   
Direct
      0.6666216       0.3333784       0.5628700
      0.3333784       0.6666216       0.4371300
      0.3333784       0.6666216       0.0628700
      0.6666216       0.3333784       0.9371300
      0.0000000       0.0000000       0.5000000
      0.0000000       0.0000000       0.0000000
      0.1726219       0.3453542       0.7500000
      0.1726720       0.8273280       0.7500000
      0.6546458       0.8273781       0.7500000
      0.8273781       0.6546458       0.2500000
      0.8273280       0.1726720       0.2500000
      0.3453542       0.1726219       0.2500000
