unknown system                          
           1
    -2.588837   -4.485590    0.000000
    -2.588837    4.485590    0.000000
     0.000000    0.000000   -8.628649
   Hf   Tc
     4     8
Direct configuration=     1
   0.66662164  0.33337836  0.56286998
   0.33337836  0.66662164  0.43713002
   0.33337836  0.66662164  0.06286998
   0.66662164  0.33337836  0.93713002
   0.00000000  0.00000000  0.50000000
   0.00000000  0.00000000  0.00000000
   0.17262193  0.34535421  0.75000000
   0.17267199  0.82732801  0.75000000
   0.65464579  0.82737807  0.75000000
   0.82737807  0.65464579  0.25000000
   0.82732801  0.17267199  0.25000000
   0.34535421  0.17262193  0.25000000
