Cd2                                     
   1.00000000000000     
     2.9584744100000000    0.0000000200000000    0.0000000000000000
    -1.4792381800000001    2.5621143800000001    0.0000000000000000
     0.0000000000000000    0.0000000000000000    5.8859279300000003
   Cd
     2
Direct
     0.3333330000000032    0.6666669999999968    0.2500000000000000
     0.6666669999999968    0.3333330000000032    0.7500000000000000
 
  0.00000000E+00  0.00000000E+00  0.00000000E+00
  0.00000000E+00  0.00000000E+00  0.00000000E+00
