   2   2   0   0
  0.2230752E+02  0.2958474E-09  0.2958475E-09  0.5885928E-09  0.5000000E-15
  1.000000000000000E-004
  CAR 
 unknown system                          
     21.09794766     -8.60149651  301      2.46557181      1.00000000
     -8.601  0.0000E+00  0.0000E+00
     -8.502  0.0000E+00  0.0000E+00
     -8.404  0.0000E+00  0.0000E+00
     -8.305  0.0000E+00  0.0000E+00
     -8.206  0.0000E+00  0.0000E+00
     -8.107  0.0000E+00  0.0000E+00
     -8.008  0.0000E+00  0.0000E+00
     -7.909  0.0000E+00  0.0000E+00
     -7.810  0.0000E+00  0.0000E+00
     -7.711  0.0000E+00  0.0000E+00
     -7.612  0.0000E+00  0.0000E+00
     -7.513  0.9932E-14  0.9832E-15
     -7.414  0.3319E-06  0.3286E-07
     -7.315  0.7660E-02  0.7583E-03
     -7.216  0.4909E+00  0.4936E-01
     -7.117  0.2604E+01  0.3072E+00
     -7.018  0.5449E+01  0.8466E+00
     -6.919  0.6644E+01  0.1504E+01
     -6.820  0.9335E+01  0.2429E+01
     -6.721  0.1481E+02  0.3895E+01
     -6.622  0.1313E+02  0.5195E+01
     -6.523  0.1300E+02  0.6482E+01
     -6.424  0.1274E+02  0.7742E+01
     -6.325  0.9275E+01  0.8661E+01
     -6.226  0.9824E+01  0.9633E+01
     -6.127  0.1300E+02  0.1092E+02
     -6.028  0.1836E+02  0.1274E+02
     -5.929  0.1806E+02  0.1453E+02
     -5.830  0.1659E+02  0.1617E+02
     -5.731  0.1723E+02  0.1787E+02
     -5.632  0.7777E+01  0.1864E+02
     -5.533  0.7659E+01  0.1940E+02
     -5.434  0.5285E+01  0.1993E+02
     -5.335  0.1523E+01  0.2008E+02
     -5.236  0.7471E-01  0.2008E+02
     -5.137  0.1084E+00  0.2009E+02
     -5.038  0.1459E+00  0.2011E+02
     -4.939  0.1375E+00  0.2012E+02
     -4.840  0.6060E+00  0.2018E+02
     -4.741  0.2603E+00  0.2021E+02
     -4.642  0.5628E+00  0.2026E+02
     -4.543  0.1983E+00  0.2028E+02
     -4.444  0.5752E-03  0.2028E+02
     -4.345  0.1765E-03  0.2028E+02
     -4.246  0.1362E+00  0.2030E+02
     -4.147  0.3421E+00  0.2033E+02
     -4.048  0.9716E-01  0.2034E+02
     -3.949  0.7936E+00  0.2042E+02
     -3.850  0.2717E+00  0.2045E+02
     -3.751  0.8113E+00  0.2053E+02
     -3.652  0.3602E+00  0.2056E+02
     -3.553  0.1899E+00  0.2058E+02
     -3.454  0.2013E+00  0.2060E+02
     -3.355  0.4829E-01  0.2061E+02
     -3.256  0.4088E+00  0.2065E+02
     -3.157  0.9853E+00  0.2074E+02
     -3.058  0.5239E+00  0.2080E+02
     -2.959  0.3890E-01  0.2080E+02
     -2.860  0.4065E+00  0.2084E+02
     -2.761  0.4508E-01  0.2084E+02
     -2.662  0.3095E+00  0.2087E+02
     -2.563  0.2762E+00  0.2090E+02
     -2.464  0.1776E+00  0.2092E+02
     -2.365  0.3730E+00  0.2096E+02
     -2.266  0.6404E+00  0.2102E+02
     -2.167  0.8532E+00  0.2110E+02
     -2.068  0.1529E+01  0.2126E+02
     -1.969  0.3969E-01  0.2126E+02
     -1.870  0.4376E-02  0.2126E+02
     -1.771  0.3524E+00  0.2130E+02
     -1.672  0.6988E+00  0.2136E+02
     -1.573  0.8086E+00  0.2144E+02
     -1.474  0.1079E+01  0.2155E+02
     -1.375  0.3935E+00  0.2159E+02
     -1.276  0.2964E+00  0.2162E+02
     -1.177  0.2973E-02  0.2162E+02
     -1.078  0.2738E-07  0.2162E+02
     -0.979  0.4960E-05  0.2162E+02
     -0.880  0.2677E-01  0.2162E+02
     -0.781  0.9988E+00  0.2172E+02
     -0.682  0.1102E+01  0.2183E+02
     -0.583  0.9620E+00  0.2193E+02
     -0.484  0.6255E+00  0.2199E+02
     -0.385  0.8466E+00  0.2207E+02
     -0.286  0.6128E+00  0.2213E+02
     -0.187  0.3796E+00  0.2217E+02
     -0.088  0.5519E+00  0.2222E+02
      0.011  0.3285E+00  0.2226E+02
      0.110  0.1267E+01  0.2238E+02
      0.209  0.1086E+01  0.2249E+02
      0.308  0.2127E-01  0.2249E+02
      0.407  0.1608E+00  0.2251E+02
      0.506  0.6676E+00  0.2257E+02
      0.605  0.1074E+01  0.2268E+02
      0.704  0.4634E+00  0.2273E+02
      0.803  0.1009E+01  0.2283E+02
      0.902  0.3751E+00  0.2286E+02
      1.001  0.4628E-01  0.2287E+02
      1.100  0.9189E+00  0.2296E+02
      1.199  0.4951E+00  0.2301E+02
      1.298  0.3543E+00  0.2304E+02
      1.397  0.1011E+01  0.2314E+02
      1.496  0.7028E+00  0.2321E+02
      1.595  0.3675E+00  0.2325E+02
      1.694  0.2903E+00  0.2328E+02
      1.793  0.9628E+00  0.2337E+02
      1.892  0.5539E+00  0.2343E+02
      1.991  0.9317E+00  0.2352E+02
      2.090  0.8129E+00  0.2360E+02
      2.189  0.4324E-01  0.2360E+02
      2.288  0.1088E+01  0.2371E+02
      2.387  0.2023E+01  0.2391E+02
      2.486  0.1111E+01  0.2402E+02
      2.585  0.4921E+00  0.2407E+02
      2.684  0.1364E+00  0.2409E+02
      2.783  0.3791E+00  0.2412E+02
      2.882  0.9349E-01  0.2413E+02
      2.981  0.6227E-02  0.2413E+02
      3.080  0.2014E+00  0.2415E+02
      3.179  0.4018E+00  0.2419E+02
      3.278  0.4782E+00  0.2424E+02
      3.377  0.9123E+00  0.2433E+02
      3.476  0.6780E+00  0.2440E+02
      3.575  0.1221E+01  0.2452E+02
      3.674  0.1395E+01  0.2466E+02
      3.773  0.7629E+00  0.2473E+02
      3.872  0.1960E+00  0.2475E+02
      3.971  0.6222E+00  0.2481E+02
      4.070  0.8212E+00  0.2489E+02
      4.169  0.7462E+00  0.2497E+02
      4.268  0.4193E+00  0.2501E+02
      4.367  0.9453E+00  0.2510E+02
      4.466  0.1075E+01  0.2521E+02
      4.565  0.9753E+00  0.2531E+02
      4.664  0.3699E+00  0.2534E+02
      4.763  0.1414E+01  0.2548E+02
      4.862  0.1492E+01  0.2563E+02
      4.961  0.1053E+01  0.2573E+02
      5.060  0.1157E+01  0.2585E+02
      5.159  0.6322E+00  0.2591E+02
      5.258  0.8212E+00  0.2599E+02
      5.357  0.3690E+00  0.2603E+02
      5.456  0.1671E+01  0.2619E+02
      5.555  0.1441E+01  0.2634E+02
      5.654  0.7786E+00  0.2641E+02
      5.753  0.4538E+00  0.2646E+02
      5.852  0.4461E+00  0.2650E+02
      5.951  0.8665E+00  0.2659E+02
      6.050  0.1467E+01  0.2673E+02
      6.149  0.3295E+00  0.2677E+02
      6.248  0.5210E-01  0.2677E+02
      6.347  0.1144E+01  0.2689E+02
      6.446  0.1330E+01  0.2702E+02
      6.545  0.8285E+00  0.2710E+02
      6.644  0.2261E+00  0.2712E+02
      6.743  0.5360E+00  0.2717E+02
      6.842  0.1729E-01  0.2718E+02
      6.941  0.8095E+00  0.2726E+02
      7.040  0.1733E+01  0.2743E+02
      7.139  0.1346E+01  0.2756E+02
      7.238  0.1808E+01  0.2774E+02
      7.337  0.1350E+01  0.2787E+02
      7.436  0.8341E-01  0.2788E+02
      7.535  0.4239E+00  0.2792E+02
      7.634  0.6332E+00  0.2799E+02
      7.733  0.4503E+00  0.2803E+02
      7.832  0.5633E+00  0.2809E+02
      7.931  0.2440E+01  0.2833E+02
      8.030  0.2025E+01  0.2853E+02
      8.129  0.2940E+00  0.2856E+02
      8.228  0.9559E+00  0.2865E+02
      8.327  0.2940E+00  0.2868E+02
      8.426  0.7162E+00  0.2875E+02
      8.525  0.1414E+01  0.2889E+02
      8.624  0.1584E+01  0.2905E+02
      8.723  0.1542E+01  0.2920E+02
      8.822  0.1688E+01  0.2937E+02
      8.921  0.1093E+00  0.2938E+02
      9.020  0.3665E+00  0.2942E+02
      9.119  0.9146E+00  0.2951E+02
      9.218  0.1058E+01  0.2961E+02
      9.317  0.1489E+01  0.2976E+02
      9.416  0.1208E+01  0.2988E+02
      9.515  0.8825E+00  0.2997E+02
      9.614  0.1063E+01  0.3007E+02
      9.713  0.3238E+00  0.3010E+02
      9.812  0.3814E+00  0.3014E+02
      9.911  0.4954E+00  0.3019E+02
     10.010  0.1268E+01  0.3032E+02
     10.109  0.3335E+01  0.3065E+02
     10.208  0.1763E+01  0.3082E+02
     10.307  0.8946E+00  0.3091E+02
     10.406  0.3908E+00  0.3095E+02
     10.505  0.1921E+01  0.3114E+02
     10.604  0.1192E+01  0.3126E+02
     10.703  0.1679E+01  0.3142E+02
     10.802  0.1376E+01  0.3156E+02
     10.901  0.8594E+00  0.3164E+02
     11.000  0.1905E+01  0.3183E+02
     11.099  0.6630E+00  0.3190E+02
     11.198  0.1483E+01  0.3204E+02
     11.297  0.2245E+01  0.3227E+02
     11.396  0.4694E+00  0.3231E+02
     11.495  0.4860E+00  0.3236E+02
     11.594  0.1300E+01  0.3249E+02
     11.693  0.2134E+01  0.3270E+02
     11.792  0.2013E+01  0.3290E+02
     11.891  0.7457E+00  0.3297E+02
     11.990  0.4678E+00  0.3302E+02
     12.089  0.1681E+00  0.3304E+02
     12.188  0.1259E+01  0.3316E+02
     12.287  0.1854E+01  0.3335E+02
     12.386  0.1553E+01  0.3350E+02
     12.485  0.2430E+00  0.3352E+02
     12.584  0.7617E+00  0.3360E+02
     12.683  0.5307E+00  0.3365E+02
     12.782  0.5133E+00  0.3370E+02
     12.881  0.8702E+00  0.3379E+02
     12.980  0.7497E+00  0.3386E+02
     13.079  0.4123E+00  0.3390E+02
     13.178  0.6534E+00  0.3397E+02
     13.277  0.1424E+01  0.3411E+02
     13.376  0.1777E+01  0.3429E+02
     13.475  0.8614E+00  0.3437E+02
     13.574  0.5100E+00  0.3442E+02
     13.673  0.1224E+01  0.3454E+02
     13.772  0.9886E+00  0.3464E+02
     13.871  0.1204E+01  0.3476E+02
     13.970  0.1606E+01  0.3492E+02
     14.069  0.5412E+00  0.3497E+02
     14.168  0.4622E-01  0.3498E+02
     14.267  0.5463E+00  0.3503E+02
     14.366  0.1073E+01  0.3514E+02
     14.465  0.1627E+01  0.3530E+02
     14.564  0.8521E+00  0.3538E+02
     14.663  0.1487E+01  0.3553E+02
     14.762  0.1595E+01  0.3569E+02
     14.861  0.1799E+01  0.3587E+02
     14.960  0.1241E+01  0.3599E+02
     15.059  0.1137E+01  0.3610E+02
     15.158  0.6018E+00  0.3616E+02
     15.257  0.9327E+00  0.3625E+02
     15.356  0.1223E+01  0.3637E+02
     15.455  0.1269E+01  0.3650E+02
     15.554  0.1466E+01  0.3664E+02
     15.653  0.1620E+01  0.3680E+02
     15.752  0.2852E+00  0.3683E+02
     15.851  0.9239E+00  0.3692E+02
     15.950  0.1365E+01  0.3706E+02
     16.049  0.1492E+01  0.3721E+02
     16.148  0.1159E+01  0.3732E+02
     16.247  0.2012E+01  0.3752E+02
     16.346  0.2659E+01  0.3778E+02
     16.445  0.4870E+00  0.3783E+02
     16.544  0.6251E+00  0.3789E+02
     16.643  0.4830E+00  0.3794E+02
     16.742  0.1562E+01  0.3810E+02
     16.841  0.1284E+01  0.3822E+02
     16.940  0.3249E+00  0.3826E+02
     17.039  0.8663E+00  0.3834E+02
     17.138  0.1164E+01  0.3846E+02
     17.237  0.1187E+01  0.3858E+02
     17.336  0.3646E+00  0.3861E+02
     17.435  0.4235E+00  0.3865E+02
     17.534  0.7329E+00  0.3873E+02
     17.633  0.1133E+01  0.3884E+02
     17.732  0.1972E+01  0.3903E+02
     17.831  0.1119E+01  0.3914E+02
     17.930  0.6183E+00  0.3920E+02
     18.029  0.3226E+00  0.3924E+02
     18.128  0.8236E+00  0.3932E+02
     18.227  0.8376E+00  0.3940E+02
     18.326  0.1193E+01  0.3952E+02
     18.425  0.4313E+00  0.3956E+02
     18.524  0.5772E-01  0.3957E+02
     18.623  0.6986E-02  0.3957E+02
     18.722  0.5340E-01  0.3957E+02
     18.821  0.1414E+00  0.3959E+02
     18.920  0.2989E+00  0.3962E+02
     19.019  0.7670E+00  0.3969E+02
     19.118  0.2928E+00  0.3972E+02
     19.217  0.9403E+00  0.3982E+02
     19.316  0.6056E+00  0.3988E+02
     19.415  0.3910E+00  0.3991E+02
     19.514  0.1887E-01  0.3992E+02
     19.613  0.7920E-01  0.3992E+02
     19.712  0.3660E+00  0.3996E+02
     19.811  0.3958E+00  0.4000E+02
     19.910  0.7399E-02  0.4000E+02
     20.009  0.1929E-06  0.4000E+02
     20.108  0.4019E-14  0.4000E+02
     20.207  0.0000E+00  0.4000E+02
     20.306  0.0000E+00  0.4000E+02
     20.405  0.0000E+00  0.4000E+02
     20.504  0.0000E+00  0.4000E+02
     20.603  0.0000E+00  0.4000E+02
     20.702  0.0000E+00  0.4000E+02
     20.801  0.0000E+00  0.4000E+02
     20.900  0.0000E+00  0.4000E+02
     20.999  0.0000E+00  0.4000E+02
     21.098  0.0000E+00  0.4000E+02
