       N       E                     dE             d eps       ncg     rms          rms(c)
DAV:   1     0.191934745185E+03    0.19193E+03   -0.13996E+04 20016   0.134E+03
DAV:   2     0.303421549631E+01   -0.18890E+03   -0.18079E+03 21020   0.338E+02
DAV:   3    -0.155593323934E+01   -0.45901E+01   -0.45801E+01 23140   0.595E+01
DAV:   4    -0.156484994444E+01   -0.89167E-02   -0.89161E-02 21508   0.252E+00
DAV:   5    -0.156487864210E+01   -0.28698E-04   -0.28697E-04 22592   0.135E-01    0.426E+00
DAV:   6    -0.147003052360E+01    0.94848E-01   -0.22232E-01 22428   0.550E+00    0.340E+00
DAV:   7    -0.146567172365E+01    0.43588E-02   -0.25445E-02 22300   0.146E+00    0.163E+00
DAV:   8    -0.146609828934E+01   -0.42657E-03   -0.37306E-03 21388   0.689E-01    0.890E-02
DAV:   9    -0.146614517705E+01   -0.46888E-04   -0.36138E-05 22628   0.606E-02    0.392E-02
DAV:  10    -0.146618921603E+01   -0.44039E-04   -0.39866E-05 21540   0.578E-02    0.454E-03
DAV:  11    -0.146618914608E+01    0.69944E-07   -0.59051E-08 13316   0.204E-03
   1 F= -.14661891E+01 E0= -.14654718E+01  d E =-.143472E-02
