       N       E                     dE             d eps       ncg     rms          rms(c)
DAV:   1     0.301321599177E+03    0.30132E+03   -0.17742E+04  9000   0.120E+03
DAV:   2     0.450837524463E+01   -0.29681E+03   -0.28071E+03 11268   0.274E+02
DAV:   3    -0.263397149975E+02   -0.30848E+02   -0.30599E+02 13152   0.792E+01
DAV:   4    -0.296375632007E+02   -0.32978E+01   -0.32683E+01 15184   0.201E+01
DAV:   5    -0.297713330404E+02   -0.13377E+00   -0.13374E+00 12656   0.377E+00    0.485E+00
DAV:   6    -0.295015801859E+02    0.26975E+00   -0.44618E-01 11176   0.261E+00    0.349E+00
DAV:   7    -0.295068382475E+02   -0.52581E-02   -0.20780E-01 12540   0.171E+00    0.186E+00
DAV:   8    -0.295237478894E+02   -0.16910E-01   -0.59392E-02 12656   0.956E-01    0.478E-01
DAV:   9    -0.295229520209E+02    0.79587E-03   -0.14488E-03 12084   0.182E-01    0.126E-01
DAV:  10    -0.295234221160E+02   -0.47010E-03   -0.10372E-03 10756   0.147E-01    0.200E-01
DAV:  11    -0.295233767447E+02    0.45371E-04   -0.16629E-04 11076   0.684E-02    0.124E-02
DAV:  12    -0.295233774767E+02   -0.73200E-06   -0.90875E-06 12724   0.142E-02
   1 F= -.29523377E+02 E0= -.29523377E+02  d E =-.283426E-19
