unknown system                          
           1
     5.084245    0.000000    0.000000
    -0.000000    5.084245    0.000000
     0.000000    0.000000    5.084245
   Li   Cl
     4     4
Direct configuration=     1
   0.00000000  0.00000000  0.00000000
   0.00000000  0.50000000  0.50000000
   0.50000000  0.00000000  0.50000000
   0.50000000  0.50000000  0.00000000
   0.50000000  0.00000000  0.00000000
   0.50000000  0.50000000  0.50000000
   0.00000000  0.00000000  0.50000000
   0.00000000  0.50000000  0.00000000
