   1   1   0   0
  0.1431038E+02  0.2725140E-09  0.2725139E-09  0.2725140E-09  0.5000000E-15
  1.000000000000000E-004
  CAR 
 unknown system                          
     44.62491768     -2.95056407  301     10.24140386      1.00000000
     -2.951  0.0000E+00  0.0000E+00
     -2.792  0.0000E+00  0.0000E+00
     -2.633  0.0000E+00  0.0000E+00
     -2.475  0.0000E+00  0.0000E+00
     -2.316  0.0000E+00  0.0000E+00
     -2.158  0.0000E+00  0.0000E+00
     -1.999  0.0000E+00  0.0000E+00
     -1.840  0.0000E+00  0.0000E+00
     -1.682  0.0000E+00  0.0000E+00
     -1.523  0.0000E+00  0.0000E+00
     -1.365  0.0000E+00  0.0000E+00
     -1.206  0.0000E+00  0.0000E+00
     -1.048  0.7803E-15  0.1237E-15
     -0.889  0.1574E-04  0.2495E-05
     -0.730  0.6907E-02  0.1098E-02
     -0.572  0.7993E-03  0.1225E-02
     -0.413  0.6551E-01  0.1161E-01
     -0.255  0.3624E-01  0.1736E-01
     -0.096  0.3094E-03  0.1741E-01
      0.063  0.8403E-01  0.3073E-01
      0.221  0.1160E-01  0.3257E-01
      0.380  0.2146E+00  0.6661E-01
      0.538  0.1058E-01  0.6829E-01
      0.697  0.4881E-02  0.6906E-01
      0.855  0.3960E-01  0.7534E-01
      1.014  0.1811E+00  0.1041E+00
      1.173  0.1683E+00  0.1308E+00
      1.331  0.1318E+00  0.1517E+00
      1.490  0.1017E+00  0.1678E+00
      1.648  0.1517E+00  0.1918E+00
      1.807  0.2372E-01  0.1956E+00
      1.966  0.1331E+00  0.2167E+00
      2.124  0.4019E+00  0.2804E+00
      2.283  0.4365E+00  0.3497E+00
      2.441  0.2559E+00  0.3902E+00
      2.600  0.8857E+00  0.5307E+00
      2.758  0.2712E+00  0.5737E+00
      2.917  0.9432E+00  0.7233E+00
      3.076  0.1089E+01  0.8961E+00
      3.234  0.1621E+01  0.1153E+01
      3.393  0.6968E+00  0.1264E+01
      3.551  0.1222E+01  0.1457E+01
      3.710  0.1258E+01  0.1657E+01
      3.869  0.1419E+01  0.1882E+01
      4.027  0.9431E+00  0.2031E+01
      4.186  0.1075E+01  0.2202E+01
      4.344  0.8981E+00  0.2344E+01
      4.503  0.7326E+00  0.2461E+01
      4.662  0.1180E+01  0.2648E+01
      4.820  0.8314E+00  0.2780E+01
      4.979  0.8829E+00  0.2920E+01
      5.137  0.1373E+01  0.3137E+01
      5.296  0.8761E+00  0.3276E+01
      5.454  0.1048E+01  0.3443E+01
      5.613  0.1685E+01  0.3710E+01
      5.772  0.1410E+01  0.3933E+01
      5.930  0.6623E+00  0.4039E+01
      6.089  0.1319E+01  0.4248E+01
      6.247  0.1915E+01  0.4551E+01
      6.406  0.7365E+00  0.4668E+01
      6.565  0.1811E+01  0.4955E+01
      6.723  0.2134E+01  0.5294E+01
      6.882  0.1638E+01  0.5554E+01
      7.040  0.1985E+01  0.5868E+01
      7.199  0.1289E+01  0.6073E+01
      7.357  0.1236E+01  0.6269E+01
      7.516  0.5920E+00  0.6363E+01
      7.675  0.6479E+00  0.6465E+01
      7.833  0.8743E+00  0.6604E+01
      7.992  0.1235E+01  0.6800E+01
      8.150  0.7675E+00  0.6922E+01
      8.309  0.9085E+00  0.7066E+01
      8.468  0.1904E+01  0.7368E+01
      8.626  0.1699E+01  0.7637E+01
      8.785  0.1014E+01  0.7798E+01
      8.943  0.7808E+00  0.7922E+01
      9.102  0.3412E+00  0.7976E+01
      9.260  0.6912E+00  0.8086E+01
      9.419  0.7319E+00  0.8202E+01
      9.578  0.1363E+01  0.8418E+01
      9.736  0.1683E+01  0.8685E+01
      9.895  0.1400E+01  0.8907E+01
     10.053  0.1936E+00  0.8938E+01
     10.212  0.2607E+00  0.8979E+01
     10.371  0.7020E+00  0.9090E+01
     10.529  0.1515E+01  0.9331E+01
     10.688  0.1413E+01  0.9555E+01
     10.846  0.1109E+01  0.9730E+01
     11.005  0.1438E+01  0.9959E+01
     11.163  0.1615E+01  0.1021E+02
     11.322  0.7519E+00  0.1033E+02
     11.481  0.1509E+01  0.1057E+02
     11.639  0.9237E+00  0.1072E+02
     11.798  0.3880E+00  0.1078E+02
     11.956  0.1992E-01  0.1078E+02
     12.115  0.2606E+00  0.1083E+02
     12.274  0.9168E-01  0.1084E+02
     12.432  0.2178E-06  0.1084E+02
     12.591  0.2537E-02  0.1084E+02
     12.749  0.3421E+00  0.1089E+02
     12.908  0.1785E+00  0.1092E+02
     13.067  0.5305E+00  0.1101E+02
     13.225  0.7792E+00  0.1113E+02
     13.384  0.4996E+00  0.1121E+02
     13.542  0.3348E-01  0.1122E+02
     13.701  0.1703E+00  0.1124E+02
     13.859  0.5955E-02  0.1124E+02
     14.018  0.2941E+00  0.1129E+02
     14.177  0.3222E+00  0.1134E+02
     14.335  0.2565E+00  0.1138E+02
     14.494  0.4365E+00  0.1145E+02
     14.652  0.2738E-02  0.1145E+02
     14.811  0.3293E+00  0.1150E+02
     14.970  0.2099E-01  0.1151E+02
     15.128  0.3987E+00  0.1157E+02
     15.287  0.2134E+00  0.1160E+02
     15.445  0.1786E+00  0.1163E+02
     15.604  0.3848E+00  0.1169E+02
     15.762  0.7187E+00  0.1181E+02
     15.921  0.3194E-01  0.1181E+02
     16.080  0.5218E-03  0.1181E+02
     16.238  0.1674E+00  0.1184E+02
     16.397  0.7241E-02  0.1184E+02
     16.555  0.3889E-07  0.1184E+02
     16.714  0.5670E-01  0.1185E+02
     16.873  0.4254E+00  0.1192E+02
     17.031  0.7663E+00  0.1204E+02
     17.190  0.7550E+00  0.1216E+02
     17.348  0.1114E+00  0.1218E+02
     17.507  0.2784E+00  0.1222E+02
     17.665  0.7101E-01  0.1223E+02
     17.824  0.4512E+00  0.1230E+02
     17.983  0.2590E+00  0.1234E+02
     18.141  0.1692E+00  0.1237E+02
     18.300  0.3674E+00  0.1243E+02
     18.458  0.5649E+00  0.1252E+02
     18.617  0.2716E+00  0.1256E+02
     18.776  0.8312E+00  0.1269E+02
     18.934  0.9492E-01  0.1271E+02
     19.093  0.1879E-03  0.1271E+02
     19.251  0.1262E+00  0.1273E+02
     19.410  0.1769E+00  0.1276E+02
     19.568  0.4786E+00  0.1283E+02
     19.727  0.4458E+00  0.1290E+02
     19.886  0.2694E+00  0.1295E+02
     20.044  0.2945E+00  0.1299E+02
     20.203  0.3852E+00  0.1305E+02
     20.361  0.9251E-01  0.1307E+02
     20.520  0.1233E+00  0.1309E+02
     20.679  0.6857E+00  0.1320E+02
     20.837  0.1338E+00  0.1322E+02
     20.996  0.2974E+00  0.1326E+02
     21.154  0.4638E+00  0.1334E+02
     21.313  0.4065E+00  0.1340E+02
     21.472  0.1659E+00  0.1343E+02
     21.630  0.1331E+00  0.1345E+02
     21.789  0.8468E+00  0.1358E+02
     21.947  0.1536E+00  0.1361E+02
     22.106  0.3882E+00  0.1367E+02
     22.264  0.1903E+00  0.1370E+02
     22.423  0.5790E+00  0.1379E+02
     22.582  0.5022E+00  0.1387E+02
     22.740  0.4696E+00  0.1395E+02
     22.899  0.3977E+00  0.1401E+02
     23.057  0.1942E+00  0.1404E+02
     23.216  0.2855E+00  0.1409E+02
     23.375  0.4060E+00  0.1415E+02
     23.533  0.4389E+00  0.1422E+02
     23.692  0.8017E+00  0.1435E+02
     23.850  0.4692E+00  0.1442E+02
     24.009  0.5485E+00  0.1451E+02
     24.167  0.7284E+00  0.1462E+02
     24.326  0.2022E+00  0.1466E+02
     24.485  0.4627E+00  0.1473E+02
     24.643  0.6125E+00  0.1483E+02
     24.802  0.3295E+00  0.1488E+02
     24.960  0.6984E+00  0.1499E+02
     25.119  0.8526E+00  0.1512E+02
     25.278  0.9323E+00  0.1527E+02
     25.436  0.5312E+00  0.1536E+02
     25.595  0.9951E+00  0.1551E+02
     25.753  0.1088E+01  0.1569E+02
     25.912  0.6102E+00  0.1578E+02
     26.070  0.7983E-01  0.1580E+02
     26.229  0.3819E+00  0.1586E+02
     26.388  0.7184E+00  0.1597E+02
     26.546  0.2032E+01  0.1629E+02
     26.705  0.8983E+00  0.1644E+02
     26.863  0.3060E+00  0.1648E+02
     27.022  0.5561E+00  0.1657E+02
     27.181  0.4143E+00  0.1664E+02
     27.339  0.2779E+00  0.1668E+02
     27.498  0.7997E+00  0.1681E+02
     27.656  0.9758E+00  0.1696E+02
     27.815  0.5970E+00  0.1706E+02
     27.973  0.6867E+00  0.1717E+02
     28.132  0.3775E+00  0.1723E+02
     28.291  0.3002E+00  0.1727E+02
     28.449  0.7712E+00  0.1740E+02
     28.608  0.3258E+00  0.1745E+02
     28.766  0.2058E+00  0.1748E+02
     28.925  0.2242E+00  0.1752E+02
     29.084  0.5159E+00  0.1760E+02
     29.242  0.1794E+00  0.1763E+02
     29.401  0.9838E-05  0.1763E+02
     29.559  0.3153E+00  0.1768E+02
     29.718  0.6034E+00  0.1777E+02
     29.877  0.8724E+00  0.1791E+02
     30.035  0.5669E+00  0.1800E+02
     30.194  0.3579E+00  0.1806E+02
     30.352  0.7312E+00  0.1817E+02
     30.511  0.4496E+00  0.1825E+02
     30.669  0.6775E+00  0.1835E+02
     30.828  0.9838E+00  0.1851E+02
     30.987  0.1003E+01  0.1867E+02
     31.145  0.7166E+00  0.1878E+02
     31.304  0.5760E+00  0.1887E+02
     31.462  0.8685E+00  0.1901E+02
     31.621  0.5460E+00  0.1910E+02
     31.780  0.3160E+00  0.1915E+02
     31.938  0.4828E+00  0.1922E+02
     32.097  0.5967E+00  0.1932E+02
     32.255  0.1479E+01  0.1955E+02
     32.414  0.3944E+00  0.1962E+02
     32.572  0.4886E+00  0.1969E+02
     32.731  0.2501E+00  0.1973E+02
     32.890  0.7297E+00  0.1985E+02
     33.048  0.9946E-01  0.1986E+02
     33.207  0.2446E+00  0.1990E+02
     33.365  0.1185E+00  0.1992E+02
     33.524  0.2663E+00  0.1996E+02
     33.683  0.1590E+00  0.1999E+02
     33.841  0.7047E+00  0.2010E+02
     34.000  0.1080E+00  0.2012E+02
     34.158  0.2867E+00  0.2016E+02
     34.317  0.4954E+00  0.2024E+02
     34.475  0.1959E+00  0.2027E+02
     34.634  0.4054E-04  0.2027E+02
     34.793  0.4527E+00  0.2034E+02
     34.951  0.1102E+01  0.2052E+02
     35.110  0.4030E+00  0.2058E+02
     35.268  0.3014E+00  0.2063E+02
     35.427  0.1117E+01  0.2081E+02
     35.586  0.1002E+01  0.2097E+02
     35.744  0.4730E+00  0.2104E+02
     35.903  0.3144E+00  0.2109E+02
     36.061  0.9492E-02  0.2109E+02
     36.220  0.7226E+00  0.2121E+02
     36.379  0.5389E+00  0.2129E+02
     36.537  0.8996E+00  0.2144E+02
     36.696  0.3999E+00  0.2150E+02
     36.854  0.2921E+00  0.2155E+02
     37.013  0.1570E+00  0.2157E+02
     37.171  0.7822E+00  0.2170E+02
     37.330  0.7340E+00  0.2181E+02
     37.489  0.3077E+00  0.2186E+02
     37.647  0.4428E+00  0.2193E+02
     37.806  0.5101E+00  0.2201E+02
     37.964  0.1756E+00  0.2204E+02
     38.123  0.4356E+00  0.2211E+02
     38.282  0.1120E+01  0.2229E+02
     38.440  0.1999E+00  0.2232E+02
     38.599  0.5820E+00  0.2241E+02
     38.757  0.1038E+01  0.2257E+02
     38.916  0.1047E+01  0.2274E+02
     39.074  0.8835E+00  0.2288E+02
     39.233  0.9686E+00  0.2303E+02
     39.392  0.6276E+00  0.2313E+02
     39.550  0.8389E+00  0.2327E+02
     39.709  0.8483E+00  0.2340E+02
     39.867  0.1235E+01  0.2360E+02
     40.026  0.3276E+00  0.2365E+02
     40.185  0.1117E+01  0.2383E+02
     40.343  0.8332E-01  0.2384E+02
     40.502  0.1158E+00  0.2386E+02
     40.660  0.4214E-01  0.2386E+02
     40.819  0.1933E+00  0.2390E+02
     40.977  0.1275E+00  0.2392E+02
     41.136  0.9592E-02  0.2392E+02
     41.295  0.3373E+00  0.2397E+02
     41.453  0.1764E+00  0.2400E+02
     41.612  0.2479E-02  0.2400E+02
     41.770  0.2114E-11  0.2400E+02
     41.929  0.0000E+00  0.2400E+02
     42.088  0.0000E+00  0.2400E+02
     42.246  0.3490E-11  0.2400E+02
     42.405  0.3754E-03  0.2400E+02
     42.563  0.6907E-02  0.2400E+02
     42.722  0.1574E-04  0.2400E+02
     42.880  0.0000E+00  0.2400E+02
     43.039  0.0000E+00  0.2400E+02
     43.198  0.0000E+00  0.2400E+02
     43.356  0.0000E+00  0.2400E+02
     43.515  0.0000E+00  0.2400E+02
     43.673  0.0000E+00  0.2400E+02
     43.832  0.0000E+00  0.2400E+02
     43.991  0.0000E+00  0.2400E+02
     44.149  0.0000E+00  0.2400E+02
     44.308  0.0000E+00  0.2400E+02
     44.466  0.0000E+00  0.2400E+02
     44.625  0.0000E+00  0.2400E+02
