       N       E                     dE             d eps       ncg     rms          rms(c)
DAV:   1     0.588151702837E+03    0.58815E+03   -0.50211E+04  9216   0.135E+03
DAV:   2    -0.581046175622E+02   -0.64626E+03   -0.60780E+03 11568   0.287E+02
DAV:   3    -0.111462186660E+03   -0.53358E+02   -0.52129E+02 11056   0.844E+01
DAV:   4    -0.112437074794E+03   -0.97489E+00   -0.96872E+00 11144   0.120E+01
DAV:   5    -0.112463413506E+03   -0.26339E-01   -0.26321E-01 11176   0.175E+00    0.245E+01
DAV:   6    -0.107997219551E+03    0.44662E+01   -0.12853E+01 11536   0.214E+01    0.166E+01
DAV:   7    -0.107574042939E+03    0.42318E+00   -0.47113E+00 12112   0.136E+01    0.101E+01
DAV:   8    -0.106745154460E+03    0.82889E+00   -0.82941E-01 11232   0.656E+00    0.420E+00
DAV:   9    -0.106737308738E+03    0.78457E-02   -0.51741E-01 11696   0.390E+00    0.183E+00
DAV:  10    -0.106700294572E+03    0.37014E-01   -0.94311E-02 11488   0.206E+00    0.914E-01
DAV:  11    -0.106697786691E+03    0.25079E-02   -0.27239E-02 11032   0.792E-01    0.360E-01
DAV:  12    -0.106697401852E+03    0.38484E-03   -0.60855E-03 10592   0.381E-01    0.134E-01
DAV:  13    -0.106697494853E+03   -0.93000E-04   -0.79223E-04 10912   0.133E-01    0.728E-02
DAV:  14    -0.106697587177E+03   -0.92325E-04   -0.12983E-04 10912   0.521E-02    0.347E-02
DAV:  15    -0.106697604791E+03   -0.17614E-04   -0.33237E-05 10336   0.294E-02    0.100E-02
DAV:  16    -0.106697610496E+03   -0.57048E-05   -0.11246E-05 11088   0.139E-02    0.538E-03
DAV:  17    -0.106697611041E+03   -0.54568E-06   -0.62987E-07  6384   0.578E-03
   1 F= -.10669761E+03 E0= -.10669761E+03  d E =-.445333E-07
