P6 N6 O6
1.0
   6.4481310000000001    0.0000000000000000    0.0000000000000000
   2.4810800000000000    6.4401650000000004    0.0000000000000000
   1.7403070000000000    0.9191950000000000    6.6291979999999997
P N O
6 6 6
direct
   0.0262740000000000    0.9067530000000000    0.2796710000000000 P
   0.8040720000000000    0.1909110000000000    0.4276480000000000 P
   0.9968190000000000    0.3937690000000000    0.2358340000000000 P
   0.0031810000000000    0.6062310000000000    0.7641660000000000 P
   0.1959280000000000    0.8090889999999999    0.5723520000000000 P
   0.9737260000000000    0.0932470000000000    0.7203290000000000 P
   0.1841770000000000    0.3976920000000000    0.6627740000000000 N
   0.4600310000000000    0.6396650000000000    0.8092870000000000 N
   0.7592700000000000    0.8147990000000001    0.8125490000000000 N
   0.2407300000000000    0.1852010000000000    0.1874510000000000 N
   0.5399690000000000    0.3603350000000000    0.1907130000000000 N
   0.8158230000000000    0.6023080000000000    0.3372260000000000 N
   0.4453910000000000    0.1553550000000000    0.1144880000000000 O
   0.1933120000000000    0.1984600000000000    0.6566780000000000 O
   0.3664770000000000    0.4832640000000000    0.2488730000000000 O
   0.6335229999999999    0.5167360000000000    0.7511270000000000 O
   0.8066880000000000    0.8015400000000000    0.3433220000000000 O
   0.5546090000000000    0.8446450000000000    0.8855120000000000 O
