P6N6O6
1.0
      6.4481310       0.0000000       0.0000000
      2.4810800       6.4401650       0.0000000
      1.7403070       0.9191950       6.6291980
  P     N     O   
  6     6     6   
Direct
      0.0262740       0.9067530       0.2796710
      0.8040720       0.1909110       0.4276480
      0.9968190       0.3937690       0.2358340
      0.0031810       0.6062310       0.7641660
      0.1959280       0.8090890       0.5723520
      0.9737260       0.0932470       0.7203290
      0.1841770       0.3976920       0.6627740
      0.4600310       0.6396650       0.8092870
      0.7592700       0.8147990       0.8125490
      0.2407300       0.1852010       0.1874510
      0.5399690       0.3603350       0.1907130
      0.8158230       0.6023080       0.3372260
      0.4453910       0.1553550       0.1144880
      0.1933120       0.1984600       0.6566780
      0.3664770       0.4832640       0.2488730
      0.6335230       0.5167360       0.7511270
      0.8066880       0.8015400       0.3433220
      0.5546090       0.8446450       0.8855120
