unknown system                          
           1
     6.448131    0.000000    0.000000
     2.481080    6.440165    0.000000
     1.740307    0.919195    6.629198
   P    N    O 
     6     6     6
Direct configuration=     1
   0.02627400  0.90675300  0.27967100
   0.80407200  0.19091100  0.42764800
   0.99681900  0.39376900  0.23583400
   0.00318100  0.60623100  0.76416600
   0.19592800  0.80908900  0.57235200
   0.97372600  0.09324700  0.72032900
   0.18417700  0.39769200  0.66277400
   0.46003100  0.63966500  0.80928700
   0.75927000  0.81479900  0.81254900
   0.24073000  0.18520100  0.18745100
   0.53996900  0.36033500  0.19071300
   0.81582300  0.60230800  0.33722600
   0.44539100  0.15535500  0.11448800
   0.19331200  0.19846000  0.65667800
   0.36647700  0.48326400  0.24887300
   0.63352300  0.51673600  0.75112700
   0.80668800  0.80154000  0.34332200
   0.55460900  0.84464500  0.88551200
