   2   2   0   0
  0.4311619E+02  0.4959012E-09  0.4959011E-09  0.4959012E-09  0.5000000E-15
  1.000000000000000E-004
  CAR 
 unknown system                          
      9.18748913    -21.95128172  301     -1.28940981      1.00000000
    -21.951  0.0000E+00  0.0000E+00
    -21.847  0.0000E+00  0.0000E+00
    -21.744  0.0000E+00  0.0000E+00
    -21.640  0.0000E+00  0.0000E+00
    -21.536  0.0000E+00  0.0000E+00
    -21.432  0.0000E+00  0.0000E+00
    -21.329  0.0000E+00  0.0000E+00
    -21.225  0.0000E+00  0.0000E+00
    -21.121  0.0000E+00  0.0000E+00
    -21.017  0.0000E+00  0.0000E+00
    -20.913  0.0000E+00  0.0000E+00
    -20.810  0.1297E-14  0.1347E-15
    -20.706  0.4719E-06  0.4898E-07
    -20.602  0.7371E-01  0.7650E-02
    -20.498  0.1075E+02  0.1124E+01
    -20.394  0.8417E+01  0.1998E+01
    -20.291  0.2375E-01  0.2000E+01
    -20.187  0.2986E-07  0.2000E+01
    -20.083  0.0000E+00  0.2000E+01
    -19.979  0.0000E+00  0.2000E+01
    -19.875  0.0000E+00  0.2000E+01
    -19.772  0.0000E+00  0.2000E+01
    -19.668  0.0000E+00  0.2000E+01
    -19.564  0.0000E+00  0.2000E+01
    -19.460  0.0000E+00  0.2000E+01
    -19.356  0.0000E+00  0.2000E+01
    -19.253  0.0000E+00  0.2000E+01
    -19.149  0.0000E+00  0.2000E+01
    -19.045  0.0000E+00  0.2000E+01
    -18.941  0.0000E+00  0.2000E+01
    -18.837  0.0000E+00  0.2000E+01
    -18.734  0.0000E+00  0.2000E+01
    -18.630  0.0000E+00  0.2000E+01
    -18.526  0.0000E+00  0.2000E+01
    -18.422  0.0000E+00  0.2000E+01
    -18.318  0.0000E+00  0.2000E+01
    -18.215  0.0000E+00  0.2000E+01
    -18.111  0.0000E+00  0.2000E+01
    -18.007  0.0000E+00  0.2000E+01
    -17.903  0.0000E+00  0.2000E+01
    -17.799  0.0000E+00  0.2000E+01
    -17.696  0.0000E+00  0.2000E+01
    -17.592  0.0000E+00  0.2000E+01
    -17.488  0.0000E+00  0.2000E+01
    -17.384  0.0000E+00  0.2000E+01
    -17.280  0.0000E+00  0.2000E+01
    -17.177  0.0000E+00  0.2000E+01
    -17.073  0.0000E+00  0.2000E+01
    -16.969  0.0000E+00  0.2000E+01
    -16.865  0.0000E+00  0.2000E+01
    -16.761  0.0000E+00  0.2000E+01
    -16.658  0.0000E+00  0.2000E+01
    -16.554  0.0000E+00  0.2000E+01
    -16.450  0.0000E+00  0.2000E+01
    -16.346  0.0000E+00  0.2000E+01
    -16.243  0.0000E+00  0.2000E+01
    -16.139  0.0000E+00  0.2000E+01
    -16.035  0.0000E+00  0.2000E+01
    -15.931  0.0000E+00  0.2000E+01
    -15.827  0.0000E+00  0.2000E+01
    -15.724  0.0000E+00  0.2000E+01
    -15.620  0.0000E+00  0.2000E+01
    -15.516  0.0000E+00  0.2000E+01
    -15.412  0.0000E+00  0.2000E+01
    -15.308  0.0000E+00  0.2000E+01
    -15.205  0.0000E+00  0.2000E+01
    -15.101  0.0000E+00  0.2000E+01
    -14.997  0.0000E+00  0.2000E+01
    -14.893  0.0000E+00  0.2000E+01
    -14.789  0.0000E+00  0.2000E+01
    -14.686  0.0000E+00  0.2000E+01
    -14.582  0.0000E+00  0.2000E+01
    -14.478  0.0000E+00  0.2000E+01
    -14.374  0.0000E+00  0.2000E+01
    -14.270  0.0000E+00  0.2000E+01
    -14.167  0.0000E+00  0.2000E+01
    -14.063  0.0000E+00  0.2000E+01
    -13.959  0.0000E+00  0.2000E+01
    -13.855  0.0000E+00  0.2000E+01
    -13.751  0.1687E-10  0.2000E+01
    -13.648  0.2305E-03  0.2000E+01
    -13.544  0.1514E+01  0.2157E+01
    -13.440  0.1615E+02  0.3834E+01
    -13.336  0.1600E+01  0.4000E+01
    -13.232  0.2659E-03  0.4000E+01
    -13.129  0.2214E-10  0.4000E+01
    -13.025  0.0000E+00  0.4000E+01
    -12.921  0.0000E+00  0.4000E+01
    -12.817  0.0000E+00  0.4000E+01
    -12.713  0.0000E+00  0.4000E+01
    -12.610  0.0000E+00  0.4000E+01
    -12.506  0.0000E+00  0.4000E+01
    -12.402  0.0000E+00  0.4000E+01
    -12.298  0.0000E+00  0.4000E+01
    -12.194  0.0000E+00  0.4000E+01
    -12.091  0.0000E+00  0.4000E+01
    -11.987  0.0000E+00  0.4000E+01
    -11.883  0.0000E+00  0.4000E+01
    -11.779  0.0000E+00  0.4000E+01
    -11.675  0.0000E+00  0.4000E+01
    -11.572  0.0000E+00  0.4000E+01
    -11.468  0.0000E+00  0.4000E+01
    -11.364  0.0000E+00  0.4000E+01
    -11.260  0.0000E+00  0.4000E+01
    -11.157  0.0000E+00  0.4000E+01
    -11.053  0.0000E+00  0.4000E+01
    -10.949  0.0000E+00  0.4000E+01
    -10.845  0.0000E+00  0.4000E+01
    -10.741  0.0000E+00  0.4000E+01
    -10.638  0.0000E+00  0.4000E+01
    -10.534  0.0000E+00  0.4000E+01
    -10.430  0.0000E+00  0.4000E+01
    -10.326  0.0000E+00  0.4000E+01
    -10.222  0.0000E+00  0.4000E+01
    -10.119  0.0000E+00  0.4000E+01
    -10.015  0.0000E+00  0.4000E+01
     -9.911  0.0000E+00  0.4000E+01
     -9.807  0.0000E+00  0.4000E+01
     -9.703  0.0000E+00  0.4000E+01
     -9.600  0.0000E+00  0.4000E+01
     -9.496  0.0000E+00  0.4000E+01
     -9.392  0.0000E+00  0.4000E+01
     -9.288  0.0000E+00  0.4000E+01
     -9.184  0.0000E+00  0.4000E+01
     -9.081  0.0000E+00  0.4000E+01
     -8.977  0.0000E+00  0.4000E+01
     -8.873  0.0000E+00  0.4000E+01
     -8.769  0.0000E+00  0.4000E+01
     -8.665  0.0000E+00  0.4000E+01
     -8.562  0.0000E+00  0.4000E+01
     -8.458  0.0000E+00  0.4000E+01
     -8.354  0.0000E+00  0.4000E+01
     -8.250  0.0000E+00  0.4000E+01
     -8.146  0.0000E+00  0.4000E+01
     -8.043  0.0000E+00  0.4000E+01
     -7.939  0.4011E-15  0.4000E+01
     -7.835  0.9612E-07  0.4000E+01
     -7.731  0.5920E-02  0.4001E+01
     -7.627  0.6089E+00  0.4064E+01
     -7.524  0.4199E+01  0.4500E+01
     -7.420  0.1125E+02  0.5667E+01
     -7.316  0.2185E+02  0.7935E+01
     -7.212  0.1900E+02  0.9907E+01
     -7.108  0.8944E+00  0.1000E+02
     -7.005  0.1393E-03  0.1000E+02
     -6.901  0.1114E-10  0.1000E+02
     -6.797  0.0000E+00  0.1000E+02
     -6.693  0.0000E+00  0.1000E+02
     -6.589  0.0000E+00  0.1000E+02
     -6.486  0.0000E+00  0.1000E+02
     -6.382  0.0000E+00  0.1000E+02
     -6.278  0.0000E+00  0.1000E+02
     -6.174  0.0000E+00  0.1000E+02
     -6.071  0.0000E+00  0.1000E+02
     -5.967  0.0000E+00  0.1000E+02
     -5.863  0.0000E+00  0.1000E+02
     -5.759  0.0000E+00  0.1000E+02
     -5.655  0.0000E+00  0.1000E+02
     -5.552  0.0000E+00  0.1000E+02
     -5.448  0.0000E+00  0.1000E+02
     -5.344  0.0000E+00  0.1000E+02
     -5.240  0.0000E+00  0.1000E+02
     -5.136  0.0000E+00  0.1000E+02
     -5.033  0.0000E+00  0.1000E+02
     -4.929  0.0000E+00  0.1000E+02
     -4.825  0.0000E+00  0.1000E+02
     -4.721  0.0000E+00  0.1000E+02
     -4.617  0.0000E+00  0.1000E+02
     -4.514  0.0000E+00  0.1000E+02
     -4.410  0.0000E+00  0.1000E+02
     -4.306  0.0000E+00  0.1000E+02
     -4.202  0.0000E+00  0.1000E+02
     -4.098  0.0000E+00  0.1000E+02
     -3.995  0.0000E+00  0.1000E+02
     -3.891  0.0000E+00  0.1000E+02
     -3.787  0.0000E+00  0.1000E+02
     -3.683  0.0000E+00  0.1000E+02
     -3.579  0.0000E+00  0.1000E+02
     -3.476  0.0000E+00  0.1000E+02
     -3.372  0.0000E+00  0.1000E+02
     -3.268  0.0000E+00  0.1000E+02
     -3.164  0.0000E+00  0.1000E+02
     -3.060  0.0000E+00  0.1000E+02
     -2.957  0.0000E+00  0.1000E+02
     -2.853  0.0000E+00  0.1000E+02
     -2.749  0.0000E+00  0.1000E+02
     -2.645  0.0000E+00  0.1000E+02
     -2.541  0.0000E+00  0.1000E+02
     -2.438  0.7916E-10  0.1000E+02
     -2.334  0.1713E-03  0.1000E+02
     -2.230  0.1290E+00  0.1001E+02
     -2.126  0.1248E+01  0.1014E+02
     -2.022  0.5918E+01  0.1076E+02
     -1.919  0.8823E+01  0.1167E+02
     -1.815  0.1098E+02  0.1281E+02
     -1.711  0.1042E+02  0.1389E+02
     -1.607  0.1518E+02  0.1547E+02
     -1.503  0.5086E+01  0.1600E+02
     -1.400  0.2731E-01  0.1600E+02
     -1.296  0.1484E-06  0.1600E+02
     -1.192  0.3565E-15  0.1600E+02
     -1.088  0.0000E+00  0.1600E+02
     -0.985  0.0000E+00  0.1600E+02
     -0.881  0.0000E+00  0.1600E+02
     -0.777  0.0000E+00  0.1600E+02
     -0.673  0.0000E+00  0.1600E+02
     -0.569  0.0000E+00  0.1600E+02
     -0.466  0.0000E+00  0.1600E+02
     -0.362  0.0000E+00  0.1600E+02
     -0.258  0.0000E+00  0.1600E+02
     -0.154  0.0000E+00  0.1600E+02
     -0.050  0.0000E+00  0.1600E+02
      0.053  0.0000E+00  0.1600E+02
      0.157  0.0000E+00  0.1600E+02
      0.261  0.0000E+00  0.1600E+02
      0.365  0.0000E+00  0.1600E+02
      0.469  0.0000E+00  0.1600E+02
      0.572  0.0000E+00  0.1600E+02
      0.676  0.0000E+00  0.1600E+02
      0.780  0.0000E+00  0.1600E+02
      0.884  0.0000E+00  0.1600E+02
      0.988  0.0000E+00  0.1600E+02
      1.091  0.0000E+00  0.1600E+02
      1.195  0.0000E+00  0.1600E+02
      1.299  0.0000E+00  0.1600E+02
      1.403  0.0000E+00  0.1600E+02
      1.507  0.0000E+00  0.1600E+02
      1.610  0.0000E+00  0.1600E+02
      1.714  0.0000E+00  0.1600E+02
      1.818  0.0000E+00  0.1600E+02
      1.922  0.0000E+00  0.1600E+02
      2.026  0.0000E+00  0.1600E+02
      2.129  0.0000E+00  0.1600E+02
      2.233  0.0000E+00  0.1600E+02
      2.337  0.0000E+00  0.1600E+02
      2.441  0.0000E+00  0.1600E+02
      2.545  0.0000E+00  0.1600E+02
      2.648  0.0000E+00  0.1600E+02
      2.752  0.0000E+00  0.1600E+02
      2.856  0.0000E+00  0.1600E+02
      2.960  0.0000E+00  0.1600E+02
      3.064  0.4293E-14  0.1600E+02
      3.167  0.2890E-06  0.1600E+02
      3.271  0.5148E-02  0.1600E+02
      3.375  0.7633E-01  0.1601E+02
      3.479  0.7732E-02  0.1601E+02
      3.583  0.7713E-06  0.1601E+02
      3.686  0.1863E-08  0.1601E+02
      3.790  0.1320E-02  0.1601E+02
      3.894  0.4127E+00  0.1605E+02
      3.998  0.1006E+01  0.1616E+02
      4.101  0.9803E-01  0.1617E+02
      4.205  0.2842E+00  0.1620E+02
      4.309  0.9869E+00  0.1630E+02
      4.413  0.1392E+01  0.1644E+02
      4.517  0.1557E+00  0.1646E+02
      4.620  0.1825E+01  0.1665E+02
      4.724  0.3888E+00  0.1669E+02
      4.828  0.3807E+01  0.1708E+02
      4.932  0.2728E+01  0.1737E+02
      5.036  0.9172E+00  0.1746E+02
      5.139  0.1821E+01  0.1765E+02
      5.243  0.2839E+01  0.1795E+02
      5.347  0.3765E+01  0.1834E+02
      5.451  0.3076E+01  0.1866E+02
      5.555  0.3762E+01  0.1905E+02
      5.658  0.2087E+01  0.1926E+02
      5.762  0.1469E+01  0.1942E+02
      5.866  0.3544E+01  0.1978E+02
      5.970  0.2119E+01  0.2000E+02
      6.074  0.1700E+01  0.2018E+02
      6.177  0.1201E+01  0.2030E+02
      6.281  0.1285E+01  0.2044E+02
      6.385  0.5927E+00  0.2050E+02
      6.489  0.4686E+00  0.2055E+02
      6.593  0.2020E+01  0.2076E+02
      6.696  0.3423E+01  0.2111E+02
      6.800  0.5798E+01  0.2172E+02
      6.904  0.4648E+01  0.2220E+02
      7.008  0.1887E+01  0.2239E+02
      7.112  0.3171E+01  0.2272E+02
      7.215  0.5288E+00  0.2278E+02
      7.319  0.8005E+00  0.2286E+02
      7.423  0.2655E+01  0.2314E+02
      7.527  0.2579E+01  0.2340E+02
      7.631  0.2512E+01  0.2366E+02
      7.734  0.2243E+01  0.2390E+02
      7.838  0.9539E+00  0.2400E+02
      7.942  0.3296E-01  0.2400E+02
      8.046  0.8277E-06  0.2400E+02
      8.150  0.5239E-14  0.2400E+02
      8.253  0.0000E+00  0.2400E+02
      8.357  0.0000E+00  0.2400E+02
      8.461  0.0000E+00  0.2400E+02
      8.565  0.0000E+00  0.2400E+02
      8.669  0.0000E+00  0.2400E+02
      8.772  0.0000E+00  0.2400E+02
      8.876  0.0000E+00  0.2400E+02
      8.980  0.0000E+00  0.2400E+02
      9.084  0.0000E+00  0.2400E+02
      9.187  0.0000E+00  0.2400E+02
