       N       E                     dE             d eps       ncg     rms          rms(c)
DAV:   1     0.108401715750E+03    0.10840E+03   -0.71663E+03  5184   0.125E+03
DAV:   2     0.215016568407E+01   -0.10625E+03   -0.99075E+02  8364   0.192E+02
DAV:   3    -0.695877602630E+01   -0.91089E+01   -0.90681E+01  6608   0.648E+01
DAV:   4    -0.707868790556E+01   -0.11991E+00   -0.11984E+00  6344   0.885E+00
DAV:   5    -0.708052036483E+01   -0.18325E-02   -0.18323E-02  6624   0.111E+00    0.247E+00
DAV:   6    -0.664743472408E+01    0.43309E+00   -0.78099E-01  6024   0.484E+00    0.186E+00
DAV:   7    -0.661532625623E+01    0.32108E-01   -0.23662E-01  6496   0.254E+00    0.113E+00
DAV:   8    -0.663048514534E+01   -0.15159E-01   -0.19175E-02  5604   0.107E+00    0.167E-01
DAV:   9    -0.663369382753E+01   -0.32087E-02   -0.72744E-03  6228   0.499E-01    0.146E-01
DAV:  10    -0.663431127773E+01   -0.61745E-03   -0.62757E-04  5608   0.205E-01    0.191E-02
DAV:  11    -0.663435916160E+01   -0.47884E-04   -0.98019E-05  6492   0.691E-02    0.706E-03
DAV:  12    -0.663437120289E+01   -0.12041E-04   -0.22023E-05  5600   0.360E-02    0.544E-03
DAV:  13    -0.663437100320E+01    0.19969E-06   -0.47873E-07  4800   0.533E-03
   1 F= -.66343710E+01 E0= -.66343710E+01  d E =-.231114E-17
